76
 xtb: 6.7.1pre (5071a88)
N            0.22765459000680        0.48557590144493       -0.46864963319481
C            1.56256577193699        0.19821838024324       -0.24876896114330
C            2.30164623994290        0.75171409945340        0.79827094145374
C            3.65199836687733        0.49356727709207        0.90946691756744
C            4.29845013981313       -0.35327087598476        0.01839467741709
C            3.53271451679973       -1.00521174431873       -0.94121608197380
C            2.18702139004149       -0.73890070618447       -1.07540481584442
C            5.79558459878687       -0.41755706616978       -0.02807948721564
C            6.27062762855748        0.71220966268841       -0.96236603699783
C           -0.42764699168614        1.67749472058867       -0.22284146835481
C            0.08199508080036        2.85652467480811        0.13556746069764
C           -0.80016665853895        4.04607090371351        0.41229257062353
C           -0.01995478297244        5.36906765928719        0.38237970415923
C            0.51978460393007        5.70517481275525       -1.00604554572983
C            1.19043515447379        7.07336815255393       -1.02528584977793
O            0.31965250525026        0.14607184179674       -3.49226999975708
N           -2.00230281349306        3.54949494105485        3.88767344153322
C           -3.20066098015999        3.78658682043714        3.27653819970184
C           -2.93402446590607        4.00114952958015        1.90069432507008
C           -1.51773365823762        3.88063401250411        1.72545060244705
C           -4.48775241441722        3.84600481778556        3.79330331196547
C           -3.99835146887601        4.27270681173174        1.03778717179571
C           -0.99094792113087        3.60409722595139        2.95925263601777
C           -5.51636106535389        4.12167428434142        2.91689568774869
C           -5.27284082814380        4.33069788950414        1.55639056924601
C            0.40821936911249        3.36775846022342        3.40515015466663
O            1.49958446646909        2.51853137454874       -2.81991471180499
H           -0.17874490968516       -0.09120772169552       -1.16919342883352
H           -0.20654080594468        0.30469192272026       -4.24455830555393
H            1.83369464475555        1.38756086813769        1.53228753401838
H            4.24235043280203        0.98034606849593        1.69409686658310
H            4.01037486854569       -1.72161034854930       -1.59596719828481
H            1.61678350452777       -1.23046839473938       -1.82853328096519
H            6.16560276859775       -1.36602087173089       -0.42069577390003
H            6.25988816767443       -0.24840180765560        0.94577864331431
H            5.88650238581432        1.67569760311863       -0.60600789285333
H            5.99225908948618       -0.30764505781903       -2.77695091609577
H            7.53791409680373        2.49836461088788       -2.16123152136964
H           -1.48973880438045        1.58177728270798       -0.34912938210437
H            1.15052462648503        2.98902479743747        0.28284622938091
H           -1.55818117852251        4.08836999372754       -0.36633643682320
H           -0.67750979257181        6.16737037312208        0.71404334518770
H            0.80638142644235        5.31506882387081        1.12041018468443
H            1.27500150600637        4.94130219980258       -1.28460282526117
H           -0.26486936857776        5.68487622350784       -1.71280882418532
H            1.60367709400162        7.29343194899023       -1.98335962150510
H            0.50612051554656        7.83899922617177       -0.71192021166880
H            2.04442714016802        7.08998357397498       -0.28702475326156
H           -1.91720624448371        3.33702795168626        4.85730658304028
H           -2.51624592822323        6.22463353848125        2.21767215730274
H           -4.71134733846724        3.69378003817255        4.81361800411163
H           -3.81084990798676        4.47085247451704       -0.03325059094229
H           -6.54724898521134        4.22070196621586        3.24096406811405
H           -6.09828492675359        4.59567358626031        0.86557924569459
H            1.08472033191131        3.54741932205530        2.62310407070799
H            0.61623386358957        3.94775129115789        4.27880133145158
H            0.49716513617278        2.28083071145207        3.70645603711416
H            2.42999146890390        2.44735475636432       -2.56484170652561
H            1.02371889968241        2.78474535617331       -2.00986875709673
O           -2.68954338248608        7.15642553409534        2.35518184626641
H            0.76522016983015        0.97009901870719       -3.24738106885728
H           -3.63205866708009        7.26311298326815        2.42214644580485
N            5.72699909913909        0.54067120407010       -2.29602705098082
C            7.80045363829011        0.77959018682639       -1.05743090735795
O            8.53730986109079       -0.04777400481336       -0.56085176178564
C            4.03316490098317        0.68186159090266       -4.01101563320659
C            4.62182186709940        1.19129898074725       -2.72150114885789
O            4.15865867291249        2.14835696451265       -2.12018020702342
H            3.15290194354266        0.06056060341021       -3.75770179934499
H            4.72650899744387        0.08148758508736       -4.57960278700759
H            3.66466681305125        1.50993836181929       -4.60548498791179
N            8.22600314771350        1.84315486227714       -1.76445222989983
C            9.62082154505744        2.11551797214950       -2.01306322021478
H            9.90246946850816        3.09416117813984       -1.62617543729316
H            9.81769293703463        2.13548144939471       -3.12185607637338
H           10.19427351684085        1.34019802455613       -1.57468905641182
