65

C             -8.106601104113         0.273260829616        -4.385964987723
C             -6.628302882021         0.206244965483        -4.059303489971
O             -5.807861412936         0.848349025287        -4.686465444627
N             -6.194855568126        -0.634959781134        -2.982155221570
C             -4.775496307767        -0.768039151027        -2.594978178749
C             -4.350588985210         0.397840652576        -1.666668319285
C             -2.840308888952         0.467608980641        -1.475077221120
C             -2.029052491168         1.034284917687        -2.473239560000
C             -0.636860016177         1.107098520825        -2.297135915037
C             -0.038263165248         0.615021350612        -1.125073811642
N              1.397854365562         0.730793613945        -0.984187675791
C              2.184432691093         0.252348344080         0.099426791580
C              3.438742312322         0.674247160410         0.294240594051
C              4.298133978856         0.223746248654         1.439827985332
C              5.663640624642        -0.326594100509         0.928413784299
C              5.503652191039        -1.552094388295        -0.009906658972
C              6.875199011443        -2.104576680550        -0.467063195779
C             -0.852567219900         0.049044892816        -0.124863825711
C             -2.244509803815        -0.025745165889        -0.301512933533
C             -4.508773951889        -2.158159458891        -1.986960259973
O             -4.444183660139        -2.340113566932        -0.783367873707
N             -4.347109830584        -3.293193037567        -2.858920005692
C             -4.099957080041        -4.647250373248        -2.345073051843
H             -8.454803346516        -0.709766574853        -4.721912879480
H             -8.671333004240         0.568267374886        -3.494395439440
H             -8.280101911435         1.008650012576        -5.180898194775
H             -6.922461351728        -1.176249381850        -2.462047581149
H             -4.170191900607        -0.717252657687        -3.509912596736
H             -4.865416066278         0.301491719279        -0.702118241117
H             -4.703635900637         1.342100516836        -2.101130521626
H             -2.477805559162         1.422165233568        -3.384885832411
H             -0.021313467941         1.550818155731        -3.074125443915
H              1.908684234126         1.248057179793        -1.736080867475
H              1.728401876251        -0.462862743231         0.780190146646
H              3.884083506688         1.400016583192        -0.384935691174
H              3.788643829860        -0.599252044610         1.967169490870
H              6.210181292540         0.470557305899         0.405633355656
H              6.286998499819        -0.617625699818         1.784408498794
H              4.911958597422        -1.277820810161        -0.894882415133
H              4.944222438447        -2.345215857429         0.506619304342
H              6.746304321860        -2.969115178119        -1.132158003605
H              7.479107106905        -2.430695952174         0.390216137640
H              7.446408083643        -1.344024173660        -1.015793881425
H             -0.422441207246        -0.330559805255         0.794841857739
H             -2.861288617523        -0.471903036112         0.474917034518
H             -4.428834941293        -3.159511067116        -3.893405174223
H             -3.088289595779        -4.711084874094        -1.923057266940
H             -4.199165909785        -5.387556138582        -3.149485438701
H             -4.820898733840        -4.888154609924        -1.551686886565
C              1.038280994776         2.967408955659         3.257676505656
C              0.999769924735         2.680581485484         4.639531267930
C              2.080488062799         2.019751370696         5.257356944649
C              3.176159429235         1.645640617399         4.470369136180
N              4.381186841670         1.013049645578         4.859245361498
C              5.170974701267         0.939438450491         3.785257048524
C              4.490180221872         1.417546926741         2.524335148872
C              3.208345511724         1.909261694010         3.115898100172
C              2.153382879703         2.588919121821         2.484697162964
H              0.208436234653         3.492173071181         2.789724542381
H              0.139689700786         2.982795942883         5.232245160624
H              2.071637342526         1.812061905513         6.323383852470
H              4.649318700790         0.738133900387         5.827039779753
H              6.213048242323         0.630370678459         3.828836010690
H              5.051872841958         2.248956219791         2.076896944961
H              2.193018037038         2.826531616596         1.425753421959
