65

C             -0.240158365317        -0.354523793980        -5.417811268510
C              0.441129511163        -1.029126596369        -4.244858279984
O              1.170812246525        -0.410242470634        -3.493661277232
N              0.212524501000        -2.429655142320        -4.030008267103
C              0.810822421742        -3.185317410992        -2.905893544128
C             -0.273307904893        -3.547845319283        -1.852073996366
C             -1.055442256600        -2.339103101273        -1.336591019736
C             -0.387560147672        -1.223068265767        -0.798919207852
C             -1.113058053082        -0.104203377284        -0.358799606178
C             -2.518086451101        -0.092500919523        -0.429419866612
N             -3.266558394389         1.070050553335         0.000273395476
C             -2.800807043192         2.112455536269         0.773498121149
C             -2.086470612301         1.918729759467         1.895803447714
C             -1.605610589544         3.002348993098         2.718571300095
C             -2.285397155413         3.027864114696         4.106214530812
C             -1.840327349511         4.220886662110         4.993604091028
C             -2.671562329977         4.308287309171         6.297540817673
C             -3.184555536527        -1.206514664659        -0.962902890823
C             -2.460344311093        -2.324452638231        -1.410053496927
C              1.567199358999        -4.419707283738        -3.433103469463
O              1.279806402778        -5.552632839062        -3.088912533380
N              2.648834940902        -4.239331453075        -4.365877672807
C              3.411870859101        -5.371209966342        -4.910165146076
H              0.072921529844        -0.834043435195        -6.351914336838
H             -1.327031178325        -0.447303701333        -5.315203352953
H              0.030085134735         0.707695465837        -5.449222475988
H             -0.404191110883        -2.929930446364        -4.708671621775
H              1.576043052228        -2.557734471888        -2.432861019166
H              0.204399016904        -4.064732617715        -1.010020292807
H             -0.958805157325        -4.279183213605        -2.299261120763
H              0.696880335171        -1.207217837617        -0.743667982966
H             -0.576051304669         0.761355354220         0.011017384308
H             -4.245403004037         1.156901701433        -0.360773812810
H             -3.076822957126         3.119060553560         0.463477287047
H             -1.843287130598         0.905270035191         2.212903327237
H             -1.815037604243         3.970966601243         2.244793160484
H             -3.374018833598         3.078024047459         3.959951121892
H             -2.100655675696         2.081112285580         4.630399615714
H             -1.944913293061         5.162507645880         4.435363317495
H             -0.777409263935         4.124552540739         5.253013290649
H             -2.582516544355         3.388656195780         6.891305104998
H             -3.736085523647         4.470706428546         6.080266475632
H             -2.330067049669         5.144265453315         6.923406454193
H             -4.268519730945        -1.205196159211        -1.030913776871
H             -2.994477946353        -3.176423708528        -1.822271467293
H              2.890338192953        -3.271545462609        -4.683067613607
H              3.988363701608        -5.856187225279        -4.110853452678
H              4.102970863322        -5.028734048546        -5.691546601458
H              2.728436181145        -6.115577199325        -5.341691623887
C              1.280206543705        -0.191878085752         4.775465305850
C              2.054324533933        -0.795914708094         3.758119154757
C              2.207081284222        -0.158997525541         2.509457887148
C              1.565726601571         1.068755162626         2.314522148149
N              1.599655027978         1.885755989947         1.184752454617
C              0.853734068966         2.998753998682         1.451176685009
C              0.275026273838         2.941817876875         2.801237983776
C              0.802687475137         1.652588757947         3.293045899031
C              0.649189129481         1.049221995636         4.549764128020
H              1.179195331607        -0.683204722007         5.740574285687
H              2.545356976976        -1.748339505414         3.944491378749
H              2.814529139339        -0.600106572851         1.724650102965
H              2.127802285817         1.708486905325         0.319611572764
H              0.721860137953         3.803694053024         0.733520422324
H              0.591384929925         3.794977934601         3.406266744828
H              0.072360704023         1.527119294601         5.335272733066
