65

C             -2.529917285696        -2.822930436476        -3.253024212096
C             -2.452881069689        -3.320107956194        -1.824233472474
O             -1.393043202952        -3.639000212066        -1.321298047324
N             -3.664203773995        -3.414103812267        -1.061767501156
C             -3.709293301551        -3.925994629151         0.326220130004
C             -3.752543129521        -2.760552823740         1.348965389976
C             -2.476541953132        -1.927446763096         1.348986140316
C             -1.394259550283        -2.294200796572         2.166940250190
C             -0.222750339902        -1.519674266550         2.180379152298
C             -0.116301678057        -0.375405923242         1.373271023854
N              1.090533550733         0.415919219955         1.454201716043
C              1.435932373333         1.485871447219         0.629363004467
C              2.292738638002         2.433944782977         1.033538758055
C              2.693511247058         3.575941458763         0.197955930068
C              2.182473628711         4.924999580174         0.780731771595
C              0.637493726022         4.966527858241         0.940678359293
C              0.147665783459         6.336801468678         1.471340022946
C             -1.195588396005        -0.013870459708         0.545092819115
C             -2.370159594103        -0.785301928560         0.536070545317
C             -4.894067011584        -4.893960709683         0.494224692230
O             -5.905286241958        -4.580037241768         1.097330761690
N             -4.821880122540        -6.209325360955        -0.086644331368
C             -5.918231756690        -7.180303916753         0.034860783747
H             -1.528983653716        -2.824761057735        -3.700597668974
H             -3.186489955804        -3.477988549023        -3.836959277394
H             -2.933254195605        -1.804466499251        -3.269621296144
H             -4.557504704283        -3.153003232915        -1.536428200225
H             -2.804125459052        -4.521138987817         0.507281547035
H             -3.921086492061        -3.173264352662         2.352151588716
H             -4.624957009278        -2.128769815725         1.139563435312
H             -1.461227950923        -3.177320472376         2.796749952429
H              0.604990699515        -1.810200964450         2.820458770553
H              1.754591542891         0.187090249286         2.229261662965
H              0.987644889462         1.523428795177        -0.361812134878
H              2.727140655759         2.380904220543         2.031171036222
H              2.260250151477         3.479878170491        -0.810243325198
H              2.659390210068         5.110565690305         1.753264100938
H              2.491473303201         5.747633961754         0.121606433262
H              0.307045764280         4.176095270553         1.630081378264
H              0.159129492058         4.757550340295        -0.026860902582
H              0.588225835370         6.564630450487         2.451373863322
H             -0.944664252522         6.342732118203         1.588897519829
H              0.412540784447         7.149530201575         0.781754659271
H             -1.140353760248         0.871126549707        -0.079059859236
H             -3.199748833891        -0.496918791776        -0.103310124313
H             -3.969082553452        -6.482121597544        -0.628376606710
H             -6.000647351209        -7.528402306555         1.073202336791
H             -5.740504835323        -8.044472621401        -0.618153056452
H             -6.871271436106        -6.712421284113        -0.247706735313
C              5.379817576940         0.174849286526        -1.542471942798
C              6.012996892554         0.668907726271        -2.705105647835
C              6.093981387375         2.057577907729        -2.933012682965
C              5.527637758481         2.919083778853        -1.986869681643
N              5.507692859689         4.321982696976        -1.985888370329
C              4.896170060822         4.729744002250        -0.850421422171
C              4.420700493764         3.580219054921        -0.030816774073
C              4.904911563237         2.442407045365        -0.857612410370
C              4.820542798172         1.064880845280        -0.602714816518
H              5.330106966060        -0.897463004063        -1.368723728387
H              6.446945330153        -0.023987618216        -3.422237383467
H              6.588458954598         2.452807223918        -3.815612863555
H              5.950160599746         4.939742289705        -2.687282670353
H              4.861844180380         5.770855834565        -0.539901974891
H              4.894468232247         3.588874857609         0.958692866748
H              4.343930472407         0.689124968721         0.297811673293
