65

C             -0.273678950027        -2.026417011989        -4.847032603474
C              0.162459631697        -2.516506148079        -3.481427283168
O              1.265473445791        -2.260210024508        -3.037223532891
N             -0.757062989482        -3.300464977448        -2.708173536624
C             -0.422927711412        -3.875797856593        -1.383983291096
C             -1.515986257586        -3.520971118637        -0.334621204986
C             -1.783357189579        -2.026797408955        -0.110049749640
C             -0.832882621326        -1.031500024114        -0.416377801387
C             -1.120853287636         0.323193061120        -0.189744843360
C             -2.347927430958         0.708190902658         0.378943041282
N             -2.636233504196         2.106176009478         0.623734082152
C             -1.716861743700         3.141924898199         0.686772624497
C             -0.533384511283         3.019369431065         1.312168548072
C              0.447158081039         4.088813894629         1.381426195496
C              0.808455802800         4.498347927330         2.830028035333
C             -0.394937074258         5.128626660743         3.580361146027
C             -0.016834957371         5.570498301664         5.015497671823
C             -3.299243090838        -0.278394366289         0.678640978647
C             -3.018380111016        -1.634714983293         0.439781601608
C             -0.194999965409        -5.394900626828        -1.506184749552
O             -0.852859934009        -6.202768516169        -0.874393423531
N              0.822418824469        -5.887054358717        -2.396729749762
C              1.075126888625        -7.322857391480        -2.578521125489
H             -1.189452162041        -1.432528685052        -4.751634730763
H              0.513658998622        -1.408428305350        -5.294496159321
H             -0.472337786503        -2.884028911327        -5.499925391143
H             -1.687841183760        -3.511196666144        -3.133281740177
H              0.539976719756        -3.467590143282        -1.053634062551
H             -1.239445955989        -3.979503764863         0.623634055220
H             -2.447736701749        -4.015503390202        -0.639179100775
H              0.130754426690        -1.291352037479        -0.839440799870
H             -0.390272396314         1.072001079420        -0.473395903172
H             -3.645061109456         2.368460122634         0.723269657099
H             -2.004648797871         4.087011451966         0.228575780569
H             -0.272142598927         2.077961816273         1.793849710768
H              0.072849162942         4.991038621515         0.876280148751
H              1.166740187507         3.622270491651         3.386347152585
H              1.640076846093         5.216445427478         2.810036684307
H             -1.224550749629         4.408273293121         3.629179601509
H             -0.769207786827         5.997484629704         3.020103759493
H              0.774858055878         6.331667738955         5.002764136421
H              0.335981823729         4.720930406145         5.615428431632
H             -0.885370705032         6.003476986925         5.530368188246
H             -4.256184989279         0.006379925971         1.106600575430
H             -3.764937254321        -2.385053260616         0.687757506051
H              1.380182860617        -5.202698669475        -2.959683048078
H              0.185711035696        -7.810865729656        -2.999174578777
H              1.299373997230        -7.794087107298        -1.611833247754
H              1.922881101460        -7.480721877583        -3.257381853343
C              3.111820410100         0.182014388638         1.623215441533
C              3.056737479824        -0.467988182656         0.368692082573
C              2.655259569765         0.241871291155        -0.780797197358
C              2.309743388199         1.589538412130        -0.635733728018
N              1.883553647395         2.481408989802        -1.622826405706
C              1.668348922515         3.688743644943        -1.031237775251
C              1.936943139614         3.635894735589         0.419999204551
C              2.352526592165         2.223116463333         0.581281441703
C              2.760310858646         1.543408115767         1.738153837354
H              3.436509681793        -0.369037261351         2.502819180972
H              3.337205338372        -1.515561190633         0.286698452897
H              2.618981261932        -0.239868523041        -1.754087925574
H              1.797186793458         2.280267189446        -2.629575860123
H              1.366466298319         4.572264265265        -1.587452807217
H              2.726777649715         4.339916282464         0.701926923786
H              2.814170411156         2.050585085394         2.696557767943
