65

C             -3.085359591634        -4.074563326336         6.362794788259
C             -2.372678108687        -3.486763047801         5.161453397390
O             -1.254792359812        -3.846127877993         4.846061769261
N             -3.038598117030        -2.484655765727         4.381972917252
C             -2.426214179098        -1.866776559746         3.188586693901
C             -2.720012795217        -2.735268208565         1.937339861033
C             -1.907771762359        -2.305474904215         0.722008674398
C             -0.514046424188        -2.483149826012         0.709390622332
C              0.244599822737        -2.065811679421        -0.396031646405
C             -0.385706772562        -1.472075955357        -1.507972459246
N              0.390681529781        -0.984013912766        -2.627108353911
C              1.656501412465        -0.556886840333        -2.564893956052
C              2.123136456206         0.423872092882        -3.358479401548
C              3.401745281638         0.929526161809        -3.193923434201
C              4.061816953962         1.776721789623        -4.274447762270
C              4.598233941405         0.896933621148        -5.430125683674
C              5.315960216120         1.737480408980        -6.514375879897
C             -1.782140215626        -1.325365494511        -1.505319546715
C             -2.539710098589        -1.731596987468        -0.394664128405
C             -2.886537893481        -0.401155733583         3.055341527418
O             -3.558136333760        -0.005811083171         2.118342687626
N             -2.521772782388         0.540933219832         4.079747477263
C             -2.967241645373         1.940022072104         4.052066592101
H             -4.002307614036        -4.579487575200         6.038734817636
H             -2.433545302055        -4.800405587911         6.863786656023
H             -3.345359737046        -3.277283650992         7.067972541174
H             -3.996282764088        -2.188310647751         4.678642522657
H             -1.340760612879        -1.827774840218         3.345723431251
H             -3.795704590925        -2.706001492229         1.722477707723
H             -2.488250929558        -3.782506770036         2.171031340493
H             -0.017449262432        -2.946863690306         1.558259986917
H              1.317652912629        -2.218908357676        -0.379024575908
H             -0.157095545294        -0.690982188313        -3.467616144188
H              2.297265675544        -0.971560917582        -1.790848459358
H              1.474984173275         0.859861010764        -4.117095358221
H              4.102865817340         0.368653051425        -2.571219703746
H              3.346545868657         2.513722502333        -4.665048746068
H              4.888686685280         2.351302992819        -3.834237889618
H              3.768511240385         0.337989012201        -5.886677676490
H              5.294966354558         0.146140064869        -5.029920698921
H              5.692352136804         1.093019757445        -7.320585515237
H              6.174017702357         2.279387541872        -6.094348285060
H              4.635400795926         2.472429619447        -6.964684718743
H             -2.279581073378        -0.871611929549        -2.357136969413
H             -3.617147820145        -1.586164351352        -0.396079650341
H             -1.973657873157         0.204300867645         4.905455592903
H             -4.064817696264         1.985531891319         4.042944041732
H             -2.594721089097         2.438806839064         3.147820832078
H             -2.598486611914         2.477405227250         4.935476091705
C             -0.886438004656         2.355638379658        -1.073916340984
C             -0.953826295994         1.576144568407         0.105747152777
C              0.228405823014         1.160408139585         0.753198274150
C              1.447548844641         1.541284342112         0.183359572911
N              2.718102017544         1.257815728315         0.649675485285
C              3.625369427518         1.887394151801        -0.201318338600
C              2.921765940331         2.477249554281        -1.290092192592
C              1.519176944320         2.292589600742        -0.952580230811
C              0.363753193467         2.723136272127        -1.617617983829
H             -1.804296389784         2.669604563680        -1.565251260170
H             -1.921302421899         1.291138430679         0.511481919063
H              0.193494106667         0.559898828592         1.657059526719
H              2.945153994251         0.786696592167         1.522667239714
H              4.685051445896         1.945484884601         0.024720412795
H              3.286075432236         3.410437162194        -1.710804072957
H              0.428821455166         3.314551383047        -2.526256749661
