65

C             -0.239631779201         0.884802907123         7.869218300990
C             -0.277890520379         0.674948813716         6.368977689041
O              0.098644385021        -0.365024971991         5.863460991931
N             -0.769571721966         1.731479554268         5.532216584326
C             -0.779361837498         1.635799313524         4.056952162534
C             -1.974088461090         0.773605680768         3.579150611679
C             -1.828694250440         0.380026214960         2.114994338608
C             -1.288922380676        -0.871499791731         1.773406988749
C             -1.110351434914        -1.226028875088         0.425769496955
C             -1.458363998435        -0.322503199931        -0.600090701864
N             -1.237041862205        -0.642731575562        -1.996565115165
C             -0.488345042273        -1.617251878297        -2.480493427271
C             -0.157744532165        -1.689447805246        -3.784945829440
C              0.632771000402        -2.690277095377        -4.252984495639
C              1.016447438984        -2.838513984233        -5.715439746969
C             -0.178422058780        -3.284547442778        -6.598484034448
C             -0.741340051743        -4.667707589967        -6.183811294027
C             -2.017051850683         0.918584521251        -0.253151589435
C             -2.202261670826         1.269894882715         1.093737384300
C             -0.794426259346         3.036210182356         3.424241653834
O              0.010762428496         3.355730583237         2.568323060853
N             -1.788493821196         3.995310919485         3.831794962139
C             -1.838099459930         5.353134984169         3.274416185731
H             -1.234351043699         1.166838876805         8.231480505025
H              0.074681137996        -0.041338531247         8.365332811416
H              0.470753869956         1.682680013695         8.113358497494
H             -1.050592093973         2.627820093967         5.990098398430
H              0.157490359214         1.157429816283         3.739096216729
H             -2.913868694736         1.314576469443         3.744453199576
H             -2.035408303573        -0.129947897675         4.199456032227
H             -0.998832078490        -1.569784710442         2.554944436713
H             -0.697186086085        -2.201867735638         0.200254341225
H             -1.607017782775         0.050111301051        -2.686059567902
H             -0.110592229713        -2.367242360257        -1.791033160942
H             -0.522230704585        -0.928363897289        -4.473411545894
H              0.980577337603        -3.484382859740        -3.590797211466
H              1.412501803319        -1.885462946035        -6.092490006361
H              1.834793078617        -3.565203651373        -5.813579777538
H              0.144110043279        -3.326101858598        -7.648987912822
H             -0.979068001939        -2.532520872067        -6.553070065079
H             -1.160442335937        -4.640056214286        -5.169199032815
H              0.039645960567        -5.439089062055        -6.210573666885
H             -1.543725554380        -4.981945169409        -6.864913127038
H             -2.293413839986         1.621994204966        -1.032743215177
H             -2.618442634638         2.242680926211         1.342963591807
H             -2.487075989306         3.724216039834         4.561194030243
H             -2.034231268162         5.311835903352         2.194714311023
H             -0.876142163055         5.861094732926         3.429795087602
H             -2.630100938281         5.937868651414         3.759434137592
C              1.590951929753         1.678853105665        -1.159876308252
C              1.549568854880         1.079625726206         0.122504135096
C              2.009160811200        -0.241485454853         0.307916846273
C              2.491383025338        -0.919073048696        -0.815385063315
N              3.001108980839        -2.199620576988        -0.856791197237
C              3.423311228296        -2.441924671514        -2.177766728585
C              3.114719191199        -1.313803110463        -2.949863993168
C              2.538107376497        -0.346539830456        -2.049567080496
C              2.094052122683         0.963251563577        -2.268792596360
H              1.241284562921         2.700483152210        -1.286581719368
H              1.164826134155         1.641971629925         0.969163773484
H              1.992471533577        -0.713204385843         1.285881653918
H              3.122246140989        -2.820246510994        -0.065959003358
H              3.920670548126        -3.361939384533        -2.463665369150
H              3.396667311467        -1.167398120493        -3.986516962544
H              2.141871417149         1.415178500496        -3.255286050151
