65

C             -7.559421741074         1.360903205269        -3.325666771196
C             -6.167651431710         0.785727727126        -3.158302307412
O             -5.180859123581         1.393851639493        -3.524174611952
N             -6.019692685002        -0.503248127803        -2.548106003831
C             -4.704884283849        -1.151420638982        -2.351340665235
C             -4.034157670328        -0.629794218619        -1.047989770674
C             -2.525558292719        -0.873512016892        -0.894226119354
C             -1.781991922955        -1.715281277214        -1.749795641520
C             -0.398146580124        -1.878245398856        -1.562370609717
C              0.265485985227        -1.211588629201        -0.520897368565
N              1.694855919449        -1.379369486643        -0.384358242912
C              2.499329363879        -0.833407310904         0.641875085506
C              3.765265188637        -0.460264916543         0.419944206336
C              4.625750707271         0.187457679617         1.455742288817
C              5.997061982482        -0.550286097555         1.572706189201
C              6.508101827873        -0.663340938433         3.034881291666
C              7.894863214630        -1.348450928874         3.105123998708
C             -0.471661768210        -0.375975559567         0.336210452263
C             -1.853923655497        -0.211903504981         0.150404879331
C             -4.862368339208        -2.684614595628        -2.394819774885
O             -4.690806842629        -3.386038294535        -1.413650594249
N             -5.234485367971        -3.321049259059        -3.631631813572
C             -5.429197464470        -4.773696824054        -3.736172326033
H             -7.496857483036         2.367049854441        -3.757362859436
H             -8.148010653227         0.719734645709        -3.990982079783
H             -8.057035049365         1.417945410672        -2.351238210834
H             -6.887414535607        -1.001146630661        -2.246232809362
H             -4.068570607471        -0.880233399434        -3.204210265641
H             -4.565601895606        -1.051136920250        -0.184895281772
H             -4.207432021007         0.452958263115        -1.001926325095
H             -2.258443682135        -2.253033630007        -2.562654049476
H              0.160534396156        -2.525717334628        -2.231763181073
H              2.192305854385        -1.893317879538        -1.148007316533
H              2.038201567658        -0.689488142738         1.617528885715
H              4.206833909799        -0.586827762228        -0.567960306947
H              4.115551437298         0.115315821622         2.430399764441
H              5.901388546443        -1.566674701576         1.164540607418
H              6.747155150490        -0.045444969074         0.948086349528
H              5.788669731843        -1.241330635005         3.632932513804
H              6.568674622950         0.329202716029         3.501099231151
H              8.240008751484        -1.428284254071         4.144925886021
H              8.650164782151        -0.779811340997         2.546443965949
H              7.857225405047        -2.363879975991         2.688411928447
H              0.019795098366         0.158887616259         1.141697227043
H             -2.407433169009         0.440853789887         0.820393112297
H             -5.409989884243        -2.730798532254        -4.478254946161
H             -5.627650483444        -5.058030039113        -4.777846727407
H             -6.277327969259        -5.087634728520        -3.112170844196
H             -4.531872726531        -5.302340734929        -3.385757379481
C              1.263820847352         3.289925445028         0.688524261670
C              1.327232886660         4.219982353953         1.749534395776
C              2.494199344095         4.323846113723         2.533418637794
C              3.572174034592         3.478620383814         2.243738621458
N              4.847597949308         3.424828979972         2.849021095721
C              5.583041706454         2.527980604559         2.178179729757
C              4.789168443762         1.797663685487         1.129687658077
C              3.505302624454         2.555787184887         1.221435423174
C              2.362325673556         2.452023958660         0.411893600569
H              0.368638543012         3.229495443002         0.073836067796
H              0.479737262616         4.870790678144         1.951775291466
H              2.563407184577         5.050774771087         3.337668271246
H              5.198529969717         4.053236879616         3.598754324946
H              6.657776118762         2.421655538770         2.306470295035
H              5.247107106775         1.930182421580         0.139824000404
H              2.324176577513         1.751324167155        -0.417365360470
