65

C             -3.006843417353        -2.021910428712         7.141511116895
C             -2.424203365631        -1.752357898106         5.768510401787
O             -1.788969707067        -2.598571683886         5.169655524747
N             -2.629384749430        -0.466546531412         5.168259307973
C             -2.095899620292        -0.114956061397         3.835951044725
C             -3.109313431027        -0.534791579512         2.738238454177
C             -2.510145021685        -0.489944011681         1.337565180001
C             -1.537743898266        -1.430203944511         0.955628871889
C             -0.960769338389        -1.375490851968        -0.324008997803
C             -1.355273863047        -0.379074205461        -1.239755517802
N             -0.731410945513        -0.275385133144        -2.541518179502
C              0.481361801598        -0.703023138540        -2.864216704335
C              1.125472311371        -0.278905936097        -3.968336346703
C              2.393527665920        -0.704042773666        -4.250610163300
C              3.117208858157        -0.337313096332        -5.537927745309
C              4.039027429276        -1.483842474451        -6.020626900645
C              4.745396199043        -1.140410478607        -7.355795751083
C             -2.355096029466         0.534270072802        -0.868168732030
C             -2.925076760527         0.485098992834         0.414309300448
C             -1.709969206363         1.378369846369         3.799930395761
O             -2.190390577822         2.163026868114         3.000559158368
N             -0.747492523745         1.871979893025         4.748887657740
C             -0.353225124238         3.285940019914         4.802949374112
H             -2.936997965124        -3.091330197743         7.374166390721
H             -2.451513454776        -1.452808937579         7.894927985649
H             -4.059326247792        -1.718356434045         7.167343922649
H             -3.176741478510         0.244670626760         5.705148735846
H             -1.161219057627        -0.670771359443         3.686026361459
H             -3.999914095659         0.103057791645         2.805187571742
H             -3.453706611448        -1.556149070825         2.946143588340
H             -1.228396584109        -2.205781015732         1.652142357126
H             -0.219036112086        -2.118838373306        -0.593958102769
H             -1.200048378476         0.363480382305        -3.223581436473
H              0.980702681258        -1.387241965908        -2.182895786404
H              0.633917388940         0.422043232807        -4.641633038777
H              2.865005217760        -1.470124325003        -3.632544363658
H              2.383776093297        -0.108452428519        -6.323885221788
H              3.706815418974         0.576819767578        -5.387110172603
H              3.445184074105        -2.400895180040        -6.147550229139
H              4.794222690622        -1.703545224316        -5.252412381043
H              5.375120354347        -0.246074070007        -7.257838752927
H              4.016774286489        -0.957275392701        -8.157106257924
H              5.391084242191        -1.968573838812        -7.678165332744
H             -2.673976728827         1.301306019224        -1.567646366465
H             -3.679340108076         1.215715212721         0.696058041754
H             -0.350909103383         1.210982846153         5.457196806018
H              0.202421269080         3.558344055962         3.896042650790
H              0.279304483746         3.474491922329         5.680235677712
H             -1.244531262715         3.924813053874         4.868252583652
C              0.601215815366         2.450560173353        -0.511904715641
C              0.653093476637         1.570440666819         0.596278899062
C              1.660578730424         0.585418077751         0.678220234584
C              2.584295792914         0.518241326143        -0.368978639221
N              3.657935520286        -0.343648744755        -0.480033477414
C              4.358594613715         0.006400261897        -1.644677790487
C              3.643472038840         1.024608565156        -2.303971565238
C              2.541918406672         1.366318674570        -1.434299418513
C              1.558204575082         2.356594062960        -1.546212527866
H             -0.182035063490         3.202881530129        -0.564662214583
H             -0.091220321154         1.652092843424         1.384209824628
H              1.720151431958        -0.093471647443         1.523484327330
H              3.942261009339        -1.036150926795         0.204697817662
H              5.308493482238        -0.446866852128        -1.906183326487
H              4.042584038119         1.627878742498        -3.112331089651
H              1.532260946588         3.027846619452        -2.399830496749
