65

C             -1.969306864061        -6.290521404001         4.902280778601
C             -1.501286264406        -5.255232959850         3.900062942867
O             -0.472968123445        -5.401263870369         3.268194275869
N             -2.296883285641        -4.079969607408         3.696489608205
C             -1.932271886331        -3.027776772867         2.725208506601
C             -2.649680595648        -3.293581671631         1.374884062554
C             -2.172263117400        -2.371111628614         0.259044422967
C             -0.835725720522        -2.415427022060        -0.174345531650
C             -0.382263199488        -1.529657154916        -1.164783929331
C             -1.265701187578        -0.595659029541        -1.740180851253
N             -0.793110986540         0.365991104546        -2.708958519770
C              0.435419869165         0.874347122722        -2.757513691679
C              0.706176940064         2.040926410744        -3.369701759938
C              1.972491221050         2.575858186995        -3.350367971100
C              2.363934247287         3.754026141771        -4.229160161442
C              2.593457008028         3.304773874459        -5.693656819608
C              3.014141242949         4.481872010959        -6.607665293138
C             -2.610195964512        -0.583854587363        -1.338561627414
C             -3.060918932984        -1.460060323104        -0.338683672483
C             -2.204455246603        -1.632377309019         3.326383441679
O             -2.906095411750        -0.802607991965         2.774813948902
N             -1.605464280733        -1.288900541944         4.588977240283
C             -1.830525218746         0.010160156942         5.237454548388
H             -2.895710134898        -6.754984342106         4.546004379102
H             -1.202359749338        -7.064839618488         5.024635981193
H             -2.156991734404        -5.813143656848         5.870397986188
H             -3.170393437006        -3.975242531575         4.261932790220
H             -0.847501106587        -3.071975206386         2.565589859726
H             -3.732936897253        -3.198725031491         1.522851857315
H             -2.473381097389        -4.336294201439         1.080053632768
H             -0.144492421392        -3.133275032667         0.259932334759
H              0.653075980234        -1.583688293040        -1.483019695417
H             -1.531819871077         0.876504346566        -3.244481076529
H              1.226998486676         0.347847398096        -2.229337852634
H             -0.090212775728         2.578981527886        -3.881376569594
H              2.804160157871         1.981719298750        -2.965341905280
H              1.583876845074         4.526892467448        -4.192381930217
H              3.279191479144         4.217682738505        -3.836137900925
H              1.675977473608         2.845263346748        -6.088551851827
H              3.366386239800         2.523201107916        -5.723259920180
H              3.952131606057         4.938529458558        -6.264654227149
H              2.243106582230         5.263425599620        -6.632032003933
H              3.170497657238         4.136631526802        -7.638847937833
H             -3.300674928816         0.129206150462        -1.779250474153
H             -4.096906243828        -1.414378351824        -0.012568577190
H             -1.029636262056        -2.007707730696         5.087001107122
H             -1.342318197108         0.808942117789         4.663567440357
H             -1.426397837770         0.004389101690         6.258510552176
H             -2.906497398269         0.227246520902         5.285787996862
C             -0.591659688802         1.327286325471         0.929507597995
C              0.401918625389         0.589029510697         1.615723480320
C              1.767582557377         0.900423929999         1.442765339232
C              2.088371937802         1.946355875837         0.571909647904
N              3.347341623283         2.443976864281         0.291547290138
C              3.182185435912         3.552435208947        -0.544729325363
C              1.816660124352         3.651988055436        -0.903469840095
C              1.136791254427         2.657269269356        -0.096338336147
C             -0.228239667427         2.380077196778         0.060375484721
H             -1.641000635222         1.076487100013         1.070942813089
H              0.108936668904        -0.216359320163         2.284125621473
H              2.543654559927         0.355187157063         1.971872629141
H              4.219113402025         2.139717314230         0.715908984065
H              4.002851222912         4.216864356571        -0.793415585357
H              1.373244669310         4.585145112679        -1.237535254912
H             -0.981834406161         2.949445463754        -0.476068448841
