65

C             -0.922127667809        -3.586107180844         3.330962794918
C             -2.132069803852        -2.878103618111         2.759895719475
O             -2.270494552602        -1.674666320828         2.866207548840
N             -3.130117921077        -3.658539108571         2.087876275013
C             -4.364295781036        -3.075384948844         1.517252187582
C             -4.218446567053        -2.888835327219        -0.016095410555
C             -3.090611942333        -1.931602807996        -0.383358808366
C             -1.876006556291        -2.424169772930        -0.891666179154
C             -0.828766827182        -1.542673447282        -1.208891260115
C             -0.985889225719        -0.155925433690        -1.018296933275
N              0.082043670785         0.762132379619        -1.349465095941
C              1.382401215911         0.457902138791        -1.503224453054
C              2.268490704611         1.346345072810        -1.988265019695
C              3.628899027403         1.052138585480        -2.098378160167
C              4.341214747812         1.369332901335        -3.414522394571
C              4.467899696607         2.887385918852        -3.702136843131
C              5.162002617690         3.151844779639        -5.060994334839
C             -2.205163859402         0.333798381958        -0.523700402059
C             -3.250849670623        -0.547030294531        -0.203151004638
C             -5.576960628515        -3.945621307488         1.892835567736
O             -6.159993645001        -4.633524486923         1.073327225047
N             -6.037616719131        -3.961465206398         3.255678633613
C             -7.186664536828        -4.771106740974         3.682389814955
H             -0.313953426844        -2.878341419150         3.906238811314
H             -1.249133023167        -4.398737717027         3.989237918186
H             -0.321649099872        -4.004837229605         2.516016286230
H             -2.984688834785        -4.691781005457         2.033103882616
H             -4.536363174005        -2.096130593491         1.983108492413
H             -5.167331271281        -2.515183344312        -0.422189599567
H             -4.061000553365        -3.869580297502        -0.482982488902
H             -1.742400063150        -3.492422449192        -1.038495520824
H              0.091537642327        -1.945638508757        -1.616673262443
H             -0.171292708734         1.775473355002        -1.379869690392
H              1.712200799816        -0.530282219426        -1.189927680148
H              1.921089931120         2.336634306008        -2.275179386546
H              3.895212532327         0.040496333631        -1.780576712486
H              5.343447918951         0.918401676519        -3.401682357148
H              3.801474851782         0.884274506069        -4.240268259193
H              5.040633271980         3.374009648663        -2.901477811839
H              3.473368242833         3.353887684393        -3.709663033455
H              5.251518227627         4.229582224625        -5.253160647660
H              4.591575994457         2.712368408946        -5.890654791647
H              6.173572397424         2.724333716513        -5.082195476793
H             -2.338733756822         1.401007280777        -0.376142628545
H             -4.182737985944        -0.153114412311         0.193304790431
H             -5.525657910424        -3.396259900229         3.972101656320
H             -8.071278430574        -4.516296492753         3.082550569710
H             -7.411248762031        -4.591512098811         4.741740446108
H             -6.970337101907        -5.838240413893         3.538773593219
C              2.162922096378         4.974246905996         0.403276309452
C              1.676163349002         4.468870602544         1.632683289566
C              2.185477947439         3.262368946771         2.157487200229
C              3.170218231508         2.598019284851         1.420617578664
N              3.811407456155         1.417147447543         1.746416442000
C              4.729981812000         1.149785937459         0.740870701890
C              4.625634642923         2.138677822018        -0.290492100295
C              3.641151764481         3.077668231003         0.233332011652
C              3.159072710387         4.275393820483        -0.312154280040
H              1.768410249534         5.908568799870         0.010403554583
H              0.910944555440         5.015741526091         2.178717309021
H              1.828648987824         2.862314859256         3.102234389971
H              3.681919171604         0.877682307141         2.601995942522
H              5.403192248024         0.299765743587         0.782708041382
H              5.563362092239         2.532602322315        -0.674399484497
H              3.540071201696         4.655916254087        -1.254891276439
