65

C             -3.132005594645        -3.586255833218        -6.316093902797
C             -2.015256129956        -4.050090754658        -5.403809221246
O             -0.860388063443        -4.086006250870        -5.782338498043
N             -2.340417827089        -4.464012383624        -4.069984741433
C             -1.329684606062        -4.995426044038        -3.127122995591
C             -1.663744951163        -4.585459305275        -1.667716803799
C             -1.407836584887        -3.104817292267        -1.396245450537
C             -0.254465964030        -2.707419427997        -0.696331567576
C             -0.014194151416        -1.349031204443        -0.429055521893
C             -0.926089225966        -0.367579126393        -0.862815455140
N             -0.694771434514         1.033312204816        -0.580664423379
C              0.072276819085         1.543182676163         0.435601290083
C              0.168559250931         2.865010582960         0.656742167417
C              0.918940708841         3.414908047706         1.748298286140
C              1.976746038696         4.454585596299         1.321249193005
C              2.978928514610         4.796233881198         2.455435894595
C              4.029319834960         5.840425358598         2.004308670332
C             -2.065144229918        -0.763499146290        -1.582309850760
C             -2.311317959566        -2.122829422296        -1.840277187751
C             -1.183930245443        -6.518884771334        -3.308889644991
O             -1.472856560934        -7.310885252180        -2.428653245068
N             -0.691341237274        -7.029531307139        -4.560133990688
C             -0.523237945268        -8.466347722195        -4.811681374349
H             -3.586746422066        -2.675945704485        -5.910414304638
H             -2.733216646056        -3.377322970206        -7.316175079377
H             -3.896225926064        -4.368251326594        -6.390221190696
H             -3.347322433743        -4.469244499766        -3.796238195247
H             -0.351644290448        -4.571195738482        -3.391474130043
H             -1.054951824020        -5.190638598581        -0.983044382708
H             -2.705069561239        -4.848512439725        -1.442570354008
H              0.461023801152        -3.452419896315        -0.358226503289
H              0.891026784028        -1.071056810627         0.099321982539
H             -1.289618662351         1.716802250159        -1.103377994754
H              0.577967764982         0.838309939806         1.092262399507
H             -0.356200636619         3.561279879056         0.003312191736
H              1.426505493513         2.628623073564         2.320585086086
H              2.533274270744         4.067554827198         0.455870285035
H              1.478380347240         5.371497357058         0.977998401966
H              3.492940149527         3.882791670837         2.786850076269
H              2.439623627138         5.185581791080         3.329092053334
H              3.551885883497         6.786789780735         1.716222663329
H              4.610070847955         5.476212053697         1.146326675091
H              4.736105006353         6.057732013718         2.816719635789
H             -2.770057507345        -0.014135131114        -1.929934323170
H             -3.204876504211        -2.411310578587        -2.386299672255
H             -0.467159819025        -6.351701137495        -5.329977159881
H              0.185052852976        -8.894021111107        -4.089519868988
H             -0.142938542458        -8.635921110069        -5.827593336384
H             -1.485167525316        -8.984619495764        -4.699223842928
C              0.808848142007         2.856727949530         6.462857468238
C              0.893768893695         4.120092042678         7.093966729936
C              0.576689006732         5.295251156675         6.380461795459
C              0.187341638387         5.165053759258         5.043189762123
N             -0.176572251104         6.172094008599         4.151812373424
C             -0.501429465911         5.577569402488         2.959169691605
C             -0.350510069638         4.126012552633         3.042028877628
C              0.108770496219         3.944885267391         4.427425893086
C              0.408996923984         2.759941935527         5.113378170011
H              1.042852909777         1.955186210318         7.025090212966
H              1.195873111350         4.185312837595         8.136793846084
H              0.624408333693         6.271336008270         6.855005076969
H             -0.252059690671         7.174028688934         4.365134667463
H             -0.872143033078         6.138466532384         2.106212584910
H             -1.284096161493         3.598902601314         2.827580698538
H              0.324886482827         1.793408506203         4.624225526569
