65

C             -7.849571529082        -3.854548738971        -2.212372950141
C             -6.521569211255        -3.156094861449        -2.000936178360
O             -6.257859731328        -2.591982052252        -0.956533715264
N             -5.557298856606        -3.168162906213        -3.061444635101
C             -4.239971823434        -2.508270952031        -2.952108363771
C             -3.227284788595        -3.433692283427        -2.228767339697
C             -2.006321604827        -2.679533817319        -1.715685224902
C             -2.065105935538        -2.006098278379        -0.483322237510
C             -0.937828696431        -1.329806607666         0.013976735575
C              0.264838991369        -1.314613945774        -0.721666753228
N              1.446145548889        -0.652026090118        -0.204631812925
C              1.555196590871         0.058849733510         1.008561676793
C              2.743408643164         0.282322905737         1.585250796385
C              2.909541775210         1.006989274203         2.873663276951
C              3.458091143423         0.060571190240         3.984218388257
C              2.564369063836        -1.187997992565         4.216434516256
C              3.091289671762        -2.061097578075         5.381416366256
C              0.316537525645        -1.982939585517        -1.956460130720
C             -0.809286519499        -2.662156923767        -2.451712636084
C             -3.762497153196        -2.037457435367        -4.339561090889
O             -2.870602167492        -2.601285997923        -4.949104660211
N             -4.403568046536        -0.906889520009        -4.959427305711
C             -4.020380373245        -0.423404675052        -6.292898739287
H             -8.381251439038        -3.389922326457        -3.049877705231
H             -7.679490409136        -4.912774754653        -2.440127885663
H             -8.463171290143        -3.774713543390        -1.306830788877
H             -5.812975857187        -3.658691200346        -3.947993137081
H             -4.367143239514        -1.598029686649        -2.350791149564
H             -2.932239298776        -4.252218829244        -2.897821466661
H             -3.732305592832        -3.912733431304        -1.380186124982
H             -2.985015027553        -2.016225609976         0.096698022968
H             -1.011900385216        -0.836739799424         0.976125903415
H              2.330309053278        -0.776155913508        -0.750032639641
H              0.639772206996         0.425227305061         1.467110390561
H              3.653937888502        -0.088399991573         1.116174105101
H              1.927843309050         1.367965465726         3.221353001801
H              4.477317788140        -0.258852267704         3.726337355109
H              3.535648848908         0.614517744306         4.929393560213
H              2.518935544370        -1.797627391979         3.302536275298
H              1.533808066298        -0.873223501684         4.434239217871
H              4.114533400670        -2.409471902304         5.186606310226
H              2.458550803790        -2.948000705807         5.521539599475
H              3.096047553612        -1.502539772737         6.327053490416
H              1.237143822292        -1.982267518942        -2.532781518725
H             -0.749002743041        -3.177407533877        -3.407449420030
H             -5.188215210927        -0.427694891331        -4.460421509789
H             -3.018424604816         0.024025253227        -6.257305679993
H             -4.735631842752         0.329179419263        -6.649306369748
H             -3.999994069459        -1.258680593080        -7.006633033833
C              2.223810367028         4.536554718345        -0.046496267036
C              2.073033612771         5.709550426800         0.726024144309
C              2.505916534335         5.736401483967         2.066691130895
C              3.079809902709         4.579552517206         2.604796394031
N              3.597828646643         4.372396039817         3.898395780518
C              4.085362009577         3.122216059854         3.954673602573
C              3.869035248341         2.365942511164         2.676045775850
C              3.224145925568         3.432185271043         1.856011886511
C              2.807179513919         3.383241578836         0.516355491605
H              1.892265242393         4.525532110641        -1.082036831083
H              1.626937730216         6.597361748074         0.284183919283
H              2.403043577263         6.633261259853         2.670631476110
H              3.659373854660         5.079069558500         4.655344005096
H              4.649698584135         2.742609921680         4.803393820576
H              4.834106386911         2.067021566697         2.245132484292
H              2.933464718131         2.483387726579        -0.078370396089
