65

C             -7.970580195447         0.355906358570        -4.502680460209
C             -6.842243101316         0.276682802253        -3.493196141413
O             -6.768700241889        -0.637565448041        -2.694090358025
N             -5.852331601504         1.316840868634        -3.477763282693
C             -4.784793213077         1.386404690509        -2.455277055418
C             -3.504819705897         2.049718357811        -3.030079687853
C             -2.276362637124         1.824228569289        -2.150949501134
C             -1.858909193708         2.810067768410        -1.239177664833
C             -0.724728443469         2.602188630248        -0.437369341935
C              0.018986313567         1.416017622722        -0.546794932871
N              1.193247957272         1.260707969991         0.283828648422
C              2.279523740495         0.349836279050         0.059086845933
C              3.363092826269         0.353178382818         0.841677961454
C              4.573410752999        -0.532183764849         0.625114614447
C              5.816347773327         0.344118073295         0.279161859796
C              5.594694759173         1.232921367615        -0.975413022281
C              6.868276739913         2.026702975102        -1.353499091654
C             -0.399693017657         0.424848441462        -1.454606279655
C             -1.542530311173         0.627678301694        -2.249353996135
C             -5.314972470842         2.071059628227        -1.179384409391
O             -4.960464141970         3.186439000120        -0.839371985690
N             -6.287802564111         1.387273154108        -0.368891798863
C             -6.873577663198         1.993238812207         0.833119771958
H             -7.562894760347         0.316884143271        -5.518642255725
H             -8.660344379657        -0.484721743577        -4.359125314132
H             -8.519290734090         1.295788511961        -4.371191510144
H             -5.972431627443         2.107048272675        -4.149597746393
H             -4.534076713285         0.359160290034        -2.158706707543
H             -3.684586093740         3.123419355104        -3.172965330498
H             -3.311790211115         1.642142968612        -4.030386981518
H             -2.415469565955         3.739391097775        -1.145814192963
H             -0.416821987631         3.373239787277         0.263096081681
H              1.339202872935         1.973860367568         1.035074722865
H              2.208050203552        -0.323596697173        -0.792056134699
H              3.426747101129         1.041781717542         1.683126767592
H              4.387086589292        -1.192597175985        -0.235770754335
H              6.073460665729         0.977617153098         1.139595217597
H              6.684594454352        -0.303459753113         0.098264849001
H              4.770967554555         1.939439787337        -0.799418652921
H              5.291543526892         0.605659181941        -1.825781082090
H              6.683196019192         2.666331545682        -2.227171008789
H              7.697658222878         1.351945682187        -1.603998501000
H              7.193280349342         2.675187599767        -0.529069229457
H              0.145545847802        -0.508936557811        -1.540635369584
H             -1.856316347881        -0.147166207504        -2.944005181860
H             -6.644745933130         0.450886619877        -0.684209120567
H             -7.540371729730         2.818224014672         0.549624807896
H             -6.081886564119         2.396500143677         1.479023391300
H             -7.448208657079         1.246851500776         1.396681388323
C              1.583520281015        -3.445831364796         2.521311175778
C              2.127711940233        -4.740170861845         2.376747318444
C              3.497604764291        -4.905566301600         2.093489745982
C              4.298068481872        -3.765925873980         1.950105708546
N              5.692274653238        -3.667740530631         1.690798222155
C              6.018264054529        -2.382234649006         1.698028609607
C              4.824818963996        -1.461638178335         1.879105040342
C              3.763049102248        -2.496266724655         2.076658971628
C              2.403280801193        -2.309510219033         2.375008694021
H              0.527815655620        -3.325827811856         2.752425710820
H              1.490214977587        -5.613350522087         2.493176595702
H              3.930042170219        -5.896907087003         1.992954012459
H              6.363382150774        -4.463063807155         1.598165851077
H              7.045968984242        -2.023360357789         1.694468023146
H              4.949197243657        -0.859007696505         2.789085127347
H              1.987354923946        -1.313902752823         2.497993705939
