65

C             -2.795607419722        -5.391312516252         0.348457316631
C             -3.493737577935        -4.562932580266        -0.710242624132
O             -4.639340294261        -4.181981441646        -0.564417827367
N             -2.781779781303        -4.235357551282        -1.910894612448
C             -3.399393807189        -3.489152446955        -3.029659888759
C             -2.354129523900        -2.584204050352        -3.729128464118
C             -1.816930128395        -1.483388989389        -2.820682716119
C             -0.524216864619        -1.572820489559        -2.275413660921
C             -0.016953306370        -0.535965330527        -1.472748359452
C             -0.800510065763         0.604486025745        -1.203899458994
N             -0.269497270123         1.704934917708        -0.425590389957
C              0.938341267756         1.747716306338         0.207203599899
C              1.577723390333         2.908022886945         0.435467557779
C              2.840478763842         2.973715744916         1.090547126668
C              3.952944798797         3.636862325019         0.252908946066
C              5.351130543192         3.015889599632         0.513224135073
C              6.455799293392         3.712452764680        -0.319335172824
C             -2.095485327425         0.685103570680        -1.741594014469
C             -2.602352757406        -0.350837600220        -2.543717366753
C             -4.085919019376        -4.462567799559        -4.005802665533
O             -3.683987064761        -4.633798484102        -5.143621885499
N             -5.239989318901        -5.197631236207        -3.565742121156
C             -5.956909911383        -6.130886784549        -4.443268250398
H             -3.450289502295        -5.507930969268         1.220333952557
H             -2.558148883545        -6.380900472879        -0.057849675081
H             -1.867623811114        -4.896733388600         0.655795595091
H             -1.814814505353        -4.611206985127        -2.019389436015
H             -4.199642562375        -2.855982714992        -2.624257543081
H             -2.817618370635        -2.127708208300        -4.613643219496
H             -1.538560009261        -3.209242138908        -4.114671893387
H              0.095094555672        -2.440601831581        -2.485408632949
H              0.993055869206        -0.620211970301        -1.087750876441
H             -0.830230903639         2.588202524833        -0.427255603563
H              1.374671558265         0.803956867763         0.528712302565
H              1.127994965796         3.844388166831         0.106141066745
H              3.184138633598         1.988398488114         1.427540749044
H              3.715461344449         3.540474164159        -0.816561815041
H              3.978406330859         4.715264223799         0.461418706682
H              5.332692756686         1.945021904671         0.263860005760
H              5.600934672714         3.081442067468         1.581448444958
H              6.527006867977         4.781304274856        -0.076938629384
H              6.259049247658         3.620886269506        -1.396079550959
H              7.436975879367         3.259723801264        -0.121717769001
H             -2.707807264560         1.560733122234        -1.546382955027
H             -3.602244831040        -0.265351749554        -2.961314532059
H             -5.567530850476        -5.080827635652        -2.575573445349
H             -6.757836398687        -6.636683756668        -3.888679393269
H             -5.264053019952        -6.886468433398        -4.838544885283
H             -6.395944374710        -5.588772539541        -5.291618208279
C              0.122837110582         1.793074592695         4.817328602181
C              0.965947729770         1.542066621301         5.925506617616
C              2.271095644283         2.076021357771         5.960753939367
C              2.692122251114         2.847071786814         4.872689853555
N              3.917662023068         3.479232031352         4.699090373475
C              3.869107333884         4.165376707756         3.509102692829
C              2.596211871635         3.945962820516         2.839780736631
C              1.879849243704         3.096369307464         3.800798472131
C              0.577135999637         2.581642278310         3.739001362296
H             -0.883715524153         1.381482076728         4.800446857344
H              0.604676261542         0.940275649554         6.756232136290
H              2.928501207254         1.900490670709         6.807450925704
H              4.690337005772         3.495804913493         5.372619434604
H              4.663718928185         4.832180353594         3.188443030734
H              2.081133731951         4.870527009489         2.573332136304
H             -0.067035852347         2.787731629995         2.888728998507
