65

C             -3.504482677389        -5.382029623624         0.083733184542
C             -2.036597499702        -5.092050777377         0.322342017010
O             -1.308854692434        -4.740462122902        -0.585163438107
N             -1.506338596410        -5.249052053720         1.647814829070
C             -0.064485508491        -5.100528438795         1.960679272755
C              0.277687482869        -3.654796737372         2.407059884608
C              0.202886375149        -2.646099265623         1.264261303137
C              1.065064878072        -2.773423335362         0.160266650645
C              0.984267093868        -1.871313233584        -0.911302578853
C              0.062744539765        -0.813952752806        -0.883339254571
N              0.003107405005         0.078161394119        -2.019939249242
C             -0.393900330945         1.412542051393        -2.021921033008
C             -0.212551665268         2.229359586900        -0.971101541558
C             -0.526204148567         3.656558723388        -1.010200344621
C             -1.581532203757         4.068056507238         0.049616458746
C             -2.977673596131         3.456236150916        -0.240573528962
C             -4.032966126821         3.906090103197         0.799604840303
C             -0.798671705579        -0.680352940168         0.221329180971
C             -0.729367890727        -1.592318468907         1.289957102676
C              0.378481220463        -6.118048674684         3.021291429348
O              1.437699663886        -6.708279436272         2.919797651091
N             -0.449812958206        -6.381080571377         4.171327498341
C             -0.074022144280        -7.372317567678         5.188782777834
H             -4.120290856778        -4.751748269502         0.734137978005
H             -3.756445151481        -5.175763361388        -0.963409257347
H             -3.711843545673        -6.436192109999         0.300316335891
H             -2.154564328305        -5.598041043279         2.386155028207
H              0.511284478490        -5.351907335416         1.058951393356
H              1.296124671996        -3.647798268249         2.817714312169
H             -0.382621404451        -3.366874206512         3.233859920943
H              1.785975314303        -3.585759492164         0.120124842785
H              1.643077128031        -1.994520993510        -1.765744679733
H              0.336494687074        -0.307956915288        -2.934940978557
H             -0.797350214411         1.803974950706        -2.954842707766
H              0.247487284015         1.852483724353        -0.058812325586
H             -0.927674812125         3.934677575010        -1.997268326644
H             -1.241018647517         3.764025796421         1.049250584946
H             -1.671232486666         5.162365856393         0.073245695199
H             -2.913517163515         2.359060745191        -0.244681062882
H             -3.310311531338         3.751901270151        -1.246376604833
H             -4.169696211355         4.995973622995         0.782227155687
H             -3.739389729811         3.616191422169         1.817345139536
H             -5.008013332791         3.446093963222         0.588886908239
H             -1.542119855740         0.109248148771         0.238862071828
H             -1.411428242932        -1.489091305951         2.129147480628
H             -1.350824257438        -5.866314711325         4.282382560208
H              0.827996178716        -7.042565359239         5.721514426850
H              0.145003398414        -8.338018524403         4.712246084984
H             -0.887879794850        -7.509978160048         5.912111603188
C              3.458954763884         3.151786949381        -3.408707590235
C              3.655160425028         4.333744308222        -4.158601565797
C              2.985726423443         5.521385179748        -3.799374027659
C              2.126572924623         5.488600689357        -2.695567987955
N              1.382331419288         6.537719732773        -2.142980811496
C              0.738910310466         6.061192394414        -1.047441905120
C              0.974157376977         4.608287330313        -0.861403571455
C              1.927081148109         4.340992870733        -1.968497311057
C              2.590981571580         3.149194789947        -2.297595851281
H              3.985246713936         2.241568066056        -3.686544100330
H              4.331135393792         4.329725149486        -5.010586281172
H              3.135125982753         6.440406958000        -4.358727125819
H              1.381192400315         7.518977577940        -2.463347144310
H              0.178320132136         6.699197343743        -0.370009232816
H              1.411841416057         4.394689609566         0.120595853881
H              2.445701135814         2.246061341398        -1.711816405464
