65

C             -2.812161537367        -0.613339843476        -3.807439253464
C             -3.057958768213        -1.048434583217        -2.377380158606
O             -2.254256649655        -1.735111134955        -1.776680614180
N             -4.270883753585        -0.631980767034        -1.734970305011
C             -4.680517533758        -1.088726556300        -0.386731833396
C             -4.591214641392         0.063496619337         0.653136479264
C             -3.173732702842         0.300827618473         1.168299409549
C             -2.832633710567        -0.053921780835         2.486477311264
C             -1.527172568898         0.151407562866         2.962391657997
C             -0.544133952226         0.705506308691         2.127989665680
N              0.797801325843         0.849824518303         2.644905301026
C              1.922198912091         1.240798555000         1.909523239633
C              3.130491474132         0.715599215605         2.146517954921
C              4.314748850396         1.015726409330         1.315492643169
C              5.510895267342         1.557217724802         2.151690479810
C              6.197535897754         0.498609710804         3.058921111878
C              7.344535831180         1.122823314655         3.890915839040
C             -0.884395898401         1.064938335068         0.809869541042
C             -2.193712287672         0.872991243960         0.338734044535
C             -6.090693538898        -1.702351974988        -0.451522762326
O             -7.086566191372        -1.062633382633        -0.162980398494
N             -6.252940777937        -3.068360716447        -0.876809650480
C             -7.573692956913        -3.705819698177        -0.970486468780
H             -3.669518129719        -0.897236711315        -4.428390262096
H             -2.688360129095         0.474503768002        -3.848308355482
H             -1.910927917024        -1.098990183658        -4.199243262490
H             -4.936783384253        -0.052130176783        -2.294512328688
H             -4.013482432799        -1.902033990866        -0.071443495133
H             -5.247871512264        -0.174809217681         1.499965184342
H             -5.002616141143         0.981979205532         0.215756741300
H             -3.576247632379        -0.494507293581         3.145473359626
H             -1.276003378074        -0.131106788423         3.980687663913
H              0.976070009733         0.476686897665         3.605697099177
H              1.772926900576         1.949955359664         1.097610695954
H              3.253581286224        -0.018676016350         2.940513968688
H              4.055763889458         1.819811017649         0.606637936261
H              6.256964588341         1.989566470388         1.470582312089
H              5.157491475085         2.392860317391         2.772698382737
H              6.602865729265        -0.320717153892         2.449430961997
H              5.463648692187         0.050560013584         3.742682961583
H              8.124632004815         1.544166160423         3.242584822979
H              7.817299889232         0.368226649386         4.534223957488
H              6.972150089239         1.926804809923         4.540069756538
H             -0.142551307692         1.485859757688         0.140457963388
H             -2.443489615964         1.159505863076        -0.678306952610
H             -5.409881835942        -3.620935436555        -1.157381714319
H             -7.467156572323        -4.773656018044        -1.201352202465
H             -8.169974068969        -3.226797371871        -1.758762828736
H             -8.114544309612        -3.598961559600        -0.019987364011
C              1.487041315680        -1.302889892927        -1.552632311149
C              1.989192262335        -1.131097893850        -2.861935782063
C              3.324380741843        -0.724894627934        -3.062769145421
C              4.124126010622        -0.487009548049        -1.939234526203
N              5.474315216057        -0.095603575378        -1.888863364832
C              5.842405674063        -0.035725351000        -0.593125052477
C              4.702137960178        -0.322602591527         0.329693985373
C              3.636010315083        -0.642863978837        -0.662409891198
C              2.315490872031        -1.065848720560        -0.437530330295
H              0.459465071754        -1.627992868388        -1.403411801985
H              1.347540967810        -1.324792442498        -3.717739452375
H              3.728744454754        -0.603712531954        -4.063495509247
H              6.097716969402         0.061054054659        -2.700995049339
H              6.858917842412         0.179540687146        -0.273271465638
H              4.919464352000        -1.189676518285         0.965893396470
H              1.935743037217        -1.213535185946         0.569360319432
