65

C             -4.663936488406        -0.698264725364         3.047189210534
C             -4.786562368610        -0.912279480037         1.552508141446
O             -4.337983286233        -0.108274728245         0.758568026540
N             -5.446416808428        -2.095395834143         1.080287815136
C             -5.671903251332        -2.381184559167        -0.355083763947
C             -4.637389528679        -3.413693313758        -0.884047186814
C             -3.223724211573        -2.844721903241        -0.973178620043
C             -2.404780241809        -2.786846999067         0.167933833173
C             -1.117937223546        -2.228038890210         0.093819459240
C             -0.629234357324        -1.731050124871        -1.129408175200
N              0.692089382391        -1.148044835954        -1.209183248226
C              1.373783841717        -0.581090466769        -0.190474975200
C              2.653200338368        -0.184912299174        -0.317949329522
C              3.348395543718         0.443723024331         0.729507742906
C              4.630244198512        -0.244051351019         1.232375946659
C              5.946977100323         0.126671113231         0.495021642658
C              6.011082700882        -0.368546762307        -0.970915279970
C             -1.433343495534        -1.822124488109        -2.276679889056
C             -2.725860899424        -2.368261056997        -2.199316770051
C             -7.125362893977        -2.841642060152        -0.566090654903
O             -7.413503266153        -4.010284721054        -0.755802463482
N             -8.186243532626        -1.869972686853        -0.522089381739
C             -9.596861497653        -2.242611548528        -0.694324937708
H             -5.658064407628        -0.536587148955         3.479065815984
H             -4.213798296853        -1.582387914300         3.511136455686
H             -4.035255446767         0.176654033036         3.249945526310
H             -5.840736985556        -2.749599678128         1.794428954826
H             -5.563423244374        -1.446537284357        -0.921679416872
H             -4.957508476628        -3.757660000002        -1.876144200648
H             -4.654992340355        -4.305257263482        -0.244174028472
H             -2.774289530045        -3.161981121075         1.117861101142
H             -0.503949619824        -2.196996467916         0.987356350675
H              1.093843015180        -1.034813061533        -2.167710014544
H              0.843194974429        -0.429702122734         0.747504024399
H              3.161230912372        -0.332751441096        -1.267495790143
H              2.715822250301         0.613751332029         1.606182451336
H              4.760241429476        -0.003369183441         2.296796741100
H              4.494730564018        -1.334459086904         1.199935628028
H              6.786536718390        -0.320645745083         1.046373829152
H              6.116868059269         1.209062472702         0.534865965214
H              7.029088484534        -0.262009155620        -1.368990904274
H              5.347847214110         0.213790936930        -1.620439454255
H              5.733602681857        -1.428182847630        -1.047877358699
H             -1.063125264474        -1.449079881167        -3.227055243642
H             -3.342101255873        -2.413246114960        -3.093222077021
H             -7.950279452335        -0.867323342687        -0.338627998995
H            -10.248942873750        -1.395239797636        -0.446203296389
H             -9.848277503391        -3.087825674580        -0.038644187367
H             -9.784158481504        -2.545961026291        -1.732897665787
C              5.108057078131         4.281057735649         3.222878617157
C              6.208304698440         4.850847250701         2.537907476893
C              6.368565607062         4.643261132797         1.151551517130
C              5.410328739074         3.864479856619         0.495941057277
N              5.361993034108         3.536816276172        -0.849588599230
C              4.236179640575         2.756122923806        -1.049186830569
C              3.529997183875         2.578436812460         0.191476721654
C              4.350143809108         3.308196766512         1.152761272825
C              4.161137678128         3.498512856743         2.527591990769
H              4.988024414123         4.454665721424         4.289902113530
H              6.929591616321         5.457489945915         3.080885335704
H              7.202818026626         5.078345674444         0.608427783815
H              5.996202618336         3.874684734415        -1.575885553901
H              3.914950391180         2.443069946273        -2.037316856888
H              2.479171714313         2.862675742189         0.152358653089
H              3.306535286730         3.065694326476         3.040299136662
