 Entering Gaussian System
 *********************************************
 Gaussian 98:
 frequency output generated by the xtb code
 *********************************************
                         Standard orientation:
 --------------------------------------------------------------------
  Center     Atomic     Atomic              Coordinates (Angstroms)
  Number     Number      Type              X           Y           Z
 --------------------------------------------------------------------
    1          7             0       -0.170381   -0.617735    0.632771
    2          6             0        1.206874   -0.546083    0.662292
    3          6             0        1.839702    0.458688    1.396955
    4          6             0        3.204183    0.633688    1.312887
    5          6             0        3.982664   -0.182781    0.499486
    6          6             0        3.355030   -1.201996   -0.205601
    7          6             0        1.988653   -1.389747   -0.125788
    8          6             0        5.451466    0.086729    0.337524
    9          6             0        5.670312    1.360242   -0.483308
   10          6             0       -0.961781    0.646753   -1.175933
   11          6             0        0.182507    1.545135   -1.113186
   12          6             0        0.146997    2.739053   -0.517961
   13          6             0        1.298458    3.672919   -0.439117
   14          6             0        1.085854    4.897485   -1.340568
   15          6             0        2.288801    5.829704   -1.285945
   16          8             0       -2.086181    0.896192   -0.755705
   17          8             0       -2.857537   -1.649716    0.397091
   18          1             0       -0.653064   -0.139770    1.382913
   19          1             0       -0.598333   -1.503419    0.394910
   20          1             0        1.242735    1.103212    2.024903
   21          1             0        3.676155    1.418906    1.885468
   22          1             0        3.944089   -1.865441   -0.824437
   23          1             0        1.514057   -2.184111   -0.683632
   24          1             0        5.949708   -0.742752   -0.167197
   25          1             0        5.932880    0.221567    1.307277
   26          1             0        5.308105    2.240347    0.061891
   27          1             0        4.704971    0.366966   -2.072806
   28          1             0        6.635919    3.435954   -1.420537
   29          1             0       -0.800774   -0.247093   -1.801046
   30          1             0        1.097550    1.182768   -1.558377
   31          1             0       -0.786316    3.080316   -0.087944
   32          1             0        1.414070    4.016763    0.591738
   33          1             0        2.216598    3.164823   -0.737516
   34          1             0        0.931537    4.557236   -2.366825
   35          1             0        0.184748    5.429660   -1.027226
   36          1             0        2.148110    6.671857   -1.959392
   37          1             0        2.427314    6.215365   -0.278190
   38          1             0        3.191641    5.298084   -1.577192
   39          1             0       -2.954649   -1.214171    1.250305
   40          1             0       -2.881748   -0.933167   -0.249356
   41          8             0       -2.448187    0.866559    1.953525
   42          1             0       -3.099290    1.459904    2.330765
   43          1             0       -2.423610    1.052508    0.998105
   44          7             0        4.909736    1.288419   -1.719853
   45          6             0        7.166047    1.570494   -0.806733
   46          8             0        8.001270    0.702638   -0.661977
   47          6             0        3.604553    2.085106   -3.574766
   48          6             0        4.453221    2.378179   -2.360307
   49          8             0        4.719952    3.510165   -1.987444
   50          1             0        2.871511    1.311716   -3.359291
   51          1             0        4.244110    1.743965   -4.386971
   52          1             0        3.098085    2.993741   -3.887326
   53          7             0        7.416542    2.806178   -1.267195
   54          6             0        8.728355    3.225885   -1.694851
   55          1             0        9.036875    4.118485   -1.148676
   56          1             0        8.736604    3.443226   -2.764869
   57          1             0        9.422681    2.413573   -1.485445
 --------------------------------------------------------------------
     1 basis functions        1 primitive gaussians
     1 alpha electrons        1 beta electrons
 
 Harmonic frequencies (cm**-1), IR intensities (km*mol⁻¹),
 Raman scattering activities (A**4/amu), Raman depolarization ratios,
 reduced masses (AMU), force constants (mDyne/A) and normal coordinates:
                      1                      2                      3
                        a                      a                      a 
 Frequencies --    12.1759                18.5689                25.3523
 Red. masses --    11.1818                12.2088                11.9388
 Frc consts  --     0.0000                 0.0000                 0.0000
 IR Inten    --     0.3321                 0.4664                 0.1942
 Raman Activ --     0.0000                 0.0000                 0.0000
 Depolar     --     0.0000                 0.0000                 0.0000
 Atom AN      X      Y      Z        X      Y      Z        X      Y      Z
   1   7    -0.01  -0.05  -0.05    -0.04  -0.11  -0.07    -0.00  -0.04   0.03
   2   6    -0.01  -0.01  -0.02    -0.04  -0.06  -0.10    -0.01   0.01   0.04
   3   6    -0.05  -0.00   0.00    -0.06  -0.06  -0.08    -0.04   0.08  -0.03
   4   6    -0.05   0.03   0.03    -0.06  -0.03  -0.08    -0.05   0.12  -0.03
   5   6    -0.02   0.05   0.04    -0.05  -0.00  -0.10    -0.02   0.08   0.04
   6   6     0.02   0.04   0.03    -0.03   0.00  -0.13     0.02   0.01   0.11
   7   6     0.02   0.01  -0.01    -0.03  -0.02  -0.12     0.03  -0.03   0.11
   8   6    -0.02   0.10   0.07    -0.04   0.00  -0.07    -0.02   0.10   0.04
   9   6    -0.06   0.05  -0.02    -0.01   0.03  -0.02     0.00   0.08   0.02
  10   6    -0.00   0.05  -0.05    -0.16  -0.04   0.02     0.02  -0.17  -0.14
  11   6     0.03  -0.01  -0.04    -0.11  -0.10  -0.07     0.01  -0.16  -0.12
  12   6     0.11  -0.05   0.05    -0.00  -0.11  -0.04     0.00  -0.18  -0.08
  13   6     0.15  -0.10   0.08     0.04  -0.16  -0.11     0.01  -0.19   0.00
  14   6     0.12   0.04   0.27     0.01  -0.13  -0.07     0.01  -0.07   0.18
  15   6     0.17  -0.03   0.29     0.01  -0.12  -0.07    -0.00  -0.07   0.32
  16   8     0.02   0.09  -0.02    -0.12   0.01   0.16     0.00  -0.19  -0.23
  17   8    -0.08   0.08  -0.07    -0.21   0.12   0.30    -0.07   0.04   0.21
  18   1    -0.01  -0.02  -0.01    -0.01  -0.04  -0.01    -0.01   0.01  -0.01
  19   1     0.00  -0.01  -0.02    -0.00  -0.03  -0.02     0.01  -0.02   0.03
  20   1    -0.02  -0.01  -0.00    -0.02  -0.03  -0.02    -0.02   0.03  -0.02
  21   1    -0.02   0.01   0.01    -0.02  -0.01  -0.02    -0.02   0.05  -0.02
  22   1     0.01   0.02   0.01    -0.01   0.01  -0.04     0.01  -0.00   0.05
  23   1     0.02   0.00  -0.01    -0.00  -0.01  -0.04     0.02  -0.02   0.05
  24   1     0.01   0.02   0.04    -0.01   0.01  -0.03    -0.00   0.02   0.02
  25   1    -0.02   0.06   0.02    -0.02  -0.01  -0.02    -0.01   0.03   0.01
  26   1    -0.04   0.02  -0.03    -0.01   0.00  -0.00     0.02   0.03   0.01
  27   1     0.02  -0.04   0.01     0.01   0.02  -0.02    -0.03   0.03   0.02
  28   1    -0.04   0.01  -0.05     0.01   0.02   0.03     0.03   0.01  -0.01
  29   1    -0.01   0.01  -0.02    -0.08  -0.01  -0.00     0.02  -0.06  -0.02
  30   1    -0.00  -0.00  -0.03    -0.05  -0.04  -0.05     0.01  -0.04  -0.03
  31   1     0.04  -0.01   0.04     0.01  -0.02   0.02    -0.00  -0.05  -0.03
  32   1     0.08  -0.08   0.03     0.04  -0.05  -0.03     0.01  -0.10   0.01
  33   1     0.03  -0.03  -0.02    -0.00  -0.05  -0.05     0.00  -0.05  -0.02
  34   1     0.00   0.06   0.07    -0.00  -0.03  -0.02     0.00   0.02   0.04
  35   1     0.05   0.01   0.13     0.01  -0.04  -0.01     0.00  -0.03   0.07
  36   1     0.04   0.02   0.13    -0.00  -0.03  -0.02    -0.00   0.01   0.13
  37   1     0.09  -0.06   0.10     0.01  -0.04  -0.02    -0.00  -0.06   0.11
  38   1     0.03  -0.01   0.03     0.00  -0.03  -0.03     0.00  -0.01   0.07
  39   1    -0.01   0.02  -0.02    -0.02   0.03   0.08    -0.01   0.05   0.03
  40   1    -0.01   0.02  -0.01    -0.04   0.04   0.08    -0.01  -0.02   0.02
  41   8     0.03   0.01  -0.01     0.31   0.14   0.22     0.02   0.30  -0.22
  42   1     0.01  -0.00   0.00     0.11   0.05   0.08    -0.01   0.08  -0.09
  43   1     0.01   0.01  -0.00     0.04   0.03   0.05     0.01   0.03  -0.06
  44   7     0.01  -0.11  -0.06     0.06   0.07  -0.06    -0.06   0.11   0.06
  45   6    -0.05   0.11   0.03     0.00   0.05   0.08    -0.00  -0.02  -0.07
  46   8    -0.01   0.20   0.18     0.00   0.06   0.13    -0.06  -0.09  -0.15
  47   6     0.03  -0.34  -0.17     0.15   0.09  -0.11    -0.03   0.17   0.05
  48   6    -0.03  -0.18  -0.17     0.11   0.07  -0.08     0.01   0.12   0.04
  49   8    -0.12  -0.16  -0.30     0.13   0.08  -0.07     0.10   0.13   0.02
  50   1     0.04  -0.13  -0.05    -0.00   0.07  -0.02    -0.01   0.05   0.01
  51   1     0.03  -0.08  -0.04     0.04  -0.03  -0.01    -0.01   0.06   0.01
  52   1    -0.03  -0.12  -0.06     0.10   0.04  -0.07    -0.01   0.05   0.03
  53   7    -0.12   0.09  -0.07     0.03   0.08   0.16     0.06  -0.03  -0.07
  54   6    -0.11   0.13  -0.03     0.06   0.09   0.25     0.06  -0.13  -0.15
  55   1    -0.06   0.06  -0.03     0.00   0.02   0.09     0.05  -0.04  -0.05
  56   1    -0.02   0.01  -0.02     0.04   0.04   0.07     0.00  -0.04  -0.04
  57   1    -0.02   0.06   0.02     0.01   0.03   0.08     0.00  -0.05  -0.06
                      4                      5                      6
                        a                      a                      a 
 Frequencies --    25.7793                34.8059                39.8239
 Red. masses --    12.6474                11.2879                12.1068
 Frc consts  --     0.0000                 0.0000                 0.0000
 IR Inten    --     1.3154                 0.7185                 3.5149
 Raman Activ --     0.0000                 0.0000                 0.0000
 Depolar     --     0.0000                 0.0000                 0.0000
 Atom AN      X      Y      Z        X      Y      Z        X      Y      Z
   1   7     0.05  -0.01  -0.06    -0.02   0.08   0.25    -0.03  -0.14   0.05
   2   6     0.05  -0.07  -0.03    -0.01   0.01   0.15    -0.03  -0.11   0.08
   3   6     0.07  -0.09  -0.02     0.08   0.00   0.08    -0.07  -0.12   0.12
   4   6     0.07  -0.13  -0.00     0.08  -0.05  -0.03    -0.08  -0.06   0.12
   5   6     0.06  -0.14  -0.01    -0.01  -0.08  -0.08    -0.05   0.01   0.08
   6   6     0.03  -0.12  -0.02    -0.10  -0.08  -0.01    -0.01  -0.00   0.06
   7   6     0.03  -0.09  -0.03    -0.10  -0.04   0.12     0.00  -0.06   0.06
   8   6     0.05  -0.13  -0.04    -0.02  -0.12  -0.20    -0.06   0.08   0.06
   9   6    -0.00  -0.10   0.01    -0.05  -0.07  -0.11    -0.12   0.08   0.05
  10   6     0.14  -0.04  -0.05     0.11  -0.05   0.04     0.15  -0.03   0.06
  11   6     0.09   0.02   0.02     0.11  -0.05   0.05     0.18  -0.07   0.09
  12   6    -0.03   0.04  -0.02     0.08  -0.02  -0.02     0.17  -0.04   0.02
  13   6    -0.09   0.11   0.03     0.08  -0.02  -0.00     0.17  -0.03  -0.00
  14   6    -0.11   0.07  -0.01     0.09  -0.02   0.00     0.19  -0.12  -0.14
  15   6    -0.14   0.11  -0.01     0.08  -0.01   0.03     0.16  -0.08  -0.16
  16   8     0.11  -0.09  -0.15     0.09  -0.02  -0.07     0.17   0.04   0.02
  17   8    -0.04   0.20   0.08     0.06   0.00   0.18    -0.14   0.09  -0.33
  18   1     0.02   0.01  -0.02     0.01   0.04   0.06    -0.02  -0.05   0.01
  19   1     0.00  -0.00  -0.01    -0.02   0.02   0.08    -0.00  -0.03  -0.01
  20   1     0.02  -0.02  -0.01     0.04   0.01   0.03    -0.03  -0.05   0.04
  21   1     0.03  -0.04   0.00     0.04  -0.02  -0.02    -0.03  -0.02   0.04
  22   1     0.01  -0.04  -0.01    -0.05  -0.03  -0.01     0.01   0.01   0.01
  23   1     0.00  -0.02  -0.01    -0.05  -0.01   0.05     0.01  -0.02   0.01
  24   1     0.01  -0.03  -0.02    -0.03  -0.03  -0.09    -0.01   0.03   0.02
  25   1     0.02  -0.05  -0.01     0.02  -0.06  -0.07    -0.02   0.03   0.02
  26   1    -0.02  -0.04   0.01    -0.03  -0.03  -0.02    -0.02   0.02   0.02
  27   1     0.02  -0.03  -0.02     0.01   0.00  -0.06    -0.07   0.02   0.03
  28   1    -0.04  -0.00   0.02    -0.02   0.02   0.05    -0.03   0.03   0.03
  29   1     0.06  -0.01  -0.02     0.05  -0.03   0.04     0.04  -0.01   0.02
  30   1     0.04   0.02   0.03     0.04  -0.02   0.03     0.05  -0.03   0.04
  31   1    -0.02  -0.00  -0.03     0.02   0.00  -0.02     0.05  -0.00  -0.01
  32   1    -0.05   0.04   0.01     0.02  -0.01   0.00     0.03   0.02  -0.01
  33   1    -0.01   0.05   0.03     0.02  -0.00   0.00     0.05  -0.01   0.03
  34   1    -0.02   0.01  -0.00     0.03  -0.00  -0.00     0.08  -0.07  -0.03
  35   1    -0.04   0.02  -0.01     0.02  -0.01  -0.00     0.05  -0.03  -0.07
  36   1    -0.04   0.02  -0.01     0.02  -0.00   0.01     0.05  -0.04  -0.07
  37   1    -0.05   0.04  -0.01     0.02  -0.01   0.01     0.03   0.00  -0.05
  38   1    -0.03   0.04   0.01     0.02  -0.00   0.01     0.05  -0.02  -0.02
  39   1    -0.02   0.05   0.02     0.01   0.06   0.02    -0.06  -0.03  -0.06
  40   1     0.02   0.05   0.02     0.00  -0.04  -0.00     0.02   0.06  -0.04
  41   8     0.34   0.43  -0.12    -0.40   0.07  -0.13     0.20   0.00   0.04
  42   1     0.11   0.15  -0.04    -0.17  -0.02  -0.09     0.10   0.04   0.03
  43   1     0.06   0.06  -0.04    -0.04   0.01  -0.03     0.04   0.00   0.01
  44   7    -0.00  -0.10   0.00    -0.01  -0.02  -0.15    -0.19   0.09   0.09
  45   6    -0.02   0.01   0.01    -0.04   0.02  -0.04    -0.13   0.05  -0.05
  46   8     0.05   0.07  -0.02    -0.03   0.03  -0.16    -0.19  -0.02  -0.24
  47   6    -0.09  -0.10   0.06     0.10   0.07  -0.18    -0.08   0.11   0.02
  48   6    -0.11  -0.10   0.08     0.03   0.02  -0.11    -0.06   0.09   0.02
  49   8    -0.24  -0.11   0.17    -0.01  -0.00  -0.05     0.04   0.10  -0.05
  50   1     0.02  -0.08  -0.01    -0.03   0.07  -0.05    -0.06   0.07   0.02
  51   1    -0.01   0.04  -0.00     0.03  -0.05  -0.02    -0.03  -0.01   0.02
  52   1    -0.08  -0.04   0.06     0.09   0.04  -0.09     0.02   0.04  -0.02
  53   7    -0.12   0.04   0.05    -0.07   0.11   0.16    -0.11   0.09   0.06
  54   6    -0.14   0.15   0.07    -0.06   0.20   0.27    -0.12   0.04  -0.03
  55   1    -0.06   0.04   0.03    -0.04   0.04   0.12    -0.01   0.00  -0.01
  56   1    -0.04   0.06   0.02    -0.00   0.10   0.09    -0.06   0.02  -0.01
  57   1    -0.02   0.06   0.01    -0.01   0.06   0.06    -0.04  -0.00  -0.04
                      7                      8                      9
                        a                      a                      a 
 Frequencies --    52.8348                54.4134                60.0867
 Red. masses --    10.1334                12.2309                 9.7687
 Frc consts  --     0.0000                 0.0000                 0.0000
 IR Inten    --     3.5392                 7.4710                 0.3715
 Raman Activ --     0.0000                 0.0000                 0.0000
 Depolar     --     0.0000                 0.0000                 0.0000
 Atom AN      X      Y      Z        X      Y      Z        X      Y      Z
   1   7    -0.05   0.06   0.12     0.01   0.08  -0.05    -0.03   0.03   0.17
   2   6    -0.04   0.04   0.09     0.01   0.07  -0.01    -0.03   0.00   0.10
   3   6    -0.02   0.06   0.04    -0.01   0.14  -0.07     0.02   0.05  -0.01
   4   6    -0.02   0.06  -0.01    -0.00   0.11  -0.03     0.02   0.02  -0.09
   5   6    -0.05   0.03  -0.02     0.02   0.03   0.08    -0.03  -0.05  -0.06
   6   6    -0.07   0.01   0.04     0.04  -0.03   0.15    -0.08  -0.10   0.05
   7   6    -0.07   0.01   0.09     0.04  -0.00   0.10    -0.07  -0.08   0.14
   8   6    -0.05   0.01  -0.06     0.03   0.02   0.10    -0.03  -0.09  -0.13
   9   6    -0.02  -0.00  -0.06     0.01  -0.03   0.03    -0.02  -0.04  -0.05
  10   6     0.06  -0.09   0.10    -0.12   0.03  -0.03     0.02  -0.07   0.07
  11   6    -0.00  -0.01   0.12    -0.10   0.01  -0.13     0.07  -0.12  -0.10
  12   6    -0.09   0.01   0.07    -0.03   0.01  -0.14     0.14  -0.06  -0.23
  13   6    -0.14   0.06   0.10     0.01  -0.03  -0.17     0.16  -0.08  -0.33
  14   6    -0.17   0.06   0.10    -0.04   0.11   0.04    -0.02   0.12   0.00
  15   6    -0.19   0.08   0.09    -0.01   0.06   0.07    -0.05   0.16   0.06
  16   8     0.01  -0.15   0.00    -0.09   0.06   0.07     0.06   0.05   0.12
  17   8     0.12  -0.12  -0.39     0.10  -0.08  -0.09     0.01  -0.02  -0.21
  18   1    -0.01   0.03   0.03    -0.00   0.02  -0.02    -0.00   0.02   0.04
  19   1    -0.02   0.02   0.04     0.01   0.02  -0.01    -0.02   0.01   0.05
  20   1     0.00   0.02   0.01    -0.01   0.06  -0.05     0.02   0.03  -0.01
  21   1     0.00   0.02  -0.01    -0.01   0.05  -0.02     0.02   0.02  -0.05
  22   1    -0.03  -0.00   0.01     0.02  -0.03   0.07    -0.03  -0.04   0.02
  23   1    -0.03  -0.00   0.04     0.02  -0.01   0.04    -0.03  -0.03   0.06
  24   1    -0.02  -0.00  -0.02     0.01  -0.00   0.04    -0.03  -0.02  -0.06
  25   1    -0.01   0.00  -0.02     0.00   0.02   0.03     0.01  -0.05  -0.04
  26   1    -0.01   0.00  -0.03     0.01  -0.00  -0.00    -0.01  -0.02   0.00
  27   1     0.01   0.00  -0.03     0.02  -0.03   0.01    -0.01   0.01  -0.03
  28   1     0.02  -0.01  -0.01     0.01   0.03   0.11    -0.01  -0.03  -0.05
  29   1     0.04  -0.03   0.04    -0.05   0.00  -0.01    -0.02  -0.04   0.05
  30   1     0.01   0.01   0.05    -0.04  -0.01  -0.05     0.01  -0.06  -0.04
  31   1    -0.04  -0.01   0.01     0.00   0.01  -0.02     0.05   0.00  -0.06
  32   1    -0.05   0.02   0.03     0.04  -0.05  -0.04     0.11  -0.09  -0.08
  33   1    -0.03   0.03   0.03    -0.01  -0.01  -0.10     0.03  -0.01  -0.18
  34   1    -0.05   0.02   0.03    -0.04   0.08   0.00    -0.04   0.11  -0.02
  35   1    -0.05   0.01   0.03     0.00   0.03   0.06     0.00   0.00   0.08
  36   1    -0.06   0.02   0.03    -0.01   0.04   0.05    -0.04   0.08   0.07
  37   1    -0.05   0.02   0.03     0.02  -0.02   0.03     0.01  -0.01   0.04
  38   1    -0.05   0.03   0.02    -0.01   0.02  -0.02    -0.02   0.07  -0.03
  39   1    -0.07  -0.13  -0.06     0.01  -0.06  -0.01    -0.04  -0.06  -0.03
  40   1     0.06   0.04  -0.02     0.01   0.00   0.00     0.02   0.04  -0.01
  41   8     0.24   0.16   0.04     0.13  -0.09   0.11     0.04  -0.05   0.15
  42   1     0.16   0.14   0.03     0.08   0.01   0.07     0.06   0.03   0.06
  43   1     0.01  -0.00  -0.00    -0.00  -0.01   0.03    -0.00  -0.01   0.04
  44   7     0.04  -0.00  -0.10    -0.02  -0.09   0.06    -0.00   0.03  -0.06
  45   6    -0.00  -0.04  -0.00    -0.02  -0.05  -0.09     0.00  -0.01   0.05
  46   8    -0.03  -0.06   0.06    -0.07  -0.19  -0.55     0.05   0.08   0.31
  47   6     0.18  -0.02  -0.19     0.08  -0.11  -0.03    -0.10   0.15   0.05
  48   6     0.09   0.00  -0.14     0.01  -0.09   0.02    -0.05   0.06   0.03
  49   8     0.06   0.00  -0.13    -0.03  -0.10   0.03    -0.04   0.05   0.08
  50   1    -0.09   0.14   0.00     0.08  -0.10  -0.05     0.08  -0.08  -0.05
  51   1     0.03  -0.22   0.02     0.05   0.06  -0.02    -0.01   0.23  -0.05
  52   1     0.21   0.04  -0.19    -0.04  -0.05   0.03    -0.16   0.01   0.14
  53   7     0.06  -0.06  -0.01     0.02   0.08   0.28    -0.03  -0.07  -0.12
  54   6     0.09  -0.09   0.05    -0.01   0.10   0.19    -0.00  -0.03  -0.00
  55   1     0.02  -0.03   0.02     0.03  -0.01   0.10    -0.03   0.01  -0.01
  56   1     0.04  -0.03   0.02    -0.04   0.10   0.07     0.03  -0.03  -0.01
  57   1     0.01  -0.03   0.03    -0.01   0.01  -0.02     0.00   0.01   0.04
                     10                     11                     12
                        a                      a                      a 
 Frequencies --    62.9523                63.9574                70.0677
 Red. masses --     9.9877                 7.2421                10.0744
 Frc consts  --     0.0000                 0.0000                 0.0000
 IR Inten    --     1.9171                 3.8322                 0.7529
 Raman Activ --     0.0000                 0.0000                 0.0000
 Depolar     --     0.0000                 0.0000                 0.0000
 Atom AN      X      Y      Z        X      Y      Z        X      Y      Z
   1   7    -0.02   0.18   0.05    -0.01  -0.06   0.02    -0.02   0.11   0.06
   2   6    -0.02   0.13   0.01    -0.01  -0.02   0.01    -0.01   0.07   0.03
   3   6     0.04   0.13  -0.03    -0.03  -0.00   0.01     0.05  -0.18   0.31
   4   6     0.04   0.07  -0.06    -0.04   0.03   0.00     0.05  -0.21   0.33
   5   6    -0.00   0.01  -0.05    -0.02   0.06  -0.00    -0.01   0.01   0.05
   6   6    -0.06   0.02  -0.01     0.00   0.05  -0.01    -0.07   0.26  -0.26
   7   6    -0.07   0.08   0.02     0.01   0.01  -0.01    -0.07   0.29  -0.27
   8   6     0.00  -0.05  -0.08    -0.02   0.06   0.02    -0.01   0.01   0.06
   9   6     0.02  -0.03  -0.05     0.01   0.03  -0.02    -0.02   0.01   0.04
  10   6    -0.11  -0.01  -0.02     0.09  -0.01   0.04    -0.01  -0.07   0.00
  11   6    -0.13   0.01  -0.01     0.08   0.00   0.04    -0.01  -0.07  -0.07
  12   6    -0.07  -0.07   0.16     0.11  -0.11   0.27     0.02  -0.05  -0.12
  13   6    -0.03  -0.12   0.19     0.04  -0.02   0.16     0.04  -0.07  -0.16
  14   6     0.14  -0.24  -0.02    -0.21  -0.09   0.11    -0.04   0.04   0.01
  15   6     0.20  -0.32  -0.06    -0.27  -0.00  -0.20    -0.04   0.03   0.01
  16   8    -0.14  -0.05  -0.03     0.10  -0.01   0.03    -0.01  -0.05  -0.01
  17   8     0.26  -0.13  -0.22    -0.19   0.14  -0.08     0.22  -0.10   0.04
  18   1     0.00   0.07   0.01    -0.01  -0.02   0.01     0.00   0.02   0.03
  19   1    -0.02   0.05   0.02     0.00  -0.02  -0.00    -0.01   0.04  -0.00
  20   1     0.02   0.05  -0.01    -0.01  -0.01   0.01     0.03  -0.10   0.15
  21   1     0.02   0.02  -0.02    -0.02   0.01   0.00     0.03  -0.12   0.16
  22   1    -0.03  -0.00  -0.00     0.01   0.02  -0.00    -0.03   0.13  -0.14
  23   1    -0.03   0.03   0.01     0.01   0.00  -0.00    -0.04   0.14  -0.14
  24   1    -0.01  -0.02  -0.03    -0.00   0.01   0.02    -0.00   0.01   0.02
  25   1     0.01  -0.03  -0.03    -0.01   0.03   0.01    -0.00   0.01   0.02
  26   1     0.00  -0.01  -0.01     0.01   0.02  -0.02    -0.00   0.00   0.01
  27   1    -0.01  -0.00  -0.01     0.04   0.00  -0.02    -0.01  -0.00   0.02
  28   1    -0.01  -0.00  -0.01     0.03   0.01   0.01     0.00   0.00   0.01
  29   1    -0.02  -0.00  -0.00     0.02   0.00   0.00    -0.00  -0.03   0.02
  30   1    -0.04   0.02  -0.03     0.01   0.04  -0.05    -0.01  -0.03  -0.02
  31   1    -0.01  -0.03   0.08     0.05  -0.07   0.14     0.01  -0.01  -0.03
  32   1    -0.03   0.00   0.04     0.04   0.01   0.04     0.05  -0.05  -0.04
  33   1    -0.01  -0.06   0.10     0.02   0.02   0.02    -0.00  -0.01  -0.09
  34   1     0.06  -0.11   0.01    -0.11  -0.05   0.05    -0.04   0.05  -0.00
  35   1     0.04  -0.04  -0.05    -0.05  -0.04   0.07    -0.00   0.00   0.05
  36   1     0.09  -0.11  -0.05    -0.13  -0.02  -0.08    -0.02   0.03   0.03
  37   1     0.05  -0.06  -0.03    -0.03   0.03  -0.08     0.01  -0.02   0.01
  38   1     0.05  -0.12   0.02    -0.08   0.01  -0.09    -0.02   0.02  -0.03
  39   1    -0.01  -0.10  -0.03    -0.04   0.04  -0.02     0.01  -0.05   0.01
  40   1     0.05   0.01  -0.01    -0.00   0.04  -0.02     0.03  -0.01   0.02
  41   8     0.08   0.20  -0.00    -0.12   0.04  -0.01    -0.01   0.13  -0.01
  42   1     0.08   0.11   0.01    -0.10  -0.04  -0.04     0.03   0.08  -0.01
  43   1    -0.02   0.01  -0.01     0.00   0.01  -0.00    -0.00   0.01  -0.01
  44   7     0.01  -0.02  -0.05     0.04   0.01  -0.04    -0.03  -0.00   0.05
  45   6     0.02   0.01  -0.01     0.02  -0.02  -0.02    -0.03  -0.01   0.01
  46   8     0.05   0.05   0.05    -0.02  -0.07  -0.08    -0.05  -0.05  -0.05
  47   6    -0.17   0.04   0.09     0.17   0.01  -0.14     0.03  -0.04  -0.01
  48   6    -0.06  -0.00   0.02     0.06   0.00  -0.06     0.01  -0.02  -0.00
  49   8    -0.01  -0.02   0.02     0.03   0.01  -0.05     0.04  -0.01  -0.05
  50   1     0.07  -0.11  -0.02     0.25  -0.22  -0.17     0.05  -0.06  -0.03
  51   1    -0.05   0.19  -0.05     0.12   0.33  -0.12     0.02   0.05  -0.02
  52   1    -0.18  -0.02   0.15    -0.18  -0.06   0.14    -0.04  -0.03   0.03
  53   7    -0.01   0.02  -0.01     0.08  -0.01   0.03    -0.01  -0.01   0.04
  54   6    -0.00   0.09   0.09     0.10  -0.06   0.05    -0.01  -0.05  -0.02
  55   1    -0.03   0.03   0.04     0.04  -0.03   0.02     0.01  -0.02  -0.01
  56   1     0.02   0.03   0.03     0.03  -0.00   0.02    -0.02  -0.01  -0.01
  57   1     0.01   0.04   0.04     0.02  -0.03   0.00    -0.01  -0.02  -0.01
                     13                     14                     15
                        a                      a                      a 
 Frequencies --    78.0410                81.8182                84.6658
 Red. masses --    11.1598                 8.3832                11.4188
 Frc consts  --     0.0000                 0.0000                 0.0000
 IR Inten    --     2.1786                 5.9240                 2.8981
 Raman Activ --     0.0000                 0.0000                 0.0000
 Depolar     --     0.0000                 0.0000                 0.0000
 Atom AN      X      Y      Z        X      Y      Z        X      Y      Z
   1   7    -0.05  -0.08  -0.07    -0.03  -0.03   0.07     0.07  -0.10   0.21
   2   6    -0.05  -0.07  -0.03    -0.03  -0.03   0.06     0.06  -0.03   0.13
   3   6    -0.09  -0.03  -0.04    -0.01  -0.04   0.05     0.08  -0.06   0.15
   4   6    -0.10   0.01  -0.03    -0.02  -0.04   0.04     0.08  -0.02   0.08
   5   6    -0.07   0.02  -0.01    -0.03  -0.03   0.02     0.06   0.05  -0.01
   6   6    -0.03  -0.03   0.02    -0.04  -0.03   0.03     0.04   0.09  -0.04
   7   6    -0.02  -0.07   0.01    -0.03  -0.03   0.05     0.05   0.04   0.03
   8   6    -0.09   0.07  -0.01    -0.03  -0.03   0.01     0.06   0.05  -0.04
   9   6    -0.10   0.05  -0.05    -0.03  -0.01   0.05     0.08   0.02  -0.09
  10   6     0.13   0.01   0.03    -0.04   0.02  -0.01    -0.05  -0.05  -0.02
  11   6     0.08   0.08   0.12    -0.06   0.04   0.03    -0.08  -0.03   0.04
  12   6    -0.05   0.16  -0.03    -0.14   0.10  -0.09    -0.22   0.07  -0.17
  13   6    -0.06   0.18   0.04    -0.13   0.07   0.03    -0.22   0.05  -0.02
  14   6     0.05   0.17   0.01     0.14   0.00  -0.13     0.03   0.04  -0.08
  15   6     0.13   0.07  -0.01     0.15  -0.03   0.13     0.08  -0.04   0.15
  16   8     0.09  -0.08  -0.07    -0.06  -0.03  -0.02    -0.07  -0.11  -0.04
  17   8     0.19  -0.23   0.30    -0.03  -0.08   0.05    -0.45   0.18  -0.18
  18   1    -0.02  -0.02  -0.02    -0.01  -0.01   0.02     0.02  -0.04   0.06
  19   1    -0.01  -0.02  -0.02    -0.01  -0.01   0.01     0.03  -0.02   0.04
  20   1    -0.04  -0.01  -0.02    -0.00  -0.01   0.02     0.03  -0.03   0.06
  21   1    -0.04   0.01  -0.01    -0.00  -0.01   0.01     0.02  -0.01   0.03
  22   1     0.00  -0.01   0.01    -0.01  -0.01   0.01     0.01   0.04  -0.03
  23   1     0.00  -0.03   0.01    -0.01  -0.01   0.02     0.01   0.02   0.00
  24   1    -0.02   0.02   0.01    -0.01  -0.01  -0.01     0.01   0.01  -0.00
  25   1    -0.03   0.03  -0.00    -0.00  -0.02   0.00     0.02   0.02  -0.01
  26   1    -0.02   0.02  -0.02    -0.02  -0.01   0.02     0.02   0.01  -0.03
  27   1    -0.07   0.01   0.02     0.07   0.01  -0.04     0.00  -0.01  -0.01
  28   1     0.02  -0.00  -0.02    -0.03   0.00   0.01     0.04   0.00  -0.02
  29   1     0.07   0.02  -0.01     0.00   0.00   0.00     0.01  -0.03   0.02
  30   1     0.05   0.03   0.08     0.00   0.00   0.05     0.00  -0.03   0.08
  31   1    -0.03   0.06  -0.06    -0.06   0.04  -0.08    -0.09   0.04  -0.13
  32   1    -0.04   0.05   0.01    -0.09   0.05   0.01    -0.12   0.02  -0.00
  33   1    -0.01   0.05   0.04    -0.03  -0.00   0.08    -0.05   0.00   0.05
  34   1     0.01   0.05   0.00     0.12  -0.02  -0.04     0.06   0.01  -0.03
  35   1     0.03   0.07  -0.00     0.02   0.02  -0.12    -0.00   0.03  -0.08
  36   1     0.05   0.03   0.00     0.10  -0.01   0.02     0.07  -0.00   0.05
  37   1     0.05   0.01  -0.00    -0.03   0.00   0.04    -0.02  -0.02   0.05
  38   1     0.02   0.00  -0.01     0.06  -0.02   0.11     0.03  -0.03   0.08
  39   1     0.05  -0.01   0.05    -0.00  -0.02   0.01    -0.07   0.04  -0.04
  40   1     0.01  -0.10   0.03    -0.01  -0.02   0.01    -0.05   0.06  -0.04
  41   8     0.18  -0.10  -0.10     0.08  -0.06   0.02    -0.00  -0.08   0.05
  42   1     0.11   0.03   0.00     0.07   0.02   0.03    -0.05  -0.07   0.00
  43   1     0.02  -0.02  -0.03     0.00  -0.01   0.00     0.00  -0.01   0.02
  44   7    -0.13   0.03  -0.04     0.03   0.02   0.01     0.08  -0.02  -0.09
  45   6    -0.08  -0.02   0.00    -0.03   0.02   0.03     0.09   0.01  -0.06
  46   8    -0.15  -0.07   0.09    -0.01   0.05   0.02     0.09  -0.00  -0.06
  47   6    -0.15   0.02  -0.03     0.45   0.10  -0.26    -0.16  -0.06   0.06
  48   6    -0.03   0.02  -0.11     0.10   0.03  -0.00    -0.00  -0.03  -0.05
  49   8     0.16   0.03  -0.28    -0.10   0.03   0.19     0.06  -0.03  -0.13
  50   1     0.07  -0.11  -0.05     0.23  -0.11  -0.21     0.02  -0.07   0.02
  51   1    -0.04   0.18  -0.08     0.23   0.22  -0.08    -0.07   0.06  -0.03
  52   1    -0.18  -0.03   0.10     0.02  -0.01   0.00    -0.12  -0.04   0.08
  53   7     0.03  -0.04   0.03    -0.09   0.01  -0.04     0.13   0.02  -0.02
  54   6     0.11  -0.09   0.22    -0.14  -0.02  -0.25     0.16   0.04   0.14
  55   1     0.02  -0.03   0.07    -0.01  -0.00  -0.10     0.03   0.01   0.06
  56   1     0.08  -0.03   0.06    -0.09  -0.02  -0.08     0.08   0.03   0.04
  57   1     0.01  -0.03   0.10    -0.03  -0.01  -0.10     0.04   0.01   0.05
                     16                     17                     18
                        a                      a                      a 
 Frequencies --    96.4124               103.9187               108.9438
 Red. masses --    11.5148                11.9053                 9.5248
 Frc consts  --     0.0000                 0.0000                 0.0000
 IR Inten    --    10.3665                 6.5319                14.4293
 Raman Activ --     0.0000                 0.0000                 0.0000
 Depolar     --     0.0000                 0.0000                 0.0000
 Atom AN      X      Y      Z        X      Y      Z        X      Y      Z
   1   7     0.06  -0.05  -0.03     0.01  -0.17  -0.15    -0.03  -0.10   0.00
   2   6     0.06  -0.11   0.01     0.01  -0.11  -0.12    -0.03  -0.02  -0.03
   3   6     0.07  -0.11   0.00    -0.07  -0.06  -0.12    -0.07   0.02  -0.05
   4   6     0.07  -0.13   0.02    -0.08   0.02  -0.08    -0.07   0.07  -0.06
   5   6     0.07  -0.15   0.04    -0.01   0.04  -0.03    -0.04   0.09  -0.05
   6   6     0.07  -0.18   0.08     0.07  -0.00  -0.04    -0.01   0.09  -0.07
   7   6     0.07  -0.16   0.07     0.07  -0.07  -0.09    -0.01   0.03  -0.06
   8   6     0.06  -0.09  -0.01    -0.01   0.09   0.06    -0.03   0.07   0.02
   9   6    -0.01  -0.01   0.09     0.01   0.05   0.00     0.04   0.02  -0.02
  10   6    -0.11   0.04  -0.01     0.03  -0.06   0.14     0.09  -0.10   0.11
  11   6    -0.13   0.05   0.01     0.02  -0.03   0.08     0.03  -0.01   0.11
  12   6    -0.13   0.07  -0.02    -0.01   0.03  -0.05    -0.04   0.06  -0.05
  13   6    -0.10   0.03  -0.03    -0.01   0.03  -0.06    -0.01   0.04  -0.06
  14   6    -0.13   0.15   0.14     0.12  -0.04  -0.17    -0.03   0.22   0.19
  15   6     0.08  -0.09  -0.13    -0.02   0.12   0.18     0.31  -0.18  -0.24
  16   8    -0.12  -0.02   0.04     0.06  -0.08   0.26     0.06  -0.20   0.05
  17   8     0.06   0.03  -0.13     0.19  -0.04  -0.10    -0.15  -0.13  -0.00
  18   1     0.02  -0.01  -0.01    -0.00  -0.05  -0.04    -0.01  -0.03   0.00
  19   1     0.01  -0.01  -0.01     0.01  -0.05  -0.04     0.00  -0.03   0.00
  20   1     0.02  -0.03  -0.01    -0.04  -0.02  -0.05    -0.03  -0.00  -0.01
  21   1     0.02  -0.04   0.00    -0.04   0.02  -0.02    -0.03   0.03  -0.02
  22   1     0.02  -0.06   0.03     0.04   0.00  -0.00     0.00   0.03  -0.02
  23   1     0.02  -0.05   0.03     0.04  -0.03  -0.03     0.01   0.01  -0.02
  24   1     0.02  -0.01  -0.03     0.02   0.02   0.04    -0.00   0.01   0.03
  25   1     0.03  -0.05  -0.01    -0.02   0.05   0.02    -0.03   0.03   0.01
  26   1     0.00  -0.02   0.05     0.00   0.02  -0.01     0.00   0.01  -0.02
  27   1    -0.08   0.01   0.07     0.02  -0.00   0.00     0.08  -0.00  -0.05
  28   1    -0.03   0.00   0.00     0.02   0.01   0.00     0.02   0.01   0.02
  29   1    -0.03   0.02  -0.01    -0.01  -0.00   0.02     0.05  -0.02   0.03
  30   1    -0.03   0.01   0.01     0.01  -0.02   0.03     0.02  -0.00   0.06
  31   1    -0.04   0.03  -0.01    -0.01   0.02  -0.03    -0.02   0.03  -0.04
  32   1     0.01  -0.03   0.00    -0.03   0.03  -0.02     0.04  -0.05  -0.00
  33   1    -0.04   0.01  -0.05     0.01  -0.00   0.02    -0.02   0.01  -0.08
  34   1    -0.14   0.08   0.05     0.14  -0.03  -0.06    -0.17   0.12   0.06
  35   1     0.02   0.09   0.13    -0.01  -0.04  -0.14     0.08   0.14   0.19
  36   1     0.02  -0.00  -0.01     0.02   0.03   0.04     0.09  -0.03  -0.03
  37   1     0.13  -0.06  -0.04    -0.11   0.04   0.07     0.25  -0.09  -0.08
  38   1    -0.03  -0.07  -0.12     0.04   0.06   0.13     0.00  -0.13  -0.18
  39   1    -0.02  -0.03  -0.02    -0.07  -0.12   0.01    -0.08  -0.06   0.01
  40   1     0.02   0.04  -0.00     0.08   0.06   0.05     0.01  -0.01   0.02
  41   8    -0.17   0.23   0.05    -0.38   0.40   0.25    -0.09   0.09   0.01
  42   1    -0.10   0.02  -0.03    -0.14   0.10  -0.03     0.01   0.07  -0.03
  43   1    -0.02   0.03   0.01    -0.03   0.04   0.05    -0.01  -0.02  -0.00
  44   7    -0.08   0.05   0.14     0.02  -0.00  -0.00     0.12  -0.01  -0.06
  45   6    -0.02   0.04   0.03     0.01   0.01  -0.00     0.05   0.01  -0.00
  46   8     0.01   0.07   0.01    -0.02  -0.02  -0.03     0.05  -0.00  -0.03
  47   6     0.05   0.04   0.04    -0.02  -0.07   0.00     0.03   0.02   0.01
  48   6     0.13   0.05  -0.02    -0.02  -0.02  -0.01    -0.05  -0.00   0.06
  49   8     0.41   0.07  -0.25    -0.07  -0.01  -0.01    -0.26  -0.02   0.27
  50   1     0.04  -0.01   0.01     0.03  -0.05  -0.01    -0.02   0.03   0.00
  51   1     0.01   0.04  -0.01     0.00   0.02  -0.01     0.01  -0.03   0.02
  52   1    -0.01   0.01   0.03    -0.04  -0.03   0.02     0.04   0.01  -0.02
  53   7    -0.08   0.06   0.05     0.05   0.01   0.01     0.05   0.00  -0.02
  54   6    -0.13   0.06  -0.13     0.07  -0.03   0.03     0.05   0.00  -0.03
  55   1    -0.04   0.05  -0.09     0.03  -0.02   0.02     0.04  -0.04   0.03
  56   1    -0.07  -0.03  -0.05     0.02   0.00   0.01    -0.00   0.06   0.00
  57   1    -0.02   0.04  -0.02     0.01  -0.02   0.00     0.00  -0.02  -0.06
                     19                     20                     21
                        a                      a                      a 
 Frequencies --   119.2729               125.7857               131.4177
 Red. masses --    11.4368                 2.2385                 9.9660
 Frc consts  --     0.0000                 0.0000                 0.0000
 IR Inten    --    10.2970                 0.7658                17.3795
 Raman Activ --     0.0000                 0.0000                 0.0000
 Depolar     --     0.0000                 0.0000                 0.0000
 Atom AN      X      Y      Z        X      Y      Z        X      Y      Z
   1   7    -0.10   0.18  -0.07    -0.02   0.05  -0.01     0.02   0.20  -0.17
   2   6    -0.07   0.15  -0.10    -0.01   0.03  -0.01     0.03   0.11  -0.09
   3   6    -0.04   0.16  -0.14    -0.00   0.02  -0.02     0.02   0.09  -0.06
   4   6    -0.03   0.08  -0.13     0.00  -0.00  -0.02     0.04   0.02   0.01
   5   6    -0.05   0.00  -0.08    -0.01  -0.02  -0.01     0.02  -0.03   0.04
   6   6    -0.10   0.05  -0.10    -0.02  -0.01  -0.01     0.02  -0.00   0.01
   7   6    -0.12   0.13  -0.11    -0.03   0.01  -0.01     0.01   0.07  -0.05
   8   6    -0.02  -0.10   0.00    -0.00  -0.04  -0.01     0.00  -0.01   0.02
   9   6     0.06  -0.07   0.09     0.01  -0.01   0.03    -0.09  -0.01   0.01
  10   6     0.17  -0.17   0.17     0.02  -0.02   0.03     0.11  -0.19   0.10
  11   6     0.10  -0.04   0.11     0.01  -0.00   0.02     0.03  -0.06   0.00
  12   6     0.02  -0.01   0.02     0.00  -0.00   0.01    -0.08  -0.04  -0.06
  13   6     0.00   0.03  -0.00    -0.00   0.01   0.00    -0.11  -0.01  -0.02
  14   6     0.03   0.01  -0.04     0.01  -0.01  -0.02    -0.02   0.02   0.01
  15   6    -0.01   0.06   0.08    -0.02   0.02   0.03     0.08  -0.11   0.02
  16   8     0.13  -0.23   0.06     0.01  -0.03   0.00     0.09  -0.25   0.07
  17   8    -0.26  -0.07   0.04    -0.04  -0.01   0.01     0.20   0.41  -0.06
  18   1    -0.02   0.05  -0.01    -0.00   0.01  -0.00     0.02   0.06  -0.04
  19   1    -0.03   0.04   0.01    -0.01   0.01   0.00    -0.00   0.05  -0.02
  20   1    -0.00   0.06  -0.05     0.00   0.01  -0.01     0.00   0.03  -0.03
  21   1     0.00   0.02  -0.04     0.00  -0.00  -0.01     0.02  -0.00   0.01
  22   1    -0.04   0.00  -0.03    -0.01  -0.01  -0.00     0.01  -0.01   0.01
  23   1    -0.05   0.04  -0.03    -0.01   0.00  -0.00    -0.00   0.03  -0.02
  24   1    -0.02  -0.03  -0.01    -0.00  -0.01  -0.01     0.00   0.00   0.00
  25   1    -0.01  -0.06   0.01     0.00  -0.02  -0.00     0.01   0.00  -0.00
  26   1     0.02  -0.03   0.04     0.00  -0.01   0.02    -0.02  -0.00   0.01
  27   1    -0.01  -0.01   0.04    -0.02   0.00   0.02    -0.03   0.00   0.00
  28   1    -0.04  -0.01   0.04    -0.01   0.00   0.02    -0.01  -0.01  -0.02
  29   1     0.07  -0.04   0.04     0.01  -0.01   0.01     0.04  -0.05   0.02
  30   1     0.04  -0.00   0.04     0.00   0.00   0.00     0.02  -0.00   0.01
  31   1     0.00  -0.01  -0.00     0.00  -0.00   0.00    -0.03  -0.02  -0.03
  32   1    -0.01   0.02  -0.00    -0.00   0.01   0.00    -0.05  -0.01   0.00
  33   1     0.01   0.01   0.01     0.00   0.00   0.01    -0.03  -0.00   0.01
  34   1     0.04  -0.00  -0.01     0.02  -0.01  -0.01    -0.02   0.02   0.00
  35   1    -0.01  -0.01  -0.04    -0.01  -0.01  -0.02     0.01   0.03   0.01
  36   1     0.00   0.02   0.02    -0.01   0.01   0.01     0.05  -0.02   0.02
  37   1    -0.03   0.02   0.03    -0.02   0.01   0.01     0.04  -0.05   0.01
  38   1     0.01   0.03   0.04     0.00   0.02   0.01     0.01  -0.06  -0.00
  39   1    -0.09  -0.03   0.01    -0.01  -0.00   0.00     0.10   0.09  -0.00
  40   1    -0.02  -0.00   0.02    -0.01  -0.00   0.00     0.08   0.12  -0.00
  41   8    -0.02  -0.11   0.01    -0.00  -0.02  -0.01     0.13  -0.10   0.15
  42   1     0.07   0.05   0.02     0.02   0.01   0.01    -0.32  -0.38  -0.01
  43   1    -0.02  -0.04  -0.00    -0.01  -0.01  -0.00     0.05   0.03   0.05
  44   7     0.07  -0.04   0.09     0.00   0.01   0.04    -0.15  -0.01   0.04
  45   6     0.05  -0.01   0.06     0.01   0.01   0.04    -0.10  -0.02  -0.00
  46   8     0.10   0.01  -0.08     0.04   0.05   0.12    -0.13  -0.03   0.08
  47   6    -0.02  -0.08   0.14    -0.02  -0.04   0.04     0.05   0.06  -0.08
  48   6     0.12  -0.05   0.03     0.04  -0.00  -0.01    -0.05   0.01  -0.00
  49   8     0.30  -0.04  -0.11     0.13   0.01  -0.11    -0.04   0.00   0.02
  50   1     0.03  -0.05   0.06     0.01  -0.02   0.02     0.01   0.02  -0.05
  51   1    -0.03   0.01   0.01    -0.01  -0.00   0.00     0.03   0.02  -0.01
  52   1    -0.04  -0.03   0.07    -0.02  -0.02   0.02     0.02   0.02  -0.03
  53   7    -0.05   0.06   0.19    -0.04  -0.03  -0.09    -0.08  -0.05  -0.06
  54   6    -0.18   0.11  -0.17    -0.05   0.04  -0.05    -0.03  -0.06   0.08
  55   1    -0.08   0.11  -0.17     0.22  -0.30   0.37    -0.01  -0.03   0.04
  56   1    -0.10  -0.10  -0.08    -0.17   0.53   0.09     0.02  -0.01   0.03
  57   1     0.00   0.09   0.02    -0.10  -0.19  -0.51    -0.02  -0.02   0.03
                     22                     23                     24
                        a                      a                      a 
 Frequencies --   140.6363               149.5475               158.2818
 Red. masses --    10.1770                 9.3020                11.4033
 Frc consts  --     0.0000                 0.0000                 0.0000
 IR Inten    --    44.8971                31.6640                13.2824
 Raman Activ --     0.0000                 0.0000                 0.0000
 Depolar     --     0.0000                 0.0000                 0.0000
 Atom AN      X      Y      Z        X      Y      Z        X      Y      Z
   1   7    -0.08  -0.24   0.28     0.01   0.02   0.01     0.08   0.13   0.05
   2   6    -0.09  -0.11   0.08     0.02   0.04   0.00     0.08   0.05  -0.00
   3   6    -0.10  -0.03  -0.02     0.02   0.03   0.02     0.15   0.04  -0.05
   4   6    -0.13   0.06  -0.13     0.02   0.00   0.03     0.15  -0.05  -0.09
   5   6    -0.12   0.07  -0.14     0.02  -0.01   0.04     0.08  -0.11  -0.10
   6   6    -0.12   0.05  -0.12     0.01   0.01   0.02     0.01  -0.09  -0.06
   7   6    -0.11  -0.04  -0.01     0.01   0.03   0.00     0.01  -0.02  -0.00
   8   6    -0.09   0.01  -0.03     0.02  -0.02   0.02     0.05  -0.06  -0.14
   9   6     0.06   0.02   0.05    -0.01  -0.03  -0.01    -0.06   0.13   0.11
  10   6    -0.04   0.05  -0.03    -0.04   0.06   0.04     0.01   0.00  -0.02
  11   6     0.01  -0.04   0.05    -0.08   0.11   0.01    -0.03   0.05  -0.06
  12   6    -0.02   0.01  -0.03     0.06   0.07   0.10     0.01   0.01   0.02
  13   6    -0.02  -0.00  -0.00     0.12   0.01  -0.07     0.02  -0.00   0.00
  14   6    -0.02   0.00   0.00     0.08   0.02  -0.05     0.04  -0.01  -0.01
  15   6    -0.01  -0.01  -0.01     0.00   0.11   0.01     0.04  -0.01  -0.01
  16   8    -0.03   0.13  -0.06    -0.07  -0.08   0.08     0.01  -0.07   0.00
  17   8     0.30   0.11  -0.04    -0.29  -0.46  -0.04    -0.15  -0.09  -0.01
  18   1    -0.01  -0.06   0.08     0.01   0.00   0.01     0.03   0.05   0.01
  19   1    -0.02  -0.06   0.06     0.02  -0.00   0.01     0.01   0.04   0.03
  20   1    -0.03  -0.02   0.00     0.00   0.01   0.00     0.06   0.03  -0.01
  21   1    -0.04   0.03  -0.05     0.01  -0.00   0.01     0.06  -0.02  -0.03
  22   1    -0.04   0.02  -0.04     0.00   0.00   0.01    -0.01  -0.04  -0.02
  23   1    -0.03  -0.02   0.01     0.00   0.01  -0.00    -0.02  -0.00   0.01
  24   1    -0.03  -0.00  -0.01     0.00  -0.01   0.01     0.01   0.02  -0.11
  25   1    -0.05  -0.02   0.01     0.01   0.00   0.00     0.04  -0.08  -0.04
  26   1     0.01   0.01   0.01     0.00  -0.01  -0.00    -0.03   0.01   0.07
  27   1     0.05   0.00  -0.00    -0.02  -0.01   0.00     0.01   0.05   0.03
  28   1     0.01   0.02   0.07    -0.01  -0.01  -0.02     0.06   0.06   0.06
  29   1    -0.01  -0.00   0.02     0.00   0.03  -0.00     0.01  -0.00  -0.00
  30   1     0.01  -0.03   0.05    -0.04   0.04  -0.04    -0.01   0.03  -0.04
  31   1    -0.01   0.01  -0.04     0.05   0.02   0.09     0.01  -0.01   0.03
  32   1    -0.01  -0.00   0.00     0.08   0.01  -0.02     0.01   0.00  -0.00
  33   1    -0.00   0.00   0.00     0.02  -0.01  -0.05     0.00  -0.00  -0.00
  34   1    -0.01   0.00   0.00     0.04   0.01  -0.02     0.01  -0.01  -0.00
  35   1    -0.00   0.00   0.01     0.01  -0.01  -0.02     0.01  -0.00  -0.01
  36   1    -0.01   0.00  -0.00    -0.01   0.03  -0.00     0.01  -0.00   0.00
  37   1     0.00  -0.00  -0.00    -0.02   0.04   0.00     0.01  -0.01  -0.00
  38   1    -0.01  -0.00  -0.01     0.02   0.05   0.02     0.01  -0.00  -0.01
  39   1     0.14   0.07  -0.02     0.02  -0.12  -0.00    -0.03  -0.03   0.00
  40   1     0.03  -0.00  -0.04    -0.04  -0.11  -0.00    -0.01  -0.01   0.01
  41   8     0.22   0.06  -0.04     0.26   0.27  -0.09    -0.00   0.01   0.02
  42   1    -0.25  -0.29  -0.06    -0.42  -0.38  -0.15     0.00   0.01  -0.00
  43   1     0.08   0.06   0.00     0.09   0.05  -0.02    -0.01  -0.02   0.00
  44   7     0.20   0.02  -0.03    -0.05  -0.03   0.01    -0.06   0.20   0.12
  45   6     0.07   0.03   0.10    -0.02  -0.03  -0.03    -0.07   0.11   0.14
  46   8     0.07  -0.01  -0.05    -0.00  -0.01   0.01    -0.18   0.00   0.04
  47   6    -0.06  -0.12   0.11     0.02   0.04  -0.02    -0.01  -0.22  -0.02
  48   6     0.05  -0.02   0.01    -0.00  -0.01   0.01    -0.12   0.09  -0.00
  49   8     0.00   0.00  -0.02     0.03  -0.02   0.02    -0.31   0.18  -0.15
  50   1     0.01  -0.05   0.07    -0.01   0.02  -0.02     0.03  -0.09   0.02
  51   1    -0.04  -0.03   0.01     0.01   0.01  -0.00     0.03  -0.07   0.02
  52   1    -0.05  -0.05   0.04     0.02   0.02  -0.01    -0.04  -0.10  -0.06
  53   7     0.07   0.09   0.26    -0.05  -0.05  -0.09     0.11   0.14   0.30
  54   6    -0.03  -0.01  -0.17    -0.03   0.03   0.05     0.13  -0.29  -0.06
  55   1     0.05  -0.00  -0.09    -0.04   0.01   0.03     0.15  -0.09  -0.07
  56   1    -0.10  -0.02  -0.05     0.02   0.02   0.02    -0.01  -0.12  -0.03
  57   1    -0.00  -0.01  -0.10    -0.00   0.02   0.03    -0.02  -0.14  -0.04
                     25                     26                     27
                        a                      a                      a 
 Frequencies --   173.1167               176.8882               196.3322
 Red. masses --    11.7156                11.0694                11.6126
 Frc consts  --     0.0000                 0.0000                 0.0000
 IR Inten    --    26.6873                 3.6986                 9.0536
 Raman Activ --     0.0000                 0.0000                 0.0000
 Depolar     --     0.0000                 0.0000                 0.0000
 Atom AN      X      Y      Z        X      Y      Z        X      Y      Z
   1   7     0.03  -0.14   0.22    -0.00   0.10  -0.17    -0.11   0.03  -0.06
   2   6    -0.00   0.01   0.04     0.00   0.01   0.02    -0.10  -0.07   0.06
   3   6    -0.00   0.07  -0.04    -0.01  -0.05   0.12    -0.09  -0.11   0.11
   4   6    -0.01   0.07  -0.09    -0.01  -0.05   0.15    -0.09  -0.08   0.08
   5   6    -0.03   0.02  -0.05    -0.01   0.01   0.10    -0.08  -0.00  -0.00
   6   6    -0.04   0.07  -0.10     0.02  -0.03   0.13    -0.09  -0.06   0.07
   7   6    -0.03   0.06  -0.05     0.03  -0.03   0.09    -0.09  -0.10   0.11
   8   6    -0.01  -0.05   0.02    -0.04   0.06  -0.03    -0.06  -0.01  -0.04
   9   6    -0.00  -0.03   0.06    -0.06  -0.03  -0.17     0.09   0.02   0.03
  10   6     0.12   0.09  -0.36     0.05   0.02  -0.15     0.00  -0.02  -0.09
  11   6     0.10   0.10  -0.37     0.01   0.09  -0.19    -0.17   0.22  -0.06
  12   6     0.03  -0.03  -0.09     0.02  -0.01  -0.01     0.02   0.10   0.19
  13   6    -0.09   0.08   0.14    -0.01   0.03   0.04     0.15   0.01  -0.09
  14   6    -0.03   0.03   0.05     0.00   0.01   0.01     0.11   0.03  -0.05
  15   6     0.02  -0.04  -0.03     0.00   0.01  -0.00     0.04   0.12  -0.01
  16   8     0.23  -0.01  -0.14     0.08  -0.10  -0.04    -0.11  -0.46  -0.16
  17   8    -0.04  -0.12   0.04    -0.05  -0.05   0.03     0.08   0.17   0.02
  18   1     0.01  -0.04   0.06    -0.01   0.02  -0.05    -0.04   0.01  -0.02
  19   1     0.02  -0.04   0.04     0.00   0.03  -0.05    -0.05   0.02  -0.03
  20   1     0.00   0.02  -0.01    -0.01  -0.02   0.04    -0.02  -0.04   0.04
  21   1     0.00   0.03  -0.03    -0.00  -0.02   0.05    -0.03  -0.03   0.03
  22   1    -0.02   0.02  -0.04     0.01  -0.01   0.04    -0.03  -0.02   0.02
  23   1    -0.02   0.02  -0.01     0.01  -0.01   0.02    -0.02  -0.03   0.04
  24   1    -0.01  -0.01  -0.00    -0.01   0.00   0.02    -0.03  -0.01  -0.02
  25   1    -0.01  -0.03   0.01     0.00   0.06  -0.02    -0.02  -0.03  -0.01
  26   1     0.02  -0.01   0.03    -0.07  -0.00  -0.09     0.05   0.01   0.02
  27   1    -0.05   0.00   0.05     0.04  -0.04  -0.09     0.04   0.03  -0.00
  28   1    -0.03  -0.03  -0.02     0.01   0.03   0.07     0.01  -0.01  -0.01
  29   1     0.04   0.01  -0.08     0.02   0.02  -0.06     0.08   0.02  -0.05
  30   1     0.03   0.06  -0.14    -0.01   0.05  -0.09    -0.07   0.12  -0.11
  31   1    -0.00  -0.07  -0.00     0.01  -0.03   0.04     0.06   0.03   0.17
  32   1    -0.10   0.04   0.05    -0.02   0.01   0.01     0.13   0.00  -0.03
  33   1     0.01   0.05   0.10     0.00   0.02   0.02     0.01  -0.03  -0.09
  34   1    -0.01  -0.02   0.02     0.00  -0.00   0.00     0.04   0.02  -0.02
  35   1    -0.00   0.03  -0.00    -0.00   0.01  -0.01     0.02  -0.01  -0.01
  36   1     0.02  -0.02  -0.02     0.01  -0.01  -0.01    -0.00   0.03  -0.01
  37   1     0.01   0.01  -0.02    -0.01   0.02  -0.00    -0.01   0.04  -0.00
  38   1    -0.00  -0.03  -0.00     0.00  -0.00   0.01     0.03   0.06   0.00
  39   1    -0.05  -0.11   0.04    -0.04  -0.07   0.03    -0.04  -0.01   0.03
  40   1     0.08   0.03   0.07     0.04   0.03   0.05     0.08   0.09   0.05
  41   8    -0.05   0.04   0.43    -0.02   0.01   0.20    -0.01  -0.09   0.10
  42   1    -0.05  -0.02   0.09    -0.05  -0.04   0.05     0.02  -0.02   0.05
  43   1     0.00   0.00   0.11    -0.01   0.00   0.05    -0.04  -0.03   0.02
  44   7    -0.11   0.01   0.14     0.21  -0.14  -0.36     0.10   0.13   0.03
  45   6    -0.02  -0.05  -0.02    -0.03   0.05   0.09     0.11  -0.03  -0.04
  46   8    -0.01  -0.04   0.01    -0.05   0.03   0.09     0.15  -0.01  -0.09
  47   6     0.05  -0.04   0.02    -0.18   0.21  -0.03     0.02  -0.11   0.05
  48   6    -0.01  -0.00   0.05     0.03  -0.06  -0.12     0.02   0.08   0.02
  49   8     0.05   0.01  -0.02     0.07  -0.14   0.07    -0.09   0.14  -0.06
  50   1     0.00   0.00   0.01    -0.08   0.09   0.00     0.02  -0.04   0.05
  51   1     0.03  -0.04   0.03    -0.11   0.05  -0.05     0.01  -0.05   0.03
  52   1     0.03  -0.01  -0.02    -0.02   0.10   0.05    -0.02  -0.06  -0.01
  53   7    -0.08  -0.08  -0.11     0.05   0.13   0.35     0.06  -0.04  -0.12
  54   6    -0.06   0.04   0.07    -0.04  -0.10  -0.16     0.05   0.11   0.01
  55   1    -0.06   0.02   0.04     0.09  -0.04  -0.09    -0.03   0.04   0.01
  56   1     0.01   0.02   0.02    -0.11  -0.04  -0.05     0.04   0.04   0.00
  57   1    -0.00   0.03   0.03    -0.03  -0.06  -0.11     0.04   0.05   0.02
                     28                     29                     30
                        a                      a                      a 
 Frequencies --   201.2054               235.1505               239.1084
 Red. masses --    11.5397                11.4907                11.9926
 Frc consts  --     0.0000                 0.0000                 0.0000
 IR Inten    --    28.1157                11.9507                 3.2012
 Raman Activ --     0.0000                 0.0000                 0.0000
 Depolar     --     0.0000                 0.0000                 0.0000
 Atom AN      X      Y      Z        X      Y      Z        X      Y      Z
   1   7     0.16  -0.24   0.30    -0.05   0.09  -0.07     0.10  -0.05  -0.06
   2   6     0.12  -0.01   0.01    -0.03   0.03  -0.04     0.09   0.04  -0.03
   3   6     0.08   0.10  -0.11     0.00   0.01  -0.03     0.04   0.06  -0.01
   4   6     0.07   0.13  -0.13     0.01  -0.02  -0.02     0.04   0.08   0.04
   5   6     0.06   0.04  -0.04     0.02  -0.03  -0.01     0.04   0.05   0.07
   6   6     0.09   0.10  -0.13    -0.01  -0.03   0.00     0.10   0.06   0.03
   7   6     0.10   0.08  -0.11    -0.02   0.01  -0.02     0.11   0.06  -0.03
   8   6     0.05   0.02   0.06     0.02  -0.00   0.01     0.01  -0.01  -0.00
   9   6    -0.10  -0.03  -0.02    -0.01   0.02   0.01     0.02  -0.05  -0.04
  10   6    -0.06   0.02  -0.02    -0.04   0.01  -0.10    -0.03   0.02  -0.04
  11   6    -0.16   0.14   0.06     0.06  -0.13   0.35     0.02  -0.06   0.16
  12   6    -0.00   0.10   0.17     0.02   0.05  -0.04    -0.00   0.03  -0.02
  13   6     0.13  -0.02  -0.10     0.14  -0.08   0.03     0.06  -0.04   0.02
  14   6     0.07   0.02  -0.04     0.06  -0.06   0.08     0.03  -0.04   0.02
  15   6     0.00   0.11  -0.00    -0.06   0.10  -0.07    -0.02   0.03  -0.03
  16   8    -0.14  -0.28  -0.08    -0.18  -0.01  -0.49    -0.07  -0.01  -0.14
  17   8     0.05   0.16  -0.03    -0.02  -0.08   0.00    -0.02  -0.03  -0.01
  18   1     0.04  -0.08   0.09    -0.00   0.03  -0.02     0.01  -0.03  -0.01
  19   1     0.06  -0.06   0.06    -0.02   0.02  -0.00     0.05  -0.02  -0.02
  20   1     0.02   0.03  -0.04     0.01   0.01  -0.01     0.00   0.02  -0.01
  21   1     0.02   0.05  -0.05     0.00  -0.01  -0.01     0.01   0.02   0.01
  22   1     0.03   0.04  -0.04    -0.01  -0.02   0.00     0.04   0.03   0.01
  23   1     0.03   0.03  -0.03    -0.01   0.00  -0.01     0.03   0.02  -0.01
  24   1     0.04   0.01   0.04     0.01   0.01   0.00    -0.01  -0.01   0.00
  25   1    -0.00   0.04   0.02     0.00  -0.00   0.00     0.03   0.01  -0.01
  26   1    -0.05  -0.01  -0.02    -0.02   0.00  -0.00     0.03  -0.01  -0.00
  27   1    -0.06  -0.04   0.02    -0.01  -0.02   0.02     0.03   0.05  -0.06
  28   1    -0.02   0.00   0.01     0.02   0.04  -0.02    -0.05  -0.11   0.07
  29   1     0.05   0.01   0.01     0.03   0.02  -0.04     0.00   0.02  -0.03
  30   1    -0.06   0.07  -0.03     0.06  -0.11   0.24     0.02  -0.05   0.11
  31   1     0.04   0.05   0.12    -0.02   0.11  -0.16    -0.01   0.06  -0.07
  32   1     0.12  -0.01  -0.04     0.05  -0.04   0.01     0.02  -0.02   0.01
  33   1     0.00  -0.03  -0.09     0.03  -0.04  -0.00     0.01  -0.02   0.00
  34   1     0.02   0.02  -0.02    -0.00  -0.02   0.03     0.00  -0.01   0.01
  35   1     0.01  -0.01  -0.00     0.01  -0.04   0.04     0.01  -0.02   0.01
  36   1    -0.01   0.02  -0.01    -0.07   0.01  -0.03    -0.05   0.02   0.01
  37   1    -0.02   0.04  -0.00    -0.01   0.05  -0.03     0.02  -0.01  -0.01
  38   1     0.02   0.05   0.01    -0.00   0.06  -0.04    -0.00   0.03  -0.05
  39   1     0.01   0.07  -0.02     0.03   0.04  -0.02     0.04   0.05  -0.03
  40   1     0.03   0.02  -0.03    -0.04  -0.07  -0.05    -0.03  -0.05  -0.05
  41   8    -0.04  -0.05  -0.07    -0.03   0.06   0.38    -0.03   0.04   0.13
  42   1     0.10   0.11  -0.02    -0.05  -0.07   0.16    -0.00   0.01   0.04
  43   1    -0.01  -0.05  -0.02    -0.07   0.05   0.10    -0.02   0.01   0.03
  44   7    -0.13  -0.16  -0.01    -0.05  -0.07   0.04     0.08   0.17  -0.10
  45   6    -0.13   0.00   0.04    -0.03   0.11  -0.03     0.07  -0.28   0.09
  46   8    -0.17  -0.01   0.10     0.00   0.16  -0.06    -0.03  -0.40   0.18
  47   6    -0.02   0.12  -0.04     0.03   0.00   0.00    -0.04   0.02  -0.06
  48   6    -0.01  -0.10   0.00     0.01  -0.06   0.03    -0.04   0.14  -0.08
  49   8     0.12  -0.17   0.09     0.06  -0.09   0.07    -0.19   0.22  -0.18
  50   1    -0.03   0.05  -0.04     0.01  -0.01  -0.02     0.00  -0.01  -0.00
  51   1    -0.01   0.04  -0.02     0.01   0.02  -0.00    -0.01   0.01  -0.02
  52   1     0.03   0.06   0.01     0.00   0.00   0.02    -0.03  -0.01  -0.03
  53   7    -0.10   0.01   0.11     0.02   0.11  -0.06    -0.04  -0.26   0.17
  54   6    -0.09  -0.10   0.01     0.10  -0.08   0.01    -0.25   0.18  -0.03
  55   1     0.01  -0.04  -0.01     0.06  -0.03   0.00    -0.13   0.08  -0.01
  56   1    -0.04  -0.03   0.00     0.06  -0.03   0.00    -0.15   0.07  -0.01
  57   1    -0.04  -0.05  -0.01    -0.01  -0.05   0.02     0.02   0.12  -0.06
                     31                     32                     33
                        a                      a                      a 
 Frequencies --   254.0595               261.5588               290.5575
 Red. masses --     2.7301                 2.0334                12.0400
 Frc consts  --     0.0000                 0.0000                 0.0000
 IR Inten    --    46.7232                 0.3395                 6.6313
 Raman Activ --     0.0000                 0.0000                 0.0000
 Depolar     --     0.0000                 0.0000                 0.0000
 Atom AN      X      Y      Z        X      Y      Z        X      Y      Z
   1   7    -0.02   0.03  -0.01     0.00   0.00  -0.00     0.05   0.15   0.07
   2   6    -0.02  -0.01  -0.01     0.00   0.00  -0.00     0.05  -0.03  -0.01
   3   6    -0.02  -0.02   0.01     0.00  -0.00   0.00     0.08  -0.04  -0.02
   4   6    -0.02  -0.02   0.01     0.00   0.00   0.00     0.05  -0.06  -0.07
   5   6    -0.02  -0.00  -0.00     0.00   0.00  -0.00     0.01  -0.06  -0.11
   6   6    -0.02  -0.01   0.00     0.00   0.00  -0.00     0.02  -0.08  -0.08
   7   6    -0.02  -0.02   0.00     0.00  -0.00   0.00     0.01  -0.08  -0.00
   8   6    -0.02   0.01   0.01    -0.00   0.00  -0.00    -0.04   0.16   0.09
   9   6     0.00   0.01   0.00     0.00   0.01   0.00    -0.09   0.16   0.11
  10   6     0.04  -0.04   0.02    -0.04  -0.04   0.01     0.01  -0.01   0.02
  11   6    -0.01   0.05  -0.11    -0.01  -0.06  -0.04    -0.00   0.01  -0.01
  12   6     0.00  -0.03   0.04     0.02  -0.02  -0.09    -0.00  -0.00   0.00
  13   6    -0.05   0.04  -0.03     0.04  -0.04   0.00    -0.00  -0.00  -0.00
  14   6    -0.02   0.04  -0.04    -0.01   0.10   0.21    -0.01  -0.00  -0.00
  15   6     0.03  -0.03   0.03     0.03   0.07  -0.05    -0.00  -0.01   0.00
  16   8     0.08  -0.11   0.10    -0.03  -0.03   0.04    -0.01   0.03  -0.05
  17   8    -0.00  -0.08  -0.07     0.00   0.01  -0.01    -0.02  -0.01  -0.00
  18   1     0.01   0.02  -0.00     0.00   0.00  -0.00     0.05   0.07   0.02
  19   1    -0.02   0.01   0.02     0.00   0.00   0.00    -0.03   0.05   0.05
  20   1    -0.01  -0.01   0.00     0.00  -0.00   0.00     0.03  -0.01  -0.00
  21   1    -0.01  -0.01   0.01     0.00  -0.00   0.00     0.03  -0.02  -0.03
  22   1    -0.00  -0.00   0.00     0.00   0.00  -0.00     0.00  -0.02  -0.02
  23   1    -0.00  -0.01   0.00     0.00  -0.00   0.00    -0.01  -0.03   0.01
  24   1    -0.00   0.00   0.01    -0.00   0.00  -0.00     0.07   0.07   0.06
  25   1    -0.01   0.01   0.01     0.00  -0.00  -0.00    -0.07   0.08   0.05
  26   1    -0.00   0.00  -0.00     0.00   0.00   0.00    -0.09   0.05  -0.02
  27   1     0.00  -0.00   0.00     0.00   0.00   0.00     0.16   0.01  -0.06
  28   1     0.00   0.00  -0.00    -0.00  -0.01   0.00    -0.04   0.01  -0.01
  29   1     0.02  -0.01  -0.00    -0.02  -0.02   0.01     0.01  -0.01   0.03
  30   1    -0.02   0.05  -0.09    -0.01  -0.03   0.00    -0.00   0.00  -0.00
  31   1     0.02  -0.05   0.08     0.00   0.00  -0.04     0.00  -0.00   0.01
  32   1    -0.01   0.02  -0.01     0.04  -0.07   0.02     0.00   0.00  -0.00
  33   1    -0.01   0.02  -0.01     0.00  -0.00  -0.05    -0.00  -0.00  -0.00
  34   1     0.00   0.01  -0.01    -0.06   0.05   0.06    -0.00  -0.00  -0.00
  35   1    -0.00   0.02  -0.02     0.02   0.04   0.11    -0.00  -0.00  -0.00
  36   1     0.03  -0.00   0.01     0.22  -0.29  -0.44     0.00  -0.00   0.00
  37   1     0.00  -0.02   0.01    -0.25   0.48  -0.15    -0.00  -0.01   0.00
  38   1     0.00  -0.02   0.02     0.07  -0.14   0.46    -0.00  -0.00  -0.00
  39   1     0.31   0.51  -0.24     0.01   0.01  -0.01    -0.01  -0.03   0.01
  40   1    -0.24  -0.41  -0.43    -0.01  -0.01  -0.01    -0.00   0.01   0.02
  41   8    -0.02   0.12   0.18     0.00   0.00  -0.02     0.00  -0.01   0.01
  42   1     0.06   0.09   0.06     0.00   0.00  -0.01    -0.00  -0.01   0.01
  43   1    -0.01   0.02   0.04     0.00  -0.00  -0.01    -0.01  -0.01   0.00
  44   7     0.02  -0.00  -0.01     0.00   0.02   0.00     0.44   0.05  -0.17
  45   6     0.00   0.01  -0.00     0.00  -0.01   0.01    -0.17   0.07   0.08
  46   8     0.00   0.01  -0.02    -0.01  -0.03   0.01    -0.40  -0.14  -0.07
  47   6    -0.00  -0.00   0.01    -0.00  -0.02  -0.00     0.03  -0.11   0.18
  48   6     0.01  -0.00   0.00     0.00   0.01  -0.01     0.22   0.03  -0.01
  49   8     0.01  -0.00   0.01    -0.00   0.02  -0.03     0.10   0.04   0.10
  50   1    -0.00   0.00   0.01     0.00  -0.01   0.01     0.04  -0.04   0.13
  51   1    -0.00  -0.01   0.00    -0.00  -0.01  -0.00    -0.04  -0.04   0.02
  52   1     0.00  -0.00   0.00    -0.00  -0.01  -0.00    -0.04  -0.05   0.06
  53   7     0.00   0.01  -0.02     0.00  -0.01   0.01    -0.18  -0.07  -0.26
  54   6     0.01   0.00   0.00    -0.01   0.02  -0.00    -0.11  -0.01   0.08
  55   1     0.00  -0.00   0.00    -0.01   0.01  -0.00    -0.08  -0.00   0.05
  56   1     0.01   0.00   0.00    -0.01   0.01  -0.00     0.04   0.01   0.02
  57   1     0.00  -0.00   0.00     0.00   0.01  -0.00    -0.04   0.00   0.06
                     34                     35                     36
                        a                      a                      a 
 Frequencies --   295.1000               301.2826               323.4410
 Red. masses --     9.3589                 9.8940                10.6223
 Frc consts  --     0.0000                 0.0000                 0.0000
 IR Inten    --    15.2047                 2.4374                 9.6395
 Raman Activ --     0.0000                 0.0000                 0.0000
 Depolar     --     0.0000                 0.0000                 0.0000
 Atom AN      X      Y      Z        X      Y      Z        X      Y      Z
   1   7    -0.02   0.05   0.04     0.03  -0.25  -0.10     0.06  -0.04  -0.26
   2   6    -0.00  -0.03  -0.03     0.01   0.09  -0.01     0.05  -0.00   0.13
   3   6     0.02  -0.04  -0.03    -0.05   0.13   0.00     0.02  -0.02   0.19
   4   6     0.01  -0.04  -0.03    -0.02   0.10   0.13     0.01   0.14  -0.01
   5   6     0.02  -0.03  -0.03     0.01   0.05   0.19    -0.05   0.22  -0.15
   6   6     0.02  -0.04  -0.01     0.02   0.10   0.11    -0.02   0.14  -0.04
   7   6     0.00  -0.03  -0.02     0.04   0.14  -0.01     0.04  -0.02   0.16
   8   6     0.01   0.07   0.06     0.02  -0.24  -0.15    -0.04  -0.05  -0.34
   9   6     0.01   0.03  -0.02    -0.00  -0.13   0.03    -0.04   0.10  -0.01
  10   6     0.12  -0.01   0.09     0.03   0.03  -0.03     0.01   0.07  -0.09
  11   6     0.07   0.03   0.13     0.03  -0.00   0.10     0.02   0.01   0.08
  12   6    -0.00  -0.05   0.27    -0.01  -0.00   0.09    -0.02   0.04   0.02
  13   6    -0.09   0.05  -0.30    -0.02   0.01  -0.11     0.01  -0.03  -0.06
  14   6    -0.23   0.08  -0.20    -0.08   0.02  -0.07    -0.05  -0.03  -0.02
  15   6     0.02  -0.27   0.19     0.00  -0.10   0.07    -0.03  -0.07   0.04
  16   8     0.03   0.25  -0.33     0.04   0.05  -0.04     0.05  -0.03   0.07
  17   8    -0.02  -0.05   0.02     0.01   0.00   0.01    -0.00  -0.00   0.00
  18   1     0.02   0.03   0.02    -0.05  -0.13  -0.03    -0.05  -0.05  -0.09
  19   1    -0.02   0.02   0.03     0.09  -0.09  -0.07     0.06  -0.02  -0.11
  20   1     0.01  -0.01  -0.00    -0.03   0.04  -0.01     0.01  -0.03   0.08
  21   1     0.00  -0.01  -0.01    -0.02   0.03   0.04     0.01   0.05  -0.01
  22   1     0.00  -0.02  -0.00     0.02   0.04   0.04    -0.01   0.05  -0.02
  23   1     0.00  -0.01  -0.01     0.02   0.05  -0.02     0.01  -0.02   0.07
  24   1     0.04   0.02   0.05    -0.10  -0.07  -0.14    -0.11   0.01  -0.23
  25   1    -0.03   0.05   0.03     0.12  -0.15  -0.09     0.08  -0.17  -0.12
  26   1     0.01   0.02  -0.01    -0.03  -0.07   0.04    -0.03   0.01   0.02
  27   1    -0.03  -0.01   0.02     0.07   0.03  -0.07    -0.03  -0.03   0.05
  28   1     0.02  -0.01   0.01    -0.06   0.02  -0.01     0.03   0.01   0.00
  29   1     0.06  -0.03   0.07     0.01   0.03  -0.03    -0.02   0.06  -0.09
  30   1     0.01   0.08  -0.05     0.01   0.02   0.02     0.02  -0.00   0.05
  31   1     0.04  -0.08   0.20     0.00  -0.01   0.05    -0.01   0.03  -0.03
  32   1     0.11   0.03  -0.11     0.05   0.01  -0.04     0.04  -0.01  -0.02
  33   1    -0.06   0.01  -0.19    -0.02  -0.00  -0.08    -0.01  -0.02  -0.04
  34   1    -0.06   0.07  -0.07    -0.03   0.03  -0.03    -0.02   0.00  -0.01
  35   1    -0.04   0.05  -0.04    -0.02   0.01  -0.01    -0.01  -0.01   0.00
  36   1     0.19  -0.07   0.03     0.07  -0.03   0.00     0.01  -0.01   0.01
  37   1    -0.08  -0.08   0.07    -0.03  -0.03   0.02    -0.02  -0.03   0.01
  38   1    -0.01  -0.18   0.18    -0.00  -0.07   0.07    -0.01  -0.03   0.02
  39   1    -0.05  -0.06   0.02     0.00   0.01  -0.00     0.02   0.01  -0.00
  40   1     0.02   0.02   0.04     0.02  -0.00  -0.00     0.00  -0.00  -0.00
  41   8    -0.00   0.00   0.11    -0.01   0.01   0.02    -0.01   0.01  -0.01
  42   1    -0.01  -0.04   0.07     0.00   0.01   0.00     0.00   0.00  -0.00
  43   1    -0.04   0.03   0.03     0.01   0.01   0.01     0.01   0.01   0.00
  44   7    -0.07  -0.01   0.03     0.20   0.07  -0.11    -0.09  -0.07   0.08
  45   6     0.04  -0.02  -0.01    -0.09   0.03   0.01    -0.04   0.05  -0.00
  46   8    -0.01  -0.07   0.05     0.09   0.19  -0.15    -0.30  -0.16   0.11
  47   6    -0.02   0.03  -0.04     0.01  -0.06   0.08     0.06  -0.13   0.07
  48   6    -0.04  -0.01  -0.00     0.10   0.08  -0.02     0.01  -0.07   0.07
  49   8    -0.02  -0.02  -0.01    -0.01   0.13  -0.04     0.15  -0.15   0.19
  50   1    -0.02   0.02  -0.03     0.03  -0.03   0.07     0.03  -0.05   0.03
  51   1     0.00   0.01  -0.01    -0.02  -0.02   0.01     0.04  -0.04   0.04
  52   1     0.01   0.02  -0.01    -0.03  -0.04   0.02     0.00  -0.06  -0.01
  53   7     0.09  -0.01   0.04    -0.27   0.01  -0.07     0.12   0.02  -0.04
  54   6     0.03   0.09  -0.04    -0.11  -0.28   0.13     0.06   0.17  -0.07
  55   1    -0.00   0.03  -0.02     0.01  -0.10   0.05    -0.01   0.06  -0.02
  56   1    -0.02   0.03  -0.01     0.04  -0.10   0.04    -0.01   0.06  -0.02
  57   1     0.04   0.04  -0.03    -0.11  -0.14   0.08     0.06   0.08  -0.04
                     37                     38                     39
                        a                      a                      a 
 Frequencies --   345.7478               354.6641               376.9569
 Red. masses --     9.1115                10.6938                 2.1417
 Frc consts  --     0.0000                 0.0000                 0.0000
 IR Inten    --    30.5693                27.8305                10.9185
 Raman Activ --     0.0000                 0.0000                 0.0000
 Depolar     --     0.0000                 0.0000                 0.0000
 Atom AN      X      Y      Z        X      Y      Z        X      Y      Z
   1   7     0.04   0.13   0.00    -0.11  -0.20   0.15     0.01  -0.02   0.07
   2   6     0.01  -0.01   0.05    -0.13   0.16  -0.14    -0.02   0.02  -0.01
   3   6     0.02  -0.01   0.04    -0.07   0.17  -0.20    -0.01  -0.01   0.02
   4   6     0.00  -0.01  -0.07     0.01  -0.18   0.15    -0.01   0.02  -0.04
   5   6    -0.04  -0.02  -0.09     0.07  -0.25   0.26    -0.00  -0.05   0.04
   6   6    -0.04  -0.04  -0.07    -0.05  -0.12   0.16    -0.01  -0.07   0.07
   7   6    -0.04  -0.04   0.03    -0.11   0.16  -0.12    -0.04   0.07  -0.08
   8   6    -0.04   0.07   0.13     0.05  -0.08  -0.01    -0.00  -0.01   0.02
   9   6     0.02  -0.02   0.01    -0.05   0.06   0.03    -0.01   0.00   0.01
  10   6     0.09   0.24  -0.25     0.03   0.07  -0.07     0.00   0.02  -0.09
  11   6     0.03   0.17   0.13     0.01   0.05   0.03     0.04  -0.03   0.05
  12   6    -0.14   0.24  -0.06    -0.04   0.08  -0.03     0.04  -0.01   0.03
  13   6     0.11  -0.17  -0.10     0.03  -0.05  -0.02     0.01   0.03  -0.01
  14   6    -0.12  -0.19   0.01    -0.02  -0.06   0.01    -0.03   0.02  -0.03
  15   6    -0.14  -0.23   0.08    -0.04  -0.05   0.01     0.00  -0.02   0.01
  16   8     0.23  -0.10   0.23     0.08  -0.03   0.07     0.04  -0.10   0.04
  17   8    -0.01   0.00   0.00     0.03   0.01   0.01    -0.05   0.02  -0.09
  18   1     0.02   0.05  -0.00    -0.03  -0.10   0.06    -0.01  -0.01   0.01
  19   1    -0.02   0.05  -0.01     0.02  -0.07   0.02    -0.02   0.04  -0.09
  20   1     0.01  -0.00   0.02    -0.01   0.09  -0.09     0.00  -0.00   0.01
  21   1     0.02  -0.00  -0.03     0.01  -0.07   0.07    -0.01   0.02  -0.03
  22   1    -0.02  -0.01  -0.03    -0.03  -0.06   0.06    -0.00  -0.04   0.04
  23   1    -0.03  -0.01   0.02    -0.04   0.07  -0.06    -0.02   0.04  -0.04
  24   1     0.05   0.01   0.11    -0.00   0.00  -0.06     0.00  -0.00   0.00
  25   1    -0.09   0.08   0.07     0.08  -0.04  -0.03     0.00  -0.00   0.00
  26   1     0.02   0.01  -0.01    -0.05   0.00   0.01    -0.01  -0.00   0.00
  27   1     0.01   0.00  -0.00     0.03  -0.00  -0.01     0.00  -0.00   0.00
  28   1    -0.02  -0.01   0.00     0.07   0.04  -0.00     0.01   0.01  -0.00
  29   1     0.01   0.14  -0.18     0.01   0.03  -0.04    -0.01   0.03  -0.06
  30   1     0.07   0.03   0.17     0.02   0.01   0.04     0.01  -0.01   0.02
  31   1    -0.06   0.17  -0.16    -0.02   0.05  -0.05     0.01   0.00  -0.00
  32   1     0.14  -0.07  -0.03     0.04  -0.02  -0.01     0.01   0.02  -0.01
  33   1    -0.03  -0.10  -0.12    -0.01  -0.03  -0.03     0.01   0.02  -0.01
  34   1    -0.06  -0.04   0.00    -0.01  -0.01   0.00    -0.01   0.01  -0.01
  35   1    -0.03  -0.08   0.04    -0.01  -0.03   0.01    -0.01   0.01  -0.01
  36   1    -0.00  -0.07   0.01    -0.01  -0.02   0.00     0.02  -0.00   0.01
  37   1    -0.07  -0.06   0.03    -0.02  -0.01   0.00    -0.00  -0.01   0.01
  38   1    -0.04  -0.08   0.06    -0.01  -0.01   0.01    -0.00  -0.02   0.01
  39   1    -0.02   0.03  -0.01    -0.08   0.05  -0.03     0.68  -0.26   0.19
  40   1     0.03  -0.02  -0.02     0.08  -0.03  -0.04    -0.47   0.20   0.21
  41   8     0.01  -0.02  -0.01     0.01  -0.02   0.01    -0.06   0.02  -0.03
  42   1    -0.01   0.05  -0.11    -0.01   0.03  -0.08     0.05   0.05   0.02
  43   1     0.10  -0.06  -0.01     0.08  -0.05  -0.00    -0.03   0.01  -0.01
  44   7    -0.01   0.01   0.01     0.07  -0.00  -0.04     0.02   0.00  -0.01
  45   6     0.02  -0.04   0.00    -0.00   0.11   0.01     0.00   0.02   0.01
  46   8     0.14   0.06  -0.04    -0.25  -0.10   0.04    -0.02  -0.01  -0.00
  47   6    -0.01   0.04  -0.02    -0.02   0.01  -0.01    -0.01   0.01  -0.00
  48   6    -0.01   0.01  -0.01     0.03  -0.01  -0.03     0.00  -0.00  -0.01
  49   8    -0.04   0.03  -0.05    -0.01  -0.02   0.01    -0.01   0.00  -0.01
  50   1    -0.01   0.02  -0.02    -0.01   0.01   0.01    -0.00   0.00  -0.00
  51   1    -0.01   0.02  -0.01    -0.02   0.00  -0.01    -0.01   0.00  -0.00
  52   1     0.01   0.02   0.00    -0.01   0.01   0.01     0.00   0.01   0.00
  53   7    -0.07  -0.02   0.03     0.23   0.06  -0.10     0.03   0.01  -0.02
  54   6    -0.05  -0.08   0.04     0.19   0.22  -0.11     0.03   0.03  -0.02
  55   1    -0.00  -0.03   0.01     0.01   0.08  -0.03     0.00   0.01  -0.00
  56   1    -0.01  -0.03   0.01     0.03   0.07  -0.03     0.01   0.01  -0.00
  57   1    -0.03  -0.03   0.02     0.10   0.10  -0.05     0.01   0.01  -0.01
                     40                     41                     42
                        a                      a                      a 
 Frequencies --   377.7376               387.7199               394.6566
 Red. masses --     8.5907                 7.4222                 5.2684
 Frc consts  --     0.0000                 0.0000                 0.0000
 IR Inten    --     6.2974                49.8063                44.2578
 Raman Activ --     0.0000                 0.0000                 0.0000
 Depolar     --     0.0000                 0.0000                 0.0000
 Atom AN      X      Y      Z        X      Y      Z        X      Y      Z
   1   7    -0.02   0.14   0.10     0.01   0.00  -0.07    -0.01   0.14   0.07
   2   6     0.00  -0.10  -0.09    -0.00   0.09   0.07     0.02  -0.09  -0.10
   3   6    -0.00  -0.31   0.21     0.05   0.02   0.12    -0.06   0.04  -0.21
   4   6    -0.11   0.26  -0.22     0.04   0.01  -0.11    -0.04  -0.06   0.21
   5   6     0.00   0.07   0.08    -0.01  -0.06  -0.08    -0.02   0.10   0.05
   6   6     0.11  -0.17   0.33    -0.04  -0.11   0.02     0.02   0.18  -0.09
   7   6     0.01   0.16  -0.35    -0.07   0.10   0.01     0.08  -0.21   0.10
   8   6     0.01  -0.04  -0.08    -0.01   0.03   0.07    -0.02  -0.01  -0.08
   9   6    -0.01  -0.01  -0.02     0.00   0.01   0.03    -0.00  -0.01  -0.04
  10   6     0.04  -0.02   0.06    -0.19   0.08  -0.23     0.04  -0.04   0.06
  11   6    -0.03   0.07  -0.05     0.09  -0.26   0.16    -0.03   0.04  -0.03
  12   6    -0.06   0.05  -0.04     0.24  -0.22   0.11    -0.06   0.03  -0.00
  13   6     0.01  -0.05   0.01    -0.04   0.19  -0.01    -0.00  -0.04   0.00
  14   6     0.02  -0.05   0.03    -0.06   0.18  -0.10     0.03  -0.02   0.02
  15   6    -0.02  -0.01  -0.01     0.08   0.03   0.02    -0.00   0.02  -0.01
  16   8     0.02   0.05  -0.06    -0.14  -0.13   0.07    -0.01   0.08  -0.13
  17   8     0.01   0.00   0.01     0.05   0.04   0.01     0.04   0.03  -0.01
  18   1     0.08   0.03   0.09    -0.02  -0.08   0.02     0.10   0.01   0.10
  19   1    -0.08   0.07   0.03     0.05  -0.01  -0.07    -0.07   0.07   0.02
  20   1    -0.01  -0.17   0.13     0.04   0.00   0.07    -0.05   0.03  -0.11
  21   1    -0.08   0.16  -0.14     0.04   0.01  -0.06    -0.03  -0.05   0.12
  22   1     0.07  -0.10   0.19    -0.03  -0.06   0.02     0.03   0.10  -0.06
  23   1     0.02   0.11  -0.20    -0.05   0.05  -0.00     0.06  -0.11   0.07
  24   1    -0.05  -0.01  -0.07     0.04   0.01   0.06    -0.05  -0.01  -0.06
  25   1     0.06  -0.05  -0.05    -0.05   0.04   0.04     0.04  -0.04  -0.04
  26   1    -0.00  -0.01   0.00     0.00   0.01  -0.00     0.00  -0.01  -0.01
  27   1    -0.01   0.00  -0.00     0.01  -0.00   0.01    -0.01   0.00  -0.01
  28   1     0.00   0.00  -0.00     0.00  -0.00   0.00    -0.00  -0.00   0.00
  29   1     0.03  -0.03   0.06    -0.11   0.11  -0.21     0.03  -0.04   0.07
  30   1    -0.00   0.03  -0.01    -0.00  -0.12   0.02    -0.00   0.03  -0.01
  31   1    -0.01   0.02  -0.01     0.06  -0.09   0.04    -0.01   0.00   0.01
  32   1     0.01  -0.03   0.00    -0.07   0.10  -0.01     0.01  -0.02   0.00
  33   1    -0.01  -0.03  -0.01     0.04   0.12   0.04    -0.01  -0.03  -0.01
  34   1     0.00  -0.01   0.01    -0.00   0.05  -0.03     0.01  -0.01   0.01
  35   1     0.00  -0.02   0.01    -0.01   0.07  -0.04     0.01  -0.01   0.01
  36   1    -0.02  -0.01  -0.00     0.08   0.03   0.01    -0.02   0.00  -0.01
  37   1    -0.00   0.00  -0.00     0.02  -0.01   0.01     0.00   0.01  -0.01
  38   1    -0.00   0.01  -0.01     0.01  -0.03   0.02     0.00   0.02  -0.01
  39   1    -0.11   0.02  -0.02    -0.17   0.03  -0.03    -0.02  -0.06   0.03
  40   1    -0.03  -0.03  -0.03    -0.04  -0.03  -0.04    -0.28   0.02   0.02
  41   8     0.02  -0.03   0.06     0.03  -0.05   0.09     0.02  -0.06   0.19
  42   1    -0.04   0.05  -0.14    -0.06   0.11  -0.30    -0.09   0.18  -0.43
  43   1     0.12  -0.11  -0.00     0.24  -0.21  -0.01     0.33  -0.32  -0.01
  44   7    -0.01   0.00  -0.01     0.02   0.00   0.01    -0.04  -0.00  -0.01
  45   6    -0.01   0.00  -0.01     0.01   0.00   0.02    -0.00  -0.01  -0.02
  46   8    -0.03  -0.01   0.01     0.01   0.00  -0.01     0.02   0.01   0.01
  47   6     0.01  -0.04   0.02    -0.01   0.03  -0.01     0.01  -0.05   0.02
  48   6     0.00   0.01   0.01     0.00  -0.01  -0.01    -0.00   0.02   0.01
  49   8     0.02   0.00   0.03    -0.02  -0.00  -0.03     0.04  -0.00   0.05
  50   1     0.01  -0.02   0.01    -0.01   0.01  -0.01     0.02  -0.02   0.02
  51   1     0.01  -0.01   0.01    -0.01   0.01  -0.01     0.01  -0.02   0.01
  52   1    -0.01  -0.02  -0.01     0.01   0.02   0.01    -0.01  -0.03  -0.01
  53   7     0.00   0.01   0.00    -0.00  -0.01  -0.01    -0.01   0.00   0.02
  54   6     0.00   0.00  -0.00     0.00   0.00   0.00    -0.01  -0.01   0.00
  55   1     0.00   0.00  -0.00    -0.00  -0.00   0.00     0.00  -0.00  -0.00
  56   1    -0.00   0.00  -0.00     0.00   0.00   0.00    -0.01  -0.00   0.00
  57   1     0.00   0.00  -0.00     0.00   0.00   0.00    -0.01  -0.01  -0.00
                     43                     44                     45
                        a                      a                      a 
 Frequencies --   408.6850               415.2187               446.6259
 Red. masses --     8.3002                 9.7022                 4.5464
 Frc consts  --     0.0000                 0.0000                 0.0000
 IR Inten    --    38.7293                14.0190               156.9773
 Raman Activ --     0.0000                 0.0000                 0.0000
 Depolar     --     0.0000                 0.0000                 0.0000
 Atom AN      X      Y      Z        X      Y      Z        X      Y      Z
   1   7     0.01  -0.20  -0.24    -0.00  -0.07   0.00    -0.01  -0.01   0.01
   2   6     0.01   0.18   0.14    -0.01   0.09  -0.02    -0.02   0.03  -0.02
   3   6     0.07   0.09   0.21     0.01   0.06   0.01     0.00   0.01  -0.01
   4   6     0.08  -0.03  -0.13     0.03  -0.07   0.01     0.01  -0.02   0.01
   5   6    -0.02  -0.09  -0.16     0.01  -0.07  -0.01     0.02  -0.00  -0.01
   6   6    -0.07  -0.14  -0.04    -0.01  -0.10   0.03    -0.00  -0.02   0.01
   7   6    -0.08   0.14   0.11    -0.03   0.06  -0.01    -0.01   0.01   0.00
   8   6    -0.01   0.03   0.08    -0.03   0.13   0.01     0.01   0.05  -0.05
   9   6     0.01   0.03   0.06    -0.08  -0.10  -0.35     0.03   0.09   0.06
  10   6     0.12  -0.14   0.19     0.00  -0.00  -0.01     0.01  -0.01  -0.01
  11   6    -0.08   0.11  -0.09     0.00  -0.00   0.01    -0.00  -0.01   0.02
  12   6    -0.20   0.06  -0.01    -0.01  -0.00   0.00    -0.03  -0.00   0.01
  13   6    -0.04  -0.13  -0.00    -0.01  -0.01  -0.01    -0.02  -0.02  -0.01
  14   6     0.10  -0.07   0.07     0.00   0.00   0.00     0.02  -0.00   0.01
  15   6     0.00   0.07  -0.04     0.00   0.00  -0.00     0.01   0.02  -0.01
  16   8     0.06   0.17  -0.16     0.01   0.00   0.00     0.03   0.01   0.01
  17   8     0.02   0.00   0.01    -0.00   0.00  -0.00     0.01   0.00   0.00
  18   1    -0.10  -0.25  -0.01    -0.02  -0.05   0.01    -0.01  -0.01   0.00
  19   1     0.16  -0.09  -0.20     0.04  -0.03  -0.02    -0.00  -0.00  -0.01
  20   1     0.07   0.03   0.10     0.02   0.02   0.01     0.01   0.00   0.00
  21   1     0.07  -0.02  -0.07     0.03  -0.03   0.00     0.01  -0.01   0.01
  22   1    -0.06  -0.08  -0.00    -0.01  -0.05   0.02    -0.00  -0.02   0.02
  23   1    -0.08   0.06   0.05    -0.03   0.02   0.00    -0.00  -0.00   0.01
  24   1     0.07   0.02   0.08     0.06   0.01   0.13     0.00   0.04  -0.05
  25   1    -0.08   0.05   0.06    -0.06   0.19   0.01     0.01  -0.02  -0.02
  26   1     0.00   0.01   0.01     0.01  -0.00  -0.12     0.02   0.03   0.02
  27   1     0.06  -0.01  -0.01    -0.18   0.04  -0.05    -0.66  -0.02   0.46
  28   1    -0.00  -0.00   0.00    -0.00  -0.01  -0.01    -0.03  -0.03  -0.04
  29   1     0.06  -0.10   0.15    -0.00   0.00  -0.00    -0.00  -0.00  -0.01
  30   1    -0.01   0.09  -0.05     0.00   0.00   0.00     0.00   0.01   0.00
  31   1    -0.04  -0.00   0.04    -0.00  -0.00   0.00    -0.01  -0.00   0.01
  32   1     0.03  -0.07   0.01     0.00  -0.00  -0.00     0.01  -0.01  -0.00
  33   1    -0.05  -0.09  -0.03    -0.00  -0.01  -0.00    -0.01  -0.01  -0.01
  34   1     0.03  -0.02   0.02    -0.00   0.00   0.00     0.01   0.00   0.00
  35   1     0.02  -0.03   0.02     0.00   0.00   0.00     0.00  -0.00   0.00
  36   1    -0.06   0.00  -0.02    -0.00   0.00  -0.00    -0.01   0.00  -0.00
  37   1     0.01   0.04  -0.02     0.00   0.00  -0.00     0.00   0.01  -0.00
  38   1     0.02   0.06  -0.03     0.00   0.00  -0.00     0.01   0.01  -0.00
  39   1     0.02  -0.01   0.01     0.02   0.00   0.00    -0.03  -0.00  -0.00
  40   1    -0.11  -0.00   0.00     0.01   0.00   0.00    -0.04  -0.00  -0.00
  41   8    -0.00  -0.01   0.10    -0.00   0.00  -0.00     0.00  -0.00  -0.00
  42   1    -0.04   0.07  -0.15     0.00   0.00   0.01    -0.00  -0.00  -0.00
  43   1     0.15  -0.08   0.01     0.00   0.01   0.00     0.00   0.00   0.00
  44   7     0.01  -0.01   0.05    -0.18   0.04  -0.23     0.37   0.01  -0.17
  45   6     0.01   0.01   0.04    -0.04  -0.07  -0.20     0.02   0.00   0.03
  46   8     0.02  -0.00  -0.02     0.04   0.06   0.10     0.01  -0.02  -0.04
  47   6    -0.02   0.06  -0.02     0.11  -0.30   0.13     0.04   0.03  -0.03
  48   6     0.00  -0.03  -0.02    -0.03   0.24   0.08    -0.22  -0.05   0.16
  49   8    -0.04  -0.02  -0.05     0.22   0.16   0.28    -0.02  -0.03  -0.04
  50   1    -0.02   0.03  -0.02     0.13  -0.16   0.13    -0.02   0.00  -0.14
  51   1    -0.02   0.02  -0.02     0.10  -0.13   0.11     0.12   0.04   0.06
  52   1     0.01   0.04   0.02    -0.08  -0.21  -0.12     0.06   0.02  -0.04
  53   7    -0.00  -0.01  -0.02    -0.00   0.04   0.12    -0.05  -0.02  -0.01
  54   6     0.00  -0.00   0.00    -0.03  -0.02  -0.01    -0.04  -0.03   0.03
  55   1    -0.00  -0.00   0.00     0.02  -0.01  -0.01    -0.01  -0.01   0.02
  56   1     0.00   0.00   0.00    -0.03  -0.01  -0.00    -0.00  -0.01   0.01
  57   1     0.00   0.00   0.00    -0.01  -0.01  -0.02    -0.02  -0.02   0.01
                     46                     47                     48
                        a                      a                      a 
 Frequencies --   452.3318               476.8505               491.2260
 Red. masses --     9.5208                10.1047                10.7902
 Frc consts  --     0.0000                 0.0000                 0.0000
 IR Inten    --     5.1114                23.8306                 3.7281
 Raman Activ --     0.0000                 0.0000                 0.0000
 Depolar     --     0.0000                 0.0000                 0.0000
 Atom AN      X      Y      Z        X      Y      Z        X      Y      Z
   1   7     0.00   0.06   0.04     0.25  -0.04   0.12     0.34   0.07  -0.06
   2   6     0.00  -0.03  -0.00     0.18   0.27  -0.33     0.28  -0.10   0.13
   3   6    -0.00  -0.02  -0.02    -0.00   0.10   0.04    -0.03   0.11   0.09
   4   6    -0.01   0.02   0.01    -0.01  -0.05   0.22    -0.08   0.17   0.04
   5   6    -0.00   0.00   0.03    -0.27   0.12  -0.18    -0.26  -0.12   0.15
   6   6    -0.00   0.02   0.00     0.00  -0.23   0.09    -0.06  -0.05  -0.14
   7   6    -0.00  -0.02  -0.03     0.00  -0.08  -0.13     0.00  -0.13  -0.10
   8   6    -0.00  -0.02   0.01    -0.31   0.13  -0.13    -0.26  -0.26   0.19
   9   6    -0.01  -0.01  -0.00    -0.02   0.15   0.05    -0.10  -0.26   0.04
  10   6     0.03  -0.04  -0.26    -0.01   0.01  -0.00    -0.01  -0.01   0.04
  11   6     0.01  -0.15   0.17     0.00  -0.03   0.02    -0.01  -0.00  -0.01
  12   6    -0.36  -0.20   0.27     0.00  -0.01   0.01     0.01  -0.00  -0.00
  13   6    -0.26  -0.21  -0.13    -0.01   0.00  -0.00     0.00   0.00   0.00
  14   6     0.21   0.06   0.02     0.00   0.01  -0.00    -0.00   0.00  -0.00
  15   6     0.14   0.28  -0.09     0.00   0.01  -0.00     0.00  -0.00   0.00
  16   8     0.24   0.14   0.09    -0.01   0.01  -0.00    -0.03   0.02  -0.03
  17   8    -0.01  -0.01  -0.00    -0.05  -0.01  -0.01    -0.02  -0.01   0.00
  18   1     0.02   0.10  -0.03     0.09  -0.02   0.05     0.08   0.03  -0.04
  19   1    -0.03   0.01   0.09     0.11  -0.04   0.06     0.07   0.03  -0.02
  20   1    -0.01  -0.00  -0.01    -0.03  -0.07   0.08    -0.07   0.04  -0.04
  21   1    -0.01   0.01   0.00     0.06  -0.11   0.14     0.01   0.08  -0.06
  22   1     0.00   0.01  -0.00     0.06  -0.12   0.14     0.02   0.06  -0.07
  23   1     0.00  -0.00  -0.02    -0.03  -0.07   0.07    -0.06   0.02  -0.06
  24   1    -0.01  -0.01   0.00    -0.11   0.05  -0.08    -0.08  -0.11   0.12
  25   1     0.01  -0.00  -0.00    -0.09  -0.04  -0.02    -0.10  -0.03   0.06
  26   1    -0.01  -0.01  -0.00     0.02   0.07  -0.01    -0.06  -0.09   0.03
  27   1     0.04   0.00  -0.03     0.06  -0.01   0.02    -0.13   0.01   0.01
  28   1     0.00   0.00   0.00    -0.01  -0.02   0.01     0.07   0.05  -0.00
  29   1    -0.07   0.05  -0.18     0.00  -0.01   0.02     0.00  -0.02   0.03
  30   1     0.02   0.06   0.01    -0.00  -0.01   0.01    -0.01  -0.01  -0.00
  31   1    -0.10  -0.13   0.14    -0.00  -0.00  -0.00     0.00  -0.00   0.00
  32   1     0.04  -0.10  -0.04    -0.00   0.00  -0.00    -0.00   0.00   0.00
  33   1    -0.14  -0.15  -0.11     0.00   0.00   0.00     0.00   0.00   0.00
  34   1     0.07   0.06  -0.01     0.00   0.00  -0.00    -0.00  -0.00   0.00
  35   1     0.07   0.04  -0.00     0.00   0.00  -0.00    -0.00   0.00  -0.00
  36   1    -0.07   0.05  -0.04    -0.00   0.00  -0.00     0.00  -0.00  -0.00
  37   1     0.06   0.12  -0.05     0.00   0.00  -0.00    -0.00  -0.00   0.00
  38   1     0.06   0.14  -0.06     0.00   0.00  -0.00    -0.00  -0.00   0.00
  39   1     0.01  -0.00   0.00     0.10   0.02   0.00    -0.02   0.00  -0.00
  40   1     0.05   0.00   0.01     0.16   0.01   0.01     0.02  -0.00  -0.00
  41   8    -0.01  -0.00  -0.02    -0.01   0.00  -0.01    -0.00   0.00   0.01
  42   1     0.01  -0.00   0.03     0.02   0.02   0.00    -0.00   0.00  -0.00
  43   1     0.01   0.04   0.00    -0.02  -0.01  -0.00    -0.02  -0.02  -0.00
  44   7    -0.02  -0.01   0.00    -0.04   0.02   0.08     0.06  -0.04  -0.10
  45   6    -0.00   0.00  -0.00     0.05  -0.04   0.06    -0.06   0.07   0.00
  46   8    -0.01   0.00   0.00     0.16   0.02  -0.06    -0.08   0.08  -0.03
  47   6    -0.00  -0.00   0.00    -0.02  -0.00  -0.03     0.02   0.00   0.03
  48   6     0.01   0.00  -0.00    -0.01  -0.05  -0.03    -0.00   0.05   0.04
  49   8    -0.00   0.00   0.00     0.04  -0.10   0.05    -0.05   0.11  -0.07
  50   1    -0.00   0.00   0.01    -0.01   0.00  -0.01     0.01  -0.00   0.00
  51   1    -0.01  -0.00  -0.00    -0.01   0.00  -0.01     0.02   0.00   0.02
  52   1    -0.00  -0.00   0.00     0.00   0.01   0.00     0.00  -0.01  -0.00
  53   7     0.01   0.00  -0.00    -0.01  -0.06  -0.00     0.15   0.07  -0.06
  54   6     0.01   0.01  -0.01    -0.03  -0.03   0.02     0.19   0.12  -0.08
  55   1     0.00   0.00  -0.00    -0.02  -0.01   0.01     0.03   0.04  -0.02
  56   1     0.00   0.00  -0.00    -0.01  -0.01   0.01     0.04   0.04  -0.02
  57   1     0.00   0.00  -0.00    -0.00  -0.00   0.00     0.07   0.05  -0.03
                     49                     50                     51
                        a                      a                      a 
 Frequencies --   522.9584               532.8050               565.7464
 Red. masses --     3.1258                 9.2451                 2.5219
 Frc consts  --     0.0000                 0.0000                 0.0000
 IR Inten    --   572.0956                38.8815               110.1385
 Raman Activ --     0.0000                 0.0000                 0.0000
 Depolar     --     0.0000                 0.0000                 0.0000
 Atom AN      X      Y      Z        X      Y      Z        X      Y      Z
   1   7     0.13  -0.01   0.09    -0.05  -0.04   0.10    -0.01   0.23   0.12
   2   6     0.05  -0.02   0.03    -0.07   0.21  -0.31    -0.00  -0.07  -0.02
   3   6    -0.00   0.07  -0.03     0.03  -0.09   0.03     0.03  -0.04  -0.08
   4   6    -0.00  -0.01   0.05     0.02   0.02   0.03     0.01   0.03   0.01
   5   6    -0.05  -0.06   0.05    -0.01   0.27  -0.26     0.01   0.00   0.05
   6   6     0.00  -0.06  -0.00     0.02   0.05   0.05    -0.03   0.05   0.01
   7   6    -0.00  -0.00  -0.06     0.03  -0.05   0.08    -0.03  -0.10  -0.01
   8   6    -0.10   0.08  -0.06     0.11  -0.21   0.13     0.01   0.01   0.00
   9   6    -0.04   0.10   0.02     0.08  -0.28  -0.04    -0.00   0.01  -0.00
  10   6     0.01  -0.00  -0.04     0.00   0.00  -0.03    -0.01   0.03   0.01
  11   6     0.01   0.01  -0.00     0.01  -0.00   0.01     0.01  -0.03   0.00
  12   6    -0.01  -0.00   0.01    -0.00   0.00  -0.00    -0.01  -0.04   0.01
  13   6    -0.01  -0.00  -0.00    -0.00  -0.00  -0.00    -0.03  -0.02  -0.01
  14   6     0.00  -0.00   0.00     0.00  -0.00   0.00     0.01   0.01  -0.00
  15   6    -0.00   0.00  -0.00     0.00  -0.00  -0.00     0.01   0.02  -0.00
  16   8     0.05  -0.06   0.04     0.03  -0.03   0.02    -0.02  -0.04  -0.00
  17   8     0.17   0.04   0.02     0.05   0.01   0.00    -0.06  -0.05   0.01
  18   1    -0.03  -0.05   0.01    -0.01  -0.05   0.06    -0.00  -0.41   0.33
  19   1    -0.04   0.10  -0.20    -0.02   0.01  -0.04    -0.01   0.22  -0.55
  20   1    -0.02   0.04  -0.04     0.03  -0.14   0.15    -0.01  -0.00  -0.05
  21   1     0.01   0.01  -0.01     0.01  -0.10   0.14    -0.02   0.03  -0.01
  22   1     0.01   0.00  -0.01     0.03  -0.08   0.14     0.00   0.03  -0.00
  23   1    -0.02   0.02  -0.03     0.06  -0.14   0.16     0.02  -0.04  -0.01
  24   1    -0.03   0.04  -0.05     0.04  -0.12   0.15    -0.00   0.00  -0.00
  25   1    -0.00  -0.01  -0.02    -0.05   0.01   0.07     0.01   0.00  -0.00
  26   1     0.00   0.04  -0.01    -0.01  -0.11   0.03     0.00   0.00  -0.00
  27   1     0.05  -0.00  -0.01    -0.02  -0.00  -0.05    -0.00   0.00   0.00
  28   1     0.00  -0.01   0.02     0.01   0.03  -0.04    -0.00  -0.00   0.00
  29   1    -0.00   0.01  -0.03     0.00   0.01  -0.02     0.00   0.01  -0.01
  30   1     0.01   0.01   0.00     0.00   0.00   0.00    -0.00  -0.01  -0.00
  31   1    -0.00  -0.00   0.00    -0.00   0.00  -0.00    -0.01  -0.02   0.00
  32   1     0.01  -0.00  -0.00     0.00  -0.00  -0.00    -0.01  -0.01  -0.00
  33   1    -0.01  -0.01  -0.01    -0.00  -0.00  -0.00    -0.01  -0.01  -0.00
  34   1     0.00  -0.00  -0.00     0.00  -0.00  -0.00     0.00   0.01  -0.00
  35   1     0.00  -0.00  -0.00     0.00  -0.00  -0.00     0.00   0.01  -0.00
  36   1    -0.00   0.00   0.00     0.00  -0.00  -0.00    -0.00   0.00  -0.00
  37   1     0.00   0.00  -0.00    -0.00   0.00  -0.00     0.00   0.01  -0.00
  38   1     0.00   0.00  -0.00     0.00  -0.00   0.00     0.00   0.01  -0.00
  39   1    -0.50  -0.06  -0.02    -0.14  -0.02  -0.01     0.11   0.05  -0.02
  40   1    -0.63  -0.04  -0.03    -0.18  -0.01  -0.00     0.26   0.00   0.00
  41   8     0.00   0.01  -0.08    -0.00   0.00  -0.03    -0.06  -0.03  -0.04
  42   1     0.00  -0.13   0.19     0.01  -0.04   0.07     0.05   0.03   0.05
  43   1    -0.03   0.23   0.03     0.00   0.10   0.01     0.24   0.30   0.06
  44   7    -0.04   0.03   0.02     0.04  -0.09  -0.01     0.00   0.00  -0.00
  45   6     0.02  -0.03   0.04    -0.08   0.06  -0.12     0.00  -0.00   0.00
  46   8     0.09   0.01  -0.03    -0.22  -0.02   0.08     0.01  -0.00  -0.00
  47   6    -0.02  -0.02  -0.04     0.07   0.05   0.11    -0.00  -0.00  -0.00
  48   6     0.01  -0.01  -0.05     0.02  -0.00   0.11    -0.00   0.00  -0.00
  49   8     0.03  -0.05   0.07    -0.11   0.13  -0.17     0.01  -0.00   0.01
  50   1    -0.00  -0.01   0.01     0.00   0.02  -0.01    -0.00  -0.00  -0.00
  51   1    -0.02  -0.01  -0.02     0.03   0.03   0.03     0.00  -0.00  -0.00
  52   1    -0.02  -0.01  -0.01     0.05   0.03   0.05    -0.00  -0.00  -0.00
  53   7     0.00  -0.05   0.00     0.01   0.12  -0.00    -0.00  -0.00   0.00
  54   6    -0.02  -0.01   0.01     0.06   0.04  -0.03    -0.00  -0.00   0.00
  55   1    -0.01  -0.00   0.00     0.04   0.01  -0.01    -0.00  -0.00   0.00
  56   1    -0.01  -0.00   0.00     0.02   0.01  -0.01    -0.00  -0.00   0.00
  57   1     0.00   0.00   0.00     0.00  -0.00  -0.00    -0.00  -0.00   0.00
                     52                     53                     54
                        a                      a                      a 
 Frequencies --   578.7455               601.7925               614.2695
 Red. masses --     8.0462                 9.9916                10.0527
 Frc consts  --     0.0000                 0.0000                 0.0000
 IR Inten    --     5.5978                39.2469                30.6996
 Raman Activ --     0.0000                 0.0000                 0.0000
 Depolar     --     0.0000                 0.0000                 0.0000
 Atom AN      X      Y      Z        X      Y      Z        X      Y      Z
   1   7    -0.03  -0.01   0.00    -0.08  -0.02   0.00    -0.02   0.09   0.07
   2   6    -0.02   0.03  -0.05    -0.05   0.07  -0.11    -0.01   0.09   0.05
   3   6     0.02  -0.03   0.01     0.06  -0.09   0.02    -0.36   0.14   0.16
   4   6     0.01   0.02  -0.02     0.04   0.07  -0.07    -0.34  -0.25  -0.14
   5   6     0.02   0.03  -0.03     0.05   0.05  -0.03     0.00  -0.07  -0.07
   6   6     0.00   0.04  -0.01     0.01   0.10  -0.02     0.38  -0.14  -0.20
   7   6     0.01  -0.01   0.03     0.03  -0.02   0.08     0.35   0.22   0.14
   8   6     0.03  -0.05   0.04     0.06  -0.15   0.12    -0.00  -0.04  -0.03
   9   6    -0.05  -0.03   0.05    -0.14  -0.07   0.12    -0.01  -0.04   0.00
  10   6     0.00  -0.01  -0.00    -0.00  -0.01  -0.01    -0.02  -0.04  -0.02
  11   6    -0.00  -0.00   0.00    -0.00   0.00   0.00    -0.03   0.00   0.00
  12   6    -0.00   0.00   0.00     0.00   0.00  -0.00     0.01   0.00   0.01
  13   6    -0.00  -0.00   0.00     0.00   0.01   0.00     0.01   0.01   0.01
  14   6     0.00  -0.00   0.00    -0.00  -0.00  -0.00    -0.01   0.01  -0.00
  15   6     0.00   0.00  -0.00    -0.00  -0.00   0.00    -0.00  -0.00   0.00
  16   8     0.01   0.00   0.00     0.00  -0.01   0.00     0.01  -0.00  -0.00
  17   8    -0.00  -0.00  -0.00     0.00   0.00  -0.00    -0.01  -0.02  -0.01
  18   1    -0.00  -0.00   0.00    -0.01  -0.00   0.01     0.05   0.06   0.03
  19   1    -0.00  -0.01   0.01    -0.01  -0.02   0.04    -0.05   0.03   0.08
  20   1     0.01  -0.03   0.03     0.03  -0.07   0.07    -0.07   0.05   0.07
  21   1     0.00  -0.01   0.02     0.00  -0.01   0.03    -0.06  -0.08  -0.05
  22   1     0.00  -0.01   0.02     0.01  -0.00   0.03     0.08  -0.06  -0.06
  23   1     0.01  -0.03   0.03     0.04  -0.06   0.07     0.06   0.07   0.06
  24   1     0.01  -0.01   0.02     0.03  -0.04   0.06    -0.04  -0.01  -0.04
  25   1    -0.00  -0.01   0.02    -0.01  -0.01   0.04     0.03  -0.05  -0.02
  26   1     0.00  -0.02   0.04    -0.12  -0.07   0.06    -0.01  -0.02   0.01
  27   1    -0.37  -0.00   0.23     0.01   0.03  -0.05    -0.02  -0.00  -0.00
  28   1     0.04   0.05   0.14     0.08   0.11   0.31     0.01   0.01   0.03
  29   1    -0.00  -0.00   0.00    -0.00   0.00  -0.01    -0.00  -0.01   0.00
  30   1    -0.00   0.00  -0.00    -0.00   0.00  -0.00    -0.01   0.00   0.01
  31   1    -0.00   0.00   0.00     0.00   0.00  -0.00     0.00   0.02  -0.00
  32   1    -0.00  -0.00   0.00     0.00   0.00   0.00     0.00   0.01   0.00
  33   1     0.00   0.00   0.00     0.00   0.00   0.00     0.01   0.01   0.00
  34   1     0.00  -0.00   0.00    -0.00  -0.00   0.00    -0.00  -0.00  -0.00
  35   1     0.00  -0.00  -0.00    -0.00  -0.00   0.00    -0.00   0.00  -0.00
  36   1    -0.00   0.00   0.00     0.00  -0.00   0.00     0.00   0.00   0.00
  37   1     0.00  -0.00  -0.00    -0.00  -0.00   0.00    -0.00  -0.00   0.00
  38   1    -0.00  -0.00  -0.00    -0.00  -0.00   0.00    -0.00  -0.00   0.00
  39   1     0.01   0.00   0.00    -0.00  -0.00   0.00     0.02   0.00  -0.00
  40   1     0.01   0.00   0.00    -0.01   0.00   0.00     0.03   0.01   0.01
  41   8    -0.00  -0.00   0.00    -0.01  -0.01  -0.00    -0.04  -0.04  -0.01
  42   1     0.00   0.00  -0.00     0.00   0.00   0.00     0.03   0.03   0.01
  43   1     0.01   0.00   0.00     0.03   0.04   0.01     0.23   0.22   0.05
  44   7    -0.13   0.02   0.05    -0.03   0.12  -0.14    -0.01  -0.02  -0.01
  45   6    -0.02  -0.03   0.00     0.00   0.08   0.43    -0.01   0.00   0.02
  46   8     0.04   0.04   0.00     0.09   0.06  -0.16     0.00   0.01  -0.01
  47   6    -0.01  -0.02  -0.08    -0.19  -0.08  -0.26     0.01   0.00   0.01
  48   6     0.52   0.04  -0.41    -0.25   0.14  -0.06     0.00   0.00   0.01
  49   8    -0.23   0.01   0.22     0.24  -0.05   0.16    -0.01   0.01  -0.01
  50   1     0.04   0.02   0.22    -0.02  -0.06  -0.07     0.00   0.00   0.00
  51   1    -0.26  -0.05  -0.20     0.03  -0.04   0.00     0.00   0.00   0.00
  52   1    -0.10  -0.02   0.10    -0.09  -0.08  -0.19     0.00   0.00   0.00
  53   7     0.03  -0.05  -0.02     0.06  -0.18  -0.15     0.01  -0.01  -0.01
  54   6     0.02   0.01  -0.01     0.06   0.02  -0.02     0.01   0.01  -0.01
  55   1    -0.01   0.01  -0.01    -0.04   0.03  -0.01    -0.00   0.00  -0.00
  56   1    -0.00   0.00  -0.00     0.00   0.01  -0.01     0.00   0.00  -0.00
  57   1     0.02   0.02  -0.00     0.06   0.04  -0.01     0.01   0.01  -0.00
                     55                     56                     57
                        a                      a                      a 
 Frequencies --   614.6736               640.3882               672.1483
 Red. masses --     3.2209                 8.0339                 9.7320
 Frc consts  --     0.0000                 0.0000                 0.0000
 IR Inten    --   155.3688                64.5210                19.7338
 Raman Activ --     0.0000                 0.0000                 0.0000
 Depolar     --     0.0000                 0.0000                 0.0000
 Atom AN      X      Y      Z        X      Y      Z        X      Y      Z
   1   7     0.02   0.07   0.12     0.04   0.01   0.01     0.04   0.02  -0.03
   2   6    -0.02   0.03  -0.01     0.02   0.03  -0.03     0.04  -0.26   0.32
   3   6    -0.13   0.04   0.04    -0.04   0.01   0.05    -0.05   0.16  -0.18
   4   6    -0.13  -0.09  -0.06    -0.05   0.02  -0.02     0.02  -0.16   0.20
   5   6     0.02  -0.01  -0.03    -0.02  -0.02   0.01    -0.06   0.26  -0.30
   6   6     0.13  -0.03  -0.07    -0.00   0.00  -0.04     0.03  -0.15   0.21
   7   6     0.12   0.06   0.06     0.00  -0.03   0.01    -0.03   0.15  -0.19
   8   6     0.02  -0.02  -0.01     0.04  -0.15   0.13     0.05  -0.07   0.00
   9   6    -0.00  -0.02   0.00     0.15  -0.01   0.16     0.24  -0.09  -0.02
  10   6     0.04   0.15   0.04    -0.00  -0.00  -0.00     0.00   0.00   0.01
  11   6     0.11  -0.02  -0.00    -0.00  -0.00  -0.00    -0.00   0.00  -0.01
  12   6    -0.03  -0.04  -0.01    -0.00  -0.00   0.00     0.00  -0.00   0.01
  13   6    -0.06  -0.05  -0.03     0.00  -0.00  -0.00    -0.00  -0.00  -0.00
  14   6     0.02  -0.01   0.01     0.00   0.00  -0.00    -0.00   0.00  -0.00
  15   6     0.01   0.02  -0.00     0.00   0.00  -0.00     0.00   0.00   0.00
  16   8    -0.02  -0.01   0.02     0.00   0.00   0.00    -0.01   0.00  -0.01
  17   8     0.01   0.03   0.02     0.00   0.00   0.00    -0.01  -0.00   0.00
  18   1    -0.02  -0.14   0.11     0.01   0.00   0.00    -0.01   0.03  -0.04
  19   1    -0.03   0.13  -0.32     0.01   0.00   0.00    -0.03   0.04  -0.04
  20   1    -0.03   0.01   0.01    -0.02  -0.02   0.03    -0.02   0.07  -0.08
  21   1    -0.03  -0.03  -0.01    -0.01  -0.01   0.01     0.00  -0.05   0.06
  22   1     0.03  -0.02  -0.01     0.00  -0.01   0.00     0.01  -0.04   0.06
  23   1     0.04   0.00   0.03    -0.01  -0.02   0.02    -0.01   0.07  -0.09
  24   1    -0.00  -0.01  -0.01    -0.00  -0.05   0.05     0.02  -0.07   0.09
  25   1     0.02  -0.02  -0.01    -0.01  -0.06   0.05    -0.08   0.01   0.04
  26   1    -0.01  -0.01   0.01     0.10  -0.02   0.11     0.08  -0.05   0.05
  27   1    -0.00   0.00  -0.01     0.06   0.05   0.04    -0.01   0.02   0.03
  28   1     0.01   0.02   0.04    -0.11  -0.20  -0.53     0.01   0.15   0.33
  29   1     0.01   0.04  -0.00     0.00  -0.00   0.00     0.00  -0.00   0.00
  30   1     0.02  -0.02  -0.01     0.00  -0.00   0.00    -0.00  -0.00   0.00
  31   1    -0.02  -0.06   0.00    -0.00   0.00  -0.00    -0.00   0.00  -0.00
  32   1    -0.01  -0.03  -0.00    -0.00   0.00  -0.00     0.00   0.00  -0.00
  33   1    -0.03  -0.03  -0.02     0.00  -0.00   0.00    -0.00  -0.00  -0.00
  34   1     0.01   0.01  -0.00    -0.00   0.00  -0.00     0.00   0.00  -0.00
  35   1     0.01   0.00   0.00     0.00   0.00   0.00    -0.00   0.00  -0.00
  36   1    -0.01  -0.00  -0.01    -0.00   0.00   0.00     0.00   0.00  -0.00
  37   1     0.00   0.01  -0.00     0.00  -0.00   0.00     0.00   0.00  -0.00
  38   1     0.01   0.01  -0.01     0.00   0.00   0.00    -0.00  -0.00  -0.00
  39   1    -0.03   0.01  -0.00    -0.00  -0.00  -0.00     0.01   0.00  -0.00
  40   1     0.02  -0.03  -0.03    -0.00  -0.00  -0.00     0.02  -0.00  -0.00
  41   8     0.10   0.10   0.01    -0.00   0.00  -0.00    -0.00  -0.00   0.01
  42   1    -0.06  -0.07   0.01     0.00  -0.00   0.00    -0.00   0.01  -0.01
  43   1    -0.58  -0.53  -0.12    -0.00   0.00   0.00     0.02   0.01   0.00
  44   7    -0.01   0.00  -0.01     0.11   0.26   0.04     0.02   0.08   0.05
  45   6    -0.00   0.01   0.03     0.03  -0.01  -0.20     0.07   0.07  -0.07
  46   8     0.00   0.00  -0.01    -0.09  -0.08   0.05    -0.11  -0.09   0.09
  47   6    -0.01  -0.00  -0.01    -0.20  -0.06  -0.32    -0.09  -0.02  -0.13
  48   6    -0.01   0.01  -0.00    -0.08   0.07  -0.17    -0.05   0.02  -0.04
  49   8     0.01   0.00   0.01     0.15  -0.10   0.26     0.06  -0.04   0.05
  50   1    -0.00  -0.00  -0.00    -0.03  -0.03  -0.03    -0.02  -0.01  -0.04
  51   1    -0.00  -0.00  -0.00    -0.07  -0.05  -0.09    -0.02  -0.01  -0.03
  52   1    -0.01  -0.01  -0.01    -0.10  -0.05  -0.12    -0.03  -0.01  -0.05
  53   7     0.00  -0.01  -0.01    -0.03   0.18   0.12    -0.08   0.10  -0.10
  54   6     0.00   0.00  -0.00    -0.00   0.01   0.01    -0.05  -0.01   0.01
  55   1    -0.00   0.00  -0.00     0.04  -0.02   0.01     0.03  -0.01  -0.01
  56   1     0.00  -0.00  -0.00     0.02   0.01   0.00     0.04  -0.03  -0.00
  57   1     0.00   0.00   0.00    -0.04  -0.03  -0.00    -0.07  -0.04   0.04
                     58                     59                     60
                        a                      a                      a 
 Frequencies --   689.9948               720.1665               728.1087
 Red. masses --     8.1824                 9.8065                11.4306
 Frc consts  --     0.0000                 0.0000                 0.0000
 IR Inten    --    17.2304                47.5132                10.2261
 Raman Activ --     0.0000                 0.0000                 0.0000
 Depolar     --     0.0000                 0.0000                 0.0000
 Atom AN      X      Y      Z        X      Y      Z        X      Y      Z
   1   7    -0.09   0.01  -0.03     0.01   0.04   0.02    -0.11   0.01  -0.01
   2   6    -0.04  -0.18   0.21    -0.00   0.00  -0.01    -0.04  -0.06   0.07
   3   6     0.05   0.06  -0.16    -0.01  -0.01  -0.00     0.08  -0.00  -0.08
   4   6     0.09  -0.09   0.10    -0.01  -0.01  -0.00     0.08  -0.01   0.01
   5   6    -0.00   0.20  -0.24     0.01   0.00  -0.00    -0.01   0.07  -0.09
   6   6     0.09  -0.04   0.14    -0.01   0.01   0.01     0.07  -0.00   0.02
   7   6     0.06   0.16  -0.08    -0.01  -0.01  -0.00     0.06   0.08  -0.01
   8   6    -0.04  -0.03  -0.01     0.02   0.00  -0.01    -0.09  -0.04   0.09
   9   6    -0.22  -0.05   0.05     0.01  -0.00  -0.02    -0.22   0.06   0.22
  10   6     0.00   0.01   0.01    -0.07  -0.50  -0.28    -0.00  -0.04  -0.02
  11   6     0.01   0.00  -0.01    -0.43  -0.00  -0.02    -0.03   0.00  -0.00
  12   6    -0.00  -0.00  -0.00     0.05   0.01   0.19     0.00   0.00   0.01
  13   6    -0.00  -0.00  -0.00     0.20   0.11   0.08     0.01   0.01   0.01
  14   6     0.00  -0.00   0.00    -0.06   0.08  -0.08    -0.00   0.00  -0.00
  15   6     0.00  -0.00  -0.00     0.00   0.01  -0.00    -0.00   0.00  -0.00
  16   8    -0.01  -0.00  -0.00     0.27   0.20   0.06     0.02   0.01   0.01
  17   8    -0.00  -0.00   0.00    -0.00  -0.00   0.01     0.00   0.00   0.00
  18   1    -0.03  -0.00  -0.01    -0.01  -0.05   0.04    -0.02  -0.02   0.01
  19   1    -0.05   0.02  -0.02     0.01   0.04  -0.10    -0.03  -0.00  -0.00
  20   1     0.04   0.02  -0.03    -0.01   0.00  -0.01     0.05  -0.01   0.01
  21   1     0.02  -0.05   0.06    -0.01   0.00  -0.00     0.03  -0.03   0.03
  22   1     0.03  -0.03   0.06    -0.00   0.00   0.00     0.03  -0.02   0.03
  23   1     0.05   0.03  -0.03     0.00  -0.01  -0.00     0.04  -0.00   0.01
  24   1     0.01  -0.01   0.01     0.01  -0.00   0.00    -0.04   0.03  -0.06
  25   1    -0.05   0.01   0.01     0.00   0.01  -0.00    -0.01  -0.10   0.03
  26   1    -0.13  -0.03  -0.01    -0.00  -0.00  -0.00    -0.01   0.04   0.05
  27   1    -0.06  -0.01  -0.04    -0.00  -0.00  -0.00     0.09   0.01   0.01
  28   1    -0.03  -0.22  -0.51    -0.01  -0.01  -0.01     0.11   0.05   0.13
  29   1    -0.00   0.01  -0.01    -0.06  -0.21   0.02    -0.01  -0.01  -0.01
  30   1    -0.00  -0.00  -0.00    -0.02  -0.04   0.22    -0.00  -0.00   0.01
  31   1    -0.00  -0.00   0.00     0.01   0.23  -0.11     0.00   0.01  -0.01
  32   1    -0.00  -0.00  -0.00     0.05   0.10  -0.00     0.00   0.01   0.00
  33   1    -0.00  -0.00  -0.00     0.08   0.07   0.04     0.01   0.01   0.00
  34   1    -0.00   0.00   0.00    -0.04   0.01  -0.01    -0.00  -0.00  -0.00
  35   1     0.00   0.00   0.00    -0.01   0.01   0.00    -0.00   0.00  -0.00
  36   1    -0.00  -0.00   0.00     0.07   0.03   0.02     0.00   0.00   0.00
  37   1    -0.00  -0.00  -0.00    -0.02  -0.03   0.02    -0.00  -0.00   0.00
  38   1     0.00   0.00   0.00    -0.01  -0.03   0.02    -0.00  -0.00   0.00
  39   1     0.01   0.00   0.00    -0.01   0.01  -0.01     0.01   0.00   0.00
  40   1     0.01   0.00  -0.00     0.02  -0.01  -0.01     0.00   0.00  -0.00
  41   8     0.00   0.00   0.00     0.02   0.03   0.00     0.00   0.00   0.00
  42   1    -0.00   0.00  -0.01    -0.02  -0.02   0.00    -0.00  -0.00  -0.00
  43   1    -0.00  -0.01  -0.00    -0.13  -0.11  -0.02    -0.01  -0.01  -0.00
  44   7    -0.10  -0.10  -0.08    -0.01  -0.01  -0.00     0.19   0.08   0.00
  45   6    -0.05   0.03   0.36     0.02   0.02   0.04    -0.37  -0.28  -0.48
  46   8     0.08   0.07  -0.19    -0.00  -0.02  -0.01     0.07   0.31   0.07
  47   6     0.06   0.01   0.07     0.01  -0.00   0.00    -0.03  -0.01  -0.03
  48   6     0.05   0.02   0.00    -0.00   0.00  -0.00    -0.05  -0.01   0.02
  49   8    -0.05   0.07  -0.01    -0.00   0.00  -0.00     0.04  -0.04  -0.00
  50   1     0.03   0.00   0.05     0.00  -0.00   0.00    -0.02   0.00  -0.03
  51   1    -0.00  -0.01   0.01     0.00   0.00   0.00     0.00   0.01  -0.01
  52   1    -0.00  -0.01   0.02    -0.00  -0.00   0.00     0.01   0.01  -0.00
  53   7     0.09  -0.12   0.07    -0.01   0.01  -0.01     0.15  -0.22   0.15
  54   6     0.08   0.02  -0.02    -0.00  -0.00   0.00     0.07  -0.00  -0.01
  55   1    -0.03   0.02   0.01     0.00  -0.00  -0.00    -0.08   0.03   0.00
  56   1    -0.04   0.04   0.00     0.00  -0.00   0.00    -0.07   0.04   0.00
  57   1     0.09   0.05  -0.05    -0.01  -0.00   0.00     0.13   0.09  -0.06
                     61                     62                     63
                        a                      a                      a 
 Frequencies --   764.0723               772.9391               792.3225
 Red. masses --     6.3534                 7.8210                 2.4606
 Frc consts  --     0.0000                 0.0000                 0.0000
 IR Inten    --     6.4796                48.8370                18.0951
 Raman Activ --     0.0000                 0.0000                 0.0000
 Depolar     --     0.0000                 0.0000                 0.0000
 Atom AN      X      Y      Z        X      Y      Z        X      Y      Z
   1   7    -0.07   0.02   0.02     0.38  -0.08   0.08    -0.02  -0.01  -0.00
   2   6    -0.00  -0.00  -0.00     0.07  -0.03   0.05    -0.01   0.01  -0.01
   3   6     0.04  -0.02   0.00    -0.20   0.11  -0.00     0.02  -0.01   0.00
   4   6     0.03   0.01   0.02    -0.19  -0.06  -0.10     0.02   0.00   0.01
   5   6    -0.03  -0.00  -0.00     0.12   0.01  -0.01    -0.01  -0.00   0.00
   6   6     0.05  -0.02  -0.01    -0.22   0.08   0.04     0.01  -0.00  -0.00
   7   6     0.04   0.00   0.02    -0.20  -0.02  -0.11     0.01   0.00   0.01
   8   6    -0.07  -0.00  -0.01     0.35   0.02   0.02    -0.03  -0.00  -0.00
   9   6     0.01  -0.02  -0.00    -0.05   0.07   0.01     0.00  -0.01  -0.00
  10   6    -0.00  -0.19  -0.06     0.01  -0.02   0.02     0.03   0.09   0.04
  11   6    -0.09  -0.13   0.38    -0.04  -0.04   0.07    -0.01   0.06  -0.06
  12   6    -0.05   0.24  -0.37    -0.00   0.04  -0.07    -0.00  -0.06   0.12
  13   6     0.10   0.04  -0.04     0.01  -0.01  -0.02    -0.00  -0.13  -0.12
  14   6     0.04  -0.07   0.05     0.01  -0.01   0.00     0.10  -0.11  -0.19
  15   6    -0.06  -0.07   0.01    -0.01  -0.01   0.00     0.03   0.01  -0.02
  16   8     0.11   0.09  -0.02    -0.00   0.03  -0.02    -0.01  -0.02  -0.01
  17   8     0.00   0.00   0.00    -0.02  -0.01   0.01     0.00   0.00  -0.00
  18   1     0.00  -0.05   0.06    -0.03   0.25  -0.25    -0.01   0.01  -0.01
  19   1     0.00  -0.00   0.00    -0.07   0.14  -0.23    -0.01  -0.00   0.01
  20   1     0.01   0.03  -0.03    -0.05  -0.11   0.15     0.01   0.01  -0.01
  21   1     0.01   0.02  -0.03    -0.06  -0.11   0.11     0.00   0.01  -0.01
  22   1     0.02   0.02  -0.02    -0.07  -0.09   0.11     0.00   0.01  -0.01
  23   1     0.01   0.02  -0.03    -0.06  -0.11   0.13     0.00   0.01  -0.01
  24   1    -0.02  -0.01   0.01     0.11   0.04  -0.04    -0.01  -0.00   0.00
  25   1    -0.03  -0.00   0.00     0.15   0.01  -0.02    -0.01  -0.00   0.00
  26   1     0.01  -0.00   0.00    -0.04   0.01  -0.00     0.00  -0.00   0.00
  27   1     0.00   0.00  -0.00     0.01  -0.01  -0.01    -0.00   0.00   0.00
  28   1    -0.01   0.01   0.01     0.03  -0.02  -0.03    -0.00   0.00   0.01
  29   1    -0.07   0.08  -0.23     0.00  -0.01   0.01     0.03   0.01   0.04
  30   1    -0.15   0.22  -0.37    -0.04   0.03  -0.07     0.03  -0.01   0.07
  31   1     0.16  -0.06   0.36     0.03  -0.01   0.07    -0.02   0.04  -0.05
  32   1    -0.17   0.01   0.01    -0.06   0.01  -0.00    -0.26   0.22  -0.09
  33   1     0.09   0.04   0.14     0.02   0.01   0.05     0.08  -0.08   0.31
  34   1    -0.05   0.01   0.01    -0.03   0.01  -0.00    -0.44   0.23  -0.06
  35   1     0.02  -0.04   0.09     0.01  -0.01   0.03     0.23   0.04   0.43
  36   1    -0.02  -0.02   0.00    -0.01  -0.00   0.00    -0.03   0.05   0.06
  37   1    -0.03  -0.02   0.00    -0.01  -0.00   0.00    -0.24  -0.05   0.05
  38   1    -0.01  -0.01   0.01     0.00   0.01   0.01     0.15   0.18   0.11
  39   1     0.00  -0.00   0.00     0.01   0.01  -0.00    -0.00  -0.00   0.00
  40   1     0.00   0.00   0.00     0.07  -0.01  -0.01    -0.01   0.00   0.00
  41   8     0.00   0.01  -0.00    -0.01  -0.02   0.02    -0.00  -0.00   0.00
  42   1     0.00  -0.01   0.01    -0.01   0.03  -0.05     0.00   0.00   0.00
  43   1    -0.04  -0.03  -0.01     0.07   0.01   0.01     0.01   0.01   0.00
  44   7    -0.00   0.01   0.01    -0.01  -0.03  -0.04     0.00   0.00   0.00
  45   6     0.02   0.01   0.00    -0.09  -0.04   0.00     0.00   0.00  -0.00
  46   8    -0.00  -0.02   0.00     0.01   0.08  -0.02    -0.00  -0.00   0.00
  47   6    -0.00   0.00  -0.00     0.01   0.01   0.01     0.01  -0.00   0.00
  48   6    -0.00  -0.00  -0.00    -0.00   0.01   0.00    -0.01   0.00  -0.00
  49   8     0.00  -0.00   0.00    -0.00   0.01  -0.01    -0.00  -0.00  -0.00
  50   1     0.00   0.00   0.00     0.01  -0.00   0.01    -0.00   0.00   0.00
  51   1    -0.00  -0.00  -0.00     0.01  -0.00   0.01    -0.00  -0.00  -0.00
  52   1     0.00   0.00  -0.00    -0.00  -0.00  -0.00     0.00   0.00   0.01
  53   7    -0.01   0.02  -0.01     0.05  -0.11   0.04    -0.00   0.01  -0.00
  54   6     0.00   0.00  -0.00    -0.01  -0.02   0.01     0.00   0.00  -0.00
  55   1     0.01  -0.00  -0.00    -0.05   0.01   0.01     0.00  -0.00  -0.00
  56   1     0.01  -0.00  -0.00    -0.04   0.01   0.01     0.00  -0.00  -0.00
  57   1    -0.01  -0.01   0.00     0.05   0.03  -0.02    -0.00  -0.00   0.00
                     64                     65                     66
                        a                      a                      a 
 Frequencies --   806.2399               810.6203               863.0260
 Red. masses --     6.1279                 4.8998                 3.3464
 Frc consts  --     0.0000                 0.0000                 0.0000
 IR Inten    --    22.1963               152.6112                 0.6315
 Raman Activ --     0.0000                 0.0000                 0.0000
 Depolar     --     0.0000                 0.0000                 0.0000
 Atom AN      X      Y      Z        X      Y      Z        X      Y      Z
   1   7     0.12   0.15  -0.10    -0.09   0.18  -0.17    -0.01   0.01  -0.01
   2   6     0.11   0.06  -0.07     0.07  -0.18   0.23     0.00  -0.02  -0.01
   3   6    -0.17  -0.04   0.13    -0.05   0.14  -0.12    -0.03   0.18  -0.20
   4   6    -0.16  -0.14   0.05    -0.04   0.10  -0.08    -0.03   0.13  -0.13
   5   6     0.06   0.14  -0.15     0.00  -0.10   0.13     0.00  -0.02   0.01
   6   6    -0.13  -0.02   0.14    -0.03   0.03  -0.15     0.03  -0.09   0.13
   7   6    -0.13  -0.15   0.04    -0.05   0.06  -0.20     0.03  -0.17   0.21
   8   6     0.32  -0.00  -0.02     0.04   0.02   0.06    -0.01  -0.00  -0.04
   9   6     0.01   0.01   0.01    -0.02   0.05  -0.01    -0.00   0.00  -0.01
  10   6    -0.02   0.02  -0.03    -0.02   0.01  -0.03     0.00  -0.00   0.00
  11   6     0.03   0.00   0.02     0.01   0.01   0.01    -0.01   0.00  -0.00
  12   6    -0.01   0.00  -0.01    -0.01   0.00  -0.01     0.00   0.00   0.00
  13   6     0.00   0.00  -0.00     0.00   0.00  -0.00     0.00  -0.00  -0.00
  14   6     0.01  -0.01  -0.00     0.01  -0.01  -0.01    -0.00   0.00  -0.00
  15   6    -0.00  -0.00  -0.00    -0.00  -0.00  -0.00    -0.00   0.00  -0.00
  16   8     0.02  -0.02   0.01     0.02  -0.01   0.01     0.01   0.00  -0.00
  17   8     0.02   0.01  -0.01     0.02   0.01  -0.01     0.00  -0.00   0.00
  18   1     0.17  -0.26   0.27     0.11  -0.27   0.26     0.01  -0.02   0.02
  19   1     0.25  -0.16   0.28     0.16  -0.14   0.26    -0.00   0.00   0.00
  20   1    -0.12   0.13  -0.18     0.02  -0.20   0.25     0.06  -0.33   0.41
  21   1    -0.10   0.08  -0.10     0.04  -0.16   0.20     0.05  -0.22   0.27
  22   1    -0.08   0.09  -0.10     0.04  -0.18   0.21    -0.04   0.20  -0.25
  23   1    -0.10   0.13  -0.18     0.02  -0.23   0.27    -0.06   0.32  -0.40
  24   1     0.12   0.01   0.01    -0.02   0.03  -0.06     0.02  -0.01   0.02
  25   1     0.07   0.03   0.00     0.09  -0.03  -0.02    -0.02   0.03  -0.01
  26   1    -0.02  -0.02   0.02    -0.01   0.03  -0.03    -0.00  -0.01   0.01
  27   1    -0.00  -0.00   0.00     0.00  -0.01  -0.01    -0.00   0.01   0.01
  28   1     0.04  -0.02  -0.03    -0.02   0.00   0.02    -0.00  -0.00  -0.00
  29   1    -0.00  -0.00   0.01    -0.01   0.01  -0.01    -0.00   0.00  -0.01
  30   1     0.01   0.01  -0.01     0.00   0.00  -0.00    -0.00  -0.00   0.00
  31   1    -0.00  -0.02   0.01     0.00  -0.01   0.01     0.00   0.00  -0.00
  32   1     0.00   0.01  -0.00    -0.00   0.00  -0.00    -0.01  -0.01   0.00
  33   1    -0.00  -0.00   0.00     0.00  -0.00   0.01     0.00   0.00   0.00
  34   1    -0.01   0.00  -0.00    -0.02   0.01  -0.00     0.00   0.00  -0.00
  35   1     0.01   0.00   0.01     0.01   0.00   0.02    -0.00  -0.00  -0.00
  36   1    -0.00   0.00   0.00     0.00   0.00   0.00     0.00   0.00  -0.00
  37   1    -0.01  -0.00   0.00    -0.01  -0.01   0.00     0.00  -0.00   0.00
  38   1     0.01   0.01   0.00     0.01   0.01   0.01    -0.00  -0.00   0.00
  39   1    -0.03  -0.02   0.00    -0.01  -0.02   0.00    -0.00   0.00  -0.00
  40   1    -0.08   0.01   0.01    -0.07   0.01   0.01    -0.00   0.00   0.00
  41   8    -0.00   0.02  -0.03     0.00   0.02  -0.03     0.00   0.00  -0.00
  42   1     0.01  -0.02   0.06     0.01  -0.03   0.05    -0.00  -0.00   0.00
  43   1    -0.06   0.00  -0.01    -0.07  -0.01  -0.01    -0.01  -0.00  -0.00
  44   7     0.01  -0.01  -0.01    -0.02  -0.03  -0.03     0.01   0.02   0.01
  45   6    -0.12  -0.02   0.02     0.07   0.01  -0.01    -0.00   0.00  -0.00
  46   8    -0.02   0.11  -0.03     0.02  -0.05   0.01    -0.00   0.00  -0.00
  47   6    -0.00   0.00  -0.01     0.01   0.01   0.02     0.01  -0.00   0.01
  48   6    -0.00   0.01  -0.00    -0.00   0.01  -0.00    -0.00  -0.01  -0.00
  49   8    -0.00   0.01   0.00    -0.01   0.01  -0.01    -0.00  -0.02  -0.00
  50   1     0.00  -0.00   0.00     0.01  -0.00   0.01    -0.00   0.00  -0.00
  51   1    -0.00  -0.00  -0.00     0.00  -0.00   0.01    -0.00   0.00  -0.00
  52   1    -0.00  -0.00  -0.00    -0.00  -0.00  -0.00     0.01   0.01   0.01
  53   7     0.06  -0.13   0.04    -0.02   0.05  -0.01     0.00  -0.00   0.00
  54   6    -0.01  -0.03   0.01    -0.01   0.01   0.00    -0.00  -0.00   0.00
  55   1    -0.06   0.01   0.01     0.02  -0.01  -0.00    -0.00   0.00   0.00
  56   1    -0.05   0.01   0.01     0.02  -0.01  -0.00    -0.00   0.00   0.00
  57   1     0.06   0.04  -0.03    -0.03  -0.02   0.01     0.00   0.00  -0.00
                     67                     68                     69
                        a                      a                      a 
 Frequencies --   871.5511               882.3884               893.8152
 Red. masses --     8.3823                10.2717                 3.7279
 Frc consts  --     0.0000                 0.0000                 0.0000
 IR Inten    --     2.8417                 1.8090                 8.1125
 Raman Activ --     0.0000                 0.0000                 0.0000
 Depolar     --     0.0000                 0.0000                 0.0000
 Atom AN      X      Y      Z        X      Y      Z        X      Y      Z
   1   7     0.08   0.01   0.01    -0.30  -0.07   0.04     0.01  -0.01   0.01
   2   6     0.00   0.03  -0.01    -0.00   0.00  -0.01     0.00  -0.00   0.00
   3   6     0.04  -0.08  -0.04    -0.05   0.24   0.25     0.00   0.00  -0.00
   4   6    -0.01  -0.12  -0.08     0.10   0.30   0.24    -0.00   0.00  -0.00
   5   6     0.01   0.10  -0.12    -0.09   0.04  -0.06     0.00  -0.00   0.00
   6   6    -0.04   0.02   0.07     0.13  -0.29  -0.25    -0.00   0.00   0.00
   7   6    -0.02  -0.00   0.09    -0.03  -0.30  -0.18     0.00   0.00   0.00
   8   6     0.00   0.03   0.38     0.29   0.02   0.11    -0.00  -0.00  -0.01
   9   6    -0.17   0.10   0.21     0.05   0.06   0.01    -0.00  -0.00  -0.00
  10   6    -0.00   0.01  -0.01     0.02  -0.05   0.06    -0.08  -0.11  -0.05
  11   6     0.00  -0.00   0.01    -0.00   0.02  -0.05     0.15  -0.06   0.00
  12   6     0.00   0.00  -0.00     0.00  -0.01   0.02    -0.08   0.07  -0.10
  13   6    -0.00   0.00   0.00     0.00   0.01   0.00     0.02   0.21   0.30
  14   6     0.00  -0.00  -0.00     0.00  -0.00  -0.00     0.04  -0.03  -0.11
  15   6     0.00  -0.00   0.00    -0.00  -0.00  -0.00     0.05  -0.05  -0.13
  16   8     0.00  -0.00   0.00    -0.01   0.01  -0.02    -0.06   0.00   0.02
  17   8     0.00   0.00   0.00    -0.00  -0.00   0.00    -0.00  -0.00   0.00
  18   1     0.01   0.00  -0.01    -0.10   0.02  -0.03    -0.01   0.01  -0.01
  19   1     0.04  -0.01  -0.00    -0.15   0.03  -0.04    -0.01   0.01  -0.02
  20   1     0.03   0.03  -0.06    -0.08   0.09  -0.00    -0.00  -0.00   0.00
  21   1    -0.00  -0.04  -0.01     0.12   0.05   0.05     0.00  -0.01   0.01
  22   1    -0.05   0.01  -0.02     0.11  -0.06  -0.03    -0.00   0.00  -0.00
  23   1    -0.03   0.10  -0.10    -0.09  -0.01  -0.10     0.00   0.00  -0.00
  24   1    -0.18   0.09  -0.23     0.06   0.05  -0.08     0.00  -0.00   0.00
  25   1     0.16  -0.34   0.07     0.16  -0.09   0.00    -0.00   0.00  -0.00
  26   1    -0.09   0.10  -0.10    -0.01   0.04  -0.05    -0.00  -0.00   0.00
  27   1    -0.05  -0.05  -0.09    -0.01  -0.02  -0.03     0.00   0.00   0.00
  28   1    -0.06   0.01   0.04     0.01  -0.01  -0.01    -0.00  -0.00   0.00
  29   1     0.00  -0.01   0.02    -0.04   0.07  -0.12    -0.06  -0.05   0.01
  30   1    -0.00  -0.00  -0.00     0.01   0.00   0.01     0.01   0.01  -0.08
  31   1     0.00  -0.00   0.00    -0.01   0.01  -0.03    -0.06  -0.13   0.01
  32   1     0.00   0.00   0.00     0.01   0.00   0.00     0.36  -0.12   0.09
  33   1    -0.00  -0.00  -0.00    -0.00  -0.00  -0.00    -0.14  -0.01  -0.27
  34   1    -0.00   0.00  -0.00    -0.00  -0.00   0.00    -0.24  -0.21   0.08
  35   1     0.00   0.00   0.00     0.00   0.00   0.00     0.16   0.22   0.03
  36   1     0.00  -0.00  -0.00     0.00   0.00   0.00     0.02   0.12   0.13
  37   1    -0.00   0.00   0.00    -0.01  -0.00   0.00    -0.35  -0.18   0.08
  38   1     0.00   0.00   0.00     0.00   0.00   0.00     0.19   0.21   0.13
  39   1    -0.00  -0.00  -0.00     0.01   0.00   0.00     0.00   0.00  -0.00
  40   1    -0.00  -0.00  -0.00     0.01  -0.00  -0.00     0.01  -0.00  -0.00
  41   8    -0.00  -0.00  -0.00     0.00  -0.00   0.01     0.00  -0.00   0.00
  42   1    -0.00   0.00  -0.00    -0.00   0.00  -0.01    -0.00   0.00  -0.01
  43   1     0.00   0.00   0.00     0.00  -0.00  -0.00     0.00  -0.00   0.00
  44   7    -0.08  -0.28  -0.20    -0.03  -0.10  -0.06     0.00   0.00   0.00
  45   6     0.18  -0.04  -0.12    -0.02   0.01   0.01     0.00  -0.00  -0.00
  46   8     0.13  -0.18   0.07    -0.01   0.02  -0.01     0.00  -0.00   0.00
  47   6    -0.03   0.05  -0.03    -0.01   0.02  -0.02     0.00  -0.00  -0.00
  48   6     0.01   0.08   0.02     0.01   0.03   0.01     0.00   0.00   0.00
  49   8     0.00   0.15  -0.01    -0.00   0.06  -0.00    -0.00  -0.00   0.00
  50   1     0.05  -0.02   0.05     0.02  -0.01   0.02    -0.00   0.00  -0.00
  51   1     0.02  -0.03   0.03     0.00  -0.01   0.01    -0.00  -0.00  -0.00
  52   1    -0.07  -0.06  -0.10    -0.03  -0.02  -0.04     0.00   0.00   0.00
  53   7    -0.08   0.18  -0.04     0.02  -0.04   0.01    -0.00   0.00  -0.00
  54   6     0.02   0.07  -0.03    -0.03  -0.02   0.02     0.00   0.00  -0.00
  55   1     0.10  -0.02  -0.01    -0.03   0.00   0.00     0.00  -0.00  -0.00
  56   1     0.10  -0.02  -0.01    -0.03   0.00   0.01     0.00  -0.00  -0.00
  57   1    -0.11  -0.07   0.05     0.01   0.01  -0.01    -0.00  -0.00   0.00
                     70                     71                     72
                        a                      a                      a 
 Frequencies --   906.9221               920.9645               924.6171
 Red. masses --     2.7881                 4.2039                 5.0755
 Frc consts  --     0.0000                 0.0000                 0.0000
 IR Inten    --     0.2110                 0.2310                54.8152
 Raman Activ --     0.0000                 0.0000                 0.0000
 Depolar     --     0.0000                 0.0000                 0.0000
 Atom AN      X      Y      Z        X      Y      Z        X      Y      Z
   1   7    -0.02   0.01  -0.01    -0.02   0.00  -0.00    -0.06   0.02  -0.06
   2   6    -0.00   0.03  -0.04     0.00  -0.00  -0.00    -0.05  -0.00   0.01
   3   6    -0.02   0.12  -0.11     0.00  -0.10   0.17     0.02   0.01   0.02
   4   6     0.03  -0.12   0.17    -0.04   0.20  -0.19     0.03   0.07   0.02
   5   6    -0.01   0.01  -0.01     0.01  -0.00  -0.02    -0.03  -0.00   0.01
   6   6     0.03  -0.15   0.15     0.05  -0.18   0.23     0.04  -0.07  -0.06
   7   6    -0.03   0.06  -0.14    -0.02   0.11  -0.17     0.01  -0.03  -0.01
   8   6     0.03   0.02   0.06     0.03  -0.03  -0.04     0.00   0.05   0.06
   9   6     0.04  -0.01   0.02    -0.12   0.03   0.04     0.14  -0.02  -0.04
  10   6    -0.00   0.01  -0.01    -0.01   0.01  -0.02    -0.10   0.24  -0.35
  11   6    -0.00  -0.00   0.01     0.00  -0.00   0.01     0.03  -0.10   0.18
  12   6     0.00   0.00  -0.00    -0.00   0.00  -0.00    -0.03   0.04  -0.09
  13   6    -0.00  -0.00   0.00    -0.00  -0.00  -0.00     0.01  -0.04   0.01
  14   6    -0.00   0.00  -0.00     0.00  -0.00   0.00    -0.02   0.02  -0.02
  15   6     0.00  -0.00  -0.00    -0.00  -0.00   0.00     0.00   0.03  -0.00
  16   8     0.00  -0.00   0.00     0.00  -0.00   0.01     0.05  -0.07   0.11
  17   8     0.00   0.00  -0.00     0.00   0.00   0.00     0.00   0.00   0.00
  18   1    -0.01  -0.01   0.00    -0.00  -0.00   0.00    -0.04   0.01  -0.04
  19   1     0.00  -0.01   0.00    -0.01   0.00  -0.01    -0.01   0.01  -0.03
  20   1     0.05  -0.25   0.32    -0.06   0.20  -0.24    -0.00   0.02  -0.02
  21   1    -0.06   0.32  -0.38     0.07  -0.30   0.37     0.03  -0.02   0.04
  22   1    -0.07   0.31  -0.41    -0.06   0.31  -0.40     0.02  -0.02  -0.01
  23   1     0.04  -0.24   0.29     0.05  -0.20   0.24    -0.01   0.01  -0.03
  24   1    -0.03   0.01  -0.03     0.06  -0.00   0.03    -0.05   0.01  -0.04
  25   1     0.03  -0.06   0.01    -0.02   0.05  -0.00     0.05  -0.05   0.00
  26   1     0.02   0.02  -0.03    -0.06  -0.02   0.04     0.06   0.02  -0.04
  27   1    -0.02  -0.01  -0.02    -0.00   0.01  -0.00    -0.00  -0.01  -0.00
  28   1     0.01   0.00  -0.00    -0.02  -0.01   0.01     0.03   0.00  -0.02
  29   1     0.01  -0.01   0.01     0.01  -0.02   0.03     0.20  -0.38   0.62
  30   1    -0.00   0.00  -0.00     0.00  -0.00   0.00    -0.01  -0.01  -0.01
  31   1     0.00   0.00   0.00     0.00  -0.01   0.01     0.05  -0.08   0.18
  32   1    -0.00  -0.00   0.00    -0.00   0.01  -0.00    -0.02   0.01   0.00
  33   1    -0.00   0.00  -0.00     0.00  -0.00   0.00     0.01  -0.01   0.02
  34   1    -0.00  -0.00   0.00     0.00   0.00  -0.00     0.00   0.02  -0.01
  35   1     0.00   0.00   0.00    -0.00  -0.00   0.00    -0.02  -0.02   0.00
  36   1     0.00   0.00   0.00    -0.00  -0.00  -0.00     0.04   0.01  -0.00
  37   1    -0.00  -0.00   0.00     0.01   0.00  -0.00     0.02  -0.00  -0.00
  38   1     0.00   0.00   0.00    -0.00  -0.00  -0.00    -0.02  -0.03  -0.00
  39   1     0.00  -0.00   0.00     0.00   0.00  -0.00    -0.01   0.01  -0.00
  40   1    -0.00   0.00   0.00     0.00  -0.00  -0.00    -0.00  -0.00  -0.00
  41   8     0.00   0.00  -0.00    -0.00  -0.00  -0.00     0.00  -0.00  -0.00
  42   1    -0.00  -0.00   0.00     0.00   0.00  -0.00     0.00   0.00  -0.01
  43   1    -0.00  -0.00  -0.00     0.00   0.00   0.00     0.02   0.01   0.01
  44   7    -0.01  -0.06  -0.02     0.00   0.04  -0.01    -0.01  -0.05   0.01
  45   6    -0.01   0.00   0.01     0.04  -0.02  -0.04    -0.05   0.03   0.04
  46   8    -0.01   0.01  -0.00     0.05  -0.05   0.02    -0.06   0.06  -0.02
  47   6    -0.02   0.01  -0.03     0.02  -0.00   0.03    -0.03   0.00  -0.04
  48   6     0.01   0.02   0.01    -0.01  -0.01  -0.02     0.02   0.01   0.02
  49   8     0.00   0.04   0.00    -0.00  -0.03  -0.00     0.00   0.04   0.01
  50   1     0.00  -0.00   0.00     0.00   0.00   0.01    -0.00  -0.00  -0.01
  51   1    -0.00  -0.01  -0.00     0.00   0.00   0.00    -0.00  -0.01  -0.01
  52   1    -0.02  -0.01  -0.02     0.01   0.01   0.02    -0.02  -0.01  -0.03
  53   7     0.01  -0.01   0.00    -0.02   0.04  -0.00     0.03  -0.05   0.01
  54   6    -0.00  -0.01   0.00     0.02   0.03  -0.01    -0.02  -0.03   0.02
  55   1    -0.01   0.00   0.00     0.04  -0.00  -0.00    -0.04   0.00   0.00
  56   1    -0.01   0.00   0.00     0.03  -0.01  -0.01    -0.04   0.01   0.01
  57   1     0.01   0.01  -0.00    -0.03  -0.02   0.01     0.03   0.02  -0.02
                     73                     74                     75
                        a                      a                      a 
 Frequencies --   929.8388               939.1034               976.4517
 Red. masses --     8.5090                 6.1041                10.8882
 Frc consts  --     0.0000                 0.0000                 0.0000
 IR Inten    --     3.3633                 3.6562                20.2366
 Raman Activ --     0.0000                 0.0000                 0.0000
 Depolar     --     0.0000                 0.0000                 0.0000
 Atom AN      X      Y      Z        X      Y      Z        X      Y      Z
   1   7    -0.05  -0.01  -0.02    -0.01   0.00  -0.00    -0.00  -0.01  -0.01
   2   6    -0.00  -0.01  -0.02    -0.01   0.00   0.00     0.00  -0.01  -0.00
   3   6    -0.07   0.11   0.04     0.00   0.00  -0.00    -0.02   0.03   0.02
   4   6     0.01   0.02   0.16     0.00   0.00   0.00    -0.01   0.03   0.01
   5   6     0.02   0.02  -0.06    -0.00  -0.00   0.00     0.02  -0.04   0.02
   6   6     0.02   0.03  -0.04     0.00  -0.00  -0.01    -0.00   0.03   0.01
   7   6     0.01  -0.08  -0.01     0.00  -0.00  -0.00     0.00  -0.00  -0.01
   8   6     0.13  -0.16  -0.17     0.00   0.00   0.00    -0.01   0.11  -0.24
   9   6    -0.45   0.09   0.15     0.01  -0.00  -0.00    -0.10  -0.09   0.11
  10   6    -0.03   0.07  -0.10    -0.04  -0.04  -0.07    -0.01  -0.01  -0.00
  11   6     0.01  -0.02   0.05    -0.04   0.03  -0.00     0.01  -0.00  -0.00
  12   6    -0.01   0.01  -0.02     0.14   0.02   0.03    -0.00   0.00   0.00
  13   6     0.00  -0.01  -0.00    -0.19   0.31  -0.25     0.01   0.00   0.00
  14   6    -0.00   0.00  -0.00     0.21  -0.14   0.20     0.00  -0.00  -0.00
  15   6     0.00   0.00   0.00    -0.05  -0.33   0.14    -0.00   0.00   0.00
  16   8     0.02  -0.02   0.03     0.02   0.01   0.02    -0.01   0.00   0.00
  17   8     0.00  -0.00   0.00     0.00  -0.00   0.00    -0.00  -0.00  -0.00
  18   1     0.00   0.00   0.00    -0.01  -0.00  -0.00     0.02  -0.00   0.01
  19   1    -0.04   0.01  -0.00     0.00   0.00  -0.01    -0.02   0.01   0.01
  20   1    -0.04  -0.04   0.08     0.00  -0.00   0.00    -0.01   0.00   0.01
  21   1    -0.04   0.16  -0.12     0.00   0.00   0.00    -0.01   0.00   0.02
  22   1     0.04  -0.03   0.07     0.00  -0.00   0.00     0.01  -0.00   0.02
  23   1     0.00   0.01  -0.06     0.00   0.00  -0.00     0.01  -0.01  -0.00
  24   1     0.25  -0.00   0.10    -0.00   0.00  -0.00     0.13   0.06   0.01
  25   1    -0.10   0.18  -0.01     0.00  -0.00  -0.00    -0.09   0.13  -0.03
  26   1    -0.21  -0.07   0.14     0.00   0.00  -0.00    -0.10  -0.04   0.00
  27   1     0.03   0.03   0.01     0.00  -0.00  -0.00     0.00  -0.06  -0.02
  28   1    -0.09  -0.02   0.06     0.00  -0.00   0.00    -0.01   0.01  -0.00
  29   1     0.06  -0.10   0.16     0.01  -0.06   0.06    -0.01  -0.00  -0.00
  30   1    -0.00  -0.01   0.00     0.01  -0.05   0.08     0.00   0.01  -0.01
  31   1     0.02  -0.02   0.05     0.05   0.02   0.02    -0.01   0.00  -0.01
  32   1    -0.01   0.00  -0.00    -0.01   0.08  -0.07     0.00   0.01  -0.00
  33   1     0.00  -0.00   0.00    -0.03   0.17  -0.14    -0.00  -0.01   0.01
  34   1     0.00   0.01  -0.00     0.07   0.02   0.03    -0.00   0.01  -0.00
  35   1    -0.00  -0.01   0.00     0.14   0.14  -0.01    -0.00  -0.01   0.01
  36   1     0.00  -0.00  -0.00    -0.50  -0.24  -0.07     0.00  -0.00  -0.00
  37   1     0.01   0.00  -0.00    -0.02   0.15  -0.06     0.01   0.00  -0.00
  38   1    -0.00  -0.00  -0.00     0.13   0.23  -0.07    -0.01  -0.01  -0.00
  39   1    -0.00   0.00  -0.00    -0.00   0.00  -0.00     0.00   0.00  -0.00
  40   1     0.00  -0.00  -0.00     0.00  -0.00  -0.00     0.00   0.00   0.00
  41   8     0.00  -0.00  -0.00     0.00   0.00  -0.00    -0.00   0.00  -0.00
  42   1     0.00   0.00  -0.00    -0.00  -0.00  -0.00     0.00  -0.00   0.00
  43   1     0.00   0.00   0.00    -0.00  -0.00  -0.00    -0.00  -0.00  -0.00
  44   7     0.01   0.15  -0.05     0.00  -0.00   0.00     0.10  -0.34   0.15
  45   6     0.15  -0.09  -0.13    -0.00   0.00   0.00     0.00  -0.04  -0.05
  46   8     0.19  -0.18   0.06    -0.00   0.00  -0.00     0.04  -0.03   0.02
  47   6     0.09   0.01   0.12    -0.00  -0.00  -0.01    -0.20  -0.20  -0.36
  48   6    -0.06  -0.04  -0.07     0.00  -0.00   0.01     0.19   0.03   0.36
  49   8    -0.00  -0.13  -0.02    -0.00   0.00   0.00     0.06   0.40   0.06
  50   1     0.02   0.01   0.03    -0.00   0.00   0.00    -0.16   0.02  -0.19
  51   1     0.02   0.01   0.03    -0.00   0.00  -0.01    -0.15   0.01  -0.19
  52   1     0.04   0.02   0.06    -0.00  -0.00  -0.00    -0.01   0.02   0.01
  53   7    -0.09   0.15  -0.02     0.00  -0.00   0.00    -0.04   0.03   0.01
  54   6     0.07   0.10  -0.06    -0.00  -0.00   0.00     0.04   0.03  -0.02
  55   1     0.13  -0.02  -0.01    -0.00   0.00   0.00     0.03  -0.00  -0.00
  56   1     0.13  -0.02  -0.02    -0.00   0.00   0.00     0.04   0.00  -0.01
  57   1    -0.11  -0.07   0.05     0.00   0.00  -0.00    -0.01  -0.01   0.01
                     76                     77                     78
                        a                      a                      a 
 Frequencies --   992.0206               995.3875              1001.8678
 Red. masses --     5.6707                 6.3931                 5.3020
 Frc consts  --     0.0000                 0.0000                 0.0000
 IR Inten    --     3.9975                23.0256                22.3787
 Raman Activ --     0.0000                 0.0000                 0.0000
 Depolar     --     0.0000                 0.0000                 0.0000
 Atom AN      X      Y      Z        X      Y      Z        X      Y      Z
   1   7    -0.02   0.03   0.03     0.00   0.01   0.03     0.01  -0.01  -0.01
   2   6    -0.00   0.03   0.02     0.01   0.00   0.01     0.00  -0.01  -0.01
   3   6     0.02   0.00   0.00     0.00   0.01  -0.00    -0.00  -0.00  -0.00
   4   6     0.01  -0.06  -0.03    -0.00  -0.02  -0.01    -0.00   0.01   0.01
   5   6     0.01   0.08  -0.03     0.01   0.01  -0.00    -0.00  -0.02   0.01
   6   6     0.01  -0.04  -0.02     0.00   0.00   0.00    -0.00   0.01   0.00
   7   6    -0.03  -0.07  -0.04    -0.00  -0.02  -0.01     0.01   0.02   0.02
   8   6     0.03   0.10   0.20    -0.00   0.01   0.03    -0.01  -0.03  -0.04
   9   6    -0.12  -0.12  -0.16    -0.02  -0.01  -0.02     0.03   0.03   0.02
  10   6     0.02   0.03   0.01    -0.16  -0.24  -0.10    -0.01  -0.01  -0.01
  11   6    -0.04   0.00  -0.00     0.41   0.01  -0.05     0.04  -0.01   0.01
  12   6     0.02  -0.00  -0.02    -0.21   0.09   0.08    -0.02   0.00   0.02
  13   6    -0.02  -0.02  -0.00     0.16   0.19   0.00     0.02   0.02   0.01
  14   6    -0.01   0.01   0.00     0.11  -0.05  -0.02     0.01  -0.01  -0.01
  15   6     0.01   0.00  -0.01    -0.10  -0.02   0.10    -0.01  -0.00   0.02
  16   8     0.02  -0.00  -0.01    -0.19   0.01   0.06    -0.01  -0.00   0.00
  17   8     0.00   0.00   0.00    -0.00   0.00  -0.00    -0.00  -0.00  -0.00
  18   1    -0.08  -0.00  -0.04    -0.03   0.00  -0.02     0.02   0.00   0.01
  19   1     0.07  -0.02  -0.00     0.02  -0.00  -0.03    -0.02   0.01  -0.00
  20   1     0.03   0.02   0.00     0.01  -0.00   0.01    -0.01  -0.01  -0.00
  21   1     0.01  -0.01  -0.03     0.00  -0.00  -0.01    -0.00   0.00   0.01
  22   1     0.01  -0.00  -0.01     0.01   0.01   0.00    -0.01  -0.00   0.00
  23   1    -0.03  -0.01  -0.02     0.00  -0.01  -0.01     0.00   0.00   0.01
  24   1    -0.18  -0.01  -0.07    -0.03  -0.01  -0.01     0.04   0.00   0.01
  25   1     0.23  -0.03  -0.05     0.03  -0.01  -0.01    -0.05  -0.00   0.02
  26   1    -0.00  -0.01  -0.05     0.00  -0.00  -0.00     0.01   0.01   0.00
  27   1    -0.08   0.14  -0.11    -0.01   0.02  -0.01     0.03  -0.03   0.03
  28   1    -0.02   0.00   0.01    -0.00  -0.00  -0.00     0.01   0.01   0.01
  29   1     0.02   0.01  -0.00    -0.16  -0.12   0.02    -0.01  -0.01   0.01
  30   1    -0.01  -0.03   0.04     0.14   0.19  -0.12    -0.02   0.03  -0.08
  31   1     0.03  -0.00   0.04    -0.17  -0.10  -0.11    -0.04   0.01  -0.07
  32   1    -0.02  -0.04   0.01     0.20   0.32  -0.11     0.04   0.04  -0.01
  33   1     0.00   0.01  -0.01    -0.05  -0.16   0.07    -0.01  -0.02   0.01
  34   1    -0.00  -0.02   0.01     0.03   0.18  -0.07     0.00   0.02  -0.01
  35   1    -0.00   0.02  -0.02    -0.02  -0.18   0.14    -0.01  -0.02   0.01
  36   1     0.00   0.01   0.01    -0.01  -0.07  -0.06    -0.00  -0.01  -0.01
  37   1    -0.01  -0.01   0.00     0.16   0.07  -0.03     0.02   0.01  -0.01
  38   1     0.01   0.01   0.01    -0.12  -0.13  -0.06    -0.01  -0.01  -0.01
  39   1     0.00  -0.00   0.00     0.00   0.01  -0.00     0.00   0.00  -0.00
  40   1    -0.00  -0.00  -0.00     0.01  -0.00  -0.00     0.00   0.00   0.00
  41   8     0.00  -0.00   0.00     0.00   0.00  -0.00    -0.00   0.00  -0.00
  42   1    -0.00   0.00  -0.01    -0.00   0.00  -0.01     0.00   0.00   0.00
  43   1     0.01   0.00   0.00    -0.00  -0.00  -0.00    -0.00  -0.00   0.00
  44   7     0.01   0.30  -0.01    -0.01   0.05  -0.00     0.03  -0.06  -0.03
  45   6    -0.01  -0.02   0.07    -0.00  -0.00   0.01     0.02   0.03  -0.01
  46   8     0.02  -0.02  -0.01     0.00  -0.00  -0.00    -0.01   0.01  -0.00
  47   6     0.14  -0.33  -0.02    -0.02  -0.04   0.04     0.34   0.13  -0.20
  48   6    -0.10  -0.02   0.09     0.03  -0.00  -0.03    -0.36  -0.01   0.22
  49   8     0.07  -0.04   0.05    -0.00  -0.02   0.01     0.05  -0.03  -0.08
  50   1    -0.20   0.10  -0.15    -0.04  -0.00  -0.07     0.19   0.08   0.50
  51   1    -0.21   0.08  -0.26     0.02   0.02   0.02    -0.36  -0.14  -0.31
  52   1     0.23   0.17   0.41     0.05   0.03   0.03    -0.17  -0.06   0.11
  53   7    -0.05   0.02  -0.01    -0.01   0.00  -0.00     0.02  -0.01  -0.01
  54   6     0.06   0.04  -0.02     0.01   0.01  -0.00    -0.03  -0.02   0.01
  55   1     0.05   0.00  -0.01     0.01   0.00  -0.00    -0.02  -0.00   0.00
  56   1     0.03  -0.01  -0.01     0.00  -0.00  -0.00    -0.02   0.00   0.00
  57   1    -0.02  -0.01   0.00    -0.00  -0.00   0.00     0.01   0.01  -0.00
                     79                     80                     81
                        a                      a                      a 
 Frequencies --  1010.2200              1016.8247              1019.4010
 Red. masses --     2.4789                 5.3573                 6.8376
 Frc consts  --     0.0000                 0.0000                 0.0000
 IR Inten    --    21.6397                 0.6077                 0.6117
 Raman Activ --     0.0000                 0.0000                 0.0000
 Depolar     --     0.0000                 0.0000                 0.0000
 Atom AN      X      Y      Z        X      Y      Z        X      Y      Z
   1   7    -0.00   0.04   0.01    -0.05  -0.20  -0.18    -0.12   0.13   0.13
   2   6    -0.01   0.01   0.02     0.06  -0.06  -0.07     0.02   0.05   0.05
   3   6     0.01  -0.04  -0.03    -0.03   0.27   0.24    -0.04   0.18   0.15
   4   6    -0.01   0.03   0.02     0.06  -0.14  -0.12    -0.02  -0.24  -0.20
   5   6    -0.02   0.01   0.00     0.08  -0.03  -0.03     0.10   0.04   0.03
   6   6     0.02  -0.04  -0.04    -0.10   0.21   0.18     0.03   0.18   0.13
   7   6    -0.00   0.01   0.01    -0.02  -0.09  -0.07     0.00  -0.33  -0.26
   8   6     0.02   0.01   0.01    -0.08  -0.01   0.05    -0.10   0.09  -0.05
   9   6    -0.02  -0.01  -0.01     0.02   0.01  -0.02     0.00  -0.11   0.03
  10   6     0.03   0.09  -0.01    -0.00   0.02  -0.02     0.01   0.01  -0.00
  11   6    -0.05  -0.11   0.18    -0.02  -0.02   0.03    -0.01   0.00   0.00
  12   6     0.10  -0.11   0.16     0.01  -0.02   0.02     0.01  -0.00  -0.00
  13   6    -0.05  -0.03   0.00    -0.00   0.00   0.00    -0.01  -0.01  -0.00
  14   6    -0.04   0.01  -0.00    -0.00   0.00  -0.00    -0.01   0.00   0.00
  15   6     0.04  -0.01   0.00     0.00  -0.00   0.00     0.01   0.00  -0.00
  16   8     0.05  -0.01  -0.01     0.02  -0.00   0.00     0.00  -0.00  -0.00
  17   8     0.00   0.00   0.00    -0.01  -0.01  -0.00     0.01   0.01   0.00
  18   1    -0.06  -0.00  -0.03     0.41  -0.01   0.21    -0.34  -0.01  -0.15
  19   1     0.07  -0.02  -0.00    -0.46   0.14   0.03     0.28  -0.10  -0.01
  20   1    -0.02  -0.02  -0.02     0.13   0.17   0.10     0.12   0.12   0.09
  21   1    -0.02   0.01   0.02     0.20  -0.09  -0.11     0.09  -0.10  -0.08
  22   1    -0.00  -0.01  -0.01     0.01   0.07   0.06     0.18   0.14   0.09
  23   1    -0.02   0.01   0.01     0.09  -0.05  -0.05     0.18  -0.14  -0.16
  24   1    -0.01  -0.00  -0.00    -0.04   0.00  -0.01    -0.08  -0.02   0.01
  25   1     0.03   0.01  -0.01    -0.04  -0.06   0.03     0.00   0.05  -0.03
  26   1    -0.01  -0.01   0.00     0.03   0.03  -0.04     0.02  -0.04   0.05
  27   1     0.00   0.01  -0.00    -0.02   0.02  -0.02     0.02  -0.02   0.03
  28   1    -0.01  -0.00   0.00     0.01   0.01  -0.00    -0.02   0.00   0.00
  29   1     0.07  -0.02   0.08     0.02  -0.02   0.03     0.01  -0.00   0.01
  30   1    -0.22   0.22  -0.58    -0.04   0.03  -0.09    -0.00  -0.00   0.00
  31   1    -0.13   0.28  -0.54    -0.02   0.03  -0.08     0.01   0.01   0.00
  32   1     0.01  -0.02   0.00     0.01   0.01  -0.00    -0.01  -0.01   0.00
  33   1    -0.00   0.02  -0.02    -0.00   0.00  -0.00     0.00   0.01  -0.00
  34   1     0.00  -0.02   0.00     0.00   0.00  -0.00    -0.00  -0.01   0.00
  35   1     0.01   0.06  -0.05     0.00   0.01  -0.00     0.00   0.01  -0.01
  36   1    -0.05  -0.01   0.00    -0.01  -0.00  -0.00     0.00   0.00   0.00
  37   1    -0.01   0.02  -0.00     0.00   0.01  -0.00    -0.01  -0.00   0.00
  38   1     0.04   0.05  -0.00     0.00   0.01  -0.00     0.01   0.01   0.00
  39   1    -0.00  -0.00   0.00    -0.00   0.01  -0.00     0.00  -0.00   0.00
  40   1    -0.01  -0.00  -0.00     0.01   0.01   0.01    -0.01  -0.00  -0.00
  41   8     0.00   0.00   0.00    -0.00   0.01  -0.01     0.00  -0.01   0.01
  42   1    -0.00  -0.00  -0.00     0.01  -0.01   0.03    -0.01   0.01  -0.02
  43   1    -0.01  -0.01  -0.00    -0.02  -0.00  -0.00     0.01  -0.00   0.00
  44   7    -0.00   0.02   0.01    -0.02   0.03  -0.02     0.04  -0.02   0.06
  45   6    -0.01  -0.01   0.01    -0.00   0.01   0.01    -0.05  -0.05   0.02
  46   8     0.00  -0.00  -0.00    -0.01   0.01  -0.00     0.00   0.00  -0.00
  47   6    -0.03  -0.01   0.02     0.01  -0.04   0.02    -0.01   0.10  -0.02
  48   6     0.03  -0.01  -0.02    -0.00   0.00  -0.01    -0.00  -0.01  -0.00
  49   8    -0.00  -0.00   0.01     0.00  -0.01   0.01    -0.01  -0.03  -0.02
  50   1    -0.02  -0.01  -0.05    -0.03   0.01  -0.03     0.07  -0.02   0.08
  51   1     0.03   0.01   0.02    -0.00   0.01  -0.01     0.02  -0.03   0.04
  52   1     0.02   0.01  -0.00     0.03   0.02   0.04    -0.08  -0.05  -0.10
  53   7    -0.01   0.00   0.00     0.00   0.00  -0.00    -0.06   0.01   0.01
  54   6     0.01   0.01  -0.01    -0.00  -0.01   0.00     0.07   0.04  -0.03
  55   1     0.01   0.00  -0.00    -0.00   0.00  -0.00     0.04   0.00  -0.01
  56   1     0.01  -0.00  -0.00    -0.01   0.00   0.00     0.04   0.00  -0.01
  57   1    -0.00  -0.00   0.00     0.00   0.00  -0.00    -0.01  -0.01   0.00
                     82                     83                     84
                        a                      a                      a 
 Frequencies --  1037.5805              1073.5029              1078.3742
 Red. masses --     8.2067                 5.4408                 6.8511
 Frc consts  --     0.0000                 0.0000                 0.0000
 IR Inten    --    23.1890                 7.9380                19.8568
 Raman Activ --     0.0000                 0.0000                 0.0000
 Depolar     --     0.0000                 0.0000                 0.0000
 Atom AN      X      Y      Z        X      Y      Z        X      Y      Z
   1   7    -0.03   0.06   0.06     0.01  -0.01   0.00    -0.00  -0.03  -0.02
   2   6     0.00   0.00   0.01     0.01  -0.01  -0.00     0.00   0.02   0.01
   3   6    -0.02   0.03   0.03    -0.00   0.00   0.00     0.04  -0.01  -0.01
   4   6    -0.02  -0.03  -0.02    -0.00   0.00   0.00     0.01  -0.06  -0.04
   5   6    -0.01  -0.05   0.00     0.00  -0.01  -0.00    -0.01   0.10   0.01
   6   6     0.01   0.10   0.08    -0.00   0.00   0.00     0.00  -0.06  -0.04
   7   6     0.05  -0.05  -0.05     0.00   0.01   0.00    -0.03  -0.03  -0.01
   8   6    -0.03  -0.32   0.02     0.00  -0.00  -0.00    -0.03   0.14   0.06
   9   6     0.02   0.32   0.01     0.01   0.00   0.00    -0.25  -0.12  -0.03
  10   6     0.00   0.00  -0.00    -0.14  -0.20  -0.10    -0.01  -0.01  -0.01
  11   6    -0.00  -0.00   0.01     0.34   0.15  -0.02     0.01   0.00  -0.00
  12   6     0.01  -0.00   0.00     0.04   0.05   0.10    -0.00   0.00   0.00
  13   6    -0.01  -0.01  -0.00    -0.07  -0.17  -0.18    -0.00  -0.00  -0.01
  14   6    -0.00   0.00   0.00    -0.15  -0.04   0.10    -0.00  -0.01   0.01
  15   6     0.00  -0.00  -0.00     0.14   0.05  -0.06     0.01   0.01  -0.00
  16   8    -0.00  -0.00   0.00    -0.19   0.01   0.07    -0.01   0.00   0.00
  17   8     0.00   0.00   0.00    -0.00  -0.00  -0.00    -0.00  -0.00   0.00
  18   1    -0.14   0.00  -0.06     0.01  -0.00   0.01     0.05  -0.00   0.02
  19   1     0.13  -0.04  -0.01    -0.01   0.01  -0.01    -0.06   0.02  -0.00
  20   1    -0.01   0.00   0.01    -0.01   0.00  -0.00     0.08   0.04   0.02
  21   1     0.01  -0.01  -0.02     0.01  -0.00   0.00    -0.00  -0.00  -0.03
  22   1     0.08   0.07   0.05    -0.00  -0.00   0.00    -0.01  -0.02  -0.02
  23   1     0.12  -0.04  -0.05     0.00   0.00   0.00    -0.08   0.02   0.02
  24   1     0.15  -0.01   0.05     0.01   0.01  -0.00    -0.25  -0.13   0.06
  25   1    -0.25  -0.14   0.13    -0.01  -0.01   0.01     0.29   0.20  -0.15
  26   1    -0.08   0.10  -0.07     0.01   0.01  -0.00    -0.24  -0.21   0.17
  27   1    -0.03  -0.00  -0.06    -0.00  -0.00  -0.00     0.03  -0.00   0.06
  28   1     0.09   0.01  -0.02    -0.00   0.00   0.00     0.08   0.03  -0.03
  29   1     0.00  -0.00   0.00    -0.14  -0.11   0.03    -0.00  -0.01   0.00
  30   1    -0.00   0.01  -0.01     0.27   0.39   0.07     0.01   0.01   0.01
  31   1     0.00   0.01  -0.01     0.12   0.27   0.04     0.00   0.01   0.00
  32   1    -0.01  -0.01   0.00    -0.27  -0.23   0.05    -0.01  -0.00   0.00
  33   1     0.00   0.00   0.00     0.13   0.19   0.02     0.01   0.01  -0.00
  34   1     0.00  -0.00   0.00    -0.00  -0.16   0.07    -0.00  -0.01   0.00
  35   1     0.00   0.01  -0.00    -0.04   0.06  -0.11    -0.00  -0.00   0.00
  36   1    -0.00   0.00   0.00     0.03   0.05   0.04     0.00   0.00   0.00
  37   1    -0.00  -0.00   0.00    -0.07  -0.03   0.02    -0.00  -0.00   0.00
  38   1     0.00   0.00   0.00     0.10   0.09   0.04     0.00   0.00   0.00
  39   1    -0.00  -0.00   0.00     0.00   0.01  -0.00    -0.00   0.00  -0.00
  40   1    -0.01  -0.00  -0.00     0.01   0.00   0.00     0.00   0.00   0.00
  41   8     0.00  -0.00   0.00     0.00   0.00  -0.00     0.00   0.00  -0.00
  42   1    -0.00   0.00  -0.01    -0.00   0.00  -0.00     0.00  -0.00   0.00
  43   1     0.01   0.00   0.00    -0.01  -0.01  -0.00    -0.00  -0.00  -0.00
  44   7    -0.11  -0.05  -0.15    -0.00  -0.00  -0.01     0.09   0.03   0.14
  45   6     0.23   0.21  -0.14    -0.01  -0.01   0.01     0.29   0.23  -0.18
  46   8    -0.03   0.00   0.01     0.00   0.00  -0.00    -0.00  -0.05   0.02
  47   6     0.03  -0.15   0.03     0.01   0.00  -0.00    -0.05   0.08  -0.04
  48   6     0.00   0.02   0.01    -0.01   0.00   0.00     0.05  -0.04   0.04
  49   8     0.02   0.08   0.03     0.00  -0.00  -0.00    -0.02  -0.01  -0.02
  50   1    -0.10   0.03  -0.11     0.00   0.00   0.01     0.04  -0.02   0.04
  51   1    -0.04   0.05  -0.06    -0.01  -0.01  -0.01     0.02  -0.03   0.03
  52   1     0.11   0.07   0.15    -0.00   0.00   0.01    -0.06  -0.04  -0.09
  53   7     0.24  -0.03  -0.04    -0.01  -0.00   0.00     0.23   0.04  -0.06
  54   6    -0.29  -0.19   0.13     0.01   0.01  -0.01    -0.24  -0.20   0.13
  55   1    -0.17  -0.01   0.03     0.01   0.00  -0.00    -0.17  -0.00   0.02
  56   1    -0.16   0.00   0.04     0.01  -0.00  -0.00    -0.17   0.01   0.04
  57   1     0.04   0.04  -0.02    -0.00  -0.00   0.00     0.08   0.05  -0.04
                     85                     86                     87
                        a                      a                      a 
 Frequencies --  1089.6155              1104.6808              1108.8993
 Red. masses --     8.7979                 3.8541                 7.2371
 Frc consts  --     0.0000                 0.0000                 0.0000
 IR Inten    --     0.0260                 0.4870                14.1383
 Raman Activ --     0.0000                 0.0000                 0.0000
 Depolar     --     0.0000                 0.0000                 0.0000
 Atom AN      X      Y      Z        X      Y      Z        X      Y      Z
   1   7    -0.00   0.00   0.00    -0.00  -0.00  -0.00     0.00   0.00   0.00
   2   6     0.00   0.00   0.00     0.00   0.00   0.00     0.00  -0.00   0.00
   3   6     0.00  -0.00  -0.00     0.00  -0.00  -0.00    -0.00   0.00  -0.00
   4   6    -0.00   0.00   0.00    -0.00  -0.00  -0.00     0.00  -0.00  -0.00
   5   6    -0.00   0.00   0.00     0.01  -0.00   0.02    -0.00   0.00  -0.00
   6   6     0.00  -0.00  -0.00     0.00  -0.01  -0.01    -0.00   0.00   0.00
   7   6    -0.00  -0.00  -0.00    -0.01  -0.00  -0.00     0.00   0.00   0.00
   8   6     0.00  -0.00  -0.00    -0.00   0.08  -0.04    -0.00  -0.00   0.00
   9   6     0.01   0.00  -0.00     0.07  -0.05   0.10    -0.00   0.00  -0.01
  10   6     0.01  -0.00   0.01    -0.00   0.00  -0.00    -0.00  -0.03   0.01
  11   6    -0.05  -0.00   0.02     0.00  -0.00   0.00     0.06   0.00  -0.00
  12   6     0.04   0.05  -0.08    -0.00  -0.00   0.00    -0.01   0.06  -0.09
  13   6    -0.08   0.10   0.00     0.00  -0.00   0.00     0.11  -0.36   0.33
  14   6    -0.44  -0.45  -0.02     0.00   0.00  -0.00    -0.25   0.26  -0.33
  15   6     0.46   0.25   0.13    -0.00  -0.00  -0.00     0.10  -0.15   0.17
  16   8     0.02   0.00  -0.01    -0.00  -0.00   0.00    -0.03   0.00   0.00
  17   8     0.00   0.00   0.00    -0.00  -0.00   0.00     0.00  -0.00  -0.00
  18   1    -0.00   0.00  -0.00     0.01  -0.00   0.00     0.00  -0.00   0.00
  19   1     0.00  -0.00  -0.00    -0.01   0.00  -0.00     0.00  -0.00   0.00
  20   1     0.00  -0.00   0.00     0.01   0.00   0.00    -0.00  -0.00   0.00
  21   1    -0.00   0.00   0.00    -0.01   0.00   0.01     0.00  -0.00  -0.00
  22   1     0.00   0.00  -0.00     0.01  -0.00   0.00    -0.00  -0.00  -0.00
  23   1    -0.00   0.00   0.00    -0.02   0.00   0.01     0.00  -0.00   0.00
  24   1     0.00  -0.00   0.00    -0.01   0.01  -0.00    -0.01  -0.01   0.00
  25   1    -0.00  -0.00   0.00    -0.00   0.01  -0.01     0.01   0.00  -0.00
  26   1    -0.00  -0.00  -0.00    -0.03  -0.05   0.05    -0.00  -0.00   0.00
  27   1     0.00  -0.00   0.00    -0.04   0.02  -0.06     0.00  -0.00   0.01
  28   1    -0.00  -0.00   0.00    -0.01  -0.01   0.04    -0.00  -0.00   0.00
  29   1     0.01   0.01  -0.02    -0.00  -0.00   0.00    -0.03   0.01  -0.03
  30   1    -0.04  -0.06  -0.01    -0.00   0.00  -0.00     0.05   0.06   0.01
  31   1     0.00  -0.04   0.01    -0.00   0.00  -0.00     0.06   0.05   0.08
  32   1     0.11   0.19  -0.07     0.00  -0.00   0.00     0.09   0.01   0.04
  33   1    -0.04   0.05  -0.09     0.00  -0.00   0.00     0.02  -0.07   0.03
  34   1    -0.16  -0.11  -0.00     0.00   0.00  -0.00     0.01   0.25  -0.16
  35   1    -0.14  -0.19   0.06     0.00   0.00  -0.00     0.03   0.25  -0.14
  36   1    -0.01   0.00  -0.02    -0.00  -0.00   0.00    -0.31  -0.17  -0.06
  37   1     0.20   0.19  -0.02    -0.00  -0.00  -0.00     0.09   0.20  -0.06
  38   1     0.15   0.15  -0.04     0.00   0.00   0.00     0.09   0.16  -0.10
  39   1    -0.00  -0.00   0.00    -0.00   0.00  -0.00    -0.00   0.00  -0.00
  40   1    -0.00  -0.00  -0.00     0.00   0.00   0.00    -0.00   0.00   0.00
  41   8     0.00   0.00   0.00     0.00   0.00  -0.00    -0.00   0.00   0.00
  42   1    -0.00  -0.00   0.00     0.00  -0.00   0.00     0.00  -0.00   0.00
  43   1     0.00  -0.00   0.00    -0.00  -0.00  -0.00    -0.00  -0.00  -0.00
  44   7    -0.00  -0.00   0.00    -0.05  -0.01  -0.07     0.00  -0.00   0.00
  45   6    -0.00  -0.00   0.00     0.01   0.02   0.01     0.00   0.00  -0.00
  46   8    -0.00   0.00  -0.00    -0.01   0.01   0.00    -0.00   0.00  -0.00
  47   6    -0.00  -0.00   0.00     0.02  -0.02   0.02    -0.00   0.00  -0.00
  48   6     0.00   0.00  -0.00    -0.02   0.02  -0.03     0.00  -0.00  -0.00
  49   8    -0.00   0.00   0.00     0.00  -0.01   0.00    -0.00  -0.00   0.00
  50   1    -0.00  -0.00  -0.00    -0.01   0.01  -0.00     0.00  -0.00  -0.00
  51   1     0.00   0.00   0.00    -0.00   0.01  -0.00     0.00  -0.00   0.00
  52   1     0.00   0.00  -0.00     0.02   0.01   0.03    -0.00  -0.00  -0.00
  53   7     0.00  -0.00   0.00     0.07   0.07   0.19     0.01  -0.00  -0.00
  54   6    -0.00   0.00  -0.00    -0.09  -0.15  -0.37    -0.01   0.00   0.00
  55   1     0.00  -0.00   0.00    -0.46  -0.14   0.34     0.00  -0.00   0.00
  56   1     0.00  -0.00  -0.00     0.53   0.26  -0.02     0.00  -0.00  -0.00
  57   1    -0.00  -0.00   0.00     0.01   0.07   0.20    -0.01  -0.00   0.00
                     88                     89                     90
                        a                      a                      a 
 Frequencies --  1118.1722              1130.1469              1144.0731
 Red. masses --     7.9068                 7.2978                 3.6375
 Frc consts  --     0.0000                 0.0000                 0.0000
 IR Inten    --    28.7531                22.2764                 1.5053
 Raman Activ --     0.0000                 0.0000                 0.0000
 Depolar     --     0.0000                 0.0000                 0.0000
 Atom AN      X      Y      Z        X      Y      Z        X      Y      Z
   1   7     0.00  -0.01  -0.00    -0.00  -0.02  -0.01    -0.00  -0.04  -0.03
   2   6     0.00   0.00   0.00     0.00   0.03   0.02     0.00   0.09   0.07
   3   6    -0.00   0.00  -0.00     0.03  -0.01  -0.02     0.11  -0.06  -0.06
   4   6    -0.00   0.02   0.00    -0.02  -0.03  -0.02    -0.10  -0.09  -0.06
   5   6     0.03  -0.04   0.03     0.01   0.01   0.06    -0.00   0.12   0.09
   6   6     0.01   0.00  -0.01     0.03  -0.02  -0.03     0.12  -0.05  -0.05
   7   6    -0.02  -0.00  -0.00    -0.03  -0.03  -0.02    -0.09  -0.10  -0.06
   8   6    -0.01   0.29  -0.14    -0.01   0.16  -0.09    -0.00  -0.14  -0.01
   9   6     0.17  -0.26   0.42     0.18  -0.06   0.24     0.02   0.18  -0.06
  10   6     0.00   0.00  -0.00    -0.00   0.00   0.00     0.00   0.01   0.00
  11   6    -0.00  -0.00   0.00     0.00  -0.00  -0.00    -0.00  -0.01  -0.00
  12   6    -0.01  -0.00  -0.00    -0.01  -0.00   0.00    -0.03  -0.01   0.00
  13   6     0.01  -0.00   0.00     0.01   0.00  -0.00     0.03   0.00  -0.01
  14   6    -0.01   0.00  -0.00     0.00   0.01   0.01    -0.01   0.01   0.01
  15   6     0.00  -0.00   0.00    -0.00  -0.00  -0.00     0.00  -0.01  -0.00
  16   8    -0.00  -0.00   0.00     0.00  -0.00  -0.00     0.00  -0.00   0.00
  17   8     0.00  -0.00   0.00    -0.00  -0.00  -0.00    -0.00  -0.00   0.00
  18   1     0.01   0.00   0.00     0.02  -0.00   0.01     0.05  -0.00   0.02
  19   1    -0.01   0.00  -0.00    -0.03   0.01   0.00    -0.07   0.02  -0.00
  20   1    -0.00  -0.00   0.00     0.11   0.05   0.03     0.39   0.20   0.10
  21   1    -0.05   0.01   0.03    -0.10   0.02   0.04    -0.37   0.07   0.13
  22   1     0.03   0.01   0.02     0.08   0.03   0.02     0.34   0.18   0.06
  23   1    -0.04   0.01   0.02    -0.11   0.02   0.04    -0.42   0.09   0.15
  24   1     0.09   0.17  -0.09    -0.05  -0.01   0.02    -0.00  -0.08   0.07
  25   1    -0.11  -0.05   0.04    -0.03   0.01  -0.00    -0.03   0.01   0.01
  26   1    -0.01  -0.13   0.16    -0.05  -0.15   0.20     0.02   0.05  -0.01
  27   1    -0.14   0.09  -0.24    -0.06   0.01  -0.11     0.04  -0.05   0.06
  28   1     0.03   0.12  -0.03    -0.06  -0.23   0.06    -0.02   0.03   0.00
  29   1     0.00  -0.00   0.00     0.00  -0.00   0.00     0.00  -0.00   0.01
  30   1    -0.00   0.00  -0.00     0.00   0.00  -0.00     0.00   0.01   0.00
  31   1    -0.00  -0.00  -0.00    -0.00  -0.00  -0.00    -0.01  -0.00   0.00
  32   1     0.00   0.00  -0.00    -0.00   0.00  -0.00    -0.00   0.01  -0.00
  33   1     0.00   0.00   0.00     0.01   0.00   0.00     0.02   0.02   0.00
  34   1     0.00   0.00  -0.00     0.00  -0.00   0.00     0.00  -0.01   0.00
  35   1    -0.00   0.01  -0.00    -0.00  -0.00  -0.00    -0.00   0.01  -0.01
  36   1    -0.01  -0.00  -0.00     0.00   0.00   0.00    -0.01  -0.00   0.00
  37   1     0.00   0.00  -0.00    -0.00  -0.00   0.00    -0.01  -0.00   0.00
  38   1     0.00   0.00  -0.00     0.00   0.00   0.00     0.01   0.01   0.00
  39   1    -0.00   0.00  -0.00     0.00   0.00  -0.00    -0.00   0.00  -0.00
  40   1    -0.00   0.00   0.00     0.00   0.00   0.00     0.00   0.00   0.00
  41   8     0.00   0.00  -0.00     0.00   0.00  -0.00     0.00   0.00  -0.00
  42   1     0.00  -0.00   0.00     0.00  -0.00   0.00     0.00  -0.00   0.00
  43   1    -0.00  -0.00  -0.00    -0.00  -0.00  -0.00    -0.00  -0.00  -0.00
  44   7    -0.13   0.00  -0.22    -0.10  -0.07  -0.16    -0.02  -0.05  -0.02
  45   6     0.08   0.05  -0.08    -0.06   0.02  -0.04    -0.02  -0.04   0.02
  46   8     0.00  -0.07   0.03    -0.08   0.14  -0.03     0.03  -0.03   0.00
  47   6     0.06  -0.04   0.08     0.04  -0.04   0.05     0.00  -0.02  -0.00
  48   6    -0.07   0.03  -0.10    -0.05   0.04  -0.06     0.00   0.01   0.01
  49   8    -0.00  -0.07  -0.00     0.00   0.00   0.00     0.01   0.04   0.01
  50   1    -0.01   0.01  -0.00    -0.02   0.01  -0.01    -0.01   0.00  -0.01
  51   1     0.01   0.02   0.01    -0.00   0.02  -0.01    -0.01   0.00  -0.01
  52   1     0.05   0.02   0.07     0.04   0.02   0.06     0.01   0.01   0.01
  53   7    -0.18   0.11  -0.04     0.38  -0.20  -0.02    -0.15   0.03   0.02
  54   6     0.15  -0.15   0.10    -0.25   0.22   0.04     0.12  -0.03  -0.02
  55   1    -0.09   0.06  -0.06     0.26  -0.03  -0.03    -0.04   0.01  -0.00
  56   1    -0.23   0.02   0.03     0.08  -0.13  -0.03    -0.02   0.03   0.00
  57   1     0.27   0.13  -0.14    -0.37  -0.20   0.11     0.10   0.05  -0.03
                     91                     92                     93
                        a                      a                      a 
 Frequencies --  1156.7058              1164.0647              1195.9471
 Red. masses --     8.4598                 5.9919                 1.7891
 Frc consts  --     0.0000                 0.0000                 0.0000
 IR Inten    --     0.4841                 1.3027                 4.6083
 Raman Activ --     0.0000                 0.0000                 0.0000
 Depolar     --     0.0000                 0.0000                 0.0000
 Atom AN      X      Y      Z        X      Y      Z        X      Y      Z
   1   7    -0.00   0.00  -0.00    -0.01   0.00   0.00     0.05   0.00  -0.01
   2   6    -0.00  -0.00  -0.00     0.00  -0.01  -0.01    -0.07  -0.00   0.00
   3   6    -0.01   0.00   0.00    -0.01   0.01   0.01     0.06   0.07   0.05
   4   6     0.00   0.01   0.01     0.03  -0.01  -0.01    -0.07   0.08   0.08
   5   6    -0.00  -0.01  -0.01     0.01   0.03   0.03     0.06  -0.01  -0.02
   6   6    -0.01   0.00   0.00    -0.04  -0.03  -0.02    -0.06  -0.09  -0.07
   7   6     0.01   0.01   0.00     0.04  -0.00  -0.01     0.05  -0.05  -0.05
   8   6     0.00   0.00   0.00    -0.01  -0.04  -0.01    -0.01   0.02   0.01
   9   6    -0.01  -0.02  -0.01     0.19   0.34   0.09    -0.02  -0.04  -0.02
  10   6     0.08   0.18   0.07     0.00   0.01   0.00    -0.00  -0.01   0.00
  11   6    -0.05  -0.17  -0.07    -0.00  -0.01  -0.00     0.00   0.00   0.00
  12   6    -0.52  -0.20   0.04    -0.01  -0.01   0.00     0.01   0.00  -0.00
  13   6     0.47   0.11  -0.11     0.02   0.01  -0.01    -0.01  -0.01   0.00
  14   6    -0.11   0.06   0.09    -0.00   0.00   0.01     0.00   0.00   0.00
  15   6     0.08  -0.08  -0.02     0.00  -0.00  -0.00    -0.00  -0.00  -0.00
  16   8     0.02  -0.03  -0.02     0.00  -0.00  -0.00    -0.00   0.00  -0.00
  17   8     0.00   0.00   0.00     0.00   0.00  -0.00     0.00   0.00  -0.00
  18   1    -0.01   0.00  -0.01    -0.01  -0.00  -0.00     0.04   0.01   0.01
  19   1     0.01  -0.00   0.01     0.01  -0.00   0.00     0.04  -0.01  -0.00
  20   1    -0.02  -0.01  -0.00    -0.04  -0.02  -0.01     0.38   0.24   0.13
  21   1     0.01  -0.00  -0.01     0.10  -0.02  -0.05    -0.45   0.14   0.21
  22   1    -0.02  -0.01  -0.00    -0.18  -0.11  -0.06    -0.36  -0.24  -0.12
  23   1     0.03  -0.01  -0.01     0.12  -0.03  -0.05     0.42  -0.13  -0.18
  24   1     0.01   0.02  -0.01    -0.27  -0.30   0.22     0.00   0.03  -0.03
  25   1    -0.00  -0.01   0.00     0.13   0.15  -0.09    -0.05  -0.04   0.03
  26   1     0.01   0.01  -0.01    -0.05  -0.12   0.28     0.01   0.00  -0.02
  27   1    -0.00   0.01  -0.00     0.13  -0.17   0.17     0.00   0.01  -0.00
  28   1     0.01   0.01  -0.00    -0.13  -0.09   0.06     0.03   0.04  -0.02
  29   1     0.03   0.05   0.01     0.00   0.00  -0.00    -0.00   0.00  -0.01
  30   1     0.03   0.04   0.01    -0.00   0.00  -0.00    -0.00   0.00  -0.00
  31   1    -0.16  -0.09   0.00    -0.01  -0.00  -0.00     0.00   0.00  -0.00
  32   1    -0.04   0.07  -0.02    -0.00   0.00  -0.00     0.00   0.01  -0.01
  33   1     0.31   0.34   0.06     0.01   0.01   0.00    -0.01  -0.01  -0.00
  34   1     0.05  -0.09   0.04     0.00  -0.00   0.00     0.00  -0.00   0.00
  35   1    -0.05   0.04  -0.09    -0.00   0.00  -0.00     0.00   0.00  -0.00
  36   1    -0.08  -0.02   0.02    -0.00  -0.00   0.00     0.00   0.00   0.00
  37   1    -0.07   0.00   0.00    -0.00  -0.00  -0.00    -0.00  -0.00   0.00
  38   1     0.10   0.11   0.01     0.00   0.00   0.00     0.00  -0.00   0.00
  39   1     0.00  -0.00   0.00     0.00  -0.00   0.00    -0.00  -0.00  -0.00
  40   1    -0.00  -0.00  -0.00    -0.00  -0.00  -0.00    -0.00   0.00   0.00
  41   8    -0.00  -0.00   0.00    -0.00  -0.00   0.00    -0.00   0.00  -0.00
  42   1     0.00   0.00   0.00     0.00   0.00  -0.00     0.00  -0.00   0.00
  43   1     0.01   0.01   0.00     0.00   0.00   0.00    -0.00  -0.00   0.00
  44   7     0.01   0.01   0.01    -0.14  -0.20  -0.23     0.01   0.02   0.01
  45   6     0.00   0.00   0.00    -0.02  -0.03  -0.02    -0.01  -0.01   0.01
  46   8     0.00  -0.00  -0.00     0.01   0.01   0.00     0.01  -0.01   0.00
  47   6    -0.00   0.00  -0.00     0.05  -0.09   0.05    -0.00   0.00  -0.00
  48   6     0.00  -0.01   0.01    -0.08   0.08  -0.08     0.00  -0.00   0.00
  49   8     0.00  -0.00  -0.00     0.03   0.14   0.04    -0.00  -0.01  -0.00
  50   1     0.00   0.00   0.00    -0.04   0.01  -0.04     0.00  -0.00   0.00
  51   1    -0.00  -0.00  -0.00    -0.02   0.02  -0.03     0.00  -0.00   0.00
  52   1    -0.00  -0.00  -0.00     0.07   0.04   0.10    -0.00  -0.00  -0.00
  53   7     0.01   0.00  -0.00    -0.20  -0.05   0.05     0.02   0.02  -0.01
  54   6    -0.01   0.00   0.00     0.19  -0.01  -0.02    -0.03  -0.00   0.00
  55   1    -0.00  -0.00   0.00    -0.01   0.02  -0.02    -0.00  -0.00   0.00
  56   1     0.00  -0.00  -0.00    -0.03   0.01   0.00     0.00   0.00   0.00
  57   1    -0.01  -0.00   0.00     0.10   0.04  -0.04    -0.01   0.00   0.00
                     94                     95                     96
                        a                      a                      a 
 Frequencies --  1208.3444              1218.6115              1220.3442
 Red. masses --     5.2900                 4.7050                 5.0005
 Frc consts  --     0.0000                 0.0000                 0.0000
 IR Inten    --     3.0288                 7.6665                 2.1083
 Raman Activ --     0.0000                 0.0000                 0.0000
 Depolar     --     0.0000                 0.0000                 0.0000
 Atom AN      X      Y      Z        X      Y      Z        X      Y      Z
   1   7     0.00  -0.00  -0.00    -0.02  -0.00   0.00     0.02   0.00  -0.00
   2   6    -0.01  -0.00  -0.00     0.03   0.01   0.00    -0.03  -0.00  -0.00
   3   6     0.01   0.00  -0.00    -0.03   0.02   0.02     0.02  -0.02  -0.02
   4   6    -0.00   0.01   0.01     0.04  -0.01  -0.01    -0.03   0.00   0.01
   5   6    -0.03  -0.04   0.01     0.14   0.06   0.02    -0.12  -0.02  -0.00
   6   6    -0.01   0.00   0.00     0.01  -0.01  -0.02    -0.02  -0.00   0.00
   7   6     0.01   0.01   0.01     0.00  -0.04  -0.03     0.01   0.03   0.02
   8   6     0.02   0.01   0.05    -0.04  -0.10  -0.07     0.04   0.02   0.02
   9   6     0.09   0.10  -0.15     0.16   0.22   0.16    -0.04  -0.06  -0.03
  10   6     0.00   0.00   0.00     0.01   0.03   0.01     0.03   0.09   0.04
  11   6     0.00  -0.00  -0.00    -0.02  -0.04  -0.01    -0.05  -0.12  -0.04
  12   6    -0.01  -0.00   0.00    -0.04  -0.05  -0.01    -0.10  -0.14  -0.03
  13   6     0.00   0.00   0.00    -0.01   0.04   0.04    -0.04   0.12   0.13
  14   6     0.00   0.00  -0.00     0.06  -0.07  -0.09     0.18  -0.20  -0.27
  15   6    -0.00  -0.00   0.00    -0.04   0.04   0.06    -0.14   0.14   0.20
  16   8    -0.00  -0.00  -0.00    -0.00  -0.00  -0.00    -0.00  -0.01  -0.01
  17   8    -0.00   0.00  -0.00     0.00   0.00   0.00    -0.00   0.00  -0.00
  18   1     0.00   0.00   0.00    -0.01  -0.01  -0.00     0.01   0.00   0.00
  19   1     0.00  -0.00  -0.00    -0.01   0.00   0.00     0.01  -0.00   0.00
  20   1     0.01   0.00   0.00    -0.06  -0.02  -0.01     0.07   0.03   0.01
  21   1    -0.02   0.01   0.01    -0.02   0.01   0.01     0.03  -0.01  -0.01
  22   1     0.01   0.01   0.01    -0.10  -0.08  -0.03     0.06   0.04   0.02
  23   1     0.05  -0.01  -0.02    -0.06   0.01   0.02     0.06  -0.01  -0.02
  24   1    -0.01   0.02  -0.03    -0.19  -0.24   0.17     0.08   0.08  -0.05
  25   1    -0.10  -0.14   0.08     0.03   0.14  -0.06     0.03  -0.01  -0.00
  26   1    -0.37  -0.12  -0.05    -0.15   0.11  -0.17     0.06  -0.03   0.05
  27   1    -0.15   0.16  -0.20    -0.27   0.23  -0.40     0.08  -0.07   0.11
  28   1    -0.37  -0.40   0.21     0.16   0.19  -0.10    -0.05  -0.05   0.03
  29   1     0.00   0.00  -0.00     0.01   0.01   0.00     0.02   0.03   0.01
  30   1     0.00   0.00   0.00     0.03   0.06   0.02     0.09   0.17   0.05
  31   1     0.00   0.00   0.00     0.03   0.07   0.02     0.09   0.21   0.05
  32   1    -0.00  -0.00   0.00     0.01  -0.07   0.04     0.03  -0.21   0.11
  33   1     0.01   0.01  -0.00     0.03   0.10  -0.06     0.07   0.29  -0.18
  34   1    -0.00   0.00  -0.00    -0.07   0.00  -0.02    -0.23  -0.00  -0.04
  35   1     0.00  -0.00   0.00     0.06   0.03   0.05     0.20   0.09   0.14
  36   1     0.00  -0.00  -0.00     0.02  -0.02  -0.03     0.07  -0.06  -0.09
  37   1    -0.00   0.00  -0.00     0.08   0.03  -0.01     0.26   0.09  -0.02
  38   1    -0.00  -0.00  -0.00    -0.06  -0.06  -0.03    -0.19  -0.17  -0.08
  39   1    -0.00  -0.00   0.00     0.00  -0.00   0.00    -0.00  -0.00   0.00
  40   1     0.00  -0.00  -0.00    -0.00   0.00  -0.00    -0.00   0.00  -0.00
  41   8    -0.00  -0.00  -0.00     0.00  -0.00   0.00     0.00  -0.00   0.00
  42   1     0.00   0.00   0.00    -0.00   0.00  -0.00    -0.00   0.00  -0.00
  43   1     0.00   0.00   0.00    -0.00  -0.00  -0.00    -0.00   0.00  -0.00
  44   7     0.04   0.12   0.12    -0.03   0.07   0.00    -0.00  -0.02  -0.01
  45   6     0.15   0.15  -0.13    -0.13  -0.14   0.04     0.04   0.04  -0.01
  46   8    -0.10   0.12  -0.02     0.07  -0.05   0.01    -0.02   0.02  -0.00
  47   6    -0.03   0.05  -0.06    -0.03   0.05  -0.06     0.01  -0.02   0.02
  48   6     0.10  -0.10   0.12     0.12  -0.10   0.18    -0.04   0.03  -0.05
  49   8    -0.03  -0.07  -0.03    -0.03  -0.12  -0.05     0.01   0.04   0.01
  50   1     0.02  -0.01   0.02     0.01  -0.00   0.02    -0.00  -0.00  -0.01
  51   1    -0.00  -0.02   0.01    -0.00  -0.02   0.00    -0.00   0.01  -0.00
  52   1    -0.06  -0.04  -0.07    -0.07  -0.04  -0.08     0.02   0.01   0.02
  53   7    -0.15  -0.22   0.11     0.00   0.07  -0.02    -0.00  -0.02   0.01
  54   6     0.25  -0.01  -0.04    -0.06   0.03   0.01     0.02  -0.01  -0.00
  55   1    -0.02   0.01   0.00     0.04  -0.00  -0.01    -0.01   0.00   0.00
  56   1    -0.03   0.00  -0.00     0.02  -0.01  -0.00    -0.01   0.00   0.00
  57   1     0.07   0.01  -0.02    -0.03  -0.01   0.00     0.01   0.00  -0.00
                     97                     98                     99
                        a                      a                      a 
 Frequencies --  1222.1913              1241.7764              1253.8911
 Red. masses --     5.8709                 3.3852                 4.5688
 Frc consts  --     0.0000                 0.0000                 0.0000
 IR Inten    --     9.4269                 9.5830                35.1754
 Raman Activ --     0.0000                 0.0000                 0.0000
 Depolar     --     0.0000                 0.0000                 0.0000
 Atom AN      X      Y      Z        X      Y      Z        X      Y      Z
   1   7    -0.10  -0.01   0.01     0.00  -0.00   0.00     0.05   0.00  -0.00
   2   6     0.14   0.00  -0.01     0.00   0.00   0.00    -0.08  -0.01  -0.00
   3   6    -0.05   0.11   0.09     0.00   0.00   0.00     0.01  -0.04  -0.04
   4   6     0.09   0.00  -0.02    -0.00  -0.00  -0.00    -0.03   0.02   0.02
   5   6     0.51   0.03  -0.03    -0.00   0.00  -0.00    -0.16  -0.06   0.05
   6   6     0.11   0.04   0.02    -0.00  -0.00  -0.00    -0.03  -0.02  -0.02
   7   6    -0.07  -0.11  -0.08     0.00  -0.00  -0.00    -0.00   0.05   0.03
   8   6    -0.16   0.10   0.01    -0.00  -0.00  -0.00     0.19   0.19  -0.01
   9   6    -0.08  -0.06  -0.14    -0.00  -0.00   0.00     0.16   0.07  -0.21
  10   6     0.00   0.02  -0.00    -0.05  -0.10  -0.06    -0.00  -0.00   0.00
  11   6    -0.01  -0.02  -0.00     0.01   0.21   0.09     0.00   0.00   0.00
  12   6    -0.02  -0.02  -0.00     0.07   0.09   0.12     0.00   0.00   0.00
  13   6    -0.00   0.02   0.02     0.17   0.14  -0.10     0.00   0.00  -0.00
  14   6     0.02  -0.03  -0.04    -0.03   0.04  -0.21    -0.00   0.00  -0.00
  15   6    -0.02   0.02   0.03     0.05  -0.01   0.13     0.00  -0.00  -0.00
  16   8    -0.00  -0.00   0.00    -0.00   0.02   0.02     0.00   0.00  -0.00
  17   8     0.00   0.00   0.00    -0.00   0.00  -0.00    -0.00   0.00  -0.00
  18   1    -0.07  -0.02  -0.01    -0.00   0.00  -0.00     0.03   0.01   0.01
  19   1    -0.06   0.01   0.01    -0.00   0.00  -0.00     0.03  -0.01  -0.00
  20   1    -0.27  -0.13  -0.06     0.01   0.01  -0.00     0.07   0.03   0.02
  21   1    -0.21   0.07   0.10    -0.01   0.00   0.00     0.11  -0.03  -0.05
  22   1    -0.19  -0.13  -0.06    -0.00  -0.00  -0.00     0.11   0.06   0.04
  23   1    -0.26   0.04   0.08     0.01  -0.00  -0.00     0.08  -0.01  -0.02
  24   1    -0.17  -0.05  -0.00     0.00   0.00   0.00    -0.06  -0.03   0.02
  25   1    -0.29  -0.25   0.16     0.00   0.01  -0.00    -0.18  -0.29   0.16
  26   1    -0.04  -0.08   0.06     0.01   0.01  -0.00    -0.51  -0.29   0.08
  27   1     0.09  -0.07   0.15    -0.00   0.00  -0.00     0.05  -0.04   0.12
  28   1    -0.00  -0.00  -0.00    -0.00  -0.00   0.00     0.21   0.24  -0.14
  29   1     0.01   0.00   0.01     0.01  -0.03   0.00    -0.00   0.00  -0.00
  30   1     0.01   0.02   0.00    -0.08  -0.10  -0.01    -0.00  -0.00  -0.00
  31   1     0.01   0.03   0.01    -0.26  -0.46  -0.17    -0.00  -0.01  -0.00
  32   1     0.00  -0.04   0.02    -0.24  -0.53   0.20    -0.01  -0.01   0.00
  33   1     0.01   0.04  -0.02     0.02  -0.06   0.07    -0.00  -0.00  -0.00
  34   1    -0.03  -0.00  -0.01    -0.13  -0.08  -0.01     0.00   0.00  -0.00
  35   1     0.03   0.01   0.02    -0.02  -0.09   0.07    -0.00  -0.01   0.00
  36   1     0.01  -0.01  -0.01    -0.09  -0.08  -0.05    -0.00  -0.00   0.00
  37   1     0.04   0.01  -0.00     0.08   0.09  -0.02    -0.00  -0.00  -0.00
  38   1    -0.03  -0.02  -0.01    -0.01   0.01  -0.06     0.00   0.00   0.00
  39   1     0.00   0.00   0.00     0.00  -0.00   0.00    -0.00  -0.00   0.00
  40   1    -0.00  -0.00  -0.00     0.00  -0.00  -0.00     0.00  -0.00   0.00
  41   8     0.00  -0.00   0.00    -0.00  -0.00  -0.00    -0.00   0.00  -0.00
  42   1    -0.00   0.00  -0.00     0.00   0.00  -0.00     0.00   0.00  -0.00
  43   1     0.00  -0.00  -0.00     0.00   0.00   0.00     0.00   0.00   0.00
  44   7     0.03   0.00   0.04     0.00  -0.00   0.00     0.02   0.04   0.08
  45   6     0.02   0.01  -0.00     0.00   0.00  -0.00    -0.18  -0.18   0.04
  46   8     0.00  -0.00  -0.00    -0.00   0.00  -0.00     0.12  -0.10   0.02
  47   6     0.00  -0.01   0.01    -0.00  -0.00  -0.00     0.00  -0.00   0.00
  48   6    -0.03   0.03  -0.05     0.00   0.00  -0.00    -0.03   0.04  -0.03
  49   8     0.01   0.03   0.01    -0.00   0.00   0.00     0.01  -0.01   0.01
  50   1    -0.00  -0.00  -0.01    -0.00   0.00   0.00     0.00   0.00   0.00
  51   1    -0.00   0.00  -0.00     0.01   0.00   0.00    -0.00   0.00  -0.00
  52   1     0.02   0.01   0.02    -0.00  -0.00   0.00     0.01   0.01   0.01
  53   7     0.01   0.01  -0.00     0.00  -0.00   0.00    -0.01   0.09  -0.02
  54   6    -0.01  -0.01   0.00     0.00  -0.00   0.00    -0.08   0.03   0.00
  55   1    -0.01  -0.00   0.00    -0.00   0.00   0.00     0.04  -0.00  -0.01
  56   1     0.00   0.00   0.00    -0.00  -0.00   0.00     0.04   0.00  -0.00
  57   1     0.00   0.00   0.00     0.00  -0.00  -0.00    -0.02   0.01   0.00
                    100                    101                    102
                        a                      a                      a 
 Frequencies --  1266.2210              1280.7038              1283.9047
 Red. masses --     2.4330                 4.2506                 3.9427
 Frc consts  --     0.0000                 0.0000                 0.0000
 IR Inten    --     0.8584                15.3824                 6.8964
 Raman Activ --     0.0000                 0.0000                 0.0000
 Depolar     --     0.0000                 0.0000                 0.0000
 Atom AN      X      Y      Z        X      Y      Z        X      Y      Z
   1   7    -0.00  -0.00  -0.00     0.00  -0.03  -0.03     0.04   0.05   0.03
   2   6     0.01   0.00   0.00     0.00   0.11   0.08    -0.08  -0.16  -0.12
   3   6     0.00   0.00   0.00     0.07   0.04   0.02    -0.10  -0.07  -0.04
   4   6    -0.00  -0.00  -0.00     0.07  -0.03  -0.03    -0.09   0.07   0.07
   5   6    -0.00   0.00  -0.00    -0.03  -0.12  -0.09    -0.03   0.11   0.14
   6   6    -0.00   0.00   0.00    -0.08  -0.05  -0.02     0.10   0.04   0.01
   7   6     0.00  -0.00  -0.00    -0.06   0.04   0.04     0.05  -0.02  -0.03
   8   6    -0.00  -0.00   0.00     0.04   0.05   0.09     0.14   0.07  -0.06
   9   6    -0.01   0.00  -0.00    -0.12   0.18  -0.19    -0.19   0.05  -0.09
  10   6     0.01   0.04   0.02    -0.00  -0.01  -0.00    -0.00  -0.01   0.00
  11   6    -0.11  -0.05   0.01    -0.02   0.02   0.01    -0.03   0.01   0.01
  12   6     0.05  -0.11  -0.06     0.03   0.01  -0.01     0.03   0.00  -0.01
  13   6    -0.09   0.12   0.16    -0.01  -0.04   0.00    -0.00  -0.03   0.00
  14   6     0.02   0.01  -0.02     0.00  -0.02   0.01     0.00  -0.01   0.01
  15   6     0.09  -0.11  -0.15    -0.01   0.01  -0.00    -0.01   0.01  -0.00
  16   8    -0.01   0.01   0.01    -0.01   0.01   0.00    -0.00   0.00   0.00
  17   8    -0.00   0.00   0.00    -0.00  -0.00  -0.00     0.00   0.00   0.00
  18   1    -0.00   0.00  -0.00     0.04  -0.00   0.02    -0.02   0.01  -0.02
  19   1    -0.00  -0.00   0.00    -0.06   0.02   0.01     0.11  -0.03  -0.02
  20   1     0.00   0.00  -0.00    -0.20  -0.12  -0.06     0.29   0.17   0.09
  21   1    -0.01   0.00   0.00    -0.21   0.06   0.09     0.36  -0.10  -0.14
  22   1    -0.00  -0.00  -0.00     0.24   0.15   0.07    -0.24  -0.16  -0.07
  23   1     0.00  -0.00   0.00     0.22  -0.06  -0.08    -0.23   0.07   0.09
  24   1     0.00   0.00  -0.00    -0.05  -0.01  -0.00    -0.03  -0.06   0.05
  25   1    -0.00  -0.00   0.00    -0.01  -0.09   0.04    -0.19  -0.18   0.13
  26   1     0.02  -0.00   0.01     0.33  -0.14   0.49     0.31  -0.02   0.26
  27   1     0.00  -0.00   0.00    -0.07   0.07  -0.16    -0.04   0.05  -0.11
  28   1     0.00   0.00  -0.00     0.04   0.05  -0.02    -0.01  -0.01   0.01
  29   1     0.07   0.03  -0.00     0.02   0.00  -0.01     0.01   0.00  -0.00
  30   1     0.12   0.26   0.08     0.01   0.03   0.01     0.02   0.05   0.02
  31   1     0.01  -0.02  -0.03    -0.02  -0.06  -0.02    -0.02  -0.06  -0.02
  32   1     0.05  -0.20   0.11     0.00   0.04  -0.02     0.00   0.03  -0.01
  33   1    -0.01   0.16  -0.14     0.01   0.03  -0.02     0.01   0.01  -0.01
  34   1     0.20   0.47  -0.19     0.00   0.00  -0.00     0.00  -0.00   0.00
  35   1    -0.21  -0.48   0.19     0.02   0.03  -0.01     0.01   0.03  -0.01
  36   1    -0.03   0.03   0.04     0.01   0.01   0.00     0.01   0.00   0.00
  37   1    -0.17  -0.07   0.01     0.00  -0.00   0.00     0.00  -0.00   0.00
  38   1     0.13   0.11   0.04    -0.01  -0.01   0.00    -0.01  -0.01  -0.00
  39   1     0.00  -0.00   0.00     0.00   0.00   0.00    -0.00  -0.00   0.00
  40   1    -0.00  -0.00  -0.00     0.00   0.00   0.00    -0.00  -0.00  -0.00
  41   8     0.00  -0.00   0.00    -0.00   0.00  -0.00     0.00  -0.00   0.00
  42   1    -0.00   0.00  -0.00     0.00  -0.00   0.00    -0.00   0.00  -0.00
  43   1    -0.00   0.00   0.00     0.00   0.00   0.00    -0.00   0.00   0.00
  44   7    -0.00  -0.00  -0.01    -0.03   0.02  -0.12    -0.01   0.03  -0.07
  45   6     0.00   0.00   0.00    -0.02  -0.02   0.06     0.03   0.02   0.03
  46   8    -0.00  -0.00  -0.00     0.02  -0.02  -0.01    -0.00   0.00  -0.01
  47   6     0.00   0.00   0.00    -0.03   0.03  -0.04    -0.02   0.02  -0.03
  48   6     0.00  -0.00   0.00     0.16  -0.10   0.23     0.11  -0.07   0.15
  49   8    -0.00   0.00  -0.00    -0.03  -0.06  -0.04    -0.02  -0.04  -0.03
  50   1    -0.00   0.00  -0.00    -0.01   0.00  -0.02    -0.00  -0.00  -0.01
  51   1    -0.00  -0.00  -0.00    -0.02  -0.01  -0.01    -0.01  -0.01  -0.01
  52   1    -0.00  -0.00  -0.00    -0.06  -0.04  -0.07    -0.04  -0.03  -0.05
  53   7     0.00   0.00  -0.00    -0.00   0.02  -0.01     0.00   0.00  -0.00
  54   6    -0.00  -0.00   0.00    -0.02  -0.00  -0.00    -0.00  -0.01  -0.00
  55   1    -0.00  -0.00   0.00     0.00  -0.00   0.00    -0.01  -0.00   0.00
  56   1    -0.00   0.00   0.00     0.01   0.01   0.00    -0.00   0.00   0.00
  57   1     0.00   0.00  -0.00     0.00   0.01   0.00     0.00   0.00   0.00
                    103                    104                    105
                        a                      a                      a 
 Frequencies --  1285.9761              1295.3809              1313.2375
 Red. masses --     3.4205                 3.8250                 6.7890
 Frc consts  --     0.0000                 0.0000                 0.0000
 IR Inten    --     1.8342                 2.0182                24.8516
 Raman Activ --     0.0000                 0.0000                 0.0000
 Depolar     --     0.0000                 0.0000                 0.0000
 Atom AN      X      Y      Z        X      Y      Z        X      Y      Z
   1   7     0.02   0.00  -0.00    -0.02  -0.00   0.01     0.24   0.00  -0.03
   2   6    -0.03  -0.01  -0.00     0.04  -0.00  -0.00    -0.42   0.01   0.05
   3   6    -0.01  -0.00   0.00     0.01  -0.00  -0.00    -0.12  -0.01   0.01
   4   6    -0.00   0.01   0.01    -0.02  -0.01  -0.00     0.11   0.09   0.05
   5   6     0.00  -0.00   0.00    -0.02   0.01   0.01     0.18  -0.02  -0.02
   6   6     0.01  -0.00  -0.00    -0.00   0.01   0.01     0.09  -0.12  -0.11
   7   6    -0.01   0.00   0.00     0.02  -0.00  -0.01    -0.23   0.01   0.04
   8   6     0.02   0.01   0.00     0.00  -0.01   0.00     0.11   0.12  -0.14
   9   6    -0.04   0.02  -0.03     0.01  -0.00  -0.00    -0.14  -0.10   0.13
  10   6     0.02   0.04   0.02    -0.03  -0.10  -0.04     0.00  -0.01   0.01
  11   6     0.21  -0.10  -0.11     0.19   0.19   0.04     0.00   0.01   0.00
  12   6    -0.22   0.04   0.13    -0.08   0.19   0.09     0.00   0.01   0.00
  13   6     0.03   0.20  -0.02    -0.06  -0.20   0.07     0.00  -0.01   0.00
  14   6    -0.01   0.10  -0.08     0.00  -0.23   0.06    -0.01  -0.03   0.01
  15   6     0.08  -0.06   0.02    -0.07   0.05  -0.09    -0.01   0.01  -0.01
  16   8     0.04  -0.04  -0.04     0.02  -0.00  -0.01     0.00   0.00  -0.01
  17   8     0.00  -0.00  -0.00     0.00  -0.00  -0.00    -0.00  -0.00  -0.00
  18   1     0.01  -0.00   0.00    -0.02  -0.00  -0.00     0.19   0.05   0.04
  19   1     0.01  -0.00   0.00    -0.01   0.00  -0.00     0.12  -0.02  -0.02
  20   1     0.01   0.01   0.00     0.01   0.00  -0.00    -0.03   0.01   0.01
  21   1     0.02  -0.00  -0.01     0.00  -0.00  -0.00     0.06   0.02   0.01
  22   1     0.01   0.00  -0.00    -0.03  -0.01  -0.01     0.26   0.10   0.04
  23   1     0.00  -0.00  -0.00    -0.02   0.01   0.01     0.16  -0.07  -0.09
  24   1    -0.01  -0.01   0.01     0.02   0.01  -0.01    -0.25  -0.27   0.18
  25   1    -0.02  -0.03   0.02     0.01   0.01  -0.00    -0.13  -0.11   0.06
  26   1     0.08  -0.01   0.08    -0.01  -0.00  -0.00     0.10   0.18  -0.21
  27   1    -0.01   0.01  -0.03     0.00  -0.00   0.01     0.02  -0.01   0.02
  28   1     0.00   0.00  -0.00     0.00   0.00  -0.00    -0.05  -0.06   0.04
  29   1    -0.18  -0.05   0.03    -0.12  -0.06   0.00    -0.02   0.00  -0.01
  30   1    -0.16  -0.42  -0.15    -0.22  -0.42  -0.15    -0.01  -0.01  -0.01
  31   1     0.18   0.49   0.18    -0.08  -0.05  -0.01    -0.01  -0.02  -0.01
  32   1    -0.05  -0.24   0.10    -0.06   0.01   0.00    -0.00  -0.00   0.00
  33   1    -0.08  -0.17   0.09     0.17   0.43  -0.20     0.01   0.03  -0.01
  34   1    -0.03  -0.02  -0.00     0.13   0.35  -0.14     0.02   0.04  -0.02
  35   1    -0.12  -0.23   0.09     0.09   0.12  -0.02     0.01   0.02  -0.01
  36   1    -0.10  -0.04  -0.00     0.13   0.06   0.01     0.02   0.01   0.00
  37   1    -0.04   0.02  -0.00     0.01  -0.05   0.00     0.00  -0.01   0.00
  38   1     0.04   0.04  -0.02    -0.00  -0.01   0.04     0.00   0.00   0.00
  39   1    -0.00   0.00  -0.00     0.00   0.00  -0.00    -0.00   0.00  -0.00
  40   1    -0.00   0.00   0.00     0.00   0.00   0.00     0.00   0.00   0.00
  41   8    -0.00   0.00   0.00    -0.00   0.00  -0.00    -0.00   0.00  -0.00
  42   1     0.00  -0.00   0.00     0.00  -0.00   0.00     0.00   0.00   0.00
  43   1    -0.00  -0.00  -0.00     0.00  -0.00   0.00     0.00   0.00   0.00
  44   7    -0.00   0.00  -0.02    -0.00  -0.00  -0.00     0.02  -0.00   0.03
  45   6     0.00   0.00   0.01    -0.00  -0.00  -0.00     0.06   0.05  -0.02
  46   8     0.00  -0.00  -0.00     0.00  -0.00   0.00    -0.03   0.02  -0.00
  47   6    -0.01   0.01  -0.01    -0.00  -0.01  -0.00     0.00  -0.01   0.01
  48   6     0.04  -0.02   0.04    -0.00  -0.00  -0.01    -0.04   0.01  -0.06
  49   8    -0.01  -0.02  -0.01     0.00   0.01   0.00     0.01   0.02   0.01
  50   1    -0.00   0.00  -0.00    -0.01   0.01   0.00     0.00  -0.00   0.01
  51   1     0.00  -0.00   0.00     0.01   0.01   0.00     0.01   0.01   0.01
  52   1    -0.01  -0.01  -0.01     0.00   0.00   0.00     0.02   0.01   0.01
  53   7     0.00   0.00  -0.00    -0.00  -0.00   0.00     0.01  -0.01  -0.00
  54   6    -0.00  -0.00  -0.00     0.00   0.00  -0.00     0.01  -0.01   0.00
  55   1    -0.00  -0.00   0.00     0.00  -0.00  -0.00    -0.02   0.00   0.00
  56   1     0.00   0.00   0.00     0.00  -0.00  -0.00    -0.02  -0.00   0.00
  57   1     0.00   0.00   0.00    -0.00   0.00  -0.00     0.00  -0.00   0.00
                    106                    107                    108
                        a                      a                      a 
 Frequencies --  1320.7185              1342.7057              1347.3028
 Red. masses --     9.0116                10.8550                 4.8663
 Frc consts  --     0.0000                 0.0000                 0.0000
 IR Inten    --    21.8062                 6.9196                 6.6161
 Raman Activ --     0.0000                 0.0000                 0.0000
 Depolar     --     0.0000                 0.0000                 0.0000
 Atom AN      X      Y      Z        X      Y      Z        X      Y      Z
   1   7     0.18   0.04   0.00    -0.10   0.01   0.03     0.01  -0.00  -0.00
   2   6    -0.33  -0.21  -0.14     0.19  -0.27  -0.23    -0.02   0.02   0.02
   3   6    -0.05   0.07   0.08     0.37   0.17   0.09    -0.02  -0.01  -0.01
   4   6    -0.03   0.13   0.12    -0.36   0.05   0.10     0.02  -0.00  -0.00
   5   6     0.28  -0.08  -0.18    -0.12  -0.33  -0.23     0.02   0.02   0.01
   6   6     0.25   0.06   0.01     0.21   0.19   0.11    -0.01  -0.01  -0.01
   7   6    -0.26   0.01   0.05    -0.24   0.13   0.13     0.00  -0.01  -0.01
   8   6    -0.33  -0.16   0.17     0.15   0.10  -0.05    -0.01  -0.00  -0.00
   9   6     0.16   0.10  -0.09    -0.05  -0.02   0.05     0.00  -0.01   0.01
  10   6     0.00  -0.01   0.01    -0.01  -0.00  -0.01    -0.00  -0.04  -0.01
  11   6    -0.00   0.00   0.00     0.00   0.00   0.00     0.04   0.07   0.03
  12   6     0.00   0.01   0.00    -0.00  -0.00  -0.00     0.02   0.07  -0.00
  13   6     0.00  -0.00   0.00    -0.01  -0.02   0.00    -0.16  -0.29   0.08
  14   6    -0.00  -0.01   0.00     0.01   0.02  -0.01     0.22   0.36  -0.14
  15   6    -0.00   0.00  -0.00     0.00  -0.00   0.01     0.03  -0.06   0.07
  16   8     0.00  -0.00  -0.01    -0.00   0.00   0.00    -0.01   0.00   0.00
  17   8    -0.00   0.00  -0.00     0.00   0.00   0.00     0.00  -0.00  -0.00
  18   1     0.09   0.04   0.00    -0.12  -0.02  -0.04     0.01   0.00   0.00
  19   1     0.17  -0.04  -0.02     0.01  -0.02   0.01     0.00   0.00  -0.00
  20   1     0.04   0.07   0.04     0.01  -0.00  -0.01    -0.01  -0.00   0.00
  21   1     0.09   0.02  -0.02    -0.08   0.01   0.02     0.01  -0.00  -0.00
  22   1     0.05   0.00  -0.01     0.02   0.02   0.03     0.00  -0.00  -0.00
  23   1    -0.06  -0.01   0.01    -0.01   0.01   0.02     0.00  -0.00  -0.00
  24   1     0.14   0.22  -0.16    -0.16  -0.17   0.10     0.01   0.00  -0.00
  25   1     0.15   0.16  -0.10     0.03  -0.03  -0.00    -0.00   0.00   0.00
  26   1    -0.11  -0.15   0.17     0.04   0.07  -0.07    -0.00   0.00  -0.01
  27   1    -0.01  -0.00  -0.01    -0.00   0.00  -0.00     0.01  -0.01   0.01
  28   1     0.03   0.03  -0.02    -0.01  -0.01   0.01    -0.00  -0.00   0.00
  29   1    -0.02   0.00  -0.01     0.02   0.00  -0.00    -0.02  -0.01  -0.01
  30   1    -0.00   0.00  -0.00    -0.00  -0.01  -0.00    -0.05  -0.07  -0.03
  31   1    -0.01  -0.01  -0.00     0.00   0.00   0.00    -0.03  -0.05  -0.03
  32   1    -0.00   0.00   0.00     0.00   0.01  -0.01     0.03   0.22  -0.09
  33   1     0.00   0.01  -0.01     0.01   0.02  -0.01     0.11   0.34  -0.18
  34   1     0.00   0.01  -0.00    -0.01  -0.02   0.01    -0.18  -0.37   0.15
  35   1     0.00   0.01  -0.00    -0.01  -0.02   0.01    -0.17  -0.39   0.16
  36   1     0.00   0.00   0.00    -0.01  -0.00  -0.00    -0.11  -0.07  -0.02
  37   1     0.00  -0.00   0.00    -0.00   0.00   0.00    -0.04   0.03   0.01
  38   1    -0.00  -0.00   0.00    -0.00  -0.00  -0.00    -0.02  -0.01  -0.06
  39   1    -0.00  -0.00  -0.00     0.00  -0.00   0.00    -0.00   0.00  -0.00
  40   1    -0.00  -0.00   0.00    -0.00  -0.00  -0.00    -0.00   0.00   0.00
  41   8    -0.00  -0.00   0.00     0.00  -0.00   0.00    -0.00   0.00  -0.00
  42   1     0.00   0.00  -0.00    -0.00   0.00  -0.00     0.00  -0.00   0.00
  43   1     0.00   0.00   0.00    -0.00   0.00  -0.00     0.00  -0.00  -0.00
  44   7    -0.03  -0.00  -0.03     0.01  -0.00   0.01    -0.01   0.01  -0.01
  45   6    -0.05  -0.03   0.01     0.02   0.01  -0.00     0.00   0.00  -0.00
  46   8     0.02  -0.01   0.00    -0.01   0.01  -0.00    -0.00   0.00   0.00
  47   6    -0.00   0.00  -0.01     0.00  -0.00   0.00    -0.00  -0.00  -0.00
  48   6     0.03  -0.01   0.04    -0.01   0.00  -0.02    -0.00  -0.01  -0.00
  49   8    -0.00  -0.01  -0.01     0.00   0.01   0.00     0.00   0.01   0.00
  50   1    -0.00   0.00  -0.00     0.00  -0.00   0.00     0.00   0.00   0.00
  51   1    -0.00  -0.00  -0.00     0.00   0.00   0.00     0.00   0.01  -0.00
  52   1    -0.01  -0.00  -0.01     0.00   0.00   0.00     0.01   0.00  -0.00
  53   7    -0.00   0.01  -0.00    -0.00  -0.01   0.00     0.00   0.00  -0.00
  54   6    -0.01   0.00   0.00     0.00   0.00  -0.00    -0.00  -0.00   0.00
  55   1     0.01  -0.00  -0.00    -0.00   0.00   0.00    -0.00   0.00   0.00
  56   1     0.01   0.00  -0.00    -0.00  -0.00  -0.00    -0.00   0.00   0.00
  57   1     0.00   0.00  -0.00    -0.00  -0.00   0.00     0.00   0.00  -0.00
                    109                    110                    111
                        a                      a                      a 
 Frequencies --  1374.5714              1382.2936              1393.1427
 Red. masses --     3.2761                 3.3356                 2.6209
 Frc consts  --     0.0000                 0.0000                 0.0000
 IR Inten    --    19.1526                27.6673                 2.9675
 Raman Activ --     0.0000                 0.0000                 0.0000
 Depolar     --     0.0000                 0.0000                 0.0000
 Atom AN      X      Y      Z        X      Y      Z        X      Y      Z
   1   7    -0.00  -0.00   0.00    -0.01   0.00  -0.00    -0.00  -0.00  -0.00
   2   6     0.00   0.00  -0.00     0.01  -0.01  -0.01     0.00   0.00   0.00
   3   6     0.00  -0.00  -0.00     0.01   0.01   0.01     0.00   0.00  -0.00
   4   6    -0.00  -0.00   0.00     0.00  -0.00  -0.00    -0.00  -0.00  -0.00
   5   6    -0.00   0.00   0.00    -0.01  -0.01  -0.01    -0.00  -0.00   0.00
   6   6    -0.00   0.00   0.00    -0.01   0.01   0.01     0.00  -0.00  -0.00
   7   6     0.00   0.00   0.00     0.02   0.00  -0.00    -0.00   0.00   0.00
   8   6     0.00  -0.00   0.01     0.01   0.00  -0.00    -0.00   0.00   0.00
   9   6    -0.01   0.02  -0.02    -0.00  -0.00   0.00     0.01   0.00   0.00
  10   6    -0.01  -0.01  -0.00     0.13   0.22   0.09    -0.00  -0.00  -0.00
  11   6     0.01   0.00  -0.00    -0.15  -0.01   0.05     0.00   0.00   0.00
  12   6    -0.00  -0.01  -0.00     0.09   0.02  -0.02     0.00   0.00   0.00
  13   6    -0.01   0.00  -0.00    -0.01  -0.01   0.00     0.00  -0.00   0.00
  14   6     0.00   0.00   0.00     0.00  -0.00   0.00    -0.00  -0.00  -0.00
  15   6    -0.01  -0.00  -0.00    -0.00   0.00  -0.00     0.00   0.00  -0.00
  16   8    -0.01   0.01   0.01     0.17  -0.16  -0.14     0.00   0.00  -0.00
  17   8    -0.00   0.00   0.00     0.00  -0.01  -0.00    -0.00   0.00   0.00
  18   1    -0.00  -0.00  -0.00    -0.02  -0.00  -0.01     0.00   0.00   0.00
  19   1    -0.00   0.00   0.00    -0.01   0.00   0.01    -0.00   0.00  -0.00
  20   1     0.00   0.00   0.00    -0.01  -0.00  -0.00    -0.00  -0.00  -0.00
  21   1     0.00  -0.00  -0.00    -0.02   0.00   0.01    -0.00  -0.00  -0.00
  22   1    -0.00  -0.00  -0.00    -0.00   0.00   0.00     0.00   0.00   0.00
  23   1    -0.00   0.00   0.00    -0.01   0.00   0.01     0.00  -0.00  -0.00
  24   1    -0.00   0.00  -0.00    -0.00  -0.00   0.00     0.00   0.00  -0.00
  25   1    -0.00  -0.00   0.00     0.00  -0.00  -0.00     0.00  -0.00   0.00
  26   1     0.02  -0.01   0.04    -0.00   0.00  -0.00    -0.01  -0.01   0.00
  27   1    -0.02   0.01  -0.03     0.00  -0.00   0.00     0.01  -0.01   0.02
  28   1     0.00   0.00  -0.00     0.00  -0.00   0.00     0.06   0.05  -0.03
  29   1     0.05   0.01  -0.01    -0.85  -0.19   0.14    -0.00  -0.00  -0.00
  30   1     0.00   0.00  -0.00     0.03   0.13   0.05    -0.00  -0.00  -0.00
  31   1     0.00   0.01   0.00    -0.04  -0.11  -0.04    -0.00  -0.00   0.00
  32   1     0.02  -0.00  -0.00    -0.01   0.01  -0.00    -0.00  -0.00   0.00
  33   1     0.00  -0.00   0.01    -0.01  -0.01  -0.02    -0.00  -0.00   0.00
  34   1    -0.00   0.00  -0.00     0.00  -0.00   0.00     0.00   0.00  -0.00
  35   1    -0.00  -0.00  -0.01     0.00   0.00   0.00     0.00   0.00  -0.00
  36   1     0.00   0.00   0.00     0.01   0.00   0.00    -0.01  -0.00  -0.00
  37   1     0.02   0.00  -0.00     0.00  -0.00   0.00    -0.00  -0.00   0.00
  38   1     0.01   0.01   0.01    -0.00  -0.00   0.00    -0.00  -0.00   0.00
  39   1     0.00  -0.00   0.00    -0.00   0.02  -0.01    -0.00  -0.00   0.00
  40   1     0.00  -0.00  -0.00     0.00   0.01   0.01    -0.00  -0.00  -0.00
  41   8     0.00  -0.00   0.00    -0.00  -0.00   0.00    -0.00   0.00  -0.00
  42   1    -0.00   0.00  -0.00     0.00  -0.00   0.00     0.00  -0.00   0.00
  43   1    -0.00   0.00   0.00     0.01   0.00  -0.00    -0.00  -0.00  -0.00
  44   7     0.01  -0.02   0.01    -0.00   0.00  -0.00    -0.01   0.02  -0.02
  45   6    -0.00  -0.00   0.00     0.00  -0.00  -0.00    -0.05   0.01   0.01
  46   8     0.00  -0.00  -0.00    -0.00   0.00  -0.00     0.04  -0.05   0.01
  47   6    -0.22  -0.11  -0.37    -0.01  -0.00  -0.02    -0.00   0.00  -0.00
  48   6     0.03  -0.02   0.03    -0.00  -0.00   0.00     0.01  -0.00   0.02
  49   8     0.00   0.02   0.00     0.00   0.00   0.00    -0.00  -0.01  -0.00
  50   1     0.09   0.03   0.50     0.01  -0.00   0.03     0.00  -0.00  -0.00
  51   1     0.45   0.08   0.29     0.02   0.00   0.01    -0.00  -0.00   0.00
  52   1     0.15   0.24   0.39     0.01   0.02   0.02    -0.00  -0.00  -0.00
  53   7    -0.00   0.00  -0.00    -0.00  -0.00   0.00     0.04   0.03  -0.02
  54   6     0.00  -0.00  -0.00     0.00   0.00  -0.00     0.34   0.07  -0.09
  55   1    -0.00   0.00  -0.00    -0.00  -0.00   0.00    -0.46   0.09   0.14
  56   1    -0.00   0.00   0.00    -0.00  -0.00  -0.00    -0.49   0.02  -0.01
  57   1    -0.00  -0.00   0.00    -0.00  -0.00  -0.00    -0.44  -0.35   0.22
                    112                    113                    114
                        a                      a                      a 
 Frequencies --  1419.9727              1423.9240              1428.5011
 Red. masses --     3.4191                 9.7372                 9.7275
 Frc consts  --     0.0000                 0.0000                 0.0000
 IR Inten    --    10.3287               197.2534                19.4060
 Raman Activ --     0.0000                 0.0000                 0.0000
 Depolar     --     0.0000                 0.0000                 0.0000
 Atom AN      X      Y      Z        X      Y      Z        X      Y      Z
   1   7     0.00  -0.00  -0.00    -0.01   0.02   0.02     0.03  -0.07  -0.06
   2   6    -0.00   0.01   0.01     0.01  -0.08  -0.07    -0.01   0.26   0.21
   3   6     0.01   0.00  -0.00    -0.11   0.00   0.02     0.32  -0.03  -0.08
   4   6    -0.01  -0.01  -0.00     0.09   0.04   0.02    -0.31  -0.10  -0.03
   5   6    -0.00   0.01   0.01     0.01  -0.08  -0.06    -0.01   0.26   0.21
   6   6     0.01   0.00  -0.00    -0.11   0.00   0.02     0.33  -0.03  -0.08
   7   6    -0.01  -0.01  -0.00     0.11   0.04   0.01    -0.36  -0.10  -0.02
   8   6    -0.00   0.00  -0.00     0.02  -0.01   0.02    -0.00  -0.08  -0.03
   9   6     0.01  -0.03   0.03    -0.06   0.11  -0.12    -0.01   0.04  -0.05
  10   6    -0.00  -0.00   0.00    -0.00   0.00  -0.00     0.01   0.01   0.00
  11   6     0.00   0.01   0.00     0.00   0.00   0.00    -0.01  -0.00   0.00
  12   6    -0.00   0.00  -0.00    -0.00  -0.00  -0.00     0.00  -0.00  -0.00
  13   6     0.01  -0.00   0.00    -0.01  -0.01  -0.00    -0.00   0.00  -0.00
  14   6    -0.01  -0.06   0.03     0.00  -0.01   0.00     0.00  -0.00   0.00
  15   6     0.32   0.27  -0.00     0.07   0.06  -0.00     0.01   0.01  -0.00
  16   8     0.00   0.00  -0.00     0.00  -0.00   0.00     0.00  -0.00  -0.00
  17   8    -0.00  -0.00  -0.00     0.00   0.00   0.00    -0.00  -0.00  -0.00
  18   1     0.00  -0.00   0.00    -0.01   0.01  -0.01     0.05  -0.02   0.02
  19   1    -0.01   0.00   0.00     0.04  -0.01  -0.01    -0.12   0.03   0.03
  20   1    -0.01  -0.01  -0.00     0.04   0.05   0.03    -0.09  -0.12  -0.08
  21   1     0.00  -0.00  -0.00    -0.02   0.03   0.03     0.13  -0.10  -0.10
  22   1    -0.00  -0.00  -0.00     0.03   0.04   0.03    -0.10  -0.13  -0.08
  23   1     0.00  -0.00  -0.00    -0.04   0.03   0.03     0.15  -0.11  -0.11
  24   1     0.01   0.00   0.01    -0.07  -0.02  -0.04     0.07   0.07  -0.06
  25   1     0.01  -0.01  -0.00    -0.03   0.06   0.01    -0.08   0.03   0.03
  26   1    -0.02   0.01  -0.03     0.09  -0.03   0.13     0.02  -0.02   0.05
  27   1     0.05  -0.03   0.07    -0.20   0.12  -0.31    -0.06   0.04  -0.10
  28   1     0.03   0.03  -0.02    -0.06  -0.05   0.03    -0.03  -0.03   0.02
  29   1    -0.00   0.00  -0.00    -0.00  -0.00   0.00    -0.03  -0.00   0.00
  30   1    -0.00  -0.00   0.00    -0.00  -0.00  -0.00     0.00   0.01   0.00
  31   1    -0.00  -0.01  -0.00     0.00  -0.00  -0.00    -0.00  -0.00  -0.00
  32   1     0.01   0.00   0.00     0.03  -0.00  -0.00     0.01  -0.00  -0.00
  33   1     0.01   0.02   0.00     0.01   0.02   0.01     0.00  -0.00   0.01
  34   1    -0.03   0.08  -0.02    -0.02   0.02  -0.00    -0.00   0.00  -0.00
  35   1     0.00   0.05  -0.07    -0.01   0.00  -0.02    -0.00   0.00  -0.00
  36   1    -0.44  -0.16  -0.14    -0.10  -0.04  -0.03    -0.02  -0.01  -0.00
  37   1    -0.37  -0.27   0.17    -0.07  -0.06   0.04    -0.01  -0.01   0.01
  38   1    -0.27  -0.46  -0.04    -0.05  -0.10   0.00    -0.01  -0.01   0.00
  39   1     0.00   0.00   0.00    -0.00  -0.00  -0.00     0.00   0.00  -0.00
  40   1     0.00   0.00   0.00    -0.00  -0.00  -0.00     0.00   0.00   0.00
  41   8     0.00  -0.00   0.00    -0.00   0.00  -0.00    -0.00   0.00  -0.00
  42   1    -0.00   0.00  -0.00     0.00  -0.00   0.00     0.00  -0.00   0.00
  43   1    -0.00   0.00   0.00     0.00  -0.00   0.00     0.00  -0.00  -0.00
  44   7    -0.06   0.07  -0.08     0.26  -0.35   0.37     0.08  -0.10   0.11
  45   6     0.04   0.02  -0.01    -0.07  -0.05   0.03    -0.04  -0.03   0.02
  46   8    -0.02   0.01  -0.00     0.03  -0.02   0.00     0.02  -0.01   0.00
  47   6    -0.01  -0.00  -0.02     0.05  -0.04   0.08     0.01  -0.01   0.02
  48   6     0.05  -0.04   0.08    -0.27   0.15  -0.38    -0.08   0.04  -0.11
  49   8    -0.01  -0.01  -0.01     0.05   0.09   0.06     0.01   0.03   0.02
  50   1    -0.00   0.01   0.01    -0.03   0.04   0.03    -0.00   0.01   0.01
  51   1     0.01   0.00   0.01     0.01   0.09  -0.03     0.00   0.03  -0.01
  52   1    -0.01  -0.00   0.00     0.04   0.00  -0.02     0.02   0.00  -0.01
  53   7    -0.03  -0.05   0.03     0.05   0.10  -0.05     0.03   0.05  -0.03
  54   6     0.00   0.02  -0.01     0.00  -0.04   0.02    -0.00  -0.03   0.01
  55   1     0.02  -0.01   0.01    -0.04   0.03  -0.03    -0.02   0.02  -0.02
  56   1     0.02  -0.02  -0.01    -0.03   0.05   0.01    -0.01   0.03   0.01
  57   1    -0.00   0.00  -0.00    -0.00  -0.01   0.00     0.00  -0.00  -0.00
                    115                    116                    117
                        a                      a                      a 
 Frequencies --  1433.8105              1455.5339              1462.5290
 Red. masses --     8.6152                 1.6788                 1.5689
 Frc consts  --     0.0000                 0.0000                 0.0000
 IR Inten    --   224.6225                 3.8586                10.4745
 Raman Activ --     0.0000                 0.0000                 0.0000
 Depolar     --     0.0000                 0.0000                 0.0000
 Atom AN      X      Y      Z        X      Y      Z        X      Y      Z
   1   7     0.00  -0.00  -0.00     0.00  -0.00  -0.00    -0.00   0.00   0.00
   2   6     0.00   0.01   0.01     0.00   0.00   0.00     0.00  -0.00  -0.00
   3   6     0.01  -0.01  -0.01     0.00  -0.00  -0.00    -0.00   0.00   0.00
   4   6    -0.02  -0.00   0.00    -0.00  -0.00  -0.00     0.00   0.00   0.00
   5   6     0.01   0.02   0.01     0.00   0.00   0.00     0.00  -0.00  -0.00
   6   6     0.02  -0.01  -0.01     0.00   0.00  -0.00    -0.00  -0.00  -0.00
   7   6    -0.02  -0.00   0.00    -0.00  -0.00   0.00     0.00   0.00   0.00
   8   6    -0.01  -0.02   0.01    -0.00   0.00  -0.00     0.00  -0.00   0.00
   9   6    -0.05   0.02  -0.02     0.01  -0.02   0.01     0.00   0.00   0.00
  10   6     0.00   0.00  -0.00    -0.00   0.00   0.00    -0.00   0.00   0.00
  11   6    -0.00  -0.00   0.00     0.00   0.00   0.00    -0.00   0.00   0.00
  12   6     0.00   0.00  -0.00     0.00  -0.01  -0.00     0.00  -0.00  -0.00
  13   6    -0.01  -0.00  -0.00    -0.01   0.00  -0.01    -0.00  -0.00  -0.00
  14   6     0.00   0.01  -0.00    -0.01   0.00  -0.00     0.00  -0.00   0.00
  15   6    -0.02  -0.02  -0.00    -0.01  -0.01   0.01     0.00   0.00  -0.00
  16   8    -0.00   0.00   0.00     0.00  -0.00  -0.00     0.00  -0.00  -0.00
  17   8     0.00  -0.00  -0.00    -0.00   0.00   0.00    -0.00   0.00   0.00
  18   1     0.01   0.01   0.00    -0.00  -0.00  -0.00    -0.00  -0.00  -0.00
  19   1     0.00   0.00  -0.00    -0.00   0.00   0.00    -0.00   0.00   0.00
  20   1     0.00  -0.00  -0.00    -0.00  -0.00  -0.00     0.00   0.00   0.00
  21   1     0.01  -0.00  -0.01     0.00  -0.00  -0.00     0.00   0.00   0.00
  22   1    -0.00  -0.01  -0.00     0.00   0.00   0.00     0.00   0.00   0.00
  23   1     0.01  -0.01  -0.01     0.00  -0.00  -0.00    -0.00   0.00   0.00
  24   1    -0.01   0.01  -0.03     0.01  -0.00   0.01    -0.00  -0.00  -0.00
  25   1    -0.02   0.02   0.00     0.01  -0.01  -0.00    -0.00   0.01   0.00
  26   1     0.02  -0.02   0.05    -0.02   0.01  -0.02    -0.00   0.00  -0.00
  27   1    -0.05   0.03  -0.08     0.04  -0.03   0.06    -0.00  -0.00   0.00
  28   1     0.32   0.31  -0.18    -0.00  -0.00  -0.00    -0.01  -0.01   0.00
  29   1    -0.00  -0.00   0.00    -0.00  -0.00   0.00    -0.00  -0.00   0.00
  30   1    -0.00  -0.00  -0.00     0.00   0.01  -0.00    -0.00   0.00  -0.00
  31   1     0.00   0.00  -0.00     0.00   0.00  -0.00    -0.00  -0.00  -0.00
  32   1     0.01  -0.00  -0.00     0.03  -0.01  -0.00     0.01  -0.00  -0.00
  33   1     0.00   0.00   0.01     0.01  -0.00   0.03     0.00   0.00   0.00
  34   1    -0.00  -0.01   0.00     0.01  -0.01   0.00    -0.00   0.00   0.00
  35   1    -0.00  -0.01   0.00     0.01   0.00   0.01    -0.00  -0.00  -0.00
  36   1     0.02   0.01   0.01     0.03   0.01   0.00    -0.00  -0.00  -0.00
  37   1     0.03   0.02  -0.01    -0.01   0.02  -0.01     0.00  -0.00   0.00
  38   1     0.02   0.02   0.01     0.00   0.02  -0.02     0.00  -0.00   0.00
  39   1    -0.00   0.00  -0.00     0.00  -0.00   0.00     0.00  -0.00   0.00
  40   1    -0.00   0.00   0.00     0.00  -0.00  -0.00     0.00  -0.00  -0.00
  41   8    -0.00   0.00  -0.00     0.00  -0.00   0.00     0.00  -0.00   0.00
  42   1     0.00  -0.00   0.00    -0.00   0.00  -0.00    -0.00   0.00  -0.00
  43   1     0.00  -0.00  -0.00    -0.00   0.00   0.00    -0.00   0.00   0.00
  44   7     0.06  -0.09   0.08    -0.02   0.03  -0.03     0.00  -0.00   0.00
  45   6     0.32   0.19  -0.12     0.00   0.00  -0.00    -0.01  -0.01   0.00
  46   8    -0.12   0.09  -0.01    -0.00   0.00  -0.00     0.00  -0.00  -0.00
  47   6     0.01  -0.01   0.03     0.11  -0.19   0.03     0.01   0.00  -0.00
  48   6    -0.07   0.04  -0.11     0.04   0.02   0.03    -0.00   0.00  -0.00
  49   8     0.01   0.02   0.02    -0.02  -0.05  -0.02     0.00   0.00   0.00
  50   1    -0.01   0.01   0.01    -0.41   0.45   0.25    -0.02   0.02  -0.01
  51   1     0.00   0.02  -0.00     0.19   0.55  -0.09     0.01  -0.01   0.01
  52   1     0.01   0.00  -0.00    -0.21  -0.23  -0.24    -0.03  -0.01   0.02
  53   7    -0.30  -0.44   0.22    -0.00  -0.00   0.00     0.00  -0.00  -0.03
  54   6     0.07   0.22  -0.11     0.00   0.00   0.00    -0.04  -0.09  -0.20
  55   1     0.10  -0.13   0.20    -0.01   0.00  -0.00     0.38  -0.21   0.10
  56   1     0.04  -0.23  -0.07     0.01  -0.00  -0.00    -0.37   0.27   0.04
  57   1    -0.05  -0.00   0.02    -0.00  -0.01  -0.01     0.12   0.28   0.66
                    118                    119                    120
                        a                      a                      a 
 Frequencies --  1465.2172              1476.5301              1477.5350
 Red. masses --     1.6536                 2.1149                 2.1414
 Frc consts  --     0.0000                 0.0000                 0.0000
 IR Inten    --     9.1665                 3.8202                 0.5948
 Raman Activ --     0.0000                 0.0000                 0.0000
 Depolar     --     0.0000                 0.0000                 0.0000
 Atom AN      X      Y      Z        X      Y      Z        X      Y      Z
   1   7     0.00   0.00  -0.00    -0.00  -0.00   0.00    -0.00   0.00   0.00
   2   6    -0.00  -0.00  -0.00    -0.00   0.00   0.00     0.01  -0.01  -0.01
   3   6     0.00   0.00   0.00     0.00  -0.00  -0.00    -0.01  -0.01  -0.00
   4   6     0.00  -0.00  -0.00    -0.00  -0.00  -0.00    -0.00   0.01   0.01
   5   6    -0.00  -0.00  -0.00     0.01   0.01  -0.00    -0.01  -0.02   0.01
   6   6    -0.00   0.00   0.00     0.01   0.00  -0.00    -0.03  -0.02  -0.01
   7   6     0.01  -0.00  -0.00    -0.00  -0.00  -0.00     0.01   0.02   0.01
   8   6    -0.00   0.00  -0.00    -0.06   0.03  -0.02     0.24  -0.13   0.09
   9   6     0.00  -0.00   0.01    -0.00   0.00  -0.00     0.02  -0.02   0.03
  10   6     0.00  -0.00  -0.00    -0.02  -0.01   0.00    -0.00  -0.00   0.00
  11   6     0.00  -0.01  -0.01     0.00   0.06   0.03     0.00   0.01   0.01
  12   6    -0.00   0.00   0.01     0.02  -0.00  -0.03     0.00  -0.00  -0.01
  13   6     0.04   0.00   0.02    -0.26  -0.02  -0.14    -0.06  -0.00  -0.03
  14   6    -0.02   0.00  -0.01    -0.00  -0.00  -0.00    -0.00  -0.00  -0.00
  15   6     0.00  -0.00  -0.01     0.01  -0.01   0.01     0.00  -0.00   0.00
  16   8    -0.01   0.00   0.00     0.02  -0.00  -0.01     0.00  -0.00  -0.00
  17   8     0.00  -0.00  -0.00    -0.00   0.00   0.00    -0.00   0.00   0.00
  18   1    -0.00  -0.00   0.00     0.01   0.01   0.00    -0.01  -0.00  -0.00
  19   1    -0.00  -0.00   0.00     0.00  -0.00  -0.00    -0.00   0.00   0.00
  20   1    -0.00  -0.00  -0.00    -0.00  -0.00   0.00     0.01   0.01   0.00
  21   1    -0.00   0.00   0.00    -0.00   0.00  -0.00     0.02  -0.00  -0.00
  22   1    -0.00  -0.00   0.00    -0.01  -0.01  -0.00     0.04   0.02   0.01
  23   1    -0.00   0.00   0.00    -0.00  -0.00  -0.00     0.01   0.00   0.00
  24   1     0.01  -0.00   0.01     0.09  -0.01   0.12    -0.40   0.06  -0.52
  25   1     0.01  -0.01  -0.00     0.09  -0.11  -0.03    -0.39   0.49   0.14
  26   1    -0.00   0.00  -0.00    -0.01  -0.00  -0.00    -0.01   0.00  -0.02
  27   1     0.00  -0.00   0.01    -0.00   0.00  -0.00     0.04  -0.03   0.06
  28   1    -0.00   0.00  -0.00    -0.00  -0.00   0.00     0.00  -0.00   0.00
  29   1     0.01   0.00  -0.00    -0.02  -0.00   0.00    -0.00  -0.00   0.00
  30   1     0.00  -0.00   0.00    -0.02  -0.03   0.00    -0.00  -0.01   0.00
  31   1     0.00   0.01   0.00     0.00  -0.03   0.01     0.00  -0.01   0.00
  32   1    -0.08   0.03   0.00     0.60  -0.21  -0.01     0.13  -0.05  -0.00
  33   1    -0.04  -0.03  -0.08     0.26   0.16   0.57     0.06   0.04   0.13
  34   1     0.06  -0.02  -0.00    -0.00   0.00  -0.00     0.01  -0.00  -0.00
  35   1     0.03   0.01   0.06    -0.00   0.00  -0.00     0.00   0.00   0.01
  36   1    -0.01   0.01   0.01     0.04   0.01   0.01     0.01   0.00   0.00
  37   1    -0.00   0.01  -0.00    -0.04   0.04  -0.01    -0.01   0.01  -0.00
  38   1    -0.00  -0.01   0.01    -0.01   0.01  -0.06    -0.00   0.00  -0.02
  39   1    -0.00   0.00  -0.00     0.00  -0.00   0.00     0.00  -0.00   0.00
  40   1    -0.00   0.00   0.00     0.00  -0.00  -0.00     0.00  -0.00  -0.00
  41   8    -0.00   0.00   0.00     0.00  -0.00   0.00     0.00  -0.00   0.00
  42   1     0.00  -0.00   0.00    -0.00   0.00  -0.01    -0.00   0.00  -0.00
  43   1    -0.00  -0.00  -0.00    -0.00   0.00   0.00    -0.00   0.00   0.00
  44   7    -0.01   0.02  -0.03    -0.00   0.00  -0.00    -0.04   0.04  -0.05
  45   6    -0.00  -0.00   0.00    -0.00   0.00   0.00     0.01  -0.01  -0.00
  46   8     0.00  -0.00  -0.00     0.00  -0.00  -0.00    -0.01   0.01   0.00
  47   6    -0.18  -0.08   0.09    -0.03   0.00   0.01    -0.01  -0.00  -0.00
  48   6     0.00  -0.02   0.06     0.01  -0.01   0.01     0.03  -0.01   0.05
  49   8    -0.01  -0.01  -0.01    -0.00   0.00  -0.00    -0.01  -0.01  -0.01
  50   1     0.27  -0.22   0.24     0.06  -0.05   0.01     0.01  -0.01   0.00
  51   1    -0.14   0.38  -0.25    -0.03   0.02  -0.03    -0.01   0.01  -0.01
  52   1     0.54   0.16  -0.43     0.08   0.03  -0.05     0.02   0.01  -0.02
  53   7     0.00   0.00  -0.00     0.00   0.00  -0.00    -0.00  -0.01   0.00
  54   6    -0.00  -0.00  -0.01    -0.00   0.00  -0.00     0.00  -0.01   0.01
  55   1     0.02  -0.01   0.01     0.00  -0.00   0.00    -0.00   0.02  -0.03
  56   1    -0.02   0.01   0.00    -0.00  -0.00  -0.00     0.01   0.03   0.01
  57   1     0.01   0.02   0.03     0.00   0.00   0.00    -0.01  -0.01  -0.00
                    121                    122                    123
                        a                      a                      a 
 Frequencies --  1484.2678              1485.6604              1496.0528
 Red. masses --     2.4749                 4.3881                 1.8516
 Frc consts  --     0.0000                 0.0000                 0.0000
 IR Inten    --    28.4295                16.5392                 0.7179
 Raman Activ --     0.0000                 0.0000                 0.0000
 Depolar     --     0.0000                 0.0000                 0.0000
 Atom AN      X      Y      Z        X      Y      Z        X      Y      Z
   1   7     0.02   0.00  -0.00    -0.21  -0.05   0.02    -0.00  -0.00   0.00
   2   6     0.01   0.00  -0.00    -0.17  -0.03   0.04    -0.00  -0.00  -0.00
   3   6    -0.01  -0.01  -0.01     0.18   0.14   0.09     0.00   0.00   0.00
   4   6    -0.01   0.01   0.01     0.08  -0.12  -0.12     0.00  -0.00  -0.00
   5   6     0.01  -0.00  -0.00    -0.23   0.01   0.06    -0.00   0.00   0.00
   6   6    -0.01  -0.01  -0.00     0.09   0.11   0.07     0.00  -0.00  -0.00
   7   6    -0.01   0.01   0.01     0.13  -0.09  -0.09    -0.00   0.00   0.00
   8   6     0.01  -0.01   0.00     0.08   0.00  -0.01     0.00  -0.00   0.00
   9   6     0.01   0.00  -0.00    -0.00   0.00  -0.00     0.00  -0.00   0.00
  10   6     0.00  -0.00  -0.00    -0.03   0.00   0.02    -0.00   0.00   0.00
  11   6    -0.00   0.00   0.00     0.00   0.00  -0.00    -0.00   0.00  -0.00
  12   6    -0.00  -0.00  -0.00    -0.00  -0.00  -0.00    -0.00  -0.00   0.00
  13   6    -0.00   0.00  -0.00     0.00   0.00   0.00     0.02   0.01   0.00
  14   6     0.00  -0.00   0.00    -0.00  -0.00  -0.00     0.23  -0.02   0.14
  15   6     0.00   0.00   0.00    -0.00   0.00  -0.00    -0.05   0.00  -0.02
  16   8    -0.00   0.00   0.00     0.03  -0.01  -0.01     0.00  -0.00  -0.00
  17   8    -0.00   0.00   0.00     0.01  -0.01   0.00    -0.00   0.00   0.00
  18   1    -0.04  -0.03  -0.01     0.45   0.36   0.07     0.00   0.00   0.00
  19   1    -0.03   0.01   0.02     0.41  -0.13  -0.29     0.00  -0.00  -0.00
  20   1     0.01   0.01   0.00    -0.16  -0.08  -0.04     0.00   0.00   0.00
  21   1     0.01  -0.00  -0.00    -0.13   0.01   0.03    -0.00   0.00  -0.00
  22   1     0.01   0.01   0.00    -0.13  -0.06  -0.02     0.00   0.00   0.00
  23   1     0.01  -0.00  -0.00    -0.13   0.02   0.04     0.00  -0.00  -0.00
  24   1    -0.02  -0.00  -0.02     0.01   0.01  -0.02    -0.00   0.00  -0.01
  25   1    -0.02   0.02   0.01    -0.01   0.02   0.01    -0.00   0.01   0.00
  26   1     0.00   0.00  -0.00     0.00   0.00  -0.00    -0.00   0.00  -0.00
  27   1     0.00  -0.00   0.00    -0.00   0.00  -0.00     0.00  -0.00   0.01
  28   1    -0.13  -0.10   0.07    -0.01  -0.01   0.01     0.00   0.00   0.00
  29   1    -0.00   0.00  -0.00     0.00   0.00   0.00    -0.00   0.00   0.00
  30   1     0.00   0.00   0.00     0.00   0.00   0.00    -0.00  -0.00   0.00
  31   1     0.00  -0.00   0.00    -0.00   0.00   0.00    -0.00  -0.00  -0.00
  32   1     0.00  -0.00  -0.00    -0.00   0.00   0.00     0.01  -0.01   0.01
  33   1     0.00   0.00   0.00    -0.00  -0.00  -0.00     0.00  -0.01   0.01
  34   1    -0.00   0.00  -0.00     0.00   0.00  -0.00    -0.60   0.27   0.01
  35   1    -0.00   0.00  -0.00     0.00   0.00   0.00    -0.27  -0.11  -0.59
  36   1     0.00  -0.01  -0.01     0.00  -0.00  -0.00    -0.02  -0.03  -0.03
  37   1    -0.01  -0.01   0.00     0.00  -0.00   0.00     0.15  -0.08   0.01
  38   1    -0.00   0.00  -0.01     0.00   0.00   0.00     0.07   0.05   0.14
  39   1     0.00  -0.00   0.00    -0.02   0.03  -0.02     0.00  -0.00   0.00
  40   1     0.00  -0.00  -0.00    -0.01   0.02   0.02     0.00  -0.00  -0.00
  41   8     0.00  -0.00   0.00    -0.01   0.01  -0.01     0.00  -0.00   0.00
  42   1    -0.00   0.00  -0.00     0.01  -0.01   0.04    -0.00   0.00  -0.00
  43   1    -0.00   0.00   0.00     0.03  -0.02  -0.00    -0.00   0.00   0.00
  44   7    -0.00   0.00  -0.00     0.00  -0.00   0.00    -0.01   0.01  -0.01
  45   6    -0.13  -0.06   0.04    -0.01  -0.01   0.00     0.00   0.00  -0.00
  46   8     0.06  -0.05   0.01     0.01  -0.01   0.00    -0.00   0.00  -0.00
  47   6     0.00  -0.00  -0.00     0.00  -0.00   0.00    -0.02  -0.01   0.01
  48   6     0.01  -0.00   0.01    -0.00   0.00  -0.00     0.01  -0.00   0.02
  49   8    -0.00  -0.00  -0.00     0.00   0.00   0.00    -0.00  -0.01  -0.00
  50   1    -0.00   0.00  -0.00    -0.00   0.00   0.00     0.02  -0.01   0.02
  51   1     0.00  -0.00   0.00     0.00   0.00   0.00    -0.01   0.05  -0.03
  52   1    -0.00  -0.00   0.00    -0.00  -0.00   0.00     0.05   0.01  -0.06
  53   7     0.11   0.21  -0.10     0.01   0.02  -0.01    -0.00  -0.00   0.00
  54   6    -0.03   0.14  -0.05    -0.00   0.01  -0.00     0.00  -0.00   0.00
  55   1    -0.05  -0.31   0.54    -0.00  -0.02   0.04     0.00   0.00  -0.00
  56   1    -0.17  -0.59  -0.12    -0.01  -0.04  -0.01     0.00   0.00   0.00
  57   1     0.18   0.14  -0.10     0.01   0.01  -0.01    -0.00  -0.00   0.00
                    124                    125                    126
                        a                      a                      a 
 Frequencies --  1500.7227              1504.6554              1515.3225
 Red. masses --     1.5175                 1.6452                 8.6604
 Frc consts  --     0.0000                 0.0000                 0.0000
 IR Inten    --     4.3133                 3.2754               230.5611
 Raman Activ --     0.0000                 0.0000                 0.0000
 Depolar     --     0.0000                 0.0000                 0.0000
 Atom AN      X      Y      Z        X      Y      Z        X      Y      Z
   1   7    -0.00  -0.00   0.00    -0.00  -0.00   0.00    -0.33  -0.06   0.04
   2   6     0.00   0.00   0.00     0.01   0.00   0.00     0.46   0.05   0.02
   3   6    -0.00  -0.00  -0.00    -0.00  -0.00  -0.00    -0.10  -0.15  -0.11
   4   6     0.00   0.00   0.00    -0.00   0.00   0.00    -0.22   0.11   0.13
   5   6     0.00  -0.00  -0.00     0.00   0.00  -0.00     0.32   0.05  -0.03
   6   6    -0.00  -0.00   0.00    -0.00  -0.00  -0.00    -0.18  -0.16  -0.10
   7   6    -0.00   0.00   0.00    -0.00   0.00   0.00    -0.13   0.11   0.11
   8   6     0.00  -0.00  -0.00    -0.00   0.00   0.00    -0.09  -0.01   0.01
   9   6     0.00  -0.00   0.00    -0.00   0.00  -0.00     0.00  -0.01   0.01
  10   6    -0.00  -0.00   0.00    -0.00   0.00   0.00    -0.03   0.02   0.00
  11   6     0.00   0.01   0.00    -0.00  -0.00  -0.00     0.00   0.01   0.01
  12   6    -0.00  -0.00  -0.00    -0.00  -0.00   0.00    -0.00  -0.02  -0.01
  13   6    -0.00  -0.00   0.00     0.03   0.01   0.01     0.00   0.00   0.00
  14   6     0.03  -0.02  -0.03     0.06  -0.06   0.07    -0.00   0.00  -0.00
  15   6     0.08  -0.11  -0.16     0.10  -0.12   0.14    -0.00   0.00  -0.00
  16   8     0.00  -0.00  -0.00     0.00  -0.00   0.00     0.03  -0.01  -0.01
  17   8    -0.00   0.00   0.00     0.00  -0.00  -0.00     0.01  -0.01  -0.00
  18   1     0.00   0.00   0.00     0.00   0.00   0.00     0.23   0.25   0.03
  19   1     0.00  -0.00  -0.00     0.00  -0.00  -0.00     0.21  -0.08  -0.21
  20   1    -0.00  -0.00   0.00     0.00   0.00   0.00     0.14   0.05   0.02
  21   1     0.00  -0.00  -0.00     0.00  -0.00  -0.00     0.16  -0.03  -0.05
  22   1     0.00   0.00   0.00     0.00   0.00   0.00     0.15   0.07   0.03
  23   1     0.00   0.00   0.00     0.00  -0.00  -0.00     0.15  -0.02  -0.04
  24   1    -0.00  -0.00  -0.00     0.00   0.00   0.00    -0.00   0.00   0.01
  25   1    -0.00   0.00   0.00     0.00  -0.00  -0.00    -0.00  -0.01  -0.00
  26   1    -0.00   0.00  -0.00     0.00  -0.00   0.00    -0.00  -0.00  -0.00
  27   1     0.00  -0.00   0.00    -0.00   0.00  -0.01     0.01  -0.00   0.01
  28   1    -0.01  -0.01   0.00     0.00   0.00  -0.00    -0.01  -0.01   0.00
  29   1    -0.00  -0.00   0.00     0.00   0.00   0.00    -0.00  -0.00   0.01
  30   1    -0.00  -0.00  -0.00     0.00   0.00   0.00    -0.00  -0.00   0.00
  31   1    -0.00  -0.00  -0.00     0.00   0.00   0.00     0.00   0.00   0.00
  32   1     0.00  -0.01   0.00    -0.06   0.02   0.00    -0.01   0.00   0.00
  33   1     0.01   0.02  -0.00    -0.03  -0.02  -0.06    -0.00  -0.01  -0.01
  34   1    -0.05  -0.00  -0.00    -0.12   0.09  -0.00     0.00  -0.00   0.00
  35   1     0.01   0.01  -0.02    -0.04  -0.00  -0.15     0.00   0.00   0.00
  36   1    -0.29   0.37   0.53     0.28   0.11   0.10    -0.01  -0.00  -0.00
  37   1     0.05   0.44  -0.19    -0.49   0.37  -0.07     0.01  -0.01   0.00
  38   1    -0.09  -0.35   0.31    -0.18   0.00  -0.61     0.00  -0.00   0.01
  39   1     0.00  -0.00   0.00    -0.00   0.00  -0.00    -0.02   0.04  -0.02
  40   1     0.00  -0.00  -0.00    -0.00   0.00   0.00    -0.01   0.02   0.03
  41   8     0.00  -0.00   0.00    -0.00   0.00  -0.00    -0.02   0.02  -0.02
  42   1    -0.00   0.00  -0.00     0.00  -0.00   0.00     0.02  -0.03   0.07
  43   1    -0.00   0.00   0.00     0.00  -0.00  -0.00     0.06  -0.06  -0.01
  44   7    -0.00   0.00  -0.00     0.00  -0.01   0.01    -0.01   0.01  -0.01
  45   6    -0.01  -0.00   0.00     0.00   0.00  -0.00    -0.00  -0.00   0.00
  46   8     0.00  -0.00   0.00    -0.00   0.00  -0.00     0.00   0.00  -0.00
  47   6     0.01  -0.00  -0.00    -0.01   0.00  -0.00    -0.00  -0.00  -0.00
  48   6    -0.00  -0.00   0.00    -0.01   0.00  -0.01     0.01   0.00   0.02
  49   8     0.00   0.00  -0.00     0.00   0.00   0.00    -0.00  -0.01  -0.00
  50   1    -0.01   0.01  -0.00     0.01  -0.01   0.00     0.00  -0.00   0.00
  51   1     0.00  -0.00   0.00    -0.00  -0.01   0.00    -0.00  -0.00  -0.00
  52   1    -0.01  -0.01   0.01     0.02   0.01   0.01     0.00   0.00  -0.00
  53   7     0.00   0.01  -0.00    -0.00  -0.00   0.00     0.01   0.01  -0.00
  54   6    -0.00   0.00   0.00     0.00  -0.00  -0.00    -0.00  -0.00   0.00
  55   1    -0.00  -0.00   0.01     0.00   0.00  -0.00     0.00  -0.00   0.00
  56   1    -0.00  -0.01  -0.00    -0.00   0.00   0.00    -0.00  -0.00   0.00
  57   1     0.00   0.00  -0.00    -0.00  -0.00   0.00     0.00   0.00  -0.00
                    127                    128                    129
                        a                      a                      a 
 Frequencies --  1549.7738              1560.8439              1577.4845
 Red. masses --     2.1419                 2.7400                11.5211
 Frc consts  --     0.0000                 0.0000                 0.0000
 IR Inten    --   175.0200               203.0476                 3.9466
 Raman Activ --     0.0000                 0.0000                 0.0000
 Depolar     --     0.0000                 0.0000                 0.0000
 Atom AN      X      Y      Z        X      Y      Z        X      Y      Z
   1   7    -0.04  -0.01   0.00     0.03   0.00   0.00     0.00  -0.04  -0.03
   2   6     0.04  -0.00  -0.00    -0.02   0.02   0.01    -0.06   0.40   0.34
   3   6     0.01  -0.00  -0.00    -0.01  -0.01  -0.00    -0.10  -0.23  -0.17
   4   6    -0.03   0.00   0.01     0.01   0.01   0.00    -0.16   0.19   0.19
   5   6     0.03   0.01   0.01    -0.02  -0.03  -0.02     0.02  -0.39  -0.32
   6   6    -0.03  -0.02  -0.01     0.02   0.02   0.01     0.12   0.25   0.17
   7   6    -0.00   0.01   0.01     0.01  -0.01  -0.01     0.17  -0.21  -0.20
   8   6    -0.01  -0.00  -0.00     0.00   0.00   0.00     0.01   0.03   0.03
   9   6    -0.00  -0.00   0.00     0.00   0.00  -0.00     0.00   0.00   0.00
  10   6    -0.02   0.00   0.00     0.16  -0.01  -0.06    -0.02   0.00   0.01
  11   6     0.01   0.02   0.01    -0.02  -0.05  -0.01     0.00   0.00   0.00
  12   6    -0.01  -0.02  -0.01     0.01   0.04   0.02    -0.00  -0.00  -0.00
  13   6     0.01   0.00   0.00    -0.01   0.00  -0.00     0.00   0.00   0.00
  14   6    -0.00   0.00  -0.00     0.00  -0.00   0.00     0.00   0.00   0.00
  15   6     0.00  -0.00   0.00    -0.00   0.00  -0.00    -0.00   0.00  -0.00
  16   8     0.03  -0.01  -0.01    -0.12   0.03   0.04     0.01  -0.00  -0.00
  17   8     0.01  -0.05  -0.01     0.03  -0.25  -0.04    -0.00   0.01   0.00
  18   1     0.06   0.03   0.02    -0.04  -0.03  -0.01     0.08   0.02   0.03
  19   1     0.04  -0.01  -0.03    -0.03   0.01   0.02    -0.04   0.01  -0.01
  20   1     0.00   0.00  -0.00     0.00   0.00  -0.00     0.07  -0.00  -0.01
  21   1     0.01  -0.00  -0.01    -0.00   0.00   0.00     0.08   0.02  -0.00
  22   1     0.01   0.01   0.00    -0.01  -0.00  -0.00    -0.09  -0.01   0.01
  23   1     0.01  -0.00  -0.00    -0.01  -0.00   0.00    -0.08  -0.01  -0.00
  24   1     0.00   0.00   0.00    -0.00  -0.00  -0.00    -0.07  -0.03   0.00
  25   1    -0.00  -0.00   0.00     0.00   0.00  -0.00     0.04   0.02  -0.02
  26   1     0.00  -0.00   0.00    -0.00  -0.00   0.00     0.00  -0.00   0.00
  27   1     0.00   0.00  -0.00    -0.00  -0.00   0.00    -0.00  -0.00   0.00
  28   1     0.00   0.00  -0.00    -0.00  -0.00   0.00     0.00   0.00   0.00
  29   1    -0.00   0.01  -0.00     0.01  -0.00  -0.01    -0.00   0.00   0.00
  30   1    -0.01  -0.00  -0.00    -0.00  -0.01  -0.00     0.00   0.00   0.00
  31   1     0.00   0.00   0.00    -0.01  -0.01   0.00     0.00   0.00  -0.00
  32   1    -0.01   0.01  -0.00     0.01  -0.01   0.00     0.00   0.00  -0.00
  33   1    -0.00  -0.00  -0.01     0.00   0.00   0.01    -0.00  -0.00  -0.00
  34   1     0.00  -0.00   0.00    -0.00   0.00  -0.00    -0.00  -0.00   0.00
  35   1    -0.00  -0.00   0.00    -0.00   0.00  -0.00    -0.00   0.00  -0.00
  36   1    -0.00  -0.00  -0.00     0.00   0.00   0.00    -0.00  -0.00  -0.00
  37   1    -0.00  -0.00   0.00     0.00   0.00  -0.00     0.00  -0.00   0.00
  38   1     0.00   0.00  -0.00    -0.00  -0.00   0.00     0.00   0.00   0.00
  39   1    -0.02   0.12  -0.07    -0.04   0.57  -0.29     0.00  -0.02   0.01
  40   1    -0.03   0.09   0.10    -0.09   0.44   0.48     0.00  -0.02  -0.02
  41   8     0.15  -0.17   0.12    -0.02   0.04  -0.01     0.00  -0.00   0.00
  42   1    -0.10   0.23  -0.55     0.01  -0.04   0.10    -0.00   0.01  -0.01
  43   1    -0.50   0.49   0.08     0.07  -0.12  -0.03    -0.01   0.01   0.00
  44   7     0.00  -0.00   0.00     0.00   0.00  -0.00    -0.00  -0.00  -0.00
  45   6     0.00   0.00  -0.00    -0.00  -0.00   0.00     0.00  -0.00   0.00
  46   8    -0.00   0.00  -0.00    -0.00   0.00  -0.00    -0.00   0.00  -0.00
  47   6     0.00   0.00   0.00     0.00  -0.00  -0.00     0.00  -0.00   0.00
  48   6    -0.00  -0.00  -0.00    -0.00  -0.00   0.00    -0.00  -0.00  -0.00
  49   8     0.00   0.00   0.00     0.00   0.00  -0.00     0.00   0.00   0.00
  50   1    -0.00  -0.00  -0.00    -0.00   0.00   0.00    -0.00   0.00   0.00
  51   1    -0.00  -0.00   0.00     0.00   0.00   0.00     0.00   0.00  -0.00
  52   1    -0.00  -0.00  -0.00    -0.00  -0.00   0.00     0.00  -0.00  -0.00
  53   7    -0.00  -0.00   0.00     0.00   0.00  -0.00     0.00   0.00  -0.00
  54   6     0.00   0.00  -0.00    -0.00  -0.00   0.00     0.00  -0.00  -0.00
  55   1     0.00   0.00  -0.00    -0.00  -0.00   0.00    -0.00  -0.00   0.00
  56   1     0.00   0.00  -0.00    -0.00  -0.00   0.00    -0.00  -0.00  -0.00
  57   1    -0.00  -0.00   0.00     0.00   0.00  -0.00     0.00   0.00   0.00
                    130                    131                    132
                        a                      a                      a 
 Frequencies --  1614.9290              1636.1897              1677.0240
 Red. masses --    11.5620                12.1146                11.8663
 Frc consts  --     0.0000                 0.0000                 0.0000
 IR Inten    --    14.2571               577.0260               149.2717
 Raman Activ --     0.0000                 0.0000                 0.0000
 Depolar     --     0.0000                 0.0000                 0.0000
 Atom AN      X      Y      Z        X      Y      Z        X      Y      Z
   1   7    -0.06  -0.01   0.01     0.05   0.00   0.00     0.00  -0.01   0.01
   2   6     0.29   0.03  -0.01    -0.08  -0.01  -0.00    -0.01  -0.00   0.00
   3   6    -0.42  -0.14  -0.05     0.07   0.03   0.01     0.01   0.00   0.00
   4   6     0.43  -0.04  -0.11    -0.06   0.00   0.01    -0.00   0.00   0.00
   5   6    -0.27  -0.05   0.01     0.04   0.01   0.00    -0.00  -0.00  -0.00
   6   6     0.40   0.16   0.06    -0.07  -0.03  -0.01    -0.00   0.00   0.00
   7   6    -0.41   0.04   0.09     0.08  -0.01  -0.02     0.01  -0.00  -0.00
   8   6     0.04   0.00   0.00    -0.01  -0.00  -0.00     0.00   0.00  -0.00
   9   6     0.00   0.01  -0.00    -0.00  -0.00   0.00    -0.00   0.00  -0.00
  10   6    -0.11   0.01   0.03    -0.58   0.02   0.18     0.42  -0.08  -0.18
  11   6     0.02   0.07   0.03     0.11   0.37   0.14    -0.00   0.47   0.23
  12   6    -0.01  -0.07  -0.03    -0.06  -0.36  -0.16    -0.07  -0.51  -0.23
  13   6     0.01   0.01   0.00     0.04   0.03   0.02     0.05   0.07   0.03
  14   6    -0.00   0.00  -0.00    -0.00   0.02  -0.00     0.00   0.01  -0.00
  15   6     0.00  -0.00   0.00     0.00  -0.00   0.00    -0.00  -0.00   0.00
  16   8     0.08  -0.02  -0.03     0.41  -0.08  -0.15    -0.32   0.07   0.12
  17   8     0.00  -0.01  -0.00     0.00  -0.05  -0.01    -0.00   0.02   0.01
  18   1     0.00   0.03  -0.01    -0.05  -0.02  -0.02     0.02   0.01   0.01
  19   1     0.00   0.00  -0.03    -0.04   0.02   0.02     0.02  -0.01  -0.01
  20   1     0.06   0.06   0.05    -0.02  -0.01  -0.01    -0.00  -0.00  -0.00
  21   1    -0.08   0.04   0.05     0.01  -0.01  -0.01     0.00  -0.00  -0.00
  22   1    -0.07  -0.06  -0.03     0.01   0.01   0.01    -0.00   0.00   0.00
  23   1     0.07  -0.04  -0.04    -0.01   0.01   0.01    -0.00   0.00   0.00
  24   1     0.00  -0.00  -0.00     0.00   0.00   0.00    -0.00  -0.00   0.00
  25   1     0.01   0.01  -0.00    -0.00  -0.00   0.00     0.00   0.00  -0.00
  26   1    -0.00   0.00   0.00     0.00   0.00  -0.00    -0.00   0.00  -0.00
  27   1    -0.00  -0.00   0.00     0.00  -0.00  -0.00     0.00  -0.00   0.00
  28   1    -0.00  -0.00   0.00     0.00   0.00  -0.00    -0.00  -0.00   0.00
  29   1     0.00   0.01   0.01     0.02   0.04   0.01    -0.10  -0.07   0.01
  30   1    -0.01  -0.00   0.00    -0.04   0.00   0.01    -0.12  -0.07   0.00
  31   1     0.01   0.01  -0.00     0.06   0.04  -0.01     0.10   0.05  -0.00
  32   1    -0.00   0.01  -0.00     0.00   0.04  -0.01     0.02   0.04  -0.01
  33   1    -0.00  -0.01  -0.01    -0.02  -0.03  -0.02    -0.03  -0.04  -0.01
  34   1     0.00  -0.00   0.00     0.00  -0.01   0.00    -0.00  -0.01   0.00
  35   1    -0.00   0.00   0.00    -0.00  -0.00   0.00    -0.00  -0.00   0.00
  36   1    -0.00  -0.00  -0.00    -0.00  -0.00  -0.00    -0.00  -0.00  -0.00
  37   1     0.00  -0.00   0.00     0.00  -0.00   0.00    -0.00  -0.00   0.00
  38   1     0.00   0.00   0.00     0.00   0.00  -0.00     0.00   0.00  -0.00
  39   1    -0.01   0.02  -0.01    -0.01   0.11  -0.06     0.00  -0.04   0.02
  40   1    -0.00   0.01   0.01    -0.00   0.09   0.11     0.00  -0.03  -0.04
  41   8     0.00  -0.00  -0.00    -0.01   0.02  -0.01    -0.00  -0.00   0.00
  42   1    -0.00   0.00  -0.01     0.00  -0.02   0.04     0.00   0.00   0.00
  43   1    -0.01   0.00   0.00     0.04  -0.07   0.00    -0.00   0.01  -0.00
  44   7    -0.00  -0.00  -0.00     0.00  -0.00   0.00     0.00  -0.01   0.00
  45   6    -0.00  -0.00   0.00     0.00   0.01  -0.00     0.00  -0.00  -0.00
  46   8     0.00  -0.00   0.00     0.00  -0.00   0.00    -0.00   0.00  -0.00
  47   6    -0.00  -0.00  -0.00    -0.00   0.00   0.00    -0.00  -0.00  -0.00
  48   6     0.00   0.01   0.01     0.00   0.01   0.00     0.01   0.06   0.02
  49   8    -0.00  -0.01  -0.00    -0.00  -0.01  -0.00    -0.01  -0.04  -0.01
  50   1     0.00  -0.00  -0.00     0.00  -0.00  -0.00     0.00  -0.00  -0.01
  51   1    -0.00  -0.00  -0.00    -0.00  -0.00  -0.00    -0.00  -0.00  -0.00
  52   1     0.00   0.00  -0.00     0.00   0.00  -0.00     0.00   0.00   0.00
  53   7     0.00   0.00  -0.00    -0.00  -0.00   0.00     0.00   0.00  -0.00
  54   6    -0.00  -0.00   0.00     0.00   0.00  -0.00     0.00  -0.00   0.00
  55   1     0.00  -0.00   0.00     0.00  -0.00   0.00    -0.00  -0.00  -0.00
  56   1    -0.00  -0.00  -0.00     0.00  -0.00  -0.00    -0.00  -0.00   0.00
  57   1     0.00   0.00  -0.00    -0.00  -0.00   0.00     0.00   0.00  -0.00
                    133                    134                    135
                        a                      a                      a 
 Frequencies --  1709.9727              1759.3552              2809.7257
 Red. masses --    13.1219                13.1976                 1.7089
 Frc consts  --     0.0000                 0.0000                 0.0000
 IR Inten    --   316.6071               565.2721                90.7441
 Raman Activ --     0.0000                 0.0000                 0.0000
 Depolar     --     0.0000                 0.0000                 0.0000
 Atom AN      X      Y      Z        X      Y      Z        X      Y      Z
   1   7     0.01  -0.00   0.00     0.00  -0.00   0.00     0.00   0.00   0.00
   2   6    -0.01  -0.00   0.00    -0.00   0.00   0.00    -0.00  -0.00  -0.00
   3   6     0.01   0.00   0.00     0.00  -0.00  -0.00    -0.00   0.00   0.00
   4   6    -0.00   0.00   0.00    -0.00   0.00   0.00     0.00   0.00   0.00
   5   6    -0.00   0.00   0.00     0.00  -0.01  -0.00     0.00   0.00   0.00
   6   6    -0.00  -0.00  -0.00     0.00   0.00   0.00    -0.00  -0.00  -0.00
   7   6     0.00  -0.00  -0.00     0.00  -0.00  -0.00     0.00   0.00   0.00
   8   6    -0.00  -0.00  -0.01    -0.00  -0.00  -0.00    -0.00   0.00   0.00
   9   6    -0.01   0.01  -0.00     0.02  -0.02  -0.00    -0.00   0.00   0.00
  10   6    -0.02   0.01   0.01     0.00   0.00  -0.00     0.02  -0.21  -0.14
  11   6    -0.00  -0.04  -0.02    -0.00  -0.01  -0.00    -0.00  -0.01  -0.01
  12   6     0.01   0.04   0.02     0.00   0.01   0.00    -0.00   0.00   0.00
  13   6    -0.01  -0.01  -0.00    -0.00  -0.00  -0.00    -0.00  -0.00  -0.00
  14   6     0.00   0.00  -0.00    -0.00   0.00   0.00    -0.00   0.00   0.00
  15   6     0.00   0.00  -0.00     0.00  -0.00  -0.00     0.00  -0.00   0.00
  16   8     0.02  -0.00  -0.01    -0.00  -0.00   0.00     0.02  -0.01  -0.01
  17   8     0.00  -0.00  -0.00    -0.00  -0.00  -0.00    -0.00  -0.00   0.00
  18   1    -0.00  -0.00  -0.00     0.00   0.00  -0.00     0.00  -0.00   0.00
  19   1    -0.00   0.00   0.00    -0.00   0.00  -0.00    -0.00  -0.00  -0.00
  20   1    -0.00  -0.00  -0.00     0.00   0.00   0.00     0.00  -0.00  -0.00
  21   1    -0.00   0.00   0.00     0.00   0.00   0.00    -0.00  -0.00  -0.00
  22   1    -0.00  -0.00   0.00    -0.00  -0.00   0.00     0.00   0.00   0.00
  23   1    -0.00  -0.00   0.00    -0.00   0.00  -0.00    -0.00  -0.00  -0.00
  24   1     0.00  -0.01   0.01    -0.02  -0.01   0.00     0.00  -0.00  -0.00
  25   1     0.01   0.00  -0.01    -0.01   0.00   0.00    -0.00  -0.00  -0.00
  26   1    -0.01   0.01  -0.01     0.04   0.03  -0.01     0.00  -0.00  -0.00
  27   1     0.02  -0.03   0.03    -0.00  -0.00  -0.00    -0.00   0.00  -0.00
  28   1    -0.01  -0.03  -0.00    -0.01  -0.03   0.00    -0.00   0.00  -0.00
  29   1     0.00   0.00   0.00    -0.00   0.00   0.00    -0.14   0.79   0.54
  30   1     0.01   0.00  -0.00     0.00   0.00  -0.00     0.02  -0.01  -0.01
  31   1    -0.01  -0.01  -0.00    -0.00  -0.00  -0.00     0.00   0.00   0.00
  32   1    -0.00  -0.00  -0.00    -0.00   0.00  -0.00    -0.00  -0.00   0.00
  33   1     0.01   0.02  -0.00     0.00   0.00  -0.00     0.00  -0.00  -0.00
  34   1     0.00  -0.00  -0.00     0.00  -0.00   0.00    -0.00  -0.00  -0.00
  35   1     0.00  -0.00   0.00     0.00  -0.00   0.00     0.00  -0.00  -0.00
  36   1    -0.00   0.00   0.00    -0.00  -0.00   0.00    -0.00   0.00  -0.00
  37   1    -0.00   0.00  -0.00     0.00  -0.00  -0.00     0.00   0.00   0.00
  38   1    -0.00  -0.01   0.00    -0.00  -0.00   0.00     0.00  -0.00  -0.00
  39   1    -0.00   0.00  -0.00    -0.00   0.00  -0.00     0.00  -0.00   0.00
  40   1    -0.00   0.00   0.00     0.00   0.00   0.00     0.00  -0.00  -0.01
  41   8     0.00  -0.00   0.00     0.00  -0.00   0.00    -0.00   0.00   0.00
  42   1    -0.00   0.00  -0.00     0.00   0.00  -0.00     0.00  -0.00   0.00
  43   1    -0.00   0.00   0.00    -0.00   0.00   0.00    -0.00   0.00  -0.01
  44   7     0.04  -0.13   0.05     0.01  -0.02   0.01    -0.00   0.00  -0.00
  45   6     0.08  -0.07   0.00    -0.46   0.64  -0.14     0.00  -0.00   0.00
  46   8    -0.06   0.05  -0.01     0.38  -0.39   0.07    -0.00   0.00  -0.00
  47   6    -0.03  -0.04  -0.04    -0.00  -0.01  -0.01    -0.00  -0.00   0.00
  48   6     0.13   0.76   0.19     0.02   0.10   0.02    -0.00  -0.00  -0.00
  49   8    -0.12  -0.51  -0.17    -0.02  -0.06  -0.02    -0.00   0.00   0.00
  50   1    -0.00  -0.01  -0.05    -0.00  -0.00  -0.01     0.00   0.00  -0.00
  51   1    -0.02  -0.02  -0.01    -0.00  -0.00  -0.00     0.00  -0.00  -0.00
  52   1     0.04   0.04   0.05     0.00   0.00   0.01     0.00  -0.00  -0.00
  53   7    -0.01   0.02  -0.01    -0.03  -0.17   0.07     0.00   0.00   0.00
  54   6     0.00  -0.01   0.00    -0.00   0.02  -0.01    -0.00   0.00   0.00
  55   1    -0.01   0.00   0.00     0.04  -0.00  -0.02    -0.00  -0.00  -0.00
  56   1    -0.01   0.00   0.00     0.05   0.01   0.00     0.00   0.00  -0.00
  57   1     0.01   0.00  -0.00     0.01   0.01  -0.01     0.00  -0.00   0.00
                    136                    137                    138
                        a                      a                      a 
 Frequencies --  2918.4468              2959.9173              2969.8926
 Red. masses --     1.7448                 1.8317                 1.8538
 Frc consts  --     0.0000                 0.0000                 0.0000
 IR Inten    --    13.8888                 3.6767                40.8280
 Raman Activ --     0.0000                 0.0000                 0.0000
 Depolar     --     0.0000                 0.0000                 0.0000
 Atom AN      X      Y      Z        X      Y      Z        X      Y      Z
   1   7     0.00   0.00   0.00    -0.00  -0.00  -0.00    -0.00  -0.00  -0.00
   2   6    -0.00   0.00   0.00     0.00   0.00   0.00     0.00   0.00   0.00
   3   6    -0.00  -0.00  -0.00     0.00  -0.00  -0.00     0.00  -0.00  -0.00
   4   6     0.00   0.00   0.00    -0.00  -0.00  -0.00    -0.00  -0.00  -0.00
   5   6    -0.00   0.00   0.00    -0.00  -0.00  -0.00    -0.00  -0.00  -0.00
   6   6    -0.00   0.00   0.00     0.00  -0.00  -0.00     0.00  -0.00  -0.00
   7   6     0.00   0.00   0.00    -0.00  -0.00  -0.00    -0.00  -0.00  -0.00
   8   6    -0.00   0.01   0.01     0.00  -0.00  -0.00    -0.00  -0.00  -0.00
   9   6     0.09  -0.21  -0.13    -0.00   0.00   0.00     0.00  -0.00  -0.00
  10   6    -0.00  -0.00  -0.00    -0.00  -0.00  -0.00    -0.00  -0.00   0.00
  11   6     0.00   0.00   0.00     0.00  -0.00  -0.00     0.00  -0.00  -0.00
  12   6     0.00  -0.00  -0.00     0.00   0.00   0.00     0.01   0.00   0.00
  13   6    -0.00   0.00   0.00    -0.01   0.08   0.20     0.03   0.04   0.13
  14   6     0.00  -0.00  -0.00     0.07  -0.08  -0.12    -0.14   0.12   0.15
  15   6    -0.00   0.00   0.00    -0.01   0.01   0.00     0.01  -0.01  -0.02
  16   8     0.00   0.00  -0.00    -0.00   0.00  -0.00     0.00  -0.00  -0.00
  17   8     0.00   0.00   0.00     0.00  -0.00   0.00     0.00  -0.00   0.00
  18   1    -0.00  -0.00  -0.00     0.00  -0.00  -0.00     0.00  -0.00  -0.00
  19   1     0.00  -0.00  -0.00     0.00   0.00   0.00     0.00   0.00   0.00
  20   1    -0.00   0.00   0.00    -0.00   0.00   0.00    -0.00   0.00   0.00
  21   1    -0.00  -0.01  -0.00     0.00   0.00   0.00     0.00   0.00   0.00
  22   1     0.00  -0.00  -0.00    -0.00   0.00   0.00    -0.00   0.00   0.00
  23   1    -0.00  -0.00  -0.00     0.00   0.00   0.00     0.00   0.00   0.00
  24   1     0.03  -0.04  -0.03    -0.00   0.00   0.00    -0.00   0.00   0.00
  25   1    -0.01  -0.00  -0.03     0.00   0.00   0.00     0.00   0.00   0.00
  26   1    -0.31   0.77   0.49     0.00  -0.00  -0.00    -0.00   0.00   0.00
  27   1     0.00  -0.01  -0.01     0.00   0.00   0.00     0.00   0.00   0.00
  28   1     0.01  -0.00  -0.00     0.00  -0.00   0.00    -0.00   0.00   0.00
  29   1    -0.00   0.00   0.00     0.00   0.00   0.00     0.00  -0.00  -0.00
  30   1     0.00  -0.00  -0.00    -0.00  -0.00   0.00    -0.01   0.00   0.00
  31   1    -0.00   0.00   0.00    -0.02   0.01   0.01    -0.02   0.01   0.01
  32   1     0.00   0.00   0.00    -0.08  -0.25  -0.74    -0.05  -0.18  -0.50
  33   1     0.00  -0.00  -0.00     0.11  -0.05  -0.01    -0.07   0.04   0.04
  34   1     0.00  -0.00  -0.00     0.06   0.12   0.37    -0.06  -0.09  -0.30
  35   1    -0.00   0.00   0.00    -0.31   0.18   0.10     0.59  -0.35  -0.21
  36   1    -0.00   0.00  -0.00    -0.00  -0.00   0.01     0.00  -0.00  -0.00
  37   1     0.00  -0.00   0.00    -0.01  -0.01  -0.02     0.01   0.02   0.07
  38   1     0.00  -0.00  -0.00     0.03  -0.02  -0.01    -0.05   0.03   0.01
  39   1    -0.00  -0.00   0.00     0.00  -0.00  -0.00    -0.00  -0.00  -0.00
  40   1    -0.00   0.00  -0.00    -0.00   0.00  -0.00    -0.00   0.00  -0.00
  41   8     0.00   0.00   0.00    -0.00  -0.00   0.00    -0.00  -0.00   0.00
  42   1    -0.00  -0.00  -0.00     0.00   0.00   0.00     0.00   0.00   0.00
  43   1    -0.00  -0.00  -0.00     0.00   0.00  -0.00    -0.00   0.00  -0.00
  44   7    -0.00  -0.00  -0.01     0.00  -0.00   0.00    -0.00   0.00  -0.00
  45   6     0.01  -0.01  -0.00    -0.00   0.00  -0.00     0.00  -0.00  -0.00
  46   8    -0.00   0.00  -0.00     0.00  -0.00   0.00    -0.00   0.00  -0.00
  47   6    -0.00   0.00   0.00    -0.00  -0.00  -0.00    -0.00   0.00   0.00
  48   6    -0.00  -0.00  -0.00    -0.00   0.00   0.00     0.00  -0.00   0.00
  49   8     0.00   0.00   0.00    -0.00  -0.00  -0.00    -0.00   0.00  -0.00
  50   1    -0.00  -0.00   0.00     0.00   0.00  -0.00     0.00   0.00  -0.00
  51   1     0.00  -0.00  -0.00    -0.00   0.00   0.00     0.00  -0.00  -0.00
  52   1     0.00  -0.00   0.00     0.00   0.00   0.00     0.00  -0.00   0.00
  53   7    -0.00   0.00   0.00    -0.00   0.00  -0.00     0.00  -0.00  -0.00
  54   6    -0.00   0.00   0.00     0.00  -0.00  -0.00    -0.00  -0.00  -0.02
  55   1    -0.00  -0.00   0.00     0.00   0.00   0.00     0.01   0.02   0.01
  56   1    -0.00   0.00  -0.01     0.00  -0.00   0.00     0.00  -0.01   0.04
  57   1     0.00  -0.00   0.00    -0.00   0.00  -0.00     0.00  -0.00  -0.00
                    139                    140                    141
                        a                      a                      a 
 Frequencies --  2970.6766              2983.0933              2989.6919
 Red. masses --     1.9066                 1.5334                 1.9730
 Frc consts  --     0.0000                 0.0000                 0.0000
 IR Inten    --    33.6023                31.8423                15.3848
 Raman Activ --     0.0000                 0.0000                 0.0000
 Depolar     --     0.0000                 0.0000                 0.0000
 Atom AN      X      Y      Z        X      Y      Z        X      Y      Z
   1   7    -0.00   0.00  -0.00     0.00  -0.00   0.00    -0.00   0.00  -0.00
   2   6     0.00   0.00  -0.00    -0.00   0.00  -0.00     0.00   0.00   0.00
   3   6    -0.00  -0.00  -0.00    -0.00   0.00   0.00    -0.00  -0.00  -0.00
   4   6    -0.00  -0.00  -0.00     0.00   0.00   0.00     0.00   0.00   0.00
   5   6     0.00  -0.00  -0.00     0.00   0.00   0.00    -0.00  -0.01  -0.01
   6   6     0.00  -0.00  -0.00    -0.00   0.00   0.00    -0.00   0.00   0.00
   7   6    -0.00  -0.00  -0.00     0.00   0.00   0.00     0.00  -0.00   0.00
   8   6    -0.00  -0.00  -0.00    -0.00   0.00   0.00    -0.02  -0.14  -0.26
   9   6    -0.00   0.00   0.00     0.00  -0.00  -0.00     0.00  -0.02  -0.01
  10   6     0.00   0.00   0.00    -0.00  -0.00  -0.00     0.00  -0.00  -0.00
  11   6     0.00  -0.00  -0.00    -0.00   0.00   0.00     0.00   0.00  -0.00
  12   6     0.00   0.00   0.00     0.00  -0.00  -0.00    -0.00   0.00   0.00
  13   6     0.00   0.00   0.01     0.02  -0.03  -0.05     0.00  -0.00  -0.00
  14   6    -0.01   0.01   0.01    -0.13  -0.01  -0.16    -0.00  -0.00  -0.00
  15   6     0.00  -0.00  -0.00     0.01  -0.01   0.03     0.00  -0.00   0.00
  16   8    -0.00   0.00  -0.00     0.00  -0.00  -0.00    -0.00   0.00   0.00
  17   8    -0.00  -0.00  -0.00     0.00   0.00  -0.00    -0.00  -0.00  -0.00
  18   1     0.00   0.00   0.00    -0.00   0.00   0.00    -0.00   0.00   0.00
  19   1     0.00  -0.00   0.00    -0.00   0.00   0.00    -0.00  -0.00  -0.00
  20   1    -0.00   0.00   0.00     0.00  -0.00  -0.00    -0.00   0.00   0.00
  21   1     0.00   0.00   0.00    -0.00  -0.00  -0.00    -0.01  -0.01  -0.01
  22   1    -0.00   0.00   0.00     0.00  -0.00  -0.00     0.01  -0.01  -0.01
  23   1     0.00   0.00   0.00    -0.00  -0.00  -0.00     0.00   0.00   0.00
  24   1    -0.00   0.00   0.00     0.00  -0.00  -0.00    -0.26   0.43   0.24
  25   1     0.00   0.00   0.01    -0.00  -0.00  -0.00     0.35   0.09   0.69
  26   1     0.00  -0.01  -0.00    -0.00   0.00   0.00    -0.02   0.04   0.03
  27   1    -0.00   0.00   0.00    -0.00   0.00  -0.00     0.00  -0.00   0.00
  28   1    -0.00   0.00  -0.00    -0.00   0.00  -0.00     0.00  -0.00  -0.00
  29   1     0.00  -0.00  -0.00    -0.00   0.00   0.00    -0.00   0.00   0.00
  30   1    -0.00   0.00   0.00     0.00  -0.00  -0.00    -0.00  -0.00   0.00
  31   1    -0.00   0.00   0.00     0.00   0.00  -0.00     0.00  -0.00  -0.00
  32   1    -0.00  -0.01  -0.03     0.02   0.05   0.15     0.00   0.00   0.01
  33   1    -0.00   0.00   0.00    -0.10   0.05   0.03    -0.00   0.00   0.00
  34   1    -0.00  -0.00  -0.01     0.08   0.26   0.76     0.00   0.00   0.01
  35   1     0.03  -0.02  -0.01     0.39  -0.25  -0.18    -0.00  -0.00  -0.00
  36   1     0.00  -0.00   0.00    -0.01   0.05  -0.04    -0.00   0.00  -0.00
  37   1     0.00   0.00   0.00    -0.01  -0.03  -0.08    -0.00  -0.00  -0.00
  38   1    -0.00   0.00   0.00    -0.03   0.01   0.01    -0.00   0.00   0.00
  39   1     0.00   0.00  -0.00    -0.00   0.00   0.00     0.00   0.00   0.00
  40   1     0.00   0.00   0.00    -0.00  -0.00   0.00     0.00  -0.00   0.00
  41   8    -0.00  -0.00   0.00     0.00   0.00  -0.00     0.00   0.00  -0.00
  42   1     0.00   0.00   0.00    -0.00  -0.00  -0.00    -0.00  -0.00  -0.00
  43   1     0.00   0.00  -0.00    -0.00  -0.00   0.00     0.00  -0.00   0.00
  44   7    -0.00   0.00  -0.00     0.00   0.00   0.00     0.00   0.00  -0.00
  45   6     0.00   0.00   0.00     0.00  -0.00  -0.00     0.00  -0.00  -0.00
  46   8     0.00  -0.00  -0.00    -0.00   0.00   0.00    -0.00   0.00   0.00
  47   6     0.00  -0.00  -0.00     0.00  -0.00  -0.00    -0.00   0.00   0.00
  48   6    -0.00  -0.00   0.00    -0.00  -0.00  -0.00     0.00  -0.00  -0.00
  49   8     0.00   0.00  -0.00     0.00   0.00   0.00     0.00   0.00   0.00
  50   1    -0.00  -0.00   0.00     0.00   0.00  -0.00    -0.00  -0.00   0.00
  51   1    -0.00   0.00   0.00    -0.00   0.00   0.01     0.00  -0.00  -0.00
  52   1     0.00  -0.00  -0.00    -0.00   0.00  -0.00     0.00  -0.00   0.00
  53   7    -0.00  -0.00   0.00    -0.00  -0.00   0.00    -0.00   0.00   0.00
  54   6     0.04   0.05   0.28    -0.00  -0.00  -0.00     0.00   0.00  -0.00
  55   1    -0.11  -0.37  -0.19     0.00   0.00   0.00    -0.00  -0.00  -0.00
  56   1    -0.00   0.19  -0.84    -0.00  -0.00   0.00     0.00  -0.00   0.01
  57   1     0.01   0.01   0.04     0.00  -0.00   0.00     0.00  -0.00  -0.00
                    142                    143                    144
                        a                      a                      a 
 Frequencies --  2990.9319              3000.3112              3001.3393
 Red. masses --     1.4842                 1.5115                 1.6902
 Frc consts  --     0.0000                 0.0000                 0.0000
 IR Inten    --    43.0388                22.9759                21.2374
 Raman Activ --     0.0000                 0.0000                 0.0000
 Depolar     --     0.0000                 0.0000                 0.0000
 Atom AN      X      Y      Z        X      Y      Z        X      Y      Z
   1   7    -0.00   0.00  -0.00     0.00   0.00  -0.00    -0.00  -0.00  -0.00
   2   6     0.00   0.00   0.00     0.00   0.00  -0.00     0.00   0.00   0.00
   3   6    -0.00   0.00   0.00    -0.00  -0.00   0.00     0.00  -0.00  -0.00
   4   6     0.00   0.00   0.00     0.00   0.00   0.00    -0.00  -0.00  -0.00
   5   6     0.00  -0.00  -0.00    -0.01   0.00   0.00    -0.00   0.00   0.00
   6   6    -0.00   0.00   0.00     0.00  -0.00  -0.00     0.00  -0.00  -0.00
   7   6    -0.00  -0.00  -0.00     0.00   0.00   0.00    -0.00  -0.00  -0.00
   8   6    -0.00  -0.00  -0.00    -0.16   0.13  -0.04    -0.03   0.02  -0.01
   9   6    -0.00   0.00   0.00    -0.01   0.01   0.00    -0.00   0.00  -0.00
  10   6     0.00  -0.00   0.00     0.00   0.00   0.00     0.00  -0.00  -0.00
  11   6    -0.00   0.00   0.00     0.00  -0.00  -0.00    -0.01   0.00   0.00
  12   6    -0.00   0.00   0.00     0.00  -0.00  -0.00    -0.01   0.01   0.01
  13   6    -0.00   0.00   0.00    -0.03   0.02   0.01     0.21  -0.11  -0.05
  14   6     0.00  -0.00   0.00    -0.01   0.00   0.00     0.04  -0.02  -0.01
  15   6    -0.00   0.00  -0.00     0.00  -0.00   0.00    -0.02   0.02  -0.01
  16   8    -0.00   0.00   0.00    -0.00  -0.00   0.00    -0.00   0.00   0.00
  17   8    -0.00  -0.00  -0.00    -0.00  -0.00  -0.00    -0.00  -0.00  -0.00
  18   1    -0.00   0.00   0.00    -0.00   0.00   0.00    -0.00   0.00   0.00
  19   1    -0.00  -0.00  -0.00    -0.00  -0.00  -0.00     0.00   0.00   0.00
  20   1     0.00  -0.00  -0.00    -0.00   0.00   0.00    -0.00   0.00   0.00
  21   1    -0.00  -0.00  -0.00    -0.00  -0.00  -0.00     0.00   0.00   0.00
  22   1     0.00  -0.00  -0.00    -0.01   0.01   0.01    -0.00   0.00   0.00
  23   1     0.00   0.00   0.00    -0.00  -0.00  -0.00     0.00   0.00   0.00
  24   1    -0.00   0.01   0.00     0.33  -0.59  -0.38     0.06  -0.10  -0.06
  25   1     0.00   0.00   0.01     0.23   0.09   0.51     0.04   0.02   0.08
  26   1     0.00  -0.00  -0.00     0.01  -0.02  -0.01    -0.00   0.00   0.00
  27   1     0.00  -0.00  -0.00    -0.00   0.00  -0.00    -0.00   0.00  -0.00
  28   1    -0.01   0.01  -0.00    -0.00   0.00   0.00     0.00  -0.00   0.00
  29   1    -0.00   0.00   0.00     0.00  -0.00  -0.00    -0.00   0.00   0.00
  30   1     0.00  -0.00  -0.00    -0.00   0.00   0.00     0.02  -0.00  -0.01
  31   1     0.00  -0.00  -0.00    -0.01   0.00   0.01     0.08  -0.03  -0.04
  32   1    -0.00   0.00   0.00    -0.00   0.01   0.01     0.02  -0.04  -0.09
  33   1     0.01  -0.00  -0.00     0.13  -0.07  -0.04    -0.78   0.43   0.27
  34   1    -0.00  -0.00  -0.00    -0.00   0.00   0.00     0.00  -0.01  -0.01
  35   1    -0.00   0.00   0.00     0.02  -0.01  -0.01    -0.13   0.08   0.05
  36   1     0.00  -0.00   0.00    -0.00   0.00  -0.00     0.00  -0.03   0.03
  37   1    -0.00  -0.00  -0.00     0.00  -0.00  -0.00     0.00   0.01   0.01
  38   1    -0.00  -0.00   0.00    -0.01   0.00   0.00     0.05  -0.03  -0.02
  39   1     0.00   0.00  -0.00     0.00   0.00  -0.00     0.00  -0.00   0.00
  40   1     0.00  -0.00   0.00     0.00  -0.00   0.00     0.00   0.00  -0.00
  41   8    -0.00   0.00  -0.00    -0.00  -0.00  -0.00    -0.00   0.00  -0.00
  42   1     0.00   0.00  -0.00     0.00   0.00  -0.00     0.00  -0.00   0.00
  43   1     0.00  -0.00   0.00     0.00   0.00   0.00     0.00  -0.00   0.00
  44   7    -0.00   0.00  -0.00     0.00  -0.00   0.00     0.00  -0.00   0.00
  45   6    -0.00   0.01  -0.00    -0.00   0.00  -0.00    -0.00   0.00  -0.00
  46   8     0.00  -0.00   0.00     0.00  -0.00   0.00     0.00  -0.00   0.00
  47   6     0.00   0.00  -0.00     0.00  -0.00  -0.00     0.00  -0.00  -0.00
  48   6     0.00  -0.00   0.00    -0.00   0.00   0.00    -0.00   0.00  -0.00
  49   8    -0.00   0.00  -0.00    -0.00  -0.00  -0.00     0.00   0.00  -0.00
  50   1    -0.00  -0.00   0.00    -0.00  -0.00   0.00     0.00   0.00  -0.00
  51   1    -0.00   0.00   0.00    -0.00   0.00   0.00    -0.01   0.00   0.01
  52   1     0.00  -0.00   0.00    -0.00   0.00  -0.00     0.00  -0.00   0.00
  53   7    -0.01  -0.01   0.01     0.00  -0.00   0.00    -0.00   0.00  -0.00
  54   6    -0.06  -0.20  -0.01     0.00  -0.00   0.00     0.00  -0.00   0.00
  55   1     0.24   0.70   0.45     0.00   0.00   0.00     0.00   0.00   0.00
  56   1    -0.01   0.06  -0.45     0.00  -0.00   0.00     0.00   0.00  -0.00
  57   1     0.01  -0.04   0.00    -0.00   0.00  -0.00    -0.00   0.00  -0.00
                    145                    146                    147
                        a                      a                      a 
 Frequencies --  3021.2196              3032.6402              3032.9997
 Red. masses --     1.7960                 1.7292                 1.8718
 Frc consts  --     0.0000                 0.0000                 0.0000
 IR Inten    --    10.1493                 7.8465                48.5810
 Raman Activ --     0.0000                 0.0000                 0.0000
 Depolar     --     0.0000                 0.0000                 0.0000
 Atom AN      X      Y      Z        X      Y      Z        X      Y      Z
   1   7     0.00  -0.00   0.00    -0.00   0.00   0.00    -0.00   0.00  -0.00
   2   6    -0.00   0.00  -0.00    -0.00  -0.00  -0.00     0.00   0.00   0.00
   3   6     0.00  -0.00  -0.00     0.00  -0.00  -0.00     0.00  -0.00  -0.00
   4   6    -0.00  -0.00  -0.00    -0.00  -0.00  -0.00    -0.00  -0.00  -0.00
   5   6    -0.00   0.00   0.00    -0.00  -0.00   0.00    -0.00   0.00   0.00
   6   6     0.00  -0.00  -0.00    -0.00   0.00   0.00     0.00  -0.00  -0.00
   7   6    -0.00  -0.00  -0.00     0.00   0.00   0.00    -0.00  -0.00  -0.00
   8   6    -0.00   0.00   0.00     0.00  -0.00   0.00    -0.00   0.00   0.00
   9   6    -0.00   0.00   0.00     0.00  -0.00  -0.00    -0.00   0.00   0.00
  10   6     0.00   0.00   0.00    -0.00  -0.00  -0.00     0.00  -0.00   0.00
  11   6    -0.00   0.00   0.00     0.00   0.00  -0.00     0.00  -0.00  -0.00
  12   6    -0.00   0.00   0.00     0.00  -0.00  -0.00    -0.00   0.00   0.00
  13   6     0.00  -0.00  -0.00     0.00   0.00   0.00     0.00   0.00   0.01
  14   6    -0.00  -0.00  -0.00    -0.00   0.00   0.00     0.00   0.01   0.04
  15   6    -0.00   0.00   0.00     0.00  -0.00   0.01     0.03   0.03   0.27
  16   8    -0.00  -0.00   0.00     0.00   0.00  -0.00    -0.00   0.00  -0.00
  17   8    -0.00   0.00  -0.00     0.00   0.00   0.00    -0.00  -0.00   0.00
  18   1    -0.00   0.00   0.00     0.00  -0.00  -0.00     0.00  -0.00  -0.00
  19   1    -0.00  -0.00  -0.00     0.00   0.00   0.00     0.00   0.00   0.00
  20   1    -0.00   0.00   0.00    -0.00   0.00   0.00    -0.00   0.00   0.00
  21   1     0.00   0.00   0.00     0.00   0.00   0.00     0.00   0.00   0.00
  22   1    -0.00   0.00   0.00     0.00  -0.00  -0.00    -0.00   0.00   0.00
  23   1     0.00   0.00   0.00    -0.00  -0.00  -0.00     0.00   0.00   0.00
  24   1     0.00  -0.00  -0.00    -0.00   0.00   0.00     0.00  -0.00  -0.00
  25   1    -0.00   0.00  -0.00    -0.00  -0.00  -0.00    -0.00  -0.00  -0.00
  26   1     0.00  -0.00  -0.00    -0.00   0.00   0.00    -0.00  -0.00  -0.00
  27   1     0.00   0.00   0.00     0.00   0.00   0.00    -0.00   0.00   0.00
  28   1     0.00  -0.00   0.00     0.02  -0.02   0.00    -0.00   0.00   0.00
  29   1    -0.00  -0.00  -0.00     0.00   0.00   0.00     0.00  -0.00  -0.00
  30   1     0.00  -0.00  -0.00    -0.00   0.00   0.00    -0.00   0.00   0.00
  31   1     0.00  -0.00  -0.00    -0.00   0.00   0.00     0.00  -0.00  -0.00
  32   1     0.00   0.00   0.00    -0.00  -0.00  -0.00    -0.00  -0.01  -0.04
  33   1    -0.01   0.01   0.00    -0.00   0.00   0.00    -0.02   0.01   0.01
  34   1     0.00   0.00   0.01    -0.00  -0.00  -0.00    -0.01  -0.04  -0.11
  35   1    -0.00   0.00  -0.00     0.00  -0.00  -0.00     0.01  -0.00   0.00
  36   1     0.00  -0.00   0.00    -0.00   0.01  -0.01    -0.04   0.24  -0.15
  37   1    -0.00  -0.00  -0.00    -0.00  -0.01  -0.03    -0.10  -0.32  -0.84
  38   1     0.01  -0.01  -0.00     0.00  -0.00   0.00     0.04  -0.02   0.03
  39   1     0.00   0.00  -0.00    -0.00  -0.00  -0.00     0.00  -0.00  -0.00
  40   1     0.00  -0.00   0.00    -0.00   0.00  -0.00     0.00   0.00  -0.00
  41   8    -0.00   0.00  -0.00     0.00  -0.00   0.00    -0.00  -0.00   0.00
  42   1     0.00   0.00  -0.00    -0.00  -0.00   0.00     0.00   0.00   0.00
  43   1     0.00  -0.00   0.00    -0.00   0.00  -0.00     0.00   0.00  -0.00
  44   7     0.00  -0.00  -0.00    -0.00   0.00  -0.00    -0.00   0.00  -0.00
  45   6    -0.00  -0.00   0.00    -0.00   0.00  -0.00     0.00   0.00   0.00
  46   8     0.00  -0.00  -0.00    -0.00  -0.00   0.00     0.00  -0.00  -0.00
  47   6    -0.18   0.06   0.19     0.01   0.01  -0.00    -0.00  -0.01   0.00
  48   6    -0.00   0.00   0.01     0.00  -0.00  -0.00     0.00  -0.00   0.00
  49   8    -0.00  -0.00  -0.00     0.00   0.00   0.00    -0.00   0.00  -0.00
  50   1     0.07   0.11  -0.00    -0.05  -0.05   0.02     0.02   0.02  -0.01
  51   1     0.56  -0.30  -0.71     0.01  -0.00  -0.01    -0.00   0.00   0.00
  52   1    -0.01  -0.02   0.03     0.00   0.00  -0.00    -0.00  -0.00  -0.00
  53   7    -0.00   0.00  -0.00     0.00   0.00  -0.00    -0.00  -0.00  -0.00
  54   6     0.00  -0.00   0.00     0.16  -0.19   0.05    -0.00   0.01  -0.00
  55   1     0.00   0.00   0.00     0.02  -0.01   0.02    -0.00  -0.00  -0.00
  56   1     0.00   0.00  -0.00     0.02  -0.03  -0.00    -0.00   0.00  -0.00
  57   1    -0.00   0.00  -0.00    -0.61   0.72  -0.19     0.02  -0.02   0.01
                    148                    149                    150
                        a                      a                      a 
 Frequencies --  3033.7186              3038.2911              3053.0159
 Red. masses --     1.6178                 1.5932                 1.6983
 Frc consts  --     0.0000                 0.0000                 0.0000
 IR Inten    --     8.0197                45.3813                 3.1735
 Raman Activ --     0.0000                 0.0000                 0.0000
 Depolar     --     0.0000                 0.0000                 0.0000
 Atom AN      X      Y      Z        X      Y      Z        X      Y      Z
   1   7     0.00  -0.00   0.00     0.00  -0.00   0.00    -0.00   0.00   0.00
   2   6    -0.00   0.00  -0.00    -0.00   0.00  -0.00    -0.00  -0.00  -0.00
   3   6    -0.00   0.00   0.00     0.00  -0.00  -0.00    -0.00   0.00   0.00
   4   6     0.00   0.00   0.00    -0.00  -0.00  -0.00     0.00   0.00   0.00
   5   6    -0.00   0.00  -0.00    -0.00  -0.00  -0.00    -0.00  -0.00   0.00
   6   6    -0.00   0.00   0.00     0.00  -0.00  -0.00    -0.00   0.00   0.00
   7   6    -0.00  -0.00  -0.00    -0.00  -0.00  -0.00    -0.00  -0.00  -0.00
   8   6     0.00  -0.00  -0.00    -0.00   0.00  -0.00     0.00  -0.00  -0.00
   9   6     0.00  -0.00  -0.00    -0.00   0.00  -0.00    -0.00   0.00   0.00
  10   6     0.00   0.00   0.00     0.00   0.00   0.00    -0.00  -0.00   0.00
  11   6    -0.00  -0.00   0.00    -0.00  -0.00  -0.00    -0.00   0.00   0.00
  12   6    -0.00   0.00   0.00    -0.00   0.00   0.00     0.03  -0.01  -0.01
  13   6    -0.00   0.00  -0.00     0.01  -0.00  -0.00    -0.01   0.00   0.00
  14   6    -0.00  -0.00  -0.00     0.01  -0.01   0.00    -0.02   0.01   0.01
  15   6    -0.00   0.01  -0.01     0.03  -0.22   0.07    -0.21   0.12   0.06
  16   8    -0.00  -0.00   0.00    -0.00  -0.00   0.00    -0.00   0.00   0.00
  17   8    -0.00   0.00  -0.00    -0.00   0.00  -0.00     0.00  -0.00   0.00
  18   1     0.00  -0.00  -0.00    -0.00   0.00   0.00     0.00  -0.00  -0.00
  19   1     0.00   0.00   0.00    -0.00  -0.00  -0.00    -0.00  -0.00  -0.00
  20   1     0.00  -0.00  -0.00    -0.00   0.00   0.00     0.00  -0.00  -0.00
  21   1    -0.00  -0.00  -0.00     0.00   0.00   0.00    -0.00  -0.00  -0.00
  22   1     0.00  -0.00  -0.00    -0.00   0.00   0.00     0.00  -0.00  -0.00
  23   1     0.00   0.00   0.00     0.00   0.00   0.00     0.00   0.00   0.00
  24   1    -0.00   0.00   0.00     0.00  -0.00  -0.00    -0.00   0.00   0.00
  25   1     0.00   0.00   0.00     0.00   0.00   0.00     0.00   0.00   0.00
  26   1    -0.00   0.00   0.00    -0.00  -0.00  -0.00     0.00  -0.00  -0.00
  27   1    -0.00  -0.00  -0.00    -0.00  -0.00  -0.00     0.00  -0.00  -0.00
  28   1     0.00  -0.00   0.00     0.00  -0.00   0.00     0.00  -0.00   0.00
  29   1    -0.00  -0.00  -0.00     0.00  -0.00  -0.00     0.00  -0.00  -0.00
  30   1     0.00   0.00   0.00     0.00   0.00  -0.00     0.01  -0.00  -0.00
  31   1     0.01  -0.00  -0.00     0.02  -0.01  -0.01    -0.10   0.04   0.05
  32   1     0.00   0.00   0.01     0.00  -0.00  -0.01    -0.00   0.00   0.01
  33   1     0.01  -0.01  -0.00    -0.02   0.01   0.01     0.03  -0.02  -0.01
  34   1     0.00   0.00   0.00    -0.00  -0.01  -0.01    -0.00   0.00  -0.00
  35   1    -0.00   0.00   0.00    -0.04   0.02   0.01     0.06  -0.04  -0.02
  36   1     0.01  -0.04   0.03    -0.13   0.70  -0.58    -0.03   0.03  -0.00
  37   1     0.00   0.01   0.01     0.04   0.08   0.30    -0.02   0.03   0.05
  38   1    -0.00   0.00  -0.00    -0.02  -0.01   0.02     0.78  -0.48  -0.26
  39   1     0.00   0.00  -0.00     0.00   0.00   0.00    -0.00  -0.00   0.00
  40   1     0.00  -0.00   0.00     0.00  -0.00   0.00    -0.00   0.00  -0.00
  41   8    -0.00   0.00  -0.00    -0.00   0.00  -0.00     0.00  -0.00   0.00
  42   1    -0.00   0.00  -0.00     0.00   0.00  -0.00    -0.00   0.00  -0.00
  43   1     0.00  -0.00   0.00     0.00  -0.00   0.00    -0.00   0.00  -0.00
  44   7     0.00   0.00   0.00     0.00   0.00   0.00     0.00  -0.00   0.00
  45   6     0.00  -0.00   0.00    -0.00  -0.00   0.00    -0.00   0.00  -0.00
  46   8    -0.00   0.00  -0.00     0.00  -0.00  -0.00     0.00  -0.00   0.00
  47   6    -0.15  -0.17   0.02    -0.01  -0.01   0.00     0.01  -0.01   0.00
  48   6    -0.00  -0.01  -0.00    -0.00  -0.00   0.00     0.00   0.00   0.00
  49   8     0.00   0.00   0.00     0.00   0.00  -0.00    -0.00   0.00   0.00
  50   1     0.64   0.67  -0.20     0.03   0.03  -0.01     0.00   0.00  -0.00
  51   1    -0.11   0.02   0.11    -0.00  -0.00   0.00    -0.00   0.00   0.01
  52   1     0.01  -0.08   0.02    -0.00   0.01  -0.00    -0.02   0.04  -0.01
  53   7     0.00  -0.00  -0.00    -0.00   0.00  -0.00    -0.00   0.00  -0.00
  54   6     0.01  -0.02   0.00    -0.00  -0.00   0.00    -0.00   0.00  -0.00
  55   1     0.00  -0.00   0.00     0.00   0.00   0.00     0.00   0.00   0.00
  56   1     0.00  -0.00  -0.00     0.00   0.00  -0.00    -0.00  -0.00   0.00
  57   1    -0.05   0.06  -0.01     0.00  -0.00   0.00     0.00  -0.00   0.00
                    151                    152                    153
                        a                      a                      a 
 Frequencies --  3058.3854              3060.4795              3064.2359
 Red. masses --     1.8130                 1.7925                 1.7498
 Frc consts  --     0.0000                 0.0000                 0.0000
 IR Inten    --    10.8047                32.1806                 6.1096
 Raman Activ --     0.0000                 0.0000                 0.0000
 Depolar     --     0.0000                 0.0000                 0.0000
 Atom AN      X      Y      Z        X      Y      Z        X      Y      Z
   1   7     0.00  -0.00  -0.00     0.00   0.00   0.00    -0.00  -0.00  -0.00
   2   6    -0.00   0.00   0.00    -0.00  -0.00  -0.00     0.00   0.00   0.00
   3   6     0.00  -0.00  -0.00     0.00  -0.00  -0.00    -0.00   0.00   0.00
   4   6     0.00   0.00   0.00     0.01   0.01   0.01    -0.00  -0.00  -0.00
   5   6     0.00   0.00  -0.00    -0.01   0.00   0.00     0.00  -0.00  -0.00
   6   6     0.01  -0.01  -0.01    -0.14   0.16   0.14     0.01  -0.01  -0.01
   7   6     0.00   0.00   0.00    -0.04  -0.06  -0.04     0.00   0.00   0.00
   8   6     0.00  -0.00  -0.00    -0.00   0.01   0.00     0.00  -0.00  -0.00
   9   6     0.00  -0.00  -0.00    -0.00   0.00   0.00    -0.00  -0.00  -0.00
  10   6    -0.00  -0.00  -0.00     0.00  -0.00  -0.00     0.00  -0.00  -0.00
  11   6     0.05  -0.03  -0.03    -0.00   0.00   0.00     0.00  -0.00  -0.00
  12   6    -0.22   0.09   0.11    -0.01   0.00   0.01    -0.01   0.00   0.00
  13   6    -0.02   0.02   0.01    -0.00   0.00   0.00     0.00   0.00   0.00
  14   6    -0.01   0.00   0.00    -0.00   0.00   0.00     0.00   0.00   0.00
  15   6    -0.02   0.02   0.01     0.00  -0.00   0.00     0.01  -0.00  -0.00
  16   8     0.00  -0.00  -0.00    -0.00   0.00   0.00     0.00   0.00  -0.00
  17   8     0.00  -0.00   0.00    -0.00  -0.00  -0.00    -0.00  -0.00   0.00
  18   1    -0.00   0.00  -0.00     0.00  -0.00  -0.00     0.00   0.00   0.00
  19   1     0.00   0.00   0.00     0.00  -0.00  -0.00    -0.00   0.00   0.00
  20   1    -0.01   0.01   0.01    -0.01   0.01   0.01     0.00  -0.00  -0.00
  21   1    -0.00  -0.01  -0.01    -0.03  -0.04  -0.03     0.00   0.00   0.00
  22   1    -0.02   0.03   0.02     0.49  -0.56  -0.52    -0.03   0.03   0.03
  23   1    -0.00  -0.01  -0.01     0.14   0.23   0.16    -0.01  -0.02  -0.01
  24   1    -0.00   0.00   0.00     0.02  -0.02  -0.01    -0.00   0.00   0.00
  25   1    -0.00  -0.00  -0.00    -0.00   0.00  -0.00     0.00   0.00   0.00
  26   1    -0.00   0.00   0.00     0.00  -0.01  -0.00    -0.00   0.00   0.00
  27   1     0.00   0.00   0.00    -0.00  -0.00  -0.00    -0.00  -0.00  -0.00
  28   1    -0.00   0.00  -0.00    -0.00   0.00   0.00    -0.00   0.00  -0.00
  29   1    -0.00   0.00   0.00    -0.00   0.00   0.00    -0.00   0.00   0.00
  30   1    -0.20   0.08   0.10     0.00  -0.00  -0.00    -0.01   0.00   0.00
  31   1     0.79  -0.30  -0.37     0.04  -0.02  -0.02     0.02  -0.01  -0.01
  32   1    -0.00  -0.00  -0.01    -0.00  -0.00  -0.00     0.00  -0.00  -0.00
  33   1     0.07  -0.04  -0.03     0.00  -0.00  -0.00    -0.00   0.00   0.00
  34   1    -0.00   0.00   0.00    -0.00  -0.00  -0.00    -0.00  -0.00  -0.00
  35   1     0.03  -0.02  -0.01     0.00  -0.00  -0.00     0.00   0.00   0.00
  36   1    -0.00  -0.01   0.01    -0.00   0.00  -0.00     0.00  -0.01   0.01
  37   1    -0.00   0.00   0.00    -0.00  -0.00  -0.00     0.00  -0.00  -0.00
  38   1     0.09  -0.05  -0.03    -0.00   0.00   0.00    -0.03   0.02   0.01
  39   1     0.00  -0.00  -0.00     0.00   0.00   0.00     0.00  -0.00  -0.00
  40   1    -0.00   0.00   0.00     0.00   0.00   0.00    -0.00   0.00  -0.00
  41   8    -0.00  -0.00   0.00    -0.00   0.00  -0.00    -0.00  -0.00   0.00
  42   1     0.00  -0.00   0.00     0.00  -0.00  -0.00     0.00  -0.00   0.00
  43   1     0.00   0.00   0.00     0.00  -0.00   0.00     0.00   0.00  -0.00
  44   7    -0.00  -0.00  -0.00     0.00   0.00   0.00    -0.00   0.00  -0.00
  45   6     0.00  -0.00   0.00    -0.00   0.00  -0.00     0.00  -0.00   0.00
  46   8    -0.00   0.00  -0.00     0.00  -0.00   0.00    -0.00   0.00  -0.00
  47   6    -0.00   0.01  -0.00     0.01  -0.01   0.00     0.10  -0.22   0.08
  48   6     0.00   0.00  -0.00     0.00   0.00   0.00     0.00  -0.01   0.00
  49   8    -0.00   0.00   0.00    -0.00  -0.00  -0.00    -0.00   0.00  -0.00
  50   1    -0.01  -0.01   0.00    -0.00  -0.00   0.00     0.06   0.02  -0.01
  51   1    -0.00   0.00   0.00     0.00  -0.00  -0.00     0.03  -0.04  -0.01
  52   1     0.01  -0.02   0.01    -0.02   0.04  -0.01    -0.45   0.81  -0.27
  53   7     0.00  -0.00   0.00     0.00  -0.00  -0.00     0.00  -0.00   0.00
  54   6     0.00  -0.00   0.00    -0.00   0.00   0.00     0.00  -0.00   0.00
  55   1    -0.00  -0.00  -0.00    -0.00  -0.00  -0.00     0.00   0.00   0.00
  56   1     0.00  -0.00   0.00    -0.00   0.00  -0.00     0.00  -0.00  -0.00
  57   1    -0.00   0.00  -0.00     0.00  -0.00   0.00    -0.00   0.00  -0.00
                    154                    155                    156
                        a                      a                      a 
 Frequencies --  3075.6236              3080.1628              3081.9780
 Red. masses --     1.7809                 1.8584                 1.8293
 Frc consts  --     0.0000                 0.0000                 0.0000
 IR Inten    --    18.0313                51.0008                37.5888
 Raman Activ --     0.0000                 0.0000                 0.0000
 Depolar     --     0.0000                 0.0000                 0.0000
 Atom AN      X      Y      Z        X      Y      Z        X      Y      Z
   1   7    -0.00   0.00   0.00    -0.00  -0.00  -0.00    -0.00   0.00  -0.00
   2   6     0.01  -0.00  -0.00     0.01   0.00   0.00     0.00   0.00  -0.00
   3   6     0.08  -0.08  -0.08    -0.01   0.01   0.01    -0.00   0.00   0.00
   4   6     0.10   0.16   0.12     0.01   0.02   0.01     0.00   0.00   0.00
   5   6     0.01   0.00   0.00    -0.00  -0.00  -0.00    -0.00  -0.00   0.00
   6   6     0.01  -0.01  -0.01    -0.05   0.06   0.06    -0.01   0.01   0.01
   7   6    -0.00  -0.00  -0.00     0.11   0.19   0.13     0.01   0.01   0.01
   8   6     0.00   0.00   0.00    -0.00   0.00   0.00    -0.00   0.00   0.00
   9   6    -0.00   0.00   0.00    -0.00   0.00   0.00    -0.00   0.00  -0.00
  10   6    -0.00  -0.00  -0.00    -0.00   0.00   0.00     0.01  -0.01  -0.01
  11   6     0.00  -0.00  -0.00    -0.01   0.01   0.01     0.22  -0.09  -0.11
  12   6     0.00  -0.00  -0.00    -0.00   0.00   0.00     0.06  -0.02  -0.03
  13   6     0.00  -0.00  -0.00    -0.00   0.00   0.00     0.01  -0.01  -0.01
  14   6     0.00  -0.00   0.00     0.00   0.00   0.00     0.00  -0.00  -0.00
  15   6     0.00  -0.00   0.00     0.00  -0.00   0.00     0.00  -0.00  -0.00
  16   8     0.00  -0.00   0.00    -0.00  -0.00  -0.00    -0.00   0.00   0.00
  17   8     0.00   0.00   0.00     0.00   0.00  -0.00    -0.00  -0.00   0.00
  18   1    -0.00  -0.00  -0.00    -0.00   0.00   0.00     0.00  -0.00   0.00
  19   1    -0.00  -0.00  -0.00    -0.00   0.00   0.00     0.00   0.00   0.00
  20   1    -0.28   0.31   0.30     0.04  -0.05  -0.05     0.01  -0.01  -0.01
  21   1    -0.35  -0.59  -0.43    -0.04  -0.06  -0.04    -0.00  -0.00  -0.00
  22   1    -0.03   0.04   0.04     0.17  -0.19  -0.18     0.02  -0.02  -0.02
  23   1     0.00   0.00   0.00    -0.39  -0.66  -0.47    -0.02  -0.04  -0.03
  24   1     0.00  -0.00  -0.00     0.00  -0.01  -0.00     0.00  -0.00  -0.00
  25   1    -0.01  -0.00  -0.01    -0.00  -0.00  -0.00     0.00   0.00   0.00
  26   1     0.00  -0.01  -0.00     0.00  -0.00  -0.00    -0.00  -0.00  -0.00
  27   1    -0.00   0.00   0.00    -0.00  -0.00  -0.00     0.00   0.00   0.00
  28   1    -0.00   0.00   0.00    -0.00   0.00   0.00     0.00  -0.00   0.00
  29   1     0.00   0.00   0.00     0.00  -0.00  -0.00    -0.00   0.01   0.01
  30   1    -0.00   0.00   0.00     0.05  -0.02  -0.02    -0.79   0.32   0.38
  31   1    -0.02   0.01   0.01     0.02  -0.01  -0.01    -0.20   0.07   0.09
  32   1     0.00  -0.00   0.00    -0.00  -0.00  -0.00     0.00   0.00   0.01
  33   1    -0.00   0.00   0.00     0.00   0.00   0.00    -0.04   0.02   0.01
  34   1    -0.00  -0.00  -0.00    -0.00  -0.00  -0.00     0.00   0.00   0.00
  35   1    -0.00   0.00   0.00     0.00  -0.00  -0.00    -0.01   0.01   0.00
  36   1    -0.00   0.00  -0.00    -0.00   0.00  -0.00     0.00   0.00  -0.00
  37   1    -0.00  -0.00  -0.00    -0.00  -0.00  -0.00     0.00   0.00   0.00
  38   1    -0.00   0.00   0.00     0.00  -0.00   0.00    -0.01   0.01   0.00
  39   1    -0.00  -0.00   0.00     0.00   0.00  -0.00    -0.00  -0.00   0.00
  40   1    -0.00  -0.00  -0.00    -0.00  -0.00   0.00    -0.00   0.00  -0.00
  41   8     0.00  -0.00  -0.00    -0.00  -0.00   0.00     0.00   0.00   0.00
  42   1    -0.00   0.00   0.00     0.00   0.00   0.00     0.00  -0.00   0.00
  43   1    -0.00  -0.00   0.00     0.00   0.00  -0.00    -0.00  -0.00  -0.00
  44   7     0.00   0.00  -0.00     0.00   0.00   0.00     0.00  -0.00   0.00
  45   6    -0.00  -0.00   0.00    -0.00   0.00   0.00    -0.00   0.00  -0.00
  46   8     0.00  -0.00  -0.00     0.00  -0.00  -0.00     0.00  -0.00   0.00
  47   6    -0.00  -0.00  -0.00    -0.00   0.00  -0.00    -0.00   0.00   0.00
  48   6     0.00  -0.00   0.00     0.00   0.00   0.00    -0.00  -0.00  -0.00
  49   8    -0.00  -0.00  -0.00    -0.00  -0.00  -0.00     0.00   0.00   0.00
  50   1     0.00   0.00  -0.00     0.00   0.00  -0.00     0.00   0.00  -0.00
  51   1    -0.00   0.00   0.00     0.00  -0.00  -0.00     0.00  -0.00  -0.00
  52   1    -0.00   0.00  -0.00     0.00  -0.01   0.00     0.00  -0.00   0.00
  53   7     0.00  -0.00  -0.00     0.00  -0.00  -0.00    -0.00   0.00  -0.00
  54   6     0.00  -0.00   0.00    -0.00   0.00   0.00    -0.00   0.00  -0.00
  55   1     0.00   0.00   0.00     0.00   0.00   0.00     0.00   0.00   0.00
  56   1     0.00   0.00  -0.00    -0.00   0.00  -0.00     0.00   0.00  -0.00
  57   1    -0.00   0.00   0.00     0.00  -0.00   0.00     0.00  -0.00   0.00
                    157                    158                    159
                        a                      a                      a 
 Frequencies --  3088.9872              3333.2333              3367.3454
 Red. masses --     1.8761                 1.8805                 1.8571
 Frc consts  --     0.0000                 0.0000                 0.0000
 IR Inten    --    27.5471               113.4881               232.1314
 Raman Activ --     0.0000                 0.0000                 0.0000
 Depolar     --     0.0000                 0.0000                 0.0000
 Atom AN      X      Y      Z        X      Y      Z        X      Y      Z
   1   7     0.00  -0.00  -0.00    -0.00  -0.00  -0.00    -0.03   0.00   0.03
   2   6    -0.01  -0.00   0.00     0.00  -0.00   0.00    -0.00  -0.00   0.00
   3   6    -0.13   0.14   0.14     0.00  -0.00  -0.00     0.00   0.00   0.00
   4   6     0.07   0.11   0.08    -0.00  -0.00   0.00    -0.00   0.00   0.00
   5   6     0.01  -0.00  -0.00     0.00  -0.00   0.00     0.00  -0.00  -0.00
   6   6     0.01  -0.01  -0.01    -0.00   0.00   0.00    -0.00  -0.00  -0.00
   7   6    -0.01  -0.02  -0.02    -0.00   0.00   0.00     0.00  -0.00  -0.00
   8   6     0.00   0.00   0.00    -0.00   0.00   0.00     0.00  -0.00   0.00
   9   6    -0.00   0.00   0.00    -0.00   0.00   0.00    -0.00   0.00   0.00
  10   6    -0.00   0.00   0.00    -0.00  -0.00   0.00     0.02  -0.00  -0.00
  11   6    -0.00   0.00   0.00    -0.00   0.00   0.00    -0.00  -0.00  -0.00
  12   6    -0.00   0.00   0.00    -0.00  -0.00   0.00     0.00   0.00   0.00
  13   6     0.00  -0.00   0.00    -0.00   0.00   0.00    -0.00  -0.00   0.00
  14   6     0.00   0.00   0.00    -0.00   0.00   0.00    -0.00   0.00   0.00
  15   6     0.00  -0.00   0.00     0.00  -0.00  -0.00    -0.00   0.00   0.00
  16   8     0.00  -0.00  -0.00     0.00   0.00  -0.00    -0.01   0.00   0.00
  17   8     0.00   0.00   0.00     0.00  -0.00   0.00     0.00  -0.01   0.01
  18   1     0.00   0.00  -0.00    -0.00  -0.00   0.00     0.08  -0.09  -0.13
  19   1     0.00   0.00   0.00     0.00   0.00   0.00     0.04   0.09   0.03
  20   1     0.44  -0.48  -0.47    -0.00   0.00   0.00     0.00  -0.00  -0.00
  21   1    -0.22  -0.37  -0.27     0.00  -0.00  -0.00    -0.00  -0.00  -0.00
  22   1    -0.03   0.03   0.03     0.00  -0.00  -0.00     0.00  -0.00   0.00
  23   1     0.04   0.08   0.05    -0.00  -0.00  -0.00    -0.00  -0.00  -0.00
  24   1     0.00  -0.00  -0.00     0.00  -0.00  -0.00     0.00   0.00   0.00
  25   1    -0.00  -0.00  -0.01    -0.00   0.00  -0.00    -0.00  -0.00  -0.00
  26   1     0.00  -0.00  -0.00     0.00  -0.00  -0.00     0.00  -0.00  -0.00
  27   1     0.00   0.00  -0.00     0.00   0.01   0.00     0.00   0.00   0.00
  28   1     0.00  -0.00   0.00     0.73  -0.61   0.15     0.00  -0.00   0.00
  29   1     0.00  -0.00  -0.00     0.00   0.00   0.00    -0.01   0.01   0.00
  30   1     0.01  -0.00  -0.00     0.00  -0.00  -0.00    -0.00   0.00   0.00
  31   1     0.01  -0.00  -0.00     0.00  -0.00  -0.00    -0.00   0.00   0.00
  32   1    -0.00  -0.00  -0.01     0.00  -0.00  -0.00    -0.00  -0.00  -0.00
  33   1    -0.00   0.00   0.00     0.00  -0.00   0.00     0.00  -0.00  -0.00
  34   1    -0.00  -0.00  -0.00    -0.00  -0.00  -0.00     0.00  -0.00  -0.00
  35   1     0.00   0.00  -0.00     0.00  -0.00  -0.00     0.00  -0.00  -0.00
  36   1    -0.00   0.00  -0.00     0.00  -0.00   0.00    -0.00  -0.00   0.00
  37   1    -0.00  -0.00  -0.00     0.00  -0.00  -0.00    -0.00  -0.00  -0.00
  38   1    -0.00   0.00   0.00    -0.00   0.00   0.00     0.00  -0.00  -0.00
  39   1     0.00  -0.00  -0.00    -0.00  -0.00   0.00     0.00  -0.00  -0.02
  40   1    -0.00   0.00   0.00    -0.00   0.00  -0.00    -0.00   0.03  -0.03
  41   8    -0.00  -0.00   0.00    -0.00  -0.00   0.00     0.01   0.04  -0.23
  42   1     0.00  -0.00  -0.00     0.00  -0.00   0.00    -0.01   0.01  -0.02
  43   1     0.00   0.00  -0.00     0.00   0.00  -0.00    -0.04  -0.17   0.93
  44   7     0.00  -0.00   0.00    -0.00   0.00  -0.00    -0.00  -0.00  -0.00
  45   6     0.00   0.00  -0.00    -0.01   0.01  -0.00     0.00   0.00  -0.00
  46   8     0.00  -0.00   0.00     0.00  -0.01   0.00    -0.00   0.00  -0.00
  47   6    -0.00   0.00  -0.00     0.00   0.00   0.00     0.00   0.00  -0.00
  48   6    -0.00   0.00   0.00    -0.00  -0.01  -0.00     0.00  -0.00   0.00
  49   8    -0.00  -0.00  -0.00     0.00   0.01   0.00    -0.00   0.00  -0.00
  50   1    -0.00  -0.00   0.00     0.00   0.00  -0.00    -0.00  -0.00   0.00
  51   1     0.00  -0.00  -0.00    -0.00   0.00   0.00    -0.00   0.00   0.00
  52   1     0.00  -0.00   0.00    -0.00   0.00  -0.00    -0.00   0.00  -0.00
  53   7    -0.00  -0.00  -0.00    -0.20   0.16  -0.04    -0.00   0.00  -0.00
  54   6     0.00   0.00   0.00    -0.00   0.00  -0.00     0.00   0.00   0.00
  55   1    -0.00  -0.00  -0.00     0.00   0.01   0.00    -0.00  -0.00  -0.00
  56   1     0.00  -0.00   0.00     0.00   0.00  -0.01    -0.00  -0.00   0.00
  57   1    -0.00   0.00  -0.00     0.02  -0.02   0.00     0.00   0.00   0.00
                    160                    161                    162
                        a                      a                      a 
 Frequencies --  3403.3334              3441.4203              3456.2005
 Red. masses --     1.5168                 2.1262                 1.8457
 Frc consts  --     0.0000                 0.0000                 0.0000
 IR Inten    --   155.4804                52.6062                16.4662
 Raman Activ --     0.0000                 0.0000                 0.0000
 Depolar     --     0.0000                 0.0000                 0.0000
 Atom AN      X      Y      Z        X      Y      Z        X      Y      Z
   1   7     0.15   0.11  -0.04    -0.04   0.22   0.18     0.00  -0.00  -0.00
   2   6     0.00   0.00  -0.00    -0.00   0.01   0.00    -0.00  -0.00  -0.00
   3   6    -0.00  -0.00  -0.00     0.00  -0.00  -0.00     0.00   0.00   0.00
   4   6     0.00  -0.00   0.00    -0.00   0.00   0.00    -0.00  -0.00   0.00
   5   6    -0.00  -0.00  -0.00     0.00  -0.00  -0.00     0.00   0.00  -0.00
   6   6     0.00  -0.00   0.00     0.00   0.00   0.00    -0.00   0.00   0.00
   7   6    -0.00   0.00   0.00     0.00  -0.00  -0.00    -0.00   0.00   0.00
   8   6     0.00   0.00  -0.00    -0.00  -0.00   0.00    -0.00  -0.00   0.00
   9   6    -0.00   0.00   0.00     0.00  -0.00  -0.00     0.00  -0.00  -0.00
  10   6    -0.00   0.00  -0.00    -0.00  -0.00   0.00    -0.00   0.00  -0.00
  11   6     0.00  -0.00  -0.00    -0.00   0.00   0.00    -0.00  -0.00  -0.00
  12   6     0.00   0.00   0.00    -0.00  -0.00  -0.00     0.00  -0.00  -0.00
  13   6    -0.00  -0.00   0.00     0.00   0.00  -0.00     0.00  -0.00  -0.00
  14   6    -0.00   0.00  -0.00     0.00  -0.00  -0.00     0.00  -0.00  -0.00
  15   6    -0.00   0.00   0.00     0.00  -0.00  -0.00    -0.00  -0.00  -0.00
  16   8     0.00  -0.00  -0.00     0.00   0.00   0.00     0.00  -0.00   0.00
  17   8    -0.00  -0.00   0.01    -0.00  -0.00  -0.00     0.00   0.00  -0.00
  18   1    -0.25   0.28   0.39     0.38  -0.37  -0.57    -0.00   0.00   0.00
  19   1    -0.32  -0.69  -0.21    -0.23  -0.48  -0.12     0.00   0.00   0.00
  20   1     0.00  -0.00  -0.00    -0.00  -0.00  -0.00    -0.00   0.00  -0.00
  21   1    -0.00  -0.00  -0.00     0.00   0.00   0.00    -0.00   0.00   0.00
  22   1    -0.00   0.00   0.00    -0.00  -0.00  -0.00     0.00  -0.00  -0.00
  23   1     0.00   0.00   0.00    -0.00  -0.00  -0.00    -0.00  -0.00  -0.00
  24   1    -0.00   0.00   0.00     0.00  -0.00  -0.00    -0.00   0.00  -0.00
  25   1    -0.00  -0.00  -0.00     0.00  -0.00   0.00     0.00  -0.00   0.00
  26   1     0.00  -0.00  -0.00    -0.00  -0.00   0.00    -0.00   0.01   0.01
  27   1    -0.00  -0.00  -0.00     0.00   0.00   0.00     0.19   0.89   0.34
  28   1     0.00  -0.00   0.00    -0.00   0.00  -0.00    -0.01   0.01  -0.00
  29   1    -0.00  -0.00   0.00    -0.00  -0.00  -0.00    -0.00  -0.00  -0.00
  30   1    -0.00   0.00   0.00     0.00   0.00  -0.00     0.00   0.00  -0.00
  31   1    -0.00   0.00   0.00     0.00  -0.00  -0.00    -0.00   0.00   0.00
  32   1    -0.00  -0.00  -0.00     0.00  -0.00  -0.00    -0.00   0.00   0.00
  33   1     0.00  -0.00  -0.00    -0.00   0.00   0.00     0.00  -0.00  -0.00
  34   1     0.00   0.00  -0.00     0.00   0.00   0.00     0.00   0.00   0.00
  35   1     0.00  -0.00  -0.00    -0.00   0.00   0.00    -0.00   0.00   0.00
  36   1    -0.00  -0.00   0.00     0.00   0.00  -0.00     0.00   0.00  -0.00
  37   1    -0.00  -0.00  -0.00     0.00   0.00   0.00     0.00   0.00   0.00
  38   1     0.00  -0.00  -0.00    -0.00   0.00   0.00     0.00  -0.00  -0.00
  39   1     0.00  -0.01  -0.01    -0.00   0.01   0.02    -0.00  -0.00  -0.00
  40   1    -0.00   0.02  -0.02     0.00   0.00  -0.00    -0.00  -0.00   0.00
  41   8     0.00   0.01  -0.04    -0.00  -0.00   0.02     0.00  -0.00   0.00
  42   1    -0.01   0.01  -0.00     0.01  -0.00   0.00    -0.00   0.00   0.00
  43   1    -0.01  -0.03   0.18     0.00   0.02  -0.09     0.00   0.00  -0.00
  44   7    -0.00   0.00   0.00    -0.00  -0.00  -0.00    -0.05  -0.23  -0.09
  45   6     0.00   0.00  -0.00    -0.00  -0.00   0.00     0.00  -0.00   0.00
  46   8    -0.00   0.00   0.00     0.00   0.00  -0.00     0.00   0.00  -0.00
  47   6     0.00  -0.00  -0.00    -0.00  -0.00   0.00    -0.00  -0.00  -0.00
  48   6     0.00   0.00  -0.00    -0.00  -0.00   0.00    -0.00  -0.01  -0.01
  49   8    -0.00  -0.00   0.00     0.00   0.00   0.00     0.00   0.00   0.00
  50   1     0.00  -0.00  -0.00     0.00   0.00  -0.00     0.00   0.00   0.00
  51   1    -0.00   0.00   0.00     0.00  -0.00  -0.00    -0.00   0.00   0.00
  52   1     0.00   0.00  -0.00    -0.00  -0.00   0.00    -0.00   0.00  -0.00
  53   7    -0.00   0.00  -0.00     0.00   0.00  -0.00     0.00  -0.00   0.00
  54   6     0.00   0.00  -0.00    -0.00  -0.00  -0.00    -0.00  -0.00  -0.00
  55   1    -0.00  -0.00  -0.00     0.00   0.00   0.00     0.00   0.00   0.00
  56   1    -0.00  -0.00   0.00     0.00   0.00  -0.00    -0.00  -0.00   0.00
  57   1    -0.00   0.00  -0.00     0.00  -0.00   0.00    -0.00   0.00  -0.00
                    163                    164                    165
                        a                      a                      a 
 Frequencies --  3533.5323              3589.2667              3664.3170
 Red. masses --     1.9480                 1.7495                 1.8397
 Frc consts  --     0.0000                 0.0000                 0.0000
 IR Inten    --   123.5599                42.4404                 8.4670
 Raman Activ --     0.0000                 0.0000                 0.0000
 Depolar     --     0.0000                 0.0000                 0.0000
 Atom AN      X      Y      Z        X      Y      Z        X      Y      Z
   1   7     0.00   0.00  -0.00    -0.00   0.00   0.00     0.00  -0.00  -0.00
   2   6    -0.00   0.00  -0.00    -0.00   0.00   0.00     0.00   0.00   0.00
   3   6    -0.00   0.00   0.00     0.00   0.00  -0.00    -0.00  -0.00  -0.00
   4   6     0.00   0.00   0.00    -0.00  -0.00   0.00     0.00   0.00  -0.00
   5   6     0.00   0.00   0.00     0.00   0.00   0.00    -0.00   0.00   0.00
   6   6    -0.00  -0.00  -0.00    -0.00  -0.00  -0.00     0.00   0.00   0.00
   7   6     0.00  -0.00  -0.00     0.00  -0.00  -0.00    -0.00   0.00   0.00
   8   6     0.00  -0.00   0.00     0.00  -0.00  -0.00     0.00  -0.00   0.00
   9   6    -0.00  -0.00   0.00     0.00  -0.00  -0.00    -0.00   0.00   0.00
  10   6     0.01  -0.00  -0.00     0.00  -0.00   0.00    -0.00   0.00  -0.00
  11   6    -0.00  -0.00  -0.00    -0.00   0.00   0.00     0.00   0.00   0.00
  12   6     0.00   0.00   0.00     0.00  -0.00  -0.00     0.00  -0.00  -0.00
  13   6    -0.00  -0.00   0.00     0.00   0.00  -0.00     0.00   0.00   0.00
  14   6    -0.00   0.00  -0.00     0.00  -0.00  -0.00    -0.00  -0.00   0.00
  15   6     0.00   0.00   0.00     0.00   0.00  -0.00     0.00  -0.00   0.00
  16   8    -0.01  -0.00   0.00    -0.00   0.00   0.00     0.00  -0.00  -0.00
  17   8    -0.00   0.15  -0.20    -0.02   0.13   0.18     0.00  -0.01  -0.01
  18   1    -0.01   0.00   0.01     0.01  -0.01  -0.01    -0.00   0.00   0.01
  19   1    -0.01  -0.02  -0.01    -0.01  -0.00  -0.00    -0.00  -0.00  -0.00
  20   1     0.00  -0.00  -0.00    -0.00   0.00   0.00    -0.00   0.00   0.00
  21   1    -0.00  -0.00  -0.00     0.00   0.00   0.00    -0.00  -0.00  -0.00
  22   1    -0.00   0.00   0.00     0.00   0.00   0.00    -0.00   0.00   0.00
  23   1     0.00   0.00   0.00     0.00   0.00   0.00    -0.00  -0.00  -0.00
  24   1    -0.00   0.00   0.00    -0.00   0.00   0.00    -0.00   0.00   0.00
  25   1    -0.00  -0.00  -0.00     0.00   0.00   0.00    -0.00  -0.00  -0.00
  26   1     0.00   0.00   0.00    -0.00   0.00   0.00    -0.00  -0.00   0.00
  27   1    -0.00  -0.00  -0.00    -0.00  -0.00  -0.00     0.00   0.00   0.00
  28   1     0.00  -0.00   0.00     0.00  -0.00  -0.00    -0.00   0.00  -0.00
  29   1     0.00   0.00   0.00     0.00   0.00  -0.00     0.00  -0.00  -0.00
  30   1    -0.00   0.00   0.00    -0.00   0.00   0.00     0.00  -0.00  -0.00
  31   1    -0.00   0.00   0.00    -0.00   0.00   0.00    -0.00   0.00   0.00
  32   1    -0.00  -0.00  -0.00     0.00   0.00   0.00    -0.00  -0.00  -0.00
  33   1    -0.00   0.00  -0.00    -0.00   0.00   0.00     0.00  -0.00  -0.00
  34   1     0.00  -0.00  -0.00     0.00   0.00   0.00    -0.00  -0.00  -0.00
  35   1     0.00   0.00   0.00    -0.00   0.00   0.00    -0.00  -0.00   0.00
  36   1    -0.00  -0.00   0.00     0.00   0.00  -0.00     0.00   0.00  -0.00
  37   1    -0.00  -0.00  -0.00     0.00   0.00   0.00    -0.00  -0.00  -0.00
  38   1     0.00   0.00  -0.00    -0.00   0.00  -0.00    -0.00   0.00  -0.00
  39   1    -0.02   0.10   0.14     0.10  -0.40  -0.86    -0.00   0.02   0.03
  40   1     0.03  -0.68   0.66     0.00  -0.12   0.15    -0.00   0.00  -0.01
  41   8     0.00   0.00  -0.01    -0.01   0.00   0.01    -0.16   0.14   0.10
  42   1    -0.00  -0.00  -0.00     0.02  -0.02  -0.02     0.65  -0.59  -0.40
  43   1    -0.00  -0.01   0.05     0.00   0.00  -0.01    -0.02   0.01   0.02
  44   7    -0.00   0.00   0.00     0.00   0.00   0.00     0.00  -0.00   0.00
  45   6     0.00  -0.00   0.00    -0.00  -0.00   0.00    -0.00   0.00   0.00
  46   8    -0.00   0.00  -0.00     0.00   0.00   0.00     0.00  -0.00   0.00
  47   6     0.00  -0.00  -0.00     0.00   0.00   0.00     0.00  -0.00   0.00
  48   6     0.00  -0.00   0.00     0.00  -0.00   0.00    -0.00   0.00  -0.00
  49   8    -0.00   0.00   0.00     0.00   0.00   0.00     0.00  -0.00  -0.00
  50   1    -0.00  -0.00  -0.00    -0.00  -0.00   0.00    -0.00   0.00  -0.00
  51   1    -0.00   0.00   0.00    -0.00  -0.00  -0.00    -0.00  -0.00  -0.00
  52   1     0.00   0.00  -0.00    -0.00   0.00  -0.00    -0.00  -0.00   0.00
  53   7    -0.00   0.00  -0.00    -0.00   0.00  -0.00     0.00  -0.00   0.00
  54   6     0.00   0.00  -0.00    -0.00   0.00  -0.00    -0.00  -0.00  -0.00
  55   1    -0.00  -0.00   0.00     0.00  -0.00  -0.00    -0.00  -0.00  -0.00
  56   1     0.00  -0.00   0.00     0.00  -0.00  -0.00     0.00  -0.00   0.00
  57   1    -0.00   0.00   0.00     0.00  -0.00   0.00    -0.00   0.00   0.00
