57
 energy: -83.437299428190 gnorm: 0.000196918965 xtb: 6.7.1pre (5071a88)
N           -0.17038036350445       -0.61773689821098        0.63276972333294
C            1.20687478839657       -0.54607759511499        0.66229469967400
C            1.83969409582173        0.45869563446249        1.39696180411672
C            3.20417439201111        0.63370202083750        1.31289932360123
C            3.98266252093934       -0.18276100194623        0.49949915685210
C            3.35503649755477       -1.20197764173773       -0.20559154387317
C            1.98866101418356       -1.38973665167743       -0.12578341335643
C            5.45146359278689        0.08675729305302        0.33754319591037
C            5.67030598196564        1.36027255145786       -0.48328531677990
C           -0.96177976933334        0.64674976413138       -1.17593475724008
C            0.18250301527204        1.54513822898833       -1.11318260180640
C            0.14698438188241        2.73905478011748       -0.51795591007170
C            1.29844055122389        3.67292624203210       -0.43910622818687
C            1.08583263170154        4.89749276576212       -1.34055568970535
C            2.28877455216726        5.82971785099691       -1.28592631097629
O           -2.08618330745713        0.89618187156094       -0.75571038294403
O           -2.85752933306002       -1.64973136354243        0.39707776359181
H           -0.65306838278066       -0.13977616448363        1.38291020337956
H           -0.59832677701292       -1.50342248728148        0.39490481445127
H            1.24272213470549        1.10321472680965        2.02490880616846
H            3.67614076741056        1.41892192195968        1.88548306316603
H            3.94410145209914       -1.86541893027460       -0.82442628483798
H            1.51407096051752       -2.18410158131083       -0.68363032121693
H            5.94971231185555       -0.74272028921995       -0.16717795910256
H            5.93287336075764        0.22159554201671        1.30729823839487
H            5.30809235209131        2.24037421596249        0.06191321836673
H            4.70497565103139        0.36699396788776       -2.07278910399481
H            6.63590567695408        3.43599085546901       -1.42050752929635
H           -0.80076618590311       -0.24709417639334       -1.80104857442158
H            1.09754880393288        1.18277668685769       -1.55837069158869
H           -0.78633140477217        3.08031142927969       -0.08794111295241
H            1.41404650110847        4.01676869624964        0.59175011346964
H            2.21658390731088        3.16483518259031       -0.73750243380282
H            0.93152114144394        4.55724449447901       -2.36681379646623
H            0.18472265896957        5.42966259710918       -1.02721597178253
H            2.14808144394803        6.67187092269175       -1.95937270305836
H            2.42728242493785        6.21537801295108       -0.27817064142009
H            3.19161893868734        5.29810307310876       -1.57717113925305
H           -2.95464663827394       -1.21418815688375        1.25029208705639
H           -2.88174175627998       -0.93318126092761       -0.24936739982947
O           -2.44819800380824        0.86654222396449        1.95351747669809
H           -3.09930524187580        1.45988351105054        2.33075601930650
H           -2.42361879972682        1.05249305520092        0.99809822903425
N            4.90973462863806        1.28844766295199       -1.71983317237176
C            7.16604097868527        1.57053245041352       -0.80670558417448
O            8.00126800691092        0.70268147751727       -0.66194758794222
C            3.60455458535281        2.08513073784003       -3.57474925061748
C            4.45321652824033        2.37820606372375       -2.36028710978878
O            4.71994049619131        3.51019248276617       -1.98742146700762
H            2.87151601137798        1.31173722684006       -3.35927796192037
H            4.24411603069982        1.74399477945286       -4.38695271447972
H            3.09808226012026        2.99376400246016       -3.88730992987324
N            7.41653059480029        2.80621903528943       -1.26716371761961
C            8.72834339802088        3.22593363190374       -1.69481512185642
H            9.03685646712527        4.11853357207636       -1.14863715983824
H            8.73659434487146        3.44327618533662       -2.76483188728215
H            9.42267312905635        2.41362477132258       -1.48540745380680
