57
 energy: -83.440937541160 gnorm: 0.000291421520 xtb: 6.7.1pre (5071a88)
N           -0.26863918720565        0.07573051825014       -1.15767360040515
C            1.03845982636053        0.18935114112088       -0.74525792168573
C            1.51747823363129        1.36384538757904       -0.16112658828520
C            2.86736698647154        1.52591886923563        0.07944885249366
C            3.77742096972630        0.52048303973468       -0.22129256043386
C            3.29046352077405       -0.67486914039004       -0.73761811422125
C            1.94769569265820       -0.83955790767617       -1.00131176105923
C            5.25489490759596        0.74816262884241       -0.08859617421514
C            5.81726509711961        1.19186272662083       -1.45811032663093
C            2.35188442057606        0.57983337760480       -3.72650053750229
C            2.75287556582546        1.93601642177766       -3.44845816357037
C            1.90385715274541        2.83386623211625       -2.93571397707448
C            2.26296468091146        4.22453836756822       -2.57269053003527
C            1.35037563490872        5.24482304406535       -3.26626110816632
C            1.69981440143178        6.66827363113910       -2.85321141454268
O            3.11054568035658       -0.31200299276704       -4.06872099716157
O           -0.63483150931555       -2.50407255126929       -2.59187210310663
H           -0.55774647324903       -0.85082494443451       -1.44668069486100
H           -0.95801680038953        0.60112851284660       -0.64544925778701
H            0.82176330528210        2.15282946420175        0.09004072280476
H            3.22461565519731        2.45160313645423        0.50882344805070
H            3.97557480157752       -1.48741560447749       -0.93263848159234
H            1.57634131381405       -1.76942345926495       -1.40233657221070
H            5.76389707517188       -0.16223878124786        0.22781532624006
H            5.45849456561179        1.53737606775296        0.63658488350207
H            5.17875756659691        1.99553392839816       -1.83811915002422
H            5.09384358245233        0.23021448804428       -3.18538789261470
H            7.94846507959242       -0.00888246222783       -0.82730946148659
H            1.27547554335794        0.38088222376930       -3.60903849286358
H            3.78542661537178        2.19713988204461       -3.64014877041988
H            0.87555592268530        2.54311534141109       -2.76103046006477
H            2.14293611836311        4.33530845502077       -1.49083299647742
H            3.30584849742019        4.42935575352289       -2.81972513515820
H            1.45768702809568        5.14078042398412       -4.34786341423969
H            0.30992390219524        5.03309549028362       -3.01143878559721
H            1.05835771081322        7.38042432101194       -3.36633899897562
H            1.57037356941667        6.79924761129579       -1.78131718495214
H            2.73331738893980        6.89552609147067       -3.10313038229346
H            0.17952349128734       -2.58784928557456       -3.12187384580949
H           -1.33621475333287       -2.87815582445806       -3.12665100769708
O            1.73218842406848       -2.75629521441420       -4.02062165195647
H            2.22234286235570       -1.92069074029770       -4.11266834371124
H            2.34097970517273       -3.38376048747296       -3.62609274373892
N            5.76763167058741        0.11777275306193       -2.44085977649987
C            7.21155163370888        1.82583337308887       -1.29130459051349
O            7.36798616974344        3.01920888704867       -1.47759353627600
C            5.94272342019928       -2.04546796774311       -3.45136063181680
C            6.30245291803528       -1.11155415695029       -2.31847175361845
O            7.04562291034809       -1.45194180993390       -1.40901219854272
H            6.05229324807740       -3.07428020510961       -3.11908276956750
H            6.63643617059758       -1.87724966810902       -4.27369810243390
H            4.93276235767802       -1.86485925651030       -3.80621643117874
N            8.16807602156288        0.98508239861294       -0.88798976849473
C            9.52845640738361        1.40807976313733       -0.67060897033572
H           10.20469150540048        0.90192138003591       -1.36230713552043
H            9.83434938494446        1.18287773529928        0.35233258551268
H            9.57836240932510        2.48334959250766       -0.83643055104384
