      -----------------------------------------------------------      
     |                   =====================                   |     
     |                           x T B                           |     
     |                   =====================                   |     
     |                         S. Grimme                         |     
     |          Mulliken Center for Theoretical Chemistry        |     
     |                    University of Bonn                     |     
      -----------------------------------------------------------      

   * xtb version 6.7.1pre (5071a88) compiled by 'Marcel@Raven' on 2024-07-23

   xtb is free software: you can redistribute it and/or modify it under
   the terms of the GNU Lesser General Public License as published by
   the Free Software Foundation, either version 3 of the License, or
   (at your option) any later version.
   
   xtb is distributed in the hope that it will be useful,
   but WITHOUT ANY WARRANTY; without even the implied warranty of
   MERCHANTABILITY or FITNESS FOR A PARTICULAR PURPOSE.  See the
   GNU Lesser General Public License for more details.
   
   Cite this work as:
   * C. Bannwarth, E. Caldeweyher, S. Ehlert, A. Hansen, P. Pracht,
     J. Seibert, S. Spicher, S. Grimme, WIREs Comput. Mol. Sci., 2020, 11,
     e01493. DOI: 10.1002/wcms.1493
   
   for GFN2-xTB:
   * C. Bannwarth, S. Ehlert and S. Grimme., J. Chem. Theory Comput., 2019,
     15, 1652-1671. DOI: 10.1021/acs.jctc.8b01176
   for GFN1-xTB:
   * S. Grimme, C. Bannwarth, P. Shushkov, J. Chem. Theory Comput., 2017,
     13, 1989-2009. DOI: 10.1021/acs.jctc.7b00118
   for GFN0-xTB:
   * P. Pracht, E. Caldeweyher, S. Ehlert, S. Grimme, ChemRxiv, 2019, preprint.
     DOI: 10.26434/chemrxiv.8326202.v1
   for GFN-FF:
   * S. Spicher and S. Grimme, Angew. Chem. Int. Ed., 2020, 59, 15665-15673.
     DOI: 10.1002/anie.202004239
   
   for ALPB and GBSA implicit solvation:
   * S. Ehlert, M. Stahn, S. Spicher, S. Grimme, J. Chem. Theory Comput.,
     2021, 17, 4250-4261. DOI: 10.1021/acs.jctc.1c00471
   
   for ddCOSMO and CPCM-X implicit solvation:
   * M. Stahn, S. Ehlert, S. Grimme, J. Phys. Chem. A,
     2023, XX, XXXX-XXXX. DOI: 10.1021/acs.jpca.3c04382
   
   for DFT-D4:
   * E. Caldeweyher, C. Bannwarth and S. Grimme, J. Chem. Phys., 2017,
     147, 034112. DOI: 10.1063/1.4993215
   * E. Caldeweyher, S. Ehlert, A. Hansen, H. Neugebauer, S. Spicher,
     C. Bannwarth and S. Grimme, J. Chem. Phys., 2019, 150, 154122.
     DOI: 10.1063/1.5090222
   * E. Caldeweyher, J.-M. Mewes, S. Ehlert and S. Grimme, Phys. Chem. Chem. Phys.
     2020, 22, 8499-8512. DOI: 10.1039/D0CP00502A
   
   for sTDA-xTB:
   * S. Grimme and C. Bannwarth, J. Chem. Phys., 2016, 145, 054103.
     DOI: 10.1063/1.4959605
   
   in the mass-spec context:
   * V. Asgeirsson, C. Bauer and S. Grimme, Chem. Sci., 2017, 8, 4879.
     DOI: 10.1039/c7sc00601b
   * J. Koopman and S. Grimme, ACS Omega 2019, 4, 12, 15120-15133.
     DOI: 10.1021/acsomega.9b02011
   
   for metadynamics refer to:
   * S. Grimme, J. Chem. Theory Comput., 2019, 155, 2847-2862
     DOI: 10.1021/acs.jctc.9b00143
   
   for SPH calculations refer to:
   * S. Spicher and S. Grimme, J. Chem. Theory Comput., 2021, 17, 1701-1714
     DOI: 10.1021/acs.jctc.0c01306
   
   for ONIOM refer to:
   * C. Plett, A. Katbashev, S. Ehlert, S. Grimme, M. Bursch,
     Phys. Chem. Chem. Phys., 2023, 25, 17860-17868. DOI: 10.1039/D3CP02178E
   
   for DIPRO refer to:
   * J. Kohn, N. Gildemeister, S. Grimme, D. Fazzi, A. Hansen,
     J. Chem. Phys., 2023, just accepted.
   
   for PTB refer to:
   * S. Grimme, M. Mueller, A. Hansen, J. Chem. Phys., 2023, 158, 124111.
     DOI: 10.1063/5.0137838
   
   with help from (in alphabetical order)
   P. Atkinson, C. Bannwarth, F. Bohle, G. Brandenburg, E. Caldeweyher
   M. Checinski, S. Dohm, S. Ehlert, S. Ehrlich, I. Gerasimov, C. Hölzer
   A. Katbashev, J. Kohn, J. Koopman, C. Lavigne, S. Lehtola, F. März, M. Müller,
   F. Musil, H. Neugebauer, J. Pisarek, C. Plett, P. Pracht, F. Pultar,
   J. Seibert, P. Shushkov, S. Spicher, M. Stahn, M. Steiner, T. Strunk,
   J. Stückrath, T. Rose, and J. Unsleber
   
 * started run on 2026/08/20 at 20:29:34.165     
   ID    Z sym.   atoms
    1    7 N      1, 44, 53
    2    6 C      2-15, 45, 47, 48, 54
    3    8 O      16, 17, 41, 46, 49
    4    1 H      18-40, 42, 43, 50-52, 55-57

           -------------------------------------------------
          |                Calculation Setup                |
           -------------------------------------------------

          program call               : C:\Users\Nayanika\Downloads\xtb-6.7.1pre-windows-x86_64\xtb-6.7.1\bin\xtb.exe D:\PhD_Thesis\LmrR_EVB\charges\fast_lmrr_5QM\xtb_preparation\stage2_five_xtb_protocols\GFN2_etemp300\RS1_1_to_TS1_2\RS1_1_to_TS1_2_RS_xtbopt.xyz --gfn 2 --chrg 0 --uhf 0 --hess --etemp 300
          coordinate file            : D:\PhD_Thesis\LmrR_EVB\charges\fast_lmrr_5QM\xtb_preparation\stage2_five_xtb_protocols\GFN2_etemp300\RS1_1_to_TS1_2\RS1_1_to_TS1_2_RS_xtbopt.xyz
          omp threads                :                     8


molecular fragmentation (1/2 indicates fragments):
111111111222222221111111111122222222222222211111111111111
# atoms in fragment 1/2:    34    23
 fragment masses (1/2) :      235.28      134.17
CMA distance (Bohr)    :   7.504
constraining FC (au)   :  0.0500

           -------------------------------------------------
          |                 G F N 2 - x T B                 |
           -------------------------------------------------

        Reference                      10.1021/acs.jctc.8b01176
      * Hamiltonian:
        H0-scaling (s, p, d)           1.850000    2.230000    2.230000
        zeta-weighting                 0.500000
      * Dispersion:
        s8                             2.700000
        a1                             0.520000
        a2                             5.000000
        s9                             5.000000
      * Repulsion:
        kExp                           1.500000    1.000000
        rExp                           1.000000
      * Coulomb:
        alpha                          2.000000
        third order                    shell-resolved
        anisotropic                    true
        a3                             3.000000
        a5                             4.000000
        cn-shift                       1.200000
        cn-exp                         4.000000
        max-rad                        5.000000

q/qsh data taken from xtbrestart
CAMM data taken from xtbrestart

          ...................................................
          :                      SETUP                      :
          :.................................................:
          :  # basis functions                 135          :
          :  # atomic orbitals                 135          :
          :  # shells                           83          :
          :  # electrons                       148          :
          :  max. iterations                   250          :
          :  Hamiltonian                  GFN2-xTB          :
          :  restarted?                       true          :
          :  GBSA solvation                  false          :
          :  PC potential                    false          :
          :  electronic temp.          300.0000000     K    :
          :  accuracy                    1.0000000          :
          :  -> integral cutoff          0.2500000E+02      :
          :  -> integral neglect         0.1000000E-07      :
          :  -> SCF convergence          0.1000000E-05 Eh   :
          :  -> wf. convergence          0.1000000E-03 e    :
          :  Broyden damping             0.4000000          :
          :  net charge                          0          :
          :  unpaired electrons                  0          :
          ...................................................

 iter      E             dE          RMSdq      gap      omega  full diag
   1    -84.5446004 -0.845446E+02  0.169E-06    1.11       0.0  T
   2    -84.5446004  0.426326E-13  0.131E-06    1.11   10135.5  T
   3    -84.5446004  0.000000E+00  0.619E-07    1.11   21381.1  T

   *** convergence criteria satisfied after 3 iterations ***

         #    Occupation            Energy/Eh            Energy/eV
      -------------------------------------------------------------
         1        2.0000           -0.7288942             -19.8342
       ...           ...                  ...                  ...
        68        2.0000           -0.4141322             -11.2691
        69        2.0000           -0.4112447             -11.1905
        70        2.0000           -0.3958722             -10.7722
        71        2.0000           -0.3947707             -10.7423
        72        2.0000           -0.3870030             -10.5309
        73        2.0000           -0.3760287             -10.2323
        74        2.0000           -0.3506553              -9.5418 (HOMO)
        75                         -0.3099031              -8.4329 (LUMO)
        76                         -0.2127990              -5.7906
        77                         -0.2115389              -5.7563
        78                         -0.2042008              -5.5566
        79                         -0.1924363              -5.2365
       ...                                ...                  ...
       135                          0.6695567              18.2196
      -------------------------------------------------------------
                  HL-Gap            0.0407522 Eh            1.1089 eV
             Fermi-level           -0.3302792 Eh           -8.9874 eV

 SCC (total)                   0 d,  0 h,  0 min,  0.033 sec
 SCC setup                      ...        0 min,  0.000 sec (  0.000%)
 Dispersion                     ...        0 min,  0.001 sec (  3.031%)
 classical contributions        ...        0 min,  0.000 sec (  0.000%)
 integral evaluation            ...        0 min,  0.004 sec ( 12.121%)
 iterations                     ...        0 min,  0.024 sec ( 72.727%)
 molecular gradient             ...        0 min,  0.004 sec ( 12.121%)
 printout                       ...        0 min,  0.000 sec (  0.000%)

         :::::::::::::::::::::::::::::::::::::::::::::::::::::
         ::                     SUMMARY                     ::
         :::::::::::::::::::::::::::::::::::::::::::::::::::::
         :: total energy             -83.440937541188 Eh    ::
         :: gradient norm              0.000291261634 Eh/a0 ::
         :: HOMO-LUMO gap              1.108923262073 eV    ::
         ::.................................................::
         :: SCC energy               -84.542831033362 Eh    ::
         :: -> isotropic ES            0.177587867018 Eh    ::
         :: -> anisotropic ES         -0.004734890297 Eh    ::
         :: -> anisotropic XC          0.030259336119 Eh    ::
         :: -> dispersion             -0.059047473855 Eh    ::
         :: repulsion energy           1.101893492173 Eh    ::
         :: add. restraining           0.000000000000 Eh    ::
         :: total charge              -0.000000000000 e     ::
         :::::::::::::::::::::::::::::::::::::::::::::::::::::

           ------------------------------------------------- 
          |                Numerical Hessian                |
           ------------------------------------------------- 
step length          :   0.00500
SCC accuracy         :   0.30000
Hessian scale factor :   1.00000
frozen atoms in %    :   0.00000    0
RMS gradient         :   0.00029
estimated CPU  time      4.77 min
estimated wall time      0.72 min

writing file <hessian>.

 projected vibrational frequencies (cm⁻¹)
eigval :       -0.00    -0.00    -0.00     0.00     0.00     0.00
eigval :       11.27    17.11    23.08    28.67    33.52    36.55
eigval :       47.99    49.09    55.21    60.27    68.02    72.46
eigval :       79.55    86.25    88.41   106.50   108.34   112.59
eigval :      119.38   122.15   123.19   142.36   158.21   167.85
eigval :      178.75   183.15   192.42   201.84   211.72   230.71
eigval :      233.10   245.56   264.08   291.55   310.39   312.02
eigval :      349.73   365.70   373.73   378.85   387.55   395.87
eigval :      411.58   418.83   430.97   470.80   485.56   506.57
eigval :      517.89   536.78   576.43   586.31   601.45   615.02
eigval :      635.52   648.44   652.79   686.68   698.07   720.20
eigval :      735.92   761.74   785.70   788.71   808.96   852.69
eigval :      866.01   883.85   890.65   904.22   915.58   920.59
eigval :      923.45   935.80   936.92  1000.95  1003.64  1009.52
eigval :     1020.27  1033.22  1035.22  1053.51  1088.67  1089.79
eigval :     1104.90  1105.40  1113.64  1131.93  1143.16  1146.58
eigval :     1163.69  1167.09  1199.37  1207.73  1215.20  1224.22
eigval :     1225.91  1245.05  1258.32  1265.20  1280.98  1291.70
eigval :     1293.14  1305.73  1323.64  1330.62  1345.44  1348.12
eigval :     1376.72  1384.78  1392.23  1417.28  1430.18  1432.49
eigval :     1441.12  1456.15  1459.29  1463.90  1466.62  1467.31
eigval :     1486.30  1487.62  1492.71  1499.82  1502.38  1525.80
eigval :     1543.07  1560.14  1576.16  1623.02  1652.64  1689.99
eigval :     1707.44  1746.89  2848.26  2949.09  2955.71  2970.63
eigval :     2975.64  2988.54  2988.76  2991.70  2997.61  3008.31
eigval :     3019.41  3028.87  3037.29  3041.47  3045.50  3053.08
eigval :     3055.32  3057.64  3063.65  3070.21  3072.19  3077.63
eigval :     3108.29  3231.42  3328.87  3380.60  3396.35  3409.54
eigval :     3494.54  3652.58  3669.55
           -------------------------------------------------
          |                Property Printout                |
           -------------------------------------------------

    * Orbital Energies and Occupations

         #    Occupation            Energy/Eh            Energy/eV
      -------------------------------------------------------------
         1        2.0000           -0.7288942             -19.8342
       ...           ...                  ...                  ...
        62        2.0000           -0.4451687             -12.1137
        63        2.0000           -0.4353626             -11.8468
        64        2.0000           -0.4316378             -11.7455
        65        2.0000           -0.4288040             -11.6684
        66        2.0000           -0.4271432             -11.6232
        67        2.0000           -0.4195071             -11.4154
        68        2.0000           -0.4141322             -11.2691
        69        2.0000           -0.4112446             -11.1905
        70        2.0000           -0.3958722             -10.7722
        71        2.0000           -0.3947707             -10.7423
        72        2.0000           -0.3870030             -10.5309
        73        2.0000           -0.3760287             -10.2323
        74        2.0000           -0.3506553              -9.5418 (HOMO)
        75                         -0.3099031              -8.4329 (LUMO)
        76                         -0.2127990              -5.7906
        77                         -0.2115389              -5.7563
        78                         -0.2042008              -5.5566
        79                         -0.1924362              -5.2365
        80                         -0.1911885              -5.2025
        81                         -0.0817995              -2.2259
        82                         -0.0013929              -0.0379
        83                          0.0264815               0.7206
        84                          0.0294466               0.8013
        85                          0.0580117               1.5786
       ...                                ...                  ...
       135                          0.6695567              18.2196
      -------------------------------------------------------------
                  HL-Gap            0.0407522 Eh            1.1089 eV
             Fermi-level           -0.3302792 Eh           -8.9874 eV

     #   Z          covCN         q      C6AA      α(0)
     1   7 N        2.641    -0.293    27.557     7.796
     2   6 C        2.899     0.075    26.330     8.413
     3   6 C        2.922    -0.069    29.732     8.942
     4   6 C        2.924    -0.045    29.112     8.848
     5   6 C        2.972    -0.010    28.270     8.721
     6   6 C        2.924    -0.041    29.031     8.836
     7   6 C        2.924    -0.071    29.780     8.949
     8   6 C        3.809    -0.069    21.815     6.649
     9   6 C        3.791     0.019    20.258     6.410
    10   6 C        2.769     0.208    23.589     7.954
    11   6 C        2.891    -0.070    29.737     8.941
    12   6 C        2.899     0.003    27.963     8.670
    13   6 C        3.807    -0.063    21.711     6.633
    14   6 C        3.802    -0.050    21.469     6.597
    15   6 C        3.752    -0.107    22.605     6.780
    16   8 O        0.857    -0.390    21.485     6.215
    17   8 O        1.609    -0.604    25.292     6.788
    18   1 H        0.860     0.199     1.111     1.651
    19   1 H        0.860     0.151     1.394     1.850
    20   1 H        0.925     0.017     2.772     2.604
    21   1 H        0.926     0.024     2.680     2.560
    22   1 H        0.926     0.026     2.638     2.540
    23   1 H        0.926     0.046     2.364     2.404
    24   1 H        0.925     0.060     2.194     2.316
    25   1 H        0.924     0.044     2.399     2.422
    26   1 H        0.924     0.056     2.243     2.342
    27   1 H        0.860     0.195     1.130     1.666
    28   1 H        0.860     0.220     1.010     1.574
    29   1 H        0.923     0.038     2.479     2.462
    30   1 H        0.925     0.065     2.140     2.288
    31   1 H        0.925     0.065     2.136     2.286
    32   1 H        0.924     0.072     2.064     2.247
    33   1 H        0.924     0.057     2.231     2.336
    34   1 H        0.924     0.037     2.490     2.468
    35   1 H        0.924     0.038     2.471     2.458
    36   1 H        0.925     0.041     2.429     2.437
    37   1 H        0.925     0.040     2.445     2.445
    38   1 H        0.925     0.043     2.409     2.427
    39   1 H        0.804     0.316     0.676     1.291
    40   1 H        0.806     0.271     0.814     1.417
    41   8 O        1.609    -0.598    25.136     6.767
    42   1 H        0.804     0.317     0.671     1.287
    43   1 H        0.805     0.283     0.773     1.381
    44   7 N        2.688    -0.188    25.067     7.436
    45   6 C        2.753     0.264    22.539     7.774
    46   8 O        0.858    -0.455    22.806     6.403
    47   6 C        3.758    -0.148    23.411     6.898
    48   6 C        2.745     0.281    22.235     7.721
    49   8 O        0.858    -0.459    22.903     6.416
    50   1 H        0.925     0.068     2.111     2.272
    51   1 H        0.925     0.065     2.139     2.287
    52   1 H        0.925     0.068     2.110     2.272
    53   7 N        2.684    -0.180    24.905     7.412
    54   6 C        3.692    -0.041    21.489     6.633
    55   1 H        0.924     0.048     2.348     2.396
    56   1 H        0.924     0.050     2.322     2.383
    57   1 H        0.925     0.079     1.993     2.208

 Mol. C6AA /au·bohr⁶  :      29500.018941
 Mol. C8AA /au·bohr⁸  :     657457.497981
 Mol. α(0) /au        :        262.578166


Wiberg/Mayer (AO) data.
largest (>0.10) Wiberg bond orders for each atom

 ---------------------------------------------------------------------------
     #   Z sym  total        # sym  WBO       # sym  WBO       # sym  WBO
 ---------------------------------------------------------------------------
     1   7 N    3.254 --     2 C    1.174    19 H    0.956    18 H    0.923
     2   6 C    3.973 --     3 C    1.341     7 C    1.334     1 N    1.174
     3   6 C    3.986 --     4 C    1.461     2 C    1.341    20 H    0.969
     4   6 C    3.991 --     3 C    1.461     5 C    1.401    21 H    0.969
     5   6 C    3.986 --     4 C    1.401     6 C    1.393     8 C    1.011
     6   6 C    3.991 --     7 C    1.468     5 C    1.393    22 H    0.968
     7   6 C    3.987 --     6 C    1.468     2 C    1.334    23 H    0.963
     8   6 C    3.992 --     5 C    1.011    25 H    0.971    24 H    0.967
                             9 C    0.956
     9   6 C    3.962 --    44 N    0.978    26 H    0.963     8 C    0.956
                            45 C    0.923
    10   6 C    3.918 --    16 O    1.766    11 C    1.132    29 H    0.934
    11   6 C    3.987 --    12 C    1.772    10 C    1.132    30 H    0.954
    12   6 C    3.971 --    11 C    1.772    13 C    1.056    31 H    0.959
                            16 O    0.100
    13   6 C    3.994 --    12 C    1.056    14 C    0.979    33 H    0.972
                            32 H    0.939
    14   6 C    3.990 --    15 C    1.019    34 H    0.979    13 C    0.979
                            35 H    0.978
    15   6 C    3.994 --    14 C    1.019    37 H    0.987    38 H    0.987
                            36 H    0.985
    16   8 O    2.053 --    10 C    1.766    12 C    0.100
    17   8 O    1.832 --    40 H    0.923    39 H    0.853
    18   1 H    0.960 --     1 N    0.923
    19   1 H    0.977 --     1 N    0.956
    20   1 H    0.999 --     3 C    0.969
    21   1 H    0.999 --     4 C    0.969
    22   1 H    0.999 --     6 C    0.968
    23   1 H    0.998 --     7 C    0.963
    24   1 H    0.996 --     8 C    0.967
    25   1 H    0.997 --     8 C    0.971
    26   1 H    0.997 --     9 C    0.963
    27   1 H    0.962 --    44 N    0.922
    28   1 H    0.952 --    53 N    0.878
    29   1 H    0.999 --    10 C    0.934
    30   1 H    0.996 --    11 C    0.954
    31   1 H    0.996 --    12 C    0.959
    32   1 H    0.989 --    13 C    0.939
    33   1 H    0.997 --    13 C    0.972
    34   1 H    0.998 --    14 C    0.979
    35   1 H    0.999 --    14 C    0.978
    36   1 H    0.997 --    15 C    0.985
    37   1 H    0.998 --    15 C    0.987
    38   1 H    0.998 --    15 C    0.987
    39   1 H    0.900 --    17 O    0.853
    40   1 H    0.926 --    17 O    0.923
    41   8 O    1.861 --    43 H    0.917    42 H    0.857
    42   1 H    0.899 --    41 O    0.857
    43   1 H    0.920 --    41 O    0.917
    44   7 N    3.454 --    48 C    1.280     9 C    0.978    27 H    0.922
                            49 O    0.188
    45   6 C    3.958 --    46 O    1.655    53 N    1.310     9 C    0.923
    46   8 O    1.985 --    45 C    1.655    53 N    0.213
    47   6 C    3.992 --    48 C    0.986    50 H    0.980    52 H    0.973
                            51 H    0.962
    48   6 C    3.948 --    49 O    1.629    44 N    1.280    47 C    0.986
    49   8 O    2.001 --    48 C    1.629    44 N    0.188
    50   1 H    0.995 --    47 C    0.980
    51   1 H    0.996 --    47 C    0.962
    52   1 H    0.995 --    47 C    0.973
    53   7 N    3.473 --    45 C    1.310    54 C    1.007    28 H    0.878
                            46 O    0.213
    54   6 C    3.968 --    53 N    1.007    57 H    0.977    56 H    0.977
                            55 H    0.977
    55   1 H    0.998 --    54 C    0.977
    56   1 H    0.997 --    54 C    0.977
    57   1 H    0.994 --    54 C    0.977
 ---------------------------------------------------------------------------

Topologies differ in total number of bonds
Writing topology from bond orders to xtbtopo.mol

molecular dipole:
                 x           y           z       tot (Debye)
 q only:       -1.390       0.675      -0.563
   full:       -1.667       0.367      -0.697       4.686
molecular quadrupole (traceless):
                xx          xy          yy          xz          yz          zz
 q only:      -18.639      -9.761       9.172       3.264      -3.884       9.466
  q+dip:      -21.702     -15.983      10.279       0.488       0.832      11.422
   full:      -23.251     -15.410       8.583       0.483      -0.711      14.668

           -------------------------------------------------
          |               Frequency Printout                |
           -------------------------------------------------
 projected vibrational frequencies (cm⁻¹)
eigval :       -0.00    -0.00    -0.00     0.00     0.00     0.00
eigval :       11.27    17.11    23.08    28.67    33.52    36.55
eigval :       47.99    49.09    55.21    60.27    68.02    72.46
eigval :       79.55    86.25    88.41   106.50   108.34   112.59
eigval :      119.38   122.15   123.19   142.36   158.21   167.85
eigval :      178.75   183.15   192.42   201.84   211.72   230.71
eigval :      233.10   245.56   264.08   291.55   310.39   312.02
eigval :      349.73   365.70   373.73   378.85   387.55   395.87
eigval :      411.58   418.83   430.97   470.80   485.56   506.57
eigval :      517.89   536.78   576.43   586.31   601.45   615.02
eigval :      635.52   648.44   652.79   686.68   698.07   720.20
eigval :      735.92   761.74   785.70   788.71   808.96   852.69
eigval :      866.01   883.85   890.65   904.22   915.58   920.59
eigval :      923.45   935.80   936.92  1000.95  1003.64  1009.52
eigval :     1020.27  1033.22  1035.22  1053.51  1088.67  1089.79
eigval :     1104.90  1105.40  1113.64  1131.93  1143.16  1146.58
eigval :     1163.69  1167.09  1199.37  1207.73  1215.20  1224.22
eigval :     1225.91  1245.05  1258.32  1265.20  1280.98  1291.70
eigval :     1293.14  1305.73  1323.64  1330.62  1345.44  1348.12
eigval :     1376.72  1384.78  1392.23  1417.28  1430.18  1432.49
eigval :     1441.12  1456.15  1459.29  1463.90  1466.62  1467.31
eigval :     1486.30  1487.62  1492.71  1499.82  1502.38  1525.80
eigval :     1543.07  1560.14  1576.16  1623.02  1652.64  1689.99
eigval :     1707.44  1746.89  2848.26  2949.09  2955.71  2970.63
eigval :     2975.64  2988.54  2988.76  2991.70  2997.61  3008.31
eigval :     3019.41  3028.87  3037.29  3041.47  3045.50  3053.08
eigval :     3055.32  3057.64  3063.65  3070.21  3072.19  3077.63
eigval :     3108.29  3231.42  3328.87  3380.60  3396.35  3409.54
eigval :     3494.54  3652.58  3669.55
 reduced masses (amu)
   1: 12.36   2: 12.01   3: 12.28   4: 11.57   5: 11.58   6: 12.47   7: 11.37   8: 11.83
   9: 10.43  10: 12.46  11: 12.89  12: 11.13  13: 11.00  14: 10.18  15: 12.85  16: 12.45
  17: 10.75  18:  9.78  19: 11.34  20: 10.62  21: 10.48  22: 11.50  23: 11.65  24:  3.42
  25:  2.44  26:  9.46  27:  8.85  28:  9.07  29: 11.50  30: 10.64  31: 11.55  32: 11.15
  33:  5.82  34: 10.98  35:  7.72  36: 11.33  37:  3.98  38: 11.23  39:  9.44  40: 10.55
  41: 10.08  42: 10.32  43: 10.36  44: 11.71  45:  8.69  46:  8.64  47:  2.38  48:  6.22
  49:  7.99  50:  7.11  51:  3.68  52: 10.64  53:  8.98  54: 10.31  55:  7.77  56:  8.49
  57: 11.09  58:  7.48  59:  3.28  60: 10.49  61:  4.79  62:  9.10  63: 10.24  64:  9.74
  65:  3.80  66:  5.81  67:  7.92  68:  4.42  69:  9.46  70:  2.83  71:  6.11  72: 10.62
  73:  3.35  74: 10.86  75:  3.50  76:  2.73  77:  6.17  78:  6.88  79:  4.71  80:  9.20
  81:  6.30  82:  5.59  83:  1.96  84:  5.85  85:  8.40  86:  4.28  87:  7.83  88:  4.34
  89:  8.94  90:  9.50  91:  4.82  92:  7.35  93:  7.60  94:  8.11  95:  3.61  96:  7.98
  97:  6.59  98:  5.64  99:  1.76 100:  5.01 101:  4.63 102:  3.65 103:  6.06 104:  4.71
 105:  3.80 106:  4.89 107:  3.48 108:  3.31 109:  3.55 110:  4.49 111:  4.75 112:  8.64
 113: 11.23 114:  4.75 115:  3.30 116:  3.45 117:  2.62 118:  3.13 119:  8.74 120:  9.61
 121:  8.58 122:  1.75 123:  2.06 124:  1.58 125:  2.07 126:  1.72 127:  2.88 128:  4.32
 129:  1.86 130:  1.53 131:  1.62 132:  8.89 133:  2.19 134:  2.11 135: 11.51 136: 11.51
 137: 11.48 138: 13.20 139: 13.05 140: 13.07 141:  1.72 142:  1.77 143:  1.75 144:  1.94
 145:  1.92 146:  1.52 147:  1.45 148:  1.79 149:  1.70 150:  1.70 151:  1.77 152:  1.73
 153:  1.90 154:  1.94 155:  1.32 156:  1.45 157:  1.81 158:  1.78 159:  1.94 160:  1.84
 161:  1.87 162:  1.81 163:  1.84 164:  1.91 165:  1.87 166:  1.86 167:  1.62 168:  1.86
 169:  2.01 170:  1.83 171:  1.84
 IR intensities (km·mol⁻¹)
   1:  0.19   2:  0.05   3:  0.08   4:  0.02   5:  0.05   6:  0.11   7:  0.90   8:  1.16
   9:  0.29  10:  0.41  11:  1.41  12:  1.10  13:  1.52  14:  1.71  15:  2.02  16:  4.58
  17:  1.14  18:  0.38  19:  1.51  20:  2.71  21:  1.81  22: 11.63  23:  3.66  24:  1.55
  25:  1.50  26: 19.89  27: 18.15  28: 31.77  29: 43.94  30:  6.86  31:  4.85  32:  2.84
  33: 55.81  34:  2.54  35: 47.51  36:  5.19  37:  4.38  38: 42.73  39: 20.32  40:  6.44
  41:  7.99  42: 10.07  43:  5.41  44: 10.96  45:  0.85  46:  7.11  47: 53.59  48: 16.51
  49: 16.95  50: 47.07  51:107.34  52:  7.24  53:  7.78  54: 17.90  55: 27.44  56: 81.02
  57:  9.56  58:  9.30  59:190.86  60:  5.87  61:202.14  62: 52.22  63: 34.56  64: 35.94
  65:346.81  66: 73.07  67: 30.47  68:  0.61  69: 25.24  70: 17.68  71: 30.70  72:  3.94
  73:  4.52  74:  0.32  75: 10.50  76:  0.82  77: 18.04  78:  6.81  79:  1.15  80:  8.21
  81:  5.14  82: 30.55  83: 19.84  84:  6.73  85:  1.77  86: 20.11  87:  1.31  88:  4.39
  89:  1.65  90: 37.10  91: 16.35  92: 30.33  93: 30.20  94: 15.53  95:  3.00  96:  5.85
  97: 17.53  98: 49.82  99:  8.44 100:  4.01 101:  8.69 102:  5.37 103: 16.24 104: 13.94
 105: 10.26 106: 26.20 107: 10.82 108:  0.31 109:  1.19 110:  6.58 111: 28.62 112: 46.16
 113: 10.22 114: 17.73 115: 39.40 116: 12.67 117:  4.61 118:  2.03 119:189.04 120:  6.82
 121:269.41 122:  6.93 123:  2.81 124:  9.81 125:  8.64 126:  3.37 127: 44.13 128:  6.69
 129:  0.54 130:  4.22 131:  2.60 132:183.89 133:118.22 134:230.79 135:  2.79 136:129.32
 137:447.98 138:338.26 139:233.31 140:653.22 141: 44.27 142:  6.27 143: 19.24 144: 29.93
 145: 25.70 146: 34.10 147: 42.62 148: 22.02 149: 24.20 150: 12.16 151:  7.22 152: 13.99
 153: 44.95 154: 42.01 155: 28.12 156:  4.14 157:  3.28 158: 26.12 159:  6.04 160: 31.37
 161: 58.66 162: 17.06 163: 13.20 164:351.04 165:473.61 166:492.45 167:194.22 168:115.88
 169: 20.48 170: 12.60 171:  3.63
 Raman intensities (Ä⁴*amu⁻¹)
   1:  0.00   2:  0.00   3:  0.00   4:  0.00   5:  0.00   6:  0.00   7:  0.00   8:  0.00
   9:  0.00  10:  0.00  11:  0.00  12:  0.00  13:  0.00  14:  0.00  15:  0.00  16:  0.00
  17:  0.00  18:  0.00  19:  0.00  20:  0.00  21:  0.00  22:  0.00  23:  0.00  24:  0.00
  25:  0.00  26:  0.00  27:  0.00  28:  0.00  29:  0.00  30:  0.00  31:  0.00  32:  0.00
  33:  0.00  34:  0.00  35:  0.00  36:  0.00  37:  0.00  38:  0.00  39:  0.00  40:  0.00
  41:  0.00  42:  0.00  43:  0.00  44:  0.00  45:  0.00  46:  0.00  47:  0.00  48:  0.00
  49:  0.00  50:  0.00  51:  0.00  52:  0.00  53:  0.00  54:  0.00  55:  0.00  56:  0.00
  57:  0.00  58:  0.00  59:  0.00  60:  0.00  61:  0.00  62:  0.00  63:  0.00  64:  0.00
  65:  0.00  66:  0.00  67:  0.00  68:  0.00  69:  0.00  70:  0.00  71:  0.00  72:  0.00
  73:  0.00  74:  0.00  75:  0.00  76:  0.00  77:  0.00  78:  0.00  79:  0.00  80:  0.00
  81:  0.00  82:  0.00  83:  0.00  84:  0.00  85:  0.00  86:  0.00  87:  0.00  88:  0.00
  89:  0.00  90:  0.00  91:  0.00  92:  0.00  93:  0.00  94:  0.00  95:  0.00  96:  0.00
  97:  0.00  98:  0.00  99:  0.00 100:  0.00 101:  0.00 102:  0.00 103:  0.00 104:  0.00
 105:  0.00 106:  0.00 107:  0.00 108:  0.00 109:  0.00 110:  0.00 111:  0.00 112:  0.00
 113:  0.00 114:  0.00 115:  0.00 116:  0.00 117:  0.00 118:  0.00 119:  0.00 120:  0.00
 121:  0.00 122:  0.00 123:  0.00 124:  0.00 125:  0.00 126:  0.00 127:  0.00 128:  0.00
 129:  0.00 130:  0.00 131:  0.00 132:  0.00 133:  0.00 134:  0.00 135:  0.00 136:  0.00
 137:  0.00 138:  0.00 139:  0.00 140:  0.00 141:  0.00 142:  0.00 143:  0.00 144:  0.00
 145:  0.00 146:  0.00 147:  0.00 148:  0.00 149:  0.00 150:  0.00 151:  0.00 152:  0.00
 153:  0.00 154:  0.00 155:  0.00 156:  0.00 157:  0.00 158:  0.00 159:  0.00 160:  0.00
 161:  0.00 162:  0.00 163:  0.00 164:  0.00 165:  0.00 166:  0.00 167:  0.00 168:  0.00
 169:  0.00 170:  0.00 171:  0.00
 output can be read by thermo (or use thermo option).
 writing <g98.out> molden fake output.
 recommended (thermochemical) frequency scaling factor: 1.0
           -------------------------------------------------
          |             Thermodynamic Functions             |
           -------------------------------------------------

Refinement of some symmetry elements was terminated before convergence was reached.
Some symmetry elements may remain unidentified.
Molecule has no symmetry elements
It seems to be the C1 point group
c1  symmetry found (for desy threshold:  0.10E+00) used in thermo

          ...................................................
          :                      SETUP                      :
          :.................................................:
          :  # frequencies                         165      :
          :  # imaginary freq.                       0      :
          :  linear?                             false      :
          :  only rotor calc.                    false      :
          :  symmetry                               c1      :
          :  rotational number                       1      :
          :  scaling factor                  1.0000000      :
          :  rotor cutoff                   50.0000000 cm⁻¹ :
          :  imag. cutoff                  -20.0000000 cm⁻¹ :
          :.................................................:

    mode    ω/cm⁻¹     T·S(HO)/kcal·mol⁻¹    T·S(FR)/kcal·mol⁻¹   T·S(vib)
   ------------------------------------------------------------------------
       1     11.27    -2.31765 (  0.26%)    -1.49778 ( 99.74%)    -1.49989
       2     17.11    -2.07025 (  1.35%)    -1.37408 ( 98.65%)    -1.38350
       3     23.08    -1.89316 (  4.34%)    -1.28548 ( 95.66%)    -1.31188
       4     28.67    -1.76493 (  9.75%)    -1.22130 ( 90.25%)    -1.27431
       5     33.52    -1.67237 ( 16.81%)    -1.17494 ( 83.19%)    -1.25856
       6     36.55    -1.62131 ( 22.21%)    -1.14935 ( 77.79%)    -1.25417
       7     47.99    -1.46048 ( 45.91%)    -1.06867 ( 54.09%)    -1.24855
       8     49.09    -1.44714 ( 48.16%)    -1.06197 ( 51.84%)    -1.24748
       9     55.21    -1.37792 ( 59.78%)    -1.02718 ( 40.22%)    -1.23685
      10     60.27    -1.32631 ( 67.85%)    -1.00121 ( 32.15%)    -1.22179
      11     68.02    -1.25515 ( 77.40%)    -0.96534 ( 22.60%)    -1.18966
      12     72.46    -1.21803 ( 81.52%)    -0.94661 ( 18.48%)    -1.16787
      13     79.55    -1.16334 ( 86.50%)    -0.91896 ( 13.50%)    -1.13035
      14     86.25    -1.11610 ( 89.85%)    -0.89502 ( 10.15%)    -1.09367
      15     88.41    -1.10163 ( 90.72%)    -0.88768 (  9.28%)    -1.08177
      16    106.50    -0.99336 ( 95.37%)    -0.83255 (  4.63%)    -0.98591
      17    108.34    -0.98344 ( 95.66%)    -0.82747 (  4.34%)    -0.97667
      18    112.59    -0.96117 ( 96.26%)    -0.81607 (  3.74%)    -0.95574
      19    119.38    -0.92736 ( 97.01%)    -0.79873 (  2.99%)    -0.92352
      20    122.15    -0.91415 ( 97.27%)    -0.79193 (  2.73%)    -0.91081
      21    123.19    -0.90928 ( 97.36%)    -0.78942 (  2.64%)    -0.90612
      22    142.36    -0.82644 ( 98.50%)    -0.74657 (  1.50%)    -0.82525
      23    158.21    -0.76655 ( 99.01%)    -0.71529 (  0.99%)    -0.76605
      24    167.85    -0.73326 ( 99.22%)    -0.69777 (  0.78%)    -0.73298
      25    178.75    -0.69809 ( 99.39%)    -0.67914 (  0.61%)    -0.69797
      26    183.15    -0.68456 ( 99.45%)    -0.67193 (  0.55%)    -0.68449
      27    192.42    -0.65723 ( 99.55%)    -0.65730 (  0.45%)    -0.65723
      28    201.84    -0.63096 ( 99.62%)    -0.64315 (  0.38%)    -0.63100
      29    211.72    -0.60488 ( 99.69%)    -0.62899 (  0.31%)    -0.60496
      30    230.71    -0.55856 ( 99.78%)    -0.60355 (  0.22%)    -0.55866
      31    233.10    -0.55306 ( 99.79%)    -0.60050 (  0.21%)    -0.55316
      32    245.56    -0.52540 ( 99.83%)    -0.58507 (  0.17%)    -0.52551
      33    264.08    -0.48737 ( 99.87%)    -0.56353 (  0.13%)    -0.48747
      34    291.55    -0.43677 ( 99.91%)    -0.53421 (  0.09%)    -0.43686
   ------------------------------------------------------------------------

   temp. (K)  partition function   enthalpy   heat capacity  entropy
                                   cal/mol     cal/K/mol   cal/K/mol   J/K/mol
 298.15  VIB  0.207E+18            20012.603    107.321    132.146
         ROT  0.156E+08              888.752      2.981     35.901
         INT  0.323E+25            20901.355    110.302    168.047
         TR   0.687E+28             1481.254      4.968     43.594
         TOT                       22382.6089   115.2699   211.6405   885.5039

       T/K    H(0)-H(T)+PV         H(T)/Eh          T*S/Eh         G(T)/Eh
   ------------------------------------------------------------------------
    298.15    0.356690E-01    0.503052E+00    0.100557E+00    0.402494E+00
   ------------------------------------------------------------------------

         :::::::::::::::::::::::::::::::::::::::::::::::::::::
         ::                  THERMODYNAMIC                  ::
         :::::::::::::::::::::::::::::::::::::::::::::::::::::
         :: total free energy         -83.038443052951 Eh   ::
         ::.................................................::
         :: total energy              -83.440937541188 Eh   ::
         :: zero point energy           0.467382771560 Eh   ::
         :: G(RRHO) w/o ZPVE           -0.064888283323 Eh   ::
         :: G(RRHO) contrib.            0.402494488237 Eh   ::
         :::::::::::::::::::::::::::::::::::::::::::::::::::::

           -------------------------------------------------
          | TOTAL ENERGY              -83.440937541188 Eh   |
          | TOTAL ENTHALPY            -82.937885811875 Eh   |
          | TOTAL FREE ENERGY         -83.038443052951 Eh   |
          | GRADIENT NORM               0.000291257321 Eh/α |
          | HOMO-LUMO GAP               1.108923527606 eV   |
           -------------------------------------------------

------------------------------------------------------------------------
 * finished run on 2026/08/20 at 20:29:39.504     
------------------------------------------------------------------------
 total:
 * wall-time:     0 d,  0 h,  0 min,  5.338 sec
 *  cpu-time:     0 d,  0 h,  0 min, 35.000 sec
 * ratio c/w:     6.557 speedup
 SCF:
 * wall-time:     0 d,  0 h,  0 min,  0.033 sec
 *  cpu-time:     0 d,  0 h,  0 min,  0.078 sec
 * ratio c/w:     2.367 speedup
 analytical hessian:
 * wall-time:     0 d,  0 h,  0 min,  5.265 sec
 *  cpu-time:     0 d,  0 h,  0 min, 34.875 sec
 * ratio c/w:     6.624 speedup



===== STDERR =====

normal termination of xtb
