      -----------------------------------------------------------      
     |                   =====================                   |     
     |                           x T B                           |     
     |                   =====================                   |     
     |                         S. Grimme                         |     
     |          Mulliken Center for Theoretical Chemistry        |     
     |                    University of Bonn                     |     
      -----------------------------------------------------------      

   * xtb version 6.7.1pre (5071a88) compiled by 'Marcel@Raven' on 2024-07-23

   xtb is free software: you can redistribute it and/or modify it under
   the terms of the GNU Lesser General Public License as published by
   the Free Software Foundation, either version 3 of the License, or
   (at your option) any later version.
   
   xtb is distributed in the hope that it will be useful,
   but WITHOUT ANY WARRANTY; without even the implied warranty of
   MERCHANTABILITY or FITNESS FOR A PARTICULAR PURPOSE.  See the
   GNU Lesser General Public License for more details.
   
   Cite this work as:
   * C. Bannwarth, E. Caldeweyher, S. Ehlert, A. Hansen, P. Pracht,
     J. Seibert, S. Spicher, S. Grimme, WIREs Comput. Mol. Sci., 2020, 11,
     e01493. DOI: 10.1002/wcms.1493
   
   for GFN2-xTB:
   * C. Bannwarth, S. Ehlert and S. Grimme., J. Chem. Theory Comput., 2019,
     15, 1652-1671. DOI: 10.1021/acs.jctc.8b01176
   for GFN1-xTB:
   * S. Grimme, C. Bannwarth, P. Shushkov, J. Chem. Theory Comput., 2017,
     13, 1989-2009. DOI: 10.1021/acs.jctc.7b00118
   for GFN0-xTB:
   * P. Pracht, E. Caldeweyher, S. Ehlert, S. Grimme, ChemRxiv, 2019, preprint.
     DOI: 10.26434/chemrxiv.8326202.v1
   for GFN-FF:
   * S. Spicher and S. Grimme, Angew. Chem. Int. Ed., 2020, 59, 15665-15673.
     DOI: 10.1002/anie.202004239
   
   for ALPB and GBSA implicit solvation:
   * S. Ehlert, M. Stahn, S. Spicher, S. Grimme, J. Chem. Theory Comput.,
     2021, 17, 4250-4261. DOI: 10.1021/acs.jctc.1c00471
   
   for ddCOSMO and CPCM-X implicit solvation:
   * M. Stahn, S. Ehlert, S. Grimme, J. Phys. Chem. A,
     2023, XX, XXXX-XXXX. DOI: 10.1021/acs.jpca.3c04382
   
   for DFT-D4:
   * E. Caldeweyher, C. Bannwarth and S. Grimme, J. Chem. Phys., 2017,
     147, 034112. DOI: 10.1063/1.4993215
   * E. Caldeweyher, S. Ehlert, A. Hansen, H. Neugebauer, S. Spicher,
     C. Bannwarth and S. Grimme, J. Chem. Phys., 2019, 150, 154122.
     DOI: 10.1063/1.5090222
   * E. Caldeweyher, J.-M. Mewes, S. Ehlert and S. Grimme, Phys. Chem. Chem. Phys.
     2020, 22, 8499-8512. DOI: 10.1039/D0CP00502A
   
   for sTDA-xTB:
   * S. Grimme and C. Bannwarth, J. Chem. Phys., 2016, 145, 054103.
     DOI: 10.1063/1.4959605
   
   in the mass-spec context:
   * V. Asgeirsson, C. Bauer and S. Grimme, Chem. Sci., 2017, 8, 4879.
     DOI: 10.1039/c7sc00601b
   * J. Koopman and S. Grimme, ACS Omega 2019, 4, 12, 15120-15133.
     DOI: 10.1021/acsomega.9b02011
   
   for metadynamics refer to:
   * S. Grimme, J. Chem. Theory Comput., 2019, 155, 2847-2862
     DOI: 10.1021/acs.jctc.9b00143
   
   for SPH calculations refer to:
   * S. Spicher and S. Grimme, J. Chem. Theory Comput., 2021, 17, 1701-1714
     DOI: 10.1021/acs.jctc.0c01306
   
   for ONIOM refer to:
   * C. Plett, A. Katbashev, S. Ehlert, S. Grimme, M. Bursch,
     Phys. Chem. Chem. Phys., 2023, 25, 17860-17868. DOI: 10.1039/D3CP02178E
   
   for DIPRO refer to:
   * J. Kohn, N. Gildemeister, S. Grimme, D. Fazzi, A. Hansen,
     J. Chem. Phys., 2023, just accepted.
   
   for PTB refer to:
   * S. Grimme, M. Mueller, A. Hansen, J. Chem. Phys., 2023, 158, 124111.
     DOI: 10.1063/5.0137838
   
   with help from (in alphabetical order)
   P. Atkinson, C. Bannwarth, F. Bohle, G. Brandenburg, E. Caldeweyher
   M. Checinski, S. Dohm, S. Ehlert, S. Ehrlich, I. Gerasimov, C. Hölzer
   A. Katbashev, J. Kohn, J. Koopman, C. Lavigne, S. Lehtola, F. März, M. Müller,
   F. Musil, H. Neugebauer, J. Pisarek, C. Plett, P. Pracht, F. Pultar,
   J. Seibert, P. Shushkov, S. Spicher, M. Stahn, M. Steiner, T. Strunk,
   J. Stückrath, T. Rose, and J. Unsleber
   
 * started run on 2026/08/20 at 20:29:18.632     
   ID    Z sym.   atoms
    1    7 N      1, 44, 53
    2    6 C      2-15, 45, 47, 48, 54
    3    8 O      16, 17, 41, 46, 49
    4    1 H      18-40, 42, 43, 50-52, 55-57

           -------------------------------------------------
          |                Calculation Setup                |
           -------------------------------------------------

          program call               : C:\Users\Nayanika\Downloads\xtb-6.7.1pre-windows-x86_64\xtb-6.7.1\bin\xtb.exe D:\PhD_Thesis\LmrR_EVB\charges\fast_lmrr_5QM\xtb_preparation\RS1_1_to_TS1_2\RS1_1_to_TS1_2_RS.xyz --gfn 2 --opt tight --chrg 0 --uhf 0 --etemp 300
          coordinate file            : D:\PhD_Thesis\LmrR_EVB\charges\fast_lmrr_5QM\xtb_preparation\RS1_1_to_TS1_2\RS1_1_to_TS1_2_RS.xyz
          omp threads                :                     8


molecular fragmentation (1/2 indicates fragments):
111111111222222221111111111122222222222222211111111111111
# atoms in fragment 1/2:    34    23
 fragment masses (1/2) :      235.28      134.17
CMA distance (Bohr)    :   9.061
constraining FC (au)   :  0.0500

           -------------------------------------------------
          |                 G F N 2 - x T B                 |
           -------------------------------------------------

        Reference                      10.1021/acs.jctc.8b01176
      * Hamiltonian:
        H0-scaling (s, p, d)           1.850000    2.230000    2.230000
        zeta-weighting                 0.500000
      * Dispersion:
        s8                             2.700000
        a1                             0.520000
        a2                             5.000000
        s9                             5.000000
      * Repulsion:
        kExp                           1.500000    1.000000
        rExp                           1.000000
      * Coulomb:
        alpha                          2.000000
        third order                    shell-resolved
        anisotropic                    true
        a3                             3.000000
        a5                             4.000000
        cn-shift                       1.200000
        cn-exp                         4.000000
        max-rad                        5.000000


          ...................................................
          :                      SETUP                      :
          :.................................................:
          :  # basis functions                 135          :
          :  # atomic orbitals                 135          :
          :  # shells                           83          :
          :  # electrons                       148          :
          :  max. iterations                   250          :
          :  Hamiltonian                  GFN2-xTB          :
          :  restarted?                      false          :
          :  GBSA solvation                  false          :
          :  PC potential                    false          :
          :  electronic temp.          300.0000000     K    :
          :  accuracy                    1.0000000          :
          :  -> integral cutoff          0.2500000E+02      :
          :  -> integral neglect         0.1000000E-07      :
          :  -> SCF convergence          0.1000000E-05 Eh   :
          :  -> wf. convergence          0.1000000E-03 e    :
          :  Broyden damping             0.4000000          :
          :  net charge                          0          :
          :  unpaired electrons                  0          :
          ...................................................

 iter      E             dE          RMSdq      gap      omega  full diag
   1    -84.1985124 -0.841985E+02  0.414E+00    2.44       0.0  T
   2    -84.3906425 -0.192130E+00  0.230E+00    2.08       1.0  T
   3    -84.4012067 -0.105643E-01  0.132E+00    2.55       1.0  T
   4    -84.4062853 -0.507856E-02  0.418E-01    2.43       1.0  T
   5    -84.4131533 -0.686802E-02  0.148E-01    2.48       1.0  T
   6    -84.4137705 -0.617142E-03  0.676E-02    2.50       1.0  T
   7    -84.4138433 -0.728504E-04  0.266E-02    2.49       1.0  T
   8    -84.4138445 -0.116922E-05  0.917E-03    2.49       1.4  T
   9    -84.4138457 -0.122368E-05  0.405E-03    2.49       3.3  T
  10    -84.4138461 -0.365657E-06  0.155E-03    2.49       8.5  T
  11    -84.4138461 -0.131612E-07  0.689E-04    2.49      19.2  T
  12    -84.4138461 -0.668514E-08  0.196E-04    2.49      67.6  T

   *** convergence criteria satisfied after 12 iterations ***

         #    Occupation            Energy/Eh            Energy/eV
      -------------------------------------------------------------
         1        2.0000           -0.6867231             -18.6867
       ...           ...                  ...                  ...
        68        2.0000           -0.3999000             -10.8818
        69        2.0000           -0.3920733             -10.6689
        70        2.0000           -0.3904018             -10.6234
        71        2.0000           -0.3770268             -10.2594
        72        2.0000           -0.3732706             -10.1572
        73        2.0000           -0.3576685              -9.7327
        74        2.0000           -0.3518585              -9.5746 (HOMO)
        75                         -0.2603476              -7.0844 (LUMO)
        76                         -0.2103787              -5.7247
        77                         -0.2064379              -5.6175
        78                         -0.2002389              -5.4488
        79                         -0.1912496              -5.2042
       ...                                ...                  ...
       135                          0.6595162              17.9463
      -------------------------------------------------------------
                  HL-Gap            0.0915110 Eh            2.4901 eV
             Fermi-level           -0.3061030 Eh           -8.3295 eV

 SCC (total)                   0 d,  0 h,  0 min,  0.104 sec
 SCC setup                      ...        0 min,  0.000 sec (  0.000%)
 Dispersion                     ...        0 min,  0.001 sec (  0.961%)
 classical contributions        ...        0 min,  0.000 sec (  0.000%)
 integral evaluation            ...        0 min,  0.004 sec (  3.846%)
 iterations                     ...        0 min,  0.089 sec ( 85.577%)
 molecular gradient             ...        0 min,  0.008 sec (  7.692%)
 printout                       ...        0 min,  0.002 sec (  1.923%)

         :::::::::::::::::::::::::::::::::::::::::::::::::::::
         ::                     SUMMARY                     ::
         :::::::::::::::::::::::::::::::::::::::::::::::::::::
         :: total energy             -83.334014339173 Eh    ::
         :: gradient norm              0.125814210375 Eh/a0 ::
         :: HOMO-LUMO gap              2.490140104548 eV    ::
         ::.................................................::
         :: SCC energy               -84.412363250777 Eh    ::
         :: -> isotropic ES            0.178692052859 Eh    ::
         :: -> anisotropic ES          0.018362924436 Eh    ::
         :: -> anisotropic XC          0.032526754084 Eh    ::
         :: -> dispersion             -0.053644086028 Eh    ::
         :: repulsion energy           1.078348911604 Eh    ::
         :: add. restraining           0.000000000000 Eh    ::
         :: total charge               0.000000000000 e     ::
         :::::::::::::::::::::::::::::::::::::::::::::::::::::

      ----------------------------------------------------------- 
     |                   =====================                   |
     |                        A N C O P T                        |
     |                   =====================                   |
     |               Approximate Normal Coordinate               |
     |                Rational Function Optimizer                |
      ----------------------------------------------------------- 
      ----------------------------------------------------------- 
     |                   =====================                   |
     |                        A N C O P T                        |
     |                   =====================                   |
     |               Approximate Normal Coordinate               |
     |                Rational Function Optimizer                |
      ----------------------------------------------------------- 

          ...................................................
          :                      SETUP                      :
          :.................................................:
          :   optimization level             tight          :
          :   max. optcycles                   285          :
          :   ANC micro-cycles                  20          :
          :   degrees of freedom               165          :
          :.................................................:
          :   RF solver                   davidson          :
          :   write xtbopt.log                true          :
          :   linear?                        false          :
          :   energy convergence         0.1000000E-05 Eh   :
          :   grad. convergence          0.8000000E-03 Eh/α :
          :   maxmium RF displ.          1.0000000          :
          :   Hlow (freq-cutoff)         0.1000000E-01      :
          :   Hmax (freq-cutoff)         5.0000000          :
          :   S6 in model hess.         20.0000000          :
          ...................................................

generating ANC from exact Hessian ...
Using Lindh-Hessian (1995)
 Shifting diagonal of input Hessian by   1.010135491144304E-002
 Lowest  eigenvalues of input Hessian
    0.010000    0.010042    0.010056    0.010079    0.010093    0.000000
    0.000000    0.000000    0.000000    0.000000    0.000000    0.010131
    0.010211    0.010258    0.010333    0.010437    0.010557    0.010562
 Highest eigenvalues
    1.934560    1.983921    2.020731    2.127660    2.235518    2.251317
 

........................................................................
.............................. CYCLE    1 ..............................
........................................................................

 iter      E             dE          RMSdq      gap      omega  full diag
   1    -84.4138461 -0.844138E+02  0.812E-05    2.49       0.0  T
   2    -84.4138461 -0.370193E-10  0.471E-05    2.49     281.4  T
   3    -84.4138461  0.733280E-11  0.315E-05    2.49     420.9  T
     SCC iter.                  ...        0 min,  0.024 sec
     gradient                   ...        0 min,  0.007 sec
 * total energy  :   -83.3340143 Eh     change       -0.8276970E-09 Eh
   gradient norm :     0.1258100 Eh/α   predicted     0.0000000E+00 (-100.00%)
   displ. norm   :     0.5963148 α      lambda       -0.3708761E-01
   maximum displ.:     0.2404967 α      in ANC's #30, #48, #26, ...

........................................................................
.............................. CYCLE    2 ..............................
........................................................................

 iter      E             dE          RMSdq      gap      omega  full diag
   1    -84.4621417 -0.844621E+02  0.254E-01    2.48       0.0  T
   2    -84.4625220 -0.380312E-03  0.153E-01    2.50       1.0  T
   3    -84.4624804  0.416121E-04  0.743E-02    2.48       1.0  T
   4    -84.4625946 -0.114205E-03  0.203E-02    2.48       1.0  T
   5    -84.4626096 -0.150854E-04  0.708E-03    2.48       1.9  T
   6    -84.4626103 -0.687930E-06  0.376E-03    2.48       3.5  T
   7    -84.4626107 -0.329800E-06  0.135E-03    2.48       9.8  T
   8    -84.4626107 -0.328094E-07  0.538E-04    2.48      24.6  T
   9    -84.4626107 -0.423468E-08  0.199E-04    2.48      66.6  T
     SCC iter.                  ...        0 min,  0.081 sec
     gradient                   ...        0 min,  0.008 sec
 * total energy  :   -83.3586259 Eh     change       -0.2461159E-01 Eh
   gradient norm :     0.0665930 Eh/α   predicted    -0.2513783E-01 (   2.14%)
   displ. norm   :     0.6043716 α      lambda       -0.2255591E-01
   maximum displ.:     0.2624262 α      in ANC's #30, #43, #47, ...

........................................................................
.............................. CYCLE    3 ..............................
........................................................................

 iter      E             dE          RMSdq      gap      omega  full diag
   1    -84.4921308 -0.844921E+02  0.279E-01    2.42       0.0  T
   2    -84.4929749 -0.844076E-03  0.172E-01    2.40       1.0  T
   3    -84.4930410 -0.661355E-04  0.940E-02    2.38       1.0  T
   4    -84.4931254 -0.843742E-04  0.297E-02    2.36       1.0  T
   5    -84.4931578 -0.323729E-04  0.898E-03    2.37       1.5  T
   6    -84.4931597 -0.194318E-05  0.414E-03    2.37       3.2  T
   7    -84.4931600 -0.310234E-06  0.158E-03    2.37       8.4  T
   8    -84.4931601 -0.419674E-07  0.626E-04    2.37      21.2  T
   9    -84.4931601 -0.417680E-08  0.236E-04    2.37      56.1  T
     SCC iter.                  ...        0 min,  0.087 sec
     gradient                   ...        0 min,  0.008 sec
 * total energy  :   -83.3712208 Eh     change       -0.1259485E-01 Eh
   gradient norm :     0.0321882 Eh/α   predicted    -0.1539805E-01 (  22.26%)
   displ. norm   :     0.4885410 α      lambda       -0.6717256E-02
   maximum displ.:     0.2876894 α      in ANC's #30, #26, #25, ...

........................................................................
.............................. CYCLE    4 ..............................
........................................................................

 iter      E             dE          RMSdq      gap      omega  full diag
   1    -84.4850139 -0.844850E+02  0.179E-01    2.27       0.0  T
   2    -84.4850335 -0.195615E-04  0.106E-01    2.25       1.0  T
   3    -84.4849258  0.107701E-03  0.525E-02    2.23       1.0  T
   4    -84.4850501 -0.124249E-03  0.672E-03    2.23       2.0  T
   5    -84.4850511 -0.994428E-06  0.312E-03    2.23       4.3  T
   6    -84.4850512 -0.119892E-06  0.146E-03    2.23       9.1  T
   7    -84.4850512 -0.302017E-07  0.557E-04    2.23      23.8  T
   8    -84.4850512 -0.416270E-08  0.201E-04    2.23      65.8  T
     SCC iter.                  ...        0 min,  0.077 sec
     gradient                   ...        0 min,  0.009 sec
 * total energy  :   -83.3762719 Eh     change       -0.5051078E-02 Eh
   gradient norm :     0.0240624 Eh/α   predicted    -0.4160516E-02 ( -17.63%)
   displ. norm   :     0.6022762 α      lambda       -0.5969777E-02
   maximum displ.:     0.3196587 α      in ANC's #30, #25, #39, ...

........................................................................
.............................. CYCLE    5 ..............................
........................................................................

 iter      E             dE          RMSdq      gap      omega  full diag
   1    -84.4787261 -0.844787E+02  0.177E-01    2.12       0.0  T
   2    -84.4787497 -0.236454E-04  0.105E-01    2.09       1.0  T
   3    -84.4786259  0.123865E-03  0.589E-02    2.07       1.0  T
   4    -84.4787715 -0.145655E-03  0.806E-03    2.07       1.6  T
   5    -84.4787736 -0.207649E-05  0.317E-03    2.07       4.2  T
   6    -84.4787737 -0.757817E-07  0.149E-03    2.07       8.9  T
   7    -84.4787737 -0.310969E-07  0.580E-04    2.07      22.8  T
   8    -84.4787737 -0.778934E-08  0.213E-04    2.07      62.1  T
     SCC iter.                  ...        0 min,  0.079 sec
     gradient                   ...        0 min,  0.009 sec
 * total energy  :   -83.3802084 Eh     change       -0.3936563E-02 Eh
   gradient norm :     0.0264426 Eh/α   predicted    -0.4067678E-02 (   3.33%)
   displ. norm   :     0.5269479 α      lambda       -0.3662479E-02
   maximum displ.:     0.3030595 α      in ANC's #30, #25, #26, ...

........................................................................
.............................. CYCLE    6 ..............................
........................................................................

 iter      E             dE          RMSdq      gap      omega  full diag
   1    -84.4820805 -0.844821E+02  0.184E-01    1.98       0.0  T
   2    -84.4820989 -0.184173E-04  0.109E-01    1.96       1.0  T
   3    -84.4819525  0.146418E-03  0.624E-02    1.96       1.0  T
   4    -84.4821210 -0.168477E-03  0.590E-03    1.95       2.2  T
   5    -84.4821219 -0.931861E-06  0.257E-03    1.95       5.2  T
   6    -84.4821219 -0.295746E-07  0.132E-03    1.95      10.1  T
   7    -84.4821220 -0.247250E-07  0.431E-04    1.95      30.7  T
   8    -84.4821220 -0.406682E-08  0.191E-04    1.95      69.5  T
     SCC iter.                  ...        0 min,  0.071 sec
     gradient                   ...        0 min,  0.010 sec
 * total energy  :   -83.3829139 Eh     change       -0.2705462E-02 Eh
   gradient norm :     0.0209109 Eh/α   predicted    -0.2339711E-02 ( -13.52%)
   displ. norm   :     0.5294813 α      lambda       -0.2661262E-02
   maximum displ.:     0.2435571 α      in ANC's #30, #25, #34, ...

........................................................................
.............................. CYCLE    7 ..............................
........................................................................

 iter      E             dE          RMSdq      gap      omega  full diag
   1    -84.4894651 -0.844895E+02  0.164E-01    1.85       0.0  T
   2    -84.4894886 -0.234590E-04  0.965E-02    1.84       1.0  T
   3    -84.4893569  0.131625E-03  0.639E-02    1.84       1.0  T
   4    -84.4895183 -0.161413E-03  0.653E-03    1.84       2.0  T
   5    -84.4895197 -0.138112E-05  0.262E-03    1.84       5.0  T
   6    -84.4895198 -0.749842E-07  0.147E-03    1.84       9.0  T
   7    -84.4895198 -0.271915E-07  0.416E-04    1.84      31.8  T
   8    -84.4895198 -0.446926E-08  0.163E-04    1.84      81.1  T
     SCC iter.                  ...        0 min,  0.070 sec
     gradient                   ...        0 min,  0.010 sec
 * total energy  :   -83.3850166 Eh     change       -0.2102761E-02 Eh
   gradient norm :     0.0171907 Eh/α   predicted    -0.1703663E-02 ( -18.98%)
   displ. norm   :     0.5606102 α      lambda       -0.2272090E-02
   maximum displ.:     0.2403711 α      in ANC's #25, #30, #41, ...

........................................................................
.............................. CYCLE    8 ..............................
........................................................................

 iter      E             dE          RMSdq      gap      omega  full diag
   1    -84.4973478 -0.844973E+02  0.175E-01    1.75       0.0  T
   2    -84.4973690 -0.211468E-04  0.104E-01    1.74       1.0  T
   3    -84.4972157  0.153318E-03  0.661E-02    1.74       1.0  T
   4    -84.4973989 -0.183224E-03  0.595E-03    1.74       2.2  T
   5    -84.4973999 -0.102154E-05  0.250E-03    1.74       5.3  T
   6    -84.4974000 -0.431173E-07  0.141E-03    1.74       9.4  T
   7    -84.4974000 -0.305916E-07  0.378E-04    1.74      35.0  T
   8    -84.4974000 -0.332697E-08  0.166E-04    1.74      79.9  T
     SCC iter.                  ...        0 min,  0.071 sec
     gradient                   ...        0 min,  0.009 sec
 * total energy  :   -83.3868067 Eh     change       -0.1790004E-02 Eh
   gradient norm :     0.0150223 Eh/α   predicted    -0.1493076E-02 ( -16.59%)
   displ. norm   :     0.6494519 α      lambda       -0.2119803E-02
   maximum displ.:     0.2747932 α      in ANC's #25, #34, #41, ...

........................................................................
.............................. CYCLE    9 ..............................
........................................................................

 iter      E             dE          RMSdq      gap      omega  full diag
   1    -84.4967686 -0.844968E+02  0.195E-01    1.65       0.0  T
   2    -84.4967865 -0.178301E-04  0.115E-01    1.64       1.0  T
   3    -84.4965987  0.187771E-03  0.700E-02    1.64       1.0  T
   4    -84.4968178 -0.219070E-03  0.575E-03    1.63       2.3  T
   5    -84.4968185 -0.708128E-06  0.290E-03    1.63       4.6  T
   6    -84.4968185 -0.377730E-07  0.158E-03    1.63       8.4  T
   7    -84.4968186 -0.537285E-07  0.400E-04    1.63      33.1  T
   8    -84.4968186 -0.291003E-08  0.186E-04    1.63      71.3  T
     SCC iter.                  ...        0 min,  0.070 sec
     gradient                   ...        0 min,  0.008 sec
 * total energy  :   -83.3882750 Eh     change       -0.1468319E-02 Eh
   gradient norm :     0.0220036 Eh/α   predicted    -0.1506947E-02 (   2.63%)
   displ. norm   :     0.5954446 α      lambda       -0.2260447E-02
   maximum displ.:     0.2541247 α      in ANC's #25, #18, #9, ...

........................................................................
.............................. CYCLE   10 ..............................
........................................................................

 iter      E             dE          RMSdq      gap      omega  full diag
   1    -84.5033461 -0.845033E+02  0.172E-01    1.60       0.0  T
   2    -84.5033584 -0.122824E-04  0.102E-01    1.59       1.0  T
   3    -84.5032471  0.111251E-03  0.520E-02    1.59       1.0  T
   4    -84.5033740 -0.126909E-03  0.540E-03    1.59       2.5  T
   5    -84.5033747 -0.663090E-06  0.265E-03    1.59       5.0  T
   6    -84.5033747 -0.628492E-07  0.130E-03    1.59      10.2  T
   7    -84.5033748 -0.207478E-07  0.491E-04    1.59      27.0  T
   8    -84.5033748 -0.361936E-08  0.185E-04    1.59      71.7  T
     SCC iter.                  ...        0 min,  0.072 sec
     gradient                   ...        0 min,  0.008 sec
 * total energy  :   -83.3899035 Eh     change       -0.1628558E-02 Eh
   gradient norm :     0.0165517 Eh/α   predicted    -0.1530940E-02 (  -5.99%)
   displ. norm   :     0.6433793 α      lambda       -0.1818014E-02
   maximum displ.:     0.2699466 α      in ANC's #25, #9, #18, ...

........................................................................
.............................. CYCLE   11 ..............................
........................................................................

 iter      E             dE          RMSdq      gap      omega  full diag
   1    -84.4970057 -0.844970E+02  0.189E-01    1.56       0.0  T
   2    -84.4970430 -0.373669E-04  0.112E-01    1.55       1.0  T
   3    -84.4969640  0.790014E-04  0.462E-02    1.55       1.0  T
   4    -84.4970548 -0.907351E-04  0.106E-02    1.55       1.2  T
   5    -84.4970590 -0.425835E-05  0.363E-03    1.55       3.6  T
   6    -84.4970591 -0.999783E-07  0.197E-03    1.55       6.7  T
   7    -84.4970592 -0.610269E-07  0.768E-04    1.55      17.2  T
   8    -84.4970592 -0.493360E-08  0.251E-04    1.55      52.9  T
     SCC iter.                  ...        0 min,  0.070 sec
     gradient                   ...        0 min,  0.010 sec
 * total energy  :   -83.3909990 Eh     change       -0.1095438E-02 Eh
   gradient norm :     0.0346255 Eh/α   predicted    -0.1285281E-02 (  17.33%)
   displ. norm   :     0.5590354 α      lambda       -0.2840041E-02
   maximum displ.:     0.1884716 α      in ANC's #25, #18, #9, ...

........................................................................
.............................. CYCLE   12 ..............................
........................................................................

 iter      E             dE          RMSdq      gap      omega  full diag
   1    -84.5054135 -0.845054E+02  0.158E-01    1.58       0.0  T
   2    -84.5054545 -0.410118E-04  0.928E-02    1.57       1.0  T
   3    -84.5054290  0.254811E-04  0.307E-02    1.56       1.0  T
   4    -84.5054650 -0.359838E-04  0.684E-03    1.56       1.9  T
   5    -84.5054660 -0.962640E-06  0.334E-03    1.56       4.0  T
   6    -84.5054662 -0.252967E-06  0.165E-03    1.56       8.0  T
   7    -84.5054663 -0.397129E-07  0.888E-04    1.56      14.9  T
   8    -84.5054663 -0.101261E-07  0.324E-04    1.56      40.9  T
     SCC iter.                  ...        0 min,  0.071 sec
     gradient                   ...        0 min,  0.009 sec
 * total energy  :   -83.3926632 Eh     change       -0.1664273E-02 Eh
   gradient norm :     0.0192752 Eh/α   predicted    -0.1863802E-02 (  11.99%)
   displ. norm   :     0.5619714 α      lambda       -0.2120989E-02
   maximum displ.:     0.1643311 α      in ANC's #1, #9, #18, ...

........................................................................
.............................. CYCLE   13 ..............................
........................................................................

 iter      E             dE          RMSdq      gap      omega  full diag
   1    -84.4981170 -0.844981E+02  0.159E-01    1.54       0.0  T
   2    -84.4981857 -0.687642E-04  0.935E-02    1.54       1.0  T
   3    -84.4981536  0.321397E-04  0.384E-02    1.54       1.0  T
   4    -84.4981940 -0.404227E-04  0.134E-02    1.54       1.0  T
   5    -84.4982009 -0.692073E-05  0.482E-03    1.54       2.7  T
   6    -84.4982013 -0.389158E-06  0.217E-03    1.54       6.1  T
   7    -84.4982014 -0.639736E-07  0.104E-03    1.54      12.8  T
   8    -84.4982014 -0.825754E-08  0.369E-04    1.54      35.9  T
   9    -84.4982014 -0.421463E-08  0.765E-05    1.54     173.0  T
     SCC iter.                  ...        0 min,  0.081 sec
     gradient                   ...        0 min,  0.008 sec
 * total energy  :   -83.3931458 Eh     change       -0.4825370E-03 Eh
   gradient norm :     0.0396023 Eh/α   predicted    -0.1395406E-02 ( 189.18%)
   displ. norm   :     0.4214776 α      lambda       -0.3076322E-02
   maximum displ.:     0.1308906 α      in ANC's #25, #1, #19, ...

........................................................................
.............................. CYCLE   14 ..............................
........................................................................

 iter      E             dE          RMSdq      gap      omega  full diag
   1    -84.5013856 -0.845014E+02  0.135E-01    1.51       0.0  T
   2    -84.5014515 -0.658741E-04  0.798E-02    1.52       1.0  T
   3    -84.5014221  0.293092E-04  0.370E-02    1.53       1.0  T
   4    -84.5014576 -0.354794E-04  0.143E-02    1.52       1.0  T
   5    -84.5014660 -0.836053E-05  0.405E-03    1.52       3.3  T
   6    -84.5014662 -0.193122E-06  0.174E-03    1.52       7.6  T
   7    -84.5014662 -0.518024E-07  0.920E-04    1.52      14.4  T
   8    -84.5014662 -0.789088E-08  0.300E-04    1.52      44.2  T
     SCC iter.                  ...        0 min,  0.069 sec
     gradient                   ...        0 min,  0.008 sec
 * total energy  :   -83.3945803 Eh     change       -0.1434534E-02 Eh
   gradient norm :     0.0289697 Eh/α   predicted    -0.1811402E-02 (  26.27%)
   displ. norm   :     0.3508230 α      lambda       -0.2502634E-02
   maximum displ.:     0.1733669 α      in ANC's #27, #35, #19, ...

........................................................................
.............................. CYCLE   15 ..............................
........................................................................

 iter      E             dE          RMSdq      gap      omega  full diag
   1    -84.5175976 -0.845176E+02  0.133E-01    1.53       0.0  T
   2    -84.5176295 -0.319370E-04  0.793E-02    1.53       1.0  T
   3    -84.5176111  0.184853E-04  0.277E-02    1.53       1.0  T
   4    -84.5176343 -0.232344E-04  0.824E-03    1.53       1.6  T
   5    -84.5176372 -0.294832E-05  0.317E-03    1.53       4.2  T
   6    -84.5176374 -0.137058E-06  0.128E-03    1.53      10.4  T
   7    -84.5176374 -0.126429E-07  0.461E-04    1.53      28.7  T
   8    -84.5176374 -0.501402E-09  0.192E-04    1.53      68.9  T
     SCC iter.                  ...        0 min,  0.070 sec
     gradient                   ...        0 min,  0.008 sec
 * total energy  :   -83.3946008 Eh     change       -0.2046747E-04 Eh
   gradient norm :     0.0431375 Eh/α   predicted    -0.1405326E-02 (6766.14%)
   displ. norm   :     0.3517609 α      lambda       -0.3323624E-02
   maximum displ.:     0.1434244 α      in ANC's #25, #1, #19, ...

........................................................................
.............................. CYCLE   16 ..............................
........................................................................

 iter      E             dE          RMSdq      gap      omega  full diag
   1    -84.5031715 -0.845032E+02  0.129E-01    1.56       0.0  T
   2    -84.5032817 -0.110219E-03  0.740E-02    1.55       1.0  T
   3    -84.5032850 -0.331458E-05  0.303E-02    1.55       1.0  T
   4    -84.5032926 -0.758895E-05  0.822E-03    1.55       1.6  T
   5    -84.5032940 -0.138490E-05  0.451E-03    1.55       2.9  T
   6    -84.5032945 -0.507572E-06  0.176E-03    1.55       7.5  T
   7    -84.5032945 -0.503191E-07  0.928E-04    1.55      14.3  T
   8    -84.5032945 -0.954233E-08  0.306E-04    1.55      43.3  T
     SCC iter.                  ...        0 min,  0.070 sec
     gradient                   ...        0 min,  0.008 sec
 * total energy  :   -83.3952517 Eh     change       -0.6509079E-03 Eh
   gradient norm :     0.0448229 Eh/α   predicted    -0.1867446E-02 ( 186.90%)
   displ. norm   :     0.3589441 α      lambda       -0.4775266E-02
   maximum displ.:     0.2118349 α      in ANC's #26, #36, #19, ...

........................................................................
.............................. CYCLE   17 ..............................
........................................................................

 iter      E             dE          RMSdq      gap      omega  full diag
   1    -84.5137502 -0.845138E+02  0.213E-01    1.65       0.0  T
   2    -84.5141773 -0.427128E-03  0.129E-01    1.65       1.0  T
   3    -84.5141910 -0.137152E-04  0.554E-02    1.65       1.0  T
   4    -84.5142035 -0.125066E-04  0.875E-03    1.65       1.5  T
   5    -84.5142053 -0.173369E-05  0.452E-03    1.65       2.9  T
   6    -84.5142057 -0.435736E-06  0.269E-03    1.65       4.9  T
   7    -84.5142059 -0.189164E-06  0.103E-03    1.65      12.9  T
   8    -84.5142059 -0.223258E-08  0.421E-04    1.65      31.5  T
   9    -84.5142059 -0.566568E-08  0.131E-04    1.65     100.8  T
     SCC iter.                  ...        0 min,  0.080 sec
     gradient                   ...        0 min,  0.009 sec
 * total energy  :   -83.3946021 Eh     change        0.6496059E-03 Eh
   gradient norm :     0.0702371 Eh/α   predicted    -0.2695258E-02 (-514.91%)
   displ. norm   :     0.2504547 α      lambda       -0.5266398E-02
   maximum displ.:     0.0899291 α      in ANC's #13, #27, #19, ...

........................................................................
.............................. CYCLE   18 ..............................
........................................................................

 iter      E             dE          RMSdq      gap      omega  full diag
   1    -84.5010513 -0.845011E+02  0.130E-01    1.52       0.0  T
   2    -84.5012647 -0.213378E-03  0.842E-02    1.53       1.0  T
   3    -84.5012670 -0.226398E-05  0.468E-02    1.54       1.0  T
   4    -84.5012714 -0.438183E-05  0.258E-02    1.54       1.0  T
   5    -84.5012999 -0.285825E-04  0.413E-03    1.54       3.2  T
   6    -84.5013002 -0.216052E-06  0.196E-03    1.54       6.8  T
   7    -84.5013002 -0.348685E-07  0.940E-04    1.54      14.1  T
   8    -84.5013002 -0.341974E-08  0.281E-04    1.54      47.1  T
     SCC iter.                  ...        0 min,  0.071 sec
     gradient                   ...        0 min,  0.009 sec
 * total energy  :   -83.3964270 Eh     change       -0.1824928E-02 Eh
   gradient norm :     0.0404061 Eh/α   predicted    -0.2798373E-02 (  53.34%)
   displ. norm   :     0.4205829 α      lambda       -0.5015188E-02
   maximum displ.:     0.2971993 α      in ANC's #13, #11, #27, ...

........................................................................
.............................. CYCLE   19 ..............................
........................................................................

 iter      E             dE          RMSdq      gap      omega  full diag
   1    -84.5028248 -0.845028E+02  0.197E-01    1.43       0.0  T
   2    -84.5029812 -0.156410E-03  0.119E-01    1.44       1.0  T
   3    -84.5029804  0.827078E-06  0.351E-02    1.45       1.0  T
   4    -84.5029982 -0.178819E-04  0.156E-02    1.45       1.0  T
   5    -84.5030059 -0.763018E-05  0.711E-03    1.45       1.9  T
   6    -84.5030063 -0.453649E-06  0.337E-03    1.45       3.9  T
   7    -84.5030065 -0.175149E-06  0.122E-03    1.45      10.9  T
   8    -84.5030065 -0.132996E-07  0.424E-04    1.45      31.2  T
   9    -84.5030065 -0.456288E-08  0.159E-04    1.45      83.2  T
     SCC iter.                  ...        0 min,  0.082 sec
     gradient                   ...        0 min,  0.008 sec
 * total energy  :   -83.3913233 Eh     change        0.5103708E-02 Eh
   gradient norm :     0.1139098 Eh/α   predicted    -0.2951171E-02 (-157.82%)
   displ. norm   :     0.2984328 α      lambda       -0.1220458E-01
   maximum displ.:     0.2374781 α      in ANC's #13, #11, #1, ...

........................................................................
.............................. CYCLE   20 ..............................
........................................................................

 iter      E             dE          RMSdq      gap      omega  full diag
   1    -84.5122667 -0.845123E+02  0.135E-01    1.60       0.0  T
   2    -84.5124144 -0.147724E-03  0.847E-02    1.59       1.0  T
   3    -84.5123984  0.160298E-04  0.431E-02    1.57       1.0  T
   4    -84.5124267 -0.283632E-04  0.206E-02    1.57       1.0  T
   5    -84.5124430 -0.163189E-04  0.574E-03    1.57       2.3  T
   6    -84.5124433 -0.238635E-06  0.287E-03    1.57       4.6  T
   7    -84.5124433 -0.586647E-07  0.124E-03    1.57      10.7  T
   8    -84.5124433 -0.146525E-07  0.390E-04    1.57      33.9  T
   9    -84.5124434 -0.629156E-08  0.129E-04    1.57     102.4  T
     SCC iter.                  ...        0 min,  0.076 sec
     gradient                   ...        0 min,  0.008 sec
 * total energy  :   -83.3967793 Eh     change       -0.5456022E-02 Eh
   gradient norm :     0.0371410 Eh/α   predicted    -0.6645784E-02 (  21.81%)
   displ. norm   :     0.3782950 α      lambda       -0.6086068E-02
   maximum displ.:     0.2300252 α      in ANC's #26, #36, #58, ...
 * RMSD in coord.:     0.8248400 α      energy gain  -0.6276498E-01 Eh

generating ANC from exact Hessian ...
Using Lindh-Hessian (1995)
 Shifting diagonal of input Hessian by   1.012566290472113E-002
 Lowest  eigenvalues of input Hessian
    0.010000    0.010038    0.010071    0.010087    0.000000    0.000000
    0.000000    0.000000    0.000000    0.000000    0.010168    0.010213
    0.010235    0.010267    0.010278    0.010369    0.010482    0.010567
 Highest eigenvalues
    1.905685    2.009552    2.109157    2.254463    2.271457    2.408554
 

........................................................................
.............................. CYCLE   21 ..............................
........................................................................

 iter      E             dE          RMSdq      gap      omega  full diag
   1    -84.5014956 -0.845015E+02  0.231E-01    1.67       0.0  T
   2    -84.5017670 -0.271392E-03  0.145E-01    1.67       1.0  T
   3    -84.5017568  0.102247E-04  0.474E-02    1.66       1.0  T
   4    -84.5017953 -0.384715E-04  0.900E-03    1.66       1.5  T
   5    -84.5017973 -0.206706E-05  0.466E-03    1.66       2.8  T
   6    -84.5017976 -0.232771E-06  0.269E-03    1.66       4.9  T
   7    -84.5017977 -0.151007E-06  0.117E-03    1.66      11.3  T
   8    -84.5017977 -0.167148E-07  0.546E-04    1.66      24.2  T
   9    -84.5017977 -0.951380E-08  0.176E-04    1.66      75.2  T
     SCC iter.                  ...        0 min,  0.076 sec
     gradient                   ...        0 min,  0.007 sec
 * total energy  :   -83.3928756 Eh     change        0.3903756E-02 Eh
   gradient norm :     0.1038695 Eh/α   predicted     0.0000000E+00 (-100.00%)
   displ. norm   :     0.1796471 α      lambda       -0.9369005E-02
   maximum displ.:     0.0876166 α      in ANC's #7, #5, #26, ...

........................................................................
.............................. CYCLE   22 ..............................
........................................................................

 iter      E             dE          RMSdq      gap      omega  full diag
   1    -84.5077354 -0.845077E+02  0.986E-02    1.55       0.0  T
   2    -84.5078699 -0.134493E-03  0.674E-02    1.57       1.0  T
   3    -84.5078734 -0.348938E-05  0.375E-02    1.58       1.0  T
   4    -84.5078789 -0.548143E-05  0.199E-02    1.58       1.0  T
   5    -84.5078948 -0.159443E-04  0.336E-03    1.59       3.9  T
   6    -84.5078949 -0.132770E-06  0.186E-03    1.58       7.1  T
   7    -84.5078950 -0.383265E-07  0.790E-04    1.58      16.8  T
   8    -84.5078950 -0.315592E-08  0.353E-04    1.58      37.5  T
     SCC iter.                  ...        0 min,  0.066 sec
     gradient                   ...        0 min,  0.008 sec
 * total energy  :   -83.3983947 Eh     change       -0.5519111E-02 Eh
   gradient norm :     0.0192826 Eh/α   predicted    -0.4837040E-02 ( -12.36%)
   displ. norm   :     0.2252698 α      lambda       -0.1088255E-02
   maximum displ.:     0.1446299 α      in ANC's #7, #5, #26, ...

........................................................................
.............................. CYCLE   23 ..............................
........................................................................

 iter      E             dE          RMSdq      gap      omega  full diag
   1    -84.5064107 -0.845064E+02  0.913E-02    1.56       0.0  T
   2    -84.5064278 -0.170337E-04  0.557E-02    1.56       1.0  T
   3    -84.5064122  0.155783E-04  0.236E-02    1.57       1.0  T
   4    -84.5064319 -0.197018E-04  0.714E-03    1.57       1.9  T
   5    -84.5064337 -0.180338E-05  0.254E-03    1.57       5.2  T
   6    -84.5064338 -0.788652E-07  0.119E-03    1.57      11.2  T
   7    -84.5064338 -0.287096E-07  0.447E-04    1.57      29.7  T
   8    -84.5064338 -0.198997E-08  0.156E-04    1.57      84.8  T
     SCC iter.                  ...        0 min,  0.068 sec
     gradient                   ...        0 min,  0.008 sec
 * total energy  :   -83.3989491 Eh     change       -0.5544006E-03 Eh
   gradient norm :     0.0239053 Eh/α   predicted    -0.5717463E-03 (   3.13%)
   displ. norm   :     0.2766759 α      lambda       -0.1344631E-02
   maximum displ.:     0.1340129 α      in ANC's #26, #5, #9, ...

........................................................................
.............................. CYCLE   24 ..............................
........................................................................

 iter      E             dE          RMSdq      gap      omega  full diag
   1    -84.5123044 -0.845123E+02  0.939E-02    1.57       0.0  T
   2    -84.5123264 -0.220850E-04  0.544E-02    1.57       1.0  T
   3    -84.5123232  0.321701E-05  0.157E-02    1.58       1.0  T
   4    -84.5123300 -0.677995E-05  0.548E-03    1.58       2.4  T
   5    -84.5123308 -0.809344E-06  0.235E-03    1.58       5.6  T
   6    -84.5123309 -0.100417E-06  0.987E-04    1.58      13.4  T
   7    -84.5123309 -0.408863E-08  0.512E-04    1.58      25.8  T
     SCC iter.                  ...        0 min,  0.058 sec
     gradient                   ...        0 min,  0.007 sec
 * total energy  :   -83.3992153 Eh     change       -0.2662686E-03 Eh
   gradient norm :     0.0258180 Eh/α   predicted    -0.7237793E-03 ( 171.82%)
   displ. norm   :     0.1452853 α      lambda       -0.8277468E-03
   maximum displ.:     0.0825552 α      in ANC's #7, #26, #5, ...

........................................................................
.............................. CYCLE   25 ..............................
........................................................................

 iter      E             dE          RMSdq      gap      omega  full diag
   1    -84.5088427 -0.845088E+02  0.567E-02    1.58       0.0  T
   2    -84.5088494 -0.663131E-05  0.347E-02    1.58       1.0  T
   3    -84.5088465  0.283267E-05  0.112E-02    1.58       1.2  T
   4    -84.5088503 -0.377883E-05  0.418E-03    1.58       3.2  T
   5    -84.5088510 -0.661473E-06  0.160E-03    1.58       8.3  T
   6    -84.5088510 -0.314170E-07  0.689E-04    1.58      19.2  T
   7    -84.5088510 -0.760305E-08  0.289E-04    1.58      45.8  T
     SCC iter.                  ...        0 min,  0.061 sec
     gradient                   ...        0 min,  0.008 sec
 * total energy  :   -83.3998363 Eh     change       -0.6209634E-03 Eh
   gradient norm :     0.0131959 Eh/α   predicted    -0.4226103E-03 ( -31.94%)
   displ. norm   :     0.3966046 α      lambda       -0.1147340E-02
   maximum displ.:     0.2004773 α      in ANC's #7, #26, #11, ...

........................................................................
.............................. CYCLE   26 ..............................
........................................................................

 iter      E             dE          RMSdq      gap      omega  full diag
   1    -84.5006831 -0.845007E+02  0.120E-01    1.58       0.0  T
   2    -84.5007106 -0.274720E-04  0.727E-02    1.58       1.0  T
   3    -84.5006816  0.290213E-04  0.312E-02    1.59       1.0  T
   4    -84.5007169 -0.353772E-04  0.941E-03    1.58       1.4  T
   5    -84.5007201 -0.315460E-05  0.356E-03    1.58       3.7  T
   6    -84.5007203 -0.149011E-06  0.164E-03    1.58       8.1  T
   7    -84.5007203 -0.517821E-07  0.672E-04    1.58      19.7  T
   8    -84.5007203 -0.292430E-08  0.201E-04    1.58      65.8  T
     SCC iter.                  ...        0 min,  0.068 sec
     gradient                   ...        0 min,  0.009 sec
 * total energy  :   -83.4001362 Eh     change       -0.2998889E-03 Eh
   gradient norm :     0.0315264 Eh/α   predicted    -0.6639076E-03 ( 121.38%)
   displ. norm   :     0.1546912 α      lambda       -0.1044595E-02
   maximum displ.:     0.0594986 α      in ANC's #5, #26, #9, ...

........................................................................
.............................. CYCLE   27 ..............................
........................................................................

 iter      E             dE          RMSdq      gap      omega  full diag
   1    -84.5059391 -0.845059E+02  0.559E-02    1.59       0.0  T
   2    -84.5059469 -0.780647E-05  0.322E-02    1.60       1.0  T
   3    -84.5059478 -0.843117E-06  0.749E-03    1.59       1.8  T
   4    -84.5059482 -0.448362E-06  0.366E-03    1.60       3.6  T
   5    -84.5059485 -0.300807E-06  0.153E-03    1.60       8.6  T
   6    -84.5059486 -0.650195E-07  0.719E-04    1.60      18.4  T
   7    -84.5059486 -0.349524E-08  0.355E-04    1.60      37.3  T
     SCC iter.                  ...        0 min,  0.058 sec
     gradient                   ...        0 min,  0.009 sec
 * total energy  :   -83.4007281 Eh     change       -0.5919091E-03 Eh
   gradient norm :     0.0135821 Eh/α   predicted    -0.5347976E-03 (  -9.65%)
   displ. norm   :     0.3616550 α      lambda       -0.6252610E-03
   maximum displ.:     0.1464327 α      in ANC's #26, #11, #7, ...

........................................................................
.............................. CYCLE   28 ..............................
........................................................................

 iter      E             dE          RMSdq      gap      omega  full diag
   1    -84.5068418 -0.845068E+02  0.834E-02    1.59       0.0  T
   2    -84.5068460 -0.424006E-05  0.495E-02    1.59       1.0  T
   3    -84.5068274  0.186869E-04  0.204E-02    1.60       1.0  T
   4    -84.5068488 -0.214405E-04  0.356E-03    1.60       3.7  T
   5    -84.5068491 -0.322998E-06  0.173E-03    1.60       7.7  T
   6    -84.5068491 -0.216629E-07  0.828E-04    1.60      16.0  T
   7    -84.5068492 -0.123884E-07  0.274E-04    1.60      48.4  T
     SCC iter.                  ...        0 min,  0.060 sec
     gradient                   ...        0 min,  0.008 sec
 * total energy  :   -83.4011948 Eh     change       -0.4666600E-03 Eh
   gradient norm :     0.0100628 Eh/α   predicted    -0.3535261E-03 ( -24.24%)
   displ. norm   :     0.5642773 α      lambda       -0.9010704E-03
   maximum displ.:     0.2281660 α      in ANC's #11, #7, #26, ...

........................................................................
.............................. CYCLE   29 ..............................
........................................................................

 iter      E             dE          RMSdq      gap      omega  full diag
   1    -84.5087328 -0.845087E+02  0.109E-01    1.59       0.0  T
   2    -84.5087405 -0.773085E-05  0.652E-02    1.59       1.0  T
   3    -84.5086910  0.495774E-04  0.340E-02    1.60       1.0  T
   4    -84.5087484 -0.574752E-04  0.479E-03    1.60       2.8  T
   5    -84.5087489 -0.472737E-06  0.250E-03    1.60       5.3  T
   6    -84.5087490 -0.557852E-07  0.106E-03    1.60      12.5  T
   7    -84.5087490 -0.187629E-07  0.355E-04    1.60      37.3  T
   8    -84.5087490 -0.164565E-08  0.130E-04    1.60     102.1  T
     SCC iter.                  ...        0 min,  0.070 sec
     gradient                   ...        0 min,  0.007 sec
 * total energy  :   -83.4018858 Eh     change       -0.6910230E-03 Eh
   gradient norm :     0.0107175 Eh/α   predicted    -0.5939929E-03 ( -14.04%)
   displ. norm   :     0.6832078 α      lambda       -0.1113539E-02
   maximum displ.:     0.2853441 α      in ANC's #11, #7, #26, ...

........................................................................
.............................. CYCLE   30 ..............................
........................................................................

 iter      E             dE          RMSdq      gap      omega  full diag
   1    -84.5086860 -0.845087E+02  0.129E-01    1.58       0.0  T
   2    -84.5086992 -0.131843E-04  0.783E-02    1.59       1.0  T
   3    -84.5086302  0.690197E-04  0.409E-02    1.60       1.0  T
   4    -84.5087112 -0.810589E-04  0.633E-03    1.60       2.1  T
   5    -84.5087120 -0.717927E-06  0.334E-03    1.60       4.0  T
   6    -84.5087121 -0.935051E-07  0.138E-03    1.60       9.6  T
   7    -84.5087121 -0.373769E-07  0.496E-04    1.60      26.7  T
   8    -84.5087121 -0.290163E-08  0.183E-04    1.60      72.5  T
     SCC iter.                  ...        0 min,  0.068 sec
     gradient                   ...        0 min,  0.009 sec
 * total energy  :   -83.4020375 Eh     change       -0.1516616E-03 Eh
   gradient norm :     0.0341740 Eh/α   predicted    -0.8166541E-03 ( 438.47%)
   displ. norm   :     0.2589987 α      lambda       -0.1327725E-02
   maximum displ.:     0.1078956 α      in ANC's #15, #11, #7, ...

........................................................................
.............................. CYCLE   31 ..............................
........................................................................

 iter      E             dE          RMSdq      gap      omega  full diag
   1    -84.5081659 -0.845082E+02  0.570E-02    1.62       0.0  T
   2    -84.5081731 -0.725665E-05  0.344E-02    1.61       1.0  T
   3    -84.5081721  0.107786E-05  0.982E-03    1.61       1.3  T
   4    -84.5081744 -0.232590E-05  0.425E-03    1.61       3.1  T
   5    -84.5081750 -0.626321E-06  0.200E-03    1.61       6.6  T
   6    -84.5081751 -0.313903E-07  0.843E-04    1.61      15.7  T
   7    -84.5081751 -0.134847E-07  0.270E-04    1.61      49.1  T
     SCC iter.                  ...        0 min,  0.062 sec
     gradient                   ...        0 min,  0.009 sec
 * total energy  :   -83.4027634 Eh     change       -0.7259927E-03 Eh
   gradient norm :     0.0142913 Eh/α   predicted    -0.7083956E-03 (  -2.42%)
   displ. norm   :     0.2927127 α      lambda       -0.5654375E-03
   maximum displ.:     0.1386853 α      in ANC's #11, #9, #3, ...

........................................................................
.............................. CYCLE   32 ..............................
........................................................................

 iter      E             dE          RMSdq      gap      omega  full diag
   1    -84.5176187 -0.845176E+02  0.443E-02    1.62       0.0  T
   2    -84.5176257 -0.702817E-05  0.253E-02    1.62       1.0  T
   3    -84.5176233  0.239473E-05  0.110E-02    1.62       1.2  T
   4    -84.5176266 -0.330969E-05  0.412E-03    1.61       3.2  T
   5    -84.5176272 -0.595655E-06  0.150E-03    1.61       8.8  T
   6    -84.5176272 -0.335545E-07  0.716E-04    1.61      18.5  T
   7    -84.5176272 -0.138607E-07  0.327E-04    1.61      40.5  T
     SCC iter.                  ...        0 min,  0.058 sec
     gradient                   ...        0 min,  0.008 sec
 * total energy  :   -83.4030733 Eh     change       -0.3098388E-03 Eh
   gradient norm :     0.0139119 Eh/α   predicted    -0.3069480E-03 (  -0.93%)
   displ. norm   :     0.6382532 α      lambda       -0.7713541E-03
   maximum displ.:     0.2814169 α      in ANC's #11, #7, #9, ...

........................................................................
.............................. CYCLE   33 ..............................
........................................................................

 iter      E             dE          RMSdq      gap      omega  full diag
   1    -84.5110140 -0.845110E+02  0.968E-02    1.60       0.0  T
   2    -84.5110205 -0.642286E-05  0.584E-02    1.61       1.0  T
   3    -84.5109773  0.431360E-04  0.323E-02    1.61       1.0  T
   4    -84.5110275 -0.501769E-04  0.434E-03    1.61       3.1  T
   5    -84.5110279 -0.361157E-06  0.217E-03    1.61       6.1  T
   6    -84.5110279 -0.207839E-07  0.941E-04    1.61      14.1  T
   7    -84.5110279 -0.230931E-07  0.322E-04    1.61      41.2  T
     SCC iter.                  ...        0 min,  0.062 sec
     gradient                   ...        0 min,  0.008 sec
 * total energy  :   -83.4036989 Eh     change       -0.6256150E-03 Eh
   gradient norm :     0.0111038 Eh/α   predicted    -0.5427889E-03 ( -13.24%)
   displ. norm   :     0.6600846 α      lambda       -0.1014432E-02
   maximum displ.:     0.2940847 α      in ANC's #11, #7, #9, ...

........................................................................
.............................. CYCLE   34 ..............................
........................................................................

 iter      E             dE          RMSdq      gap      omega  full diag
   1    -84.5078767 -0.845079E+02  0.103E-01    1.60       0.0  T
   2    -84.5079015 -0.248719E-04  0.621E-02    1.60       1.0  T
   3    -84.5078652  0.363446E-04  0.344E-02    1.60       1.0  T
   4    -84.5079103 -0.451363E-04  0.855E-03    1.60       1.5  T
   5    -84.5079128 -0.251939E-05  0.293E-03    1.60       4.5  T
   6    -84.5079129 -0.814602E-07  0.159E-03    1.60       8.3  T
   7    -84.5079130 -0.774818E-07  0.592E-04    1.60      22.4  T
   8    -84.5079130 -0.186510E-08  0.176E-04    1.60      75.3  T
     SCC iter.                  ...        0 min,  0.075 sec
     gradient                   ...        0 min,  0.009 sec
 * total energy  :   -83.4040733 Eh     change       -0.3743927E-03 Eh
   gradient norm :     0.0241458 Eh/α   predicted    -0.7282175E-03 (  94.51%)
   displ. norm   :     0.3568417 α      lambda       -0.1013555E-02
   maximum displ.:     0.1818214 α      in ANC's #9, #11, #3, ...

........................................................................
.............................. CYCLE   35 ..............................
........................................................................

 iter      E             dE          RMSdq      gap      omega  full diag
   1    -84.5113974 -0.845114E+02  0.766E-02    1.60       0.0  T
   2    -84.5114059 -0.850385E-05  0.447E-02    1.60       1.0  T
   3    -84.5113988  0.715845E-05  0.153E-02    1.60       1.0  T
   4    -84.5114077 -0.887381E-05  0.492E-03    1.60       2.7  T
   5    -84.5114084 -0.735024E-06  0.199E-03    1.60       6.6  T
   6    -84.5114085 -0.685848E-07  0.975E-04    1.60      13.6  T
   7    -84.5114085 -0.205622E-07  0.457E-04    1.60      29.0  T
     SCC iter.                  ...        0 min,  0.064 sec
     gradient                   ...        0 min,  0.009 sec
 * total energy  :   -83.4047093 Eh     change       -0.6360011E-03 Eh
   gradient norm :     0.0178845 Eh/α   predicted    -0.5713119E-03 ( -10.17%)
   displ. norm   :     0.4565109 α      lambda       -0.9842619E-03
   maximum displ.:     0.2476299 α      in ANC's #9, #11, #3, ...

........................................................................
.............................. CYCLE   36 ..............................
........................................................................

 iter      E             dE          RMSdq      gap      omega  full diag
   1    -84.5106155 -0.845106E+02  0.803E-02    1.58       0.0  T
   2    -84.5106294 -0.139068E-04  0.474E-02    1.58       1.0  T
   3    -84.5106182  0.111967E-04  0.191E-02    1.58       1.0  T
   4    -84.5106307 -0.125303E-04  0.672E-03    1.58       2.0  T
   5    -84.5106326 -0.191101E-05  0.182E-03    1.58       7.3  T
   6    -84.5106326 -0.223872E-07  0.997E-04    1.58      13.3  T
   7    -84.5106327 -0.277721E-07  0.419E-04    1.58      31.6  T
     SCC iter.                  ...        0 min,  0.062 sec
     gradient                   ...        0 min,  0.008 sec
 * total energy  :   -83.4051436 Eh     change       -0.4343155E-03 Eh
   gradient norm :     0.0173691 Eh/α   predicted    -0.5946950E-03 (  36.93%)
   displ. norm   :     0.4792963 α      lambda       -0.7967566E-03
   maximum displ.:     0.2439757 α      in ANC's #9, #11, #7, ...

........................................................................
.............................. CYCLE   37 ..............................
........................................................................

 iter      E             dE          RMSdq      gap      omega  full diag
   1    -84.5137312 -0.845137E+02  0.921E-02    1.57       0.0  T
   2    -84.5137389 -0.771574E-05  0.545E-02    1.56       1.0  T
   3    -84.5137245  0.144593E-04  0.197E-02    1.56       1.0  T
   4    -84.5137414 -0.169811E-04  0.465E-03    1.56       2.9  T
   5    -84.5137422 -0.707454E-06  0.200E-03    1.56       6.6  T
   6    -84.5137422 -0.359912E-07  0.108E-03    1.56      12.2  T
   7    -84.5137422 -0.271627E-07  0.335E-04    1.56      39.6  T
   8    -84.5137422 -0.143301E-08  0.130E-04    1.56     101.9  T
     SCC iter.                  ...        0 min,  0.067 sec
     gradient                   ...        0 min,  0.008 sec
 * total energy  :   -83.4057169 Eh     change       -0.5732810E-03 Eh
   gradient norm :     0.0148724 Eh/α   predicted    -0.4898972E-03 ( -14.55%)
   displ. norm   :     0.5300020 α      lambda       -0.9439526E-03
   maximum displ.:     0.3006652 α      in ANC's #9, #3, #2, ...

........................................................................
.............................. CYCLE   38 ..............................
........................................................................

 iter      E             dE          RMSdq      gap      omega  full diag
   1    -84.5146776 -0.845147E+02  0.103E-01    1.56       0.0  T
   2    -84.5146952 -0.176361E-04  0.608E-02    1.55       1.0  T
   3    -84.5146892  0.601854E-05  0.163E-02    1.55       1.0  T
   4    -84.5146974 -0.825254E-05  0.590E-03    1.54       2.2  T
   5    -84.5146987 -0.129618E-05  0.242E-03    1.54       5.5  T
   6    -84.5146987 -0.181399E-07  0.142E-03    1.54       9.3  T
   7    -84.5146988 -0.615874E-07  0.455E-04    1.54      29.1  T
   8    -84.5146988 -0.259729E-08  0.163E-04    1.54      81.1  T
     SCC iter.                  ...        0 min,  0.071 sec
     gradient                   ...        0 min,  0.009 sec
 * total energy  :   -83.4059970 Eh     change       -0.2801154E-03 Eh
   gradient norm :     0.0244326 Eh/α   predicted    -0.6045604E-03 ( 115.83%)
   displ. norm   :     0.4853418 α      lambda       -0.1019438E-02
   maximum displ.:     0.2380612 α      in ANC's #9, #11, #3, ...

........................................................................
.............................. CYCLE   39 ..............................
........................................................................

 iter      E             dE          RMSdq      gap      omega  full diag
   1    -84.5068805 -0.845069E+02  0.750E-02    1.54       0.0  T
   2    -84.5068866 -0.619358E-05  0.444E-02    1.54       1.0  T
   3    -84.5068814  0.521618E-05  0.131E-02    1.54       1.0  T
   4    -84.5068880 -0.661898E-05  0.441E-03    1.54       3.0  T
   5    -84.5068886 -0.576794E-06  0.179E-03    1.54       7.4  T
   6    -84.5068887 -0.497344E-07  0.762E-04    1.54      17.4  T
   7    -84.5068887 -0.499746E-08  0.321E-04    1.54      41.3  T
     SCC iter.                  ...        0 min,  0.060 sec
     gradient                   ...        0 min,  0.009 sec
 * total energy  :   -83.4065259 Eh     change       -0.5288568E-03 Eh
   gradient norm :     0.0192083 Eh/α   predicted    -0.6297925E-03 (  19.09%)
   displ. norm   :     0.3629404 α      lambda       -0.9701878E-03
   maximum displ.:     0.1973857 α      in ANC's #26, #14, #9, ...

........................................................................
.............................. CYCLE   40 ..............................
........................................................................

 iter      E             dE          RMSdq      gap      omega  full diag
   1    -84.5208795 -0.845209E+02  0.816E-02    1.55       0.0  T
   2    -84.5209061 -0.265450E-04  0.480E-02    1.55       1.0  T
   3    -84.5209006  0.546963E-05  0.182E-02    1.54       1.0  T
   4    -84.5209076 -0.702237E-05  0.697E-03    1.54       1.9  T
   5    -84.5209101 -0.243543E-05  0.225E-03    1.54       5.9  T
   6    -84.5209101 -0.563333E-07  0.129E-03    1.54      10.3  T
   7    -84.5209102 -0.400539E-07  0.457E-04    1.54      29.0  T
   8    -84.5209102 -0.215526E-08  0.181E-04    1.54      73.2  T
     SCC iter.                  ...        0 min,  0.070 sec
     gradient                   ...        0 min,  0.008 sec
 * total energy  :   -83.4067764 Eh     change       -0.2505075E-03 Eh
   gradient norm :     0.0240780 Eh/α   predicted    -0.5489937E-03 ( 119.15%)
   displ. norm   :     0.4550213 α      lambda       -0.9984191E-03
   maximum displ.:     0.2592796 α      in ANC's #9, #2, #3, ...

........................................................................
.............................. CYCLE   41 ..............................
........................................................................

 iter      E             dE          RMSdq      gap      omega  full diag
   1    -84.5160155 -0.845160E+02  0.658E-02    1.52       0.0  T
   2    -84.5160231 -0.763702E-05  0.390E-02    1.52       1.0  T
   3    -84.5160191  0.404108E-05  0.119E-02    1.52       1.1  T
   4    -84.5160234 -0.437396E-05  0.496E-03    1.52       2.7  T
   5    -84.5160245 -0.109874E-05  0.148E-03    1.52       9.0  T
   6    -84.5160246 -0.815925E-08  0.734E-04    1.52      18.0  T
   7    -84.5160246 -0.111036E-07  0.268E-04    1.52      49.5  T
     SCC iter.                  ...        0 min,  0.060 sec
     gradient                   ...        0 min,  0.009 sec
 * total energy  :   -83.4073988 Eh     change       -0.6224062E-03 Eh
   gradient norm :     0.0137864 Eh/α   predicted    -0.6025712E-03 (  -3.19%)
   displ. norm   :     0.5850957 α      lambda       -0.7937143E-03
   maximum displ.:     0.3444896 α      in ANC's #9, #3, #2, ...

........................................................................
.............................. CYCLE   42 ..............................
........................................................................

 iter      E             dE          RMSdq      gap      omega  full diag
   1    -84.5108547 -0.845109E+02  0.726E-02    1.51       0.0  T
   2    -84.5108629 -0.818788E-05  0.430E-02    1.51       1.0  T
   3    -84.5108569  0.602754E-05  0.144E-02    1.51       1.0  T
   4    -84.5108637 -0.688369E-05  0.523E-03    1.51       2.5  T
   5    -84.5108649 -0.116431E-05  0.172E-03    1.51       7.7  T
   6    -84.5108649 -0.126625E-07  0.800E-04    1.51      16.6  T
   7    -84.5108649 -0.102452E-07  0.231E-04    1.51      57.3  T
     SCC iter.                  ...        0 min,  0.062 sec
     gradient                   ...        0 min,  0.009 sec
 * total energy  :   -83.4079744 Eh     change       -0.5756017E-03 Eh
   gradient norm :     0.0107162 Eh/α   predicted    -0.5327179E-03 (  -7.45%)
   displ. norm   :     0.5949741 α      lambda       -0.6470483E-03
   maximum displ.:     0.3450725 α      in ANC's #9, #2, #3, ...
 * RMSD in coord.:     0.9371659 α      energy gain  -0.1119505E-01 Eh

generating ANC from exact Hessian ...
Using Lindh-Hessian (1995)
 Shifting diagonal of input Hessian by   1.009349771054438E-002
 Lowest  eigenvalues of input Hessian
    0.010000    0.010034    0.010055    0.000000    0.000000    0.000000
    0.000000    0.000000    0.000000    0.010116    0.010140    0.010202
    0.010248    0.010255    0.010322    0.010335    0.010516    0.010529
 Highest eigenvalues
    1.905218    2.009556    2.111408    2.265651    2.295424    2.337618
 

........................................................................
.............................. CYCLE   43 ..............................
........................................................................

 iter      E             dE          RMSdq      gap      omega  full diag
   1    -84.5103768 -0.845104E+02  0.774E-02    1.51       0.0  T
   2    -84.5103803 -0.350726E-05  0.458E-02    1.50       1.0  T
   3    -84.5103745  0.577849E-05  0.121E-02    1.50       1.1  T
   4    -84.5103814 -0.694359E-05  0.300E-03    1.50       4.4  T
   5    -84.5103817 -0.297102E-06  0.146E-03    1.50       9.1  T
   6    -84.5103818 -0.165268E-07  0.723E-04    1.50      18.3  T
   7    -84.5103818 -0.123443E-07  0.199E-04    1.50      66.4  T
     SCC iter.                  ...        0 min,  0.060 sec
     gradient                   ...        0 min,  0.009 sec
 * total energy  :   -83.4085122 Eh     change       -0.5378554E-03 Eh
   gradient norm :     0.0121403 Eh/α   predicted     0.0000000E+00 (-100.00%)
   displ. norm   :     0.2345697 α      lambda       -0.8014867E-03
   maximum displ.:     0.2085935 α      in ANC's #5, #9, #22, ...

........................................................................
.............................. CYCLE   44 ..............................
........................................................................

 iter      E             dE          RMSdq      gap      omega  full diag
   1    -84.5133330 -0.845133E+02  0.102E-01    1.49       0.0  T
   2    -84.5133437 -0.107546E-04  0.636E-02    1.49       1.0  T
   3    -84.5133191  0.246746E-04  0.243E-02    1.49       1.0  T
   4    -84.5133493 -0.302284E-04  0.497E-03    1.49       2.7  T
   5    -84.5133500 -0.723109E-06  0.204E-03    1.49       6.5  T
   6    -84.5133500 -0.205212E-07  0.903E-04    1.49      14.7  T
   7    -84.5133501 -0.211492E-07  0.291E-04    1.49      45.5  T
     SCC iter.                  ...        0 min,  0.060 sec
     gradient                   ...        0 min,  0.009 sec
 * total energy  :   -83.4089514 Eh     change       -0.4391219E-03 Eh
   gradient norm :     0.0179980 Eh/α   predicted    -0.4228001E-03 (  -3.72%)
   displ. norm   :     0.1440152 α      lambda       -0.5129259E-03
   maximum displ.:     0.0712779 α      in ANC's #9, #18, #4, ...

........................................................................
.............................. CYCLE   45 ..............................
........................................................................

 iter      E             dE          RMSdq      gap      omega  full diag
   1    -84.5196531 -0.845197E+02  0.402E-02    1.49       0.0  T
   2    -84.5196568 -0.369201E-05  0.236E-02    1.49       1.0  T
   3    -84.5196551  0.169767E-05  0.794E-03    1.49       1.7  T
   4    -84.5196572 -0.213299E-05  0.356E-03    1.49       3.7  T
   5    -84.5196577 -0.442660E-06  0.116E-03    1.49      11.4  T
   6    -84.5196577 -0.168754E-07  0.480E-04    1.49      27.6  T
   7    -84.5196577 -0.149004E-08  0.235E-04    1.49      56.4  T
     SCC iter.                  ...        0 min,  0.059 sec
     gradient                   ...        0 min,  0.008 sec
 * total energy  :   -83.4092683 Eh     change       -0.3169426E-03 Eh
   gradient norm :     0.0059389 Eh/α   predicted    -0.2618158E-03 ( -17.39%)
   displ. norm   :     0.2995384 α      lambda       -0.4857225E-03
   maximum displ.:     0.1496286 α      in ANC's #9, #4, #7, ...

........................................................................
.............................. CYCLE   46 ..............................
........................................................................

 iter      E             dE          RMSdq      gap      omega  full diag
   1    -84.5210122 -0.845210E+02  0.711E-02    1.48       0.0  T
   2    -84.5210166 -0.445546E-05  0.433E-02    1.48       1.0  T
   3    -84.5209987  0.178901E-04  0.200E-02    1.48       1.0  T
   4    -84.5210195 -0.207989E-04  0.359E-03    1.48       3.7  T
   5    -84.5210199 -0.320174E-06  0.172E-03    1.48       7.7  T
   6    -84.5210199 -0.989507E-08  0.770E-04    1.48      17.2  T
   7    -84.5210199 -0.139760E-07  0.220E-04    1.48      60.2  T
     SCC iter.                  ...        0 min,  0.058 sec
     gradient                   ...        0 min,  0.008 sec
 * total energy  :   -83.4096828 Eh     change       -0.4145153E-03 Eh
   gradient norm :     0.0082933 Eh/α   predicted    -0.2646518E-03 ( -36.15%)
   displ. norm   :     0.5873329 α      lambda       -0.8424619E-03
   maximum displ.:     0.2992306 α      in ANC's #9, #7, #4, ...

........................................................................
.............................. CYCLE   47 ..............................
........................................................................

 iter      E             dE          RMSdq      gap      omega  full diag
   1    -84.5141112 -0.845141E+02  0.129E-01    1.47       0.0  T
   2    -84.5141235 -0.123126E-04  0.782E-02    1.47       1.0  T
   3    -84.5140839  0.396209E-04  0.302E-02    1.47       1.0  T
   4    -84.5141313 -0.474025E-04  0.632E-03    1.47       2.1  T
   5    -84.5141321 -0.782702E-06  0.330E-03    1.47       4.0  T
   6    -84.5141322 -0.879241E-07  0.123E-03    1.47      10.8  T
   7    -84.5141322 -0.250176E-07  0.432E-04    1.47      30.6  T
   8    -84.5141322 -0.405173E-08  0.159E-04    1.47      83.4  T
     SCC iter.                  ...        0 min,  0.069 sec
     gradient                   ...        0 min,  0.009 sec
 * total energy  :   -83.4101490 Eh     change       -0.4661527E-03 Eh
   gradient norm :     0.0204008 Eh/α   predicted    -0.5665491E-03 (  21.54%)
   displ. norm   :     0.3426029 α      lambda       -0.8101246E-03
   maximum displ.:     0.1913890 α      in ANC's #9, #7, #4, ...

........................................................................
.............................. CYCLE   48 ..............................
........................................................................

 iter      E             dE          RMSdq      gap      omega  full diag
   1    -84.5134818 -0.845135E+02  0.586E-02    1.47       0.0  T
   2    -84.5134869 -0.511870E-05  0.340E-02    1.47       1.0  T
   3    -84.5134866  0.281867E-06  0.674E-03    1.47       2.0  T
   4    -84.5134879 -0.121103E-05  0.263E-03    1.47       5.0  T
   5    -84.5134879 -0.902579E-07  0.143E-03    1.47       9.2  T
   6    -84.5134880 -0.732082E-07  0.643E-04    1.47      20.6  T
   7    -84.5134880 -0.472978E-08  0.306E-04    1.47      43.3  T
     SCC iter.                  ...        0 min,  0.062 sec
     gradient                   ...        0 min,  0.008 sec
 * total energy  :   -83.4106485 Eh     change       -0.4995380E-03 Eh
   gradient norm :     0.0106421 Eh/α   predicted    -0.4526077E-03 (  -9.39%)
   displ. norm   :     0.4866452 α      lambda       -0.6652674E-03
   maximum displ.:     0.2793263 α      in ANC's #9, #7, #4, ...

........................................................................
.............................. CYCLE   49 ..............................
........................................................................

 iter      E             dE          RMSdq      gap      omega  full diag
   1    -84.5150224 -0.845150E+02  0.708E-02    1.47       0.0  T
   2    -84.5150256 -0.315638E-05  0.423E-02    1.47       1.0  T
   3    -84.5150219  0.371620E-05  0.103E-02    1.47       1.3  T
   4    -84.5150269 -0.502581E-05  0.330E-03    1.47       4.0  T
   5    -84.5150271 -0.234903E-06  0.171E-03    1.47       7.7  T
   6    -84.5150272 -0.392230E-07  0.679E-04    1.47      19.5  T
   7    -84.5150272 -0.692580E-08  0.257E-04    1.47      51.5  T
     SCC iter.                  ...        0 min,  0.057 sec
     gradient                   ...        0 min,  0.008 sec
 * total energy  :   -83.4111459 Eh     change       -0.4973531E-03 Eh
   gradient norm :     0.0105923 Eh/α   predicted    -0.4114122E-03 ( -17.28%)
   displ. norm   :     0.6657142 α      lambda       -0.8894807E-03
   maximum displ.:     0.3846543 α      in ANC's #9, #7, #4, ...

........................................................................
.............................. CYCLE   50 ..............................
........................................................................

 iter      E             dE          RMSdq      gap      omega  full diag
   1    -84.5148663 -0.845149E+02  0.951E-02    1.48       0.0  T
   2    -84.5148713 -0.492652E-05  0.570E-02    1.48       1.0  T
   3    -84.5148658  0.547846E-05  0.127E-02    1.48       1.0  T
   4    -84.5148732 -0.739017E-05  0.419E-03    1.47       3.2  T
   5    -84.5148736 -0.453256E-06  0.216E-03    1.48       6.1  T
   6    -84.5148737 -0.394425E-07  0.801E-04    1.48      16.5  T
   7    -84.5148737 -0.160038E-07  0.267E-04    1.48      49.6  T
     SCC iter.                  ...        0 min,  0.061 sec
     gradient                   ...        0 min,  0.008 sec
 * total energy  :   -83.4118297 Eh     change       -0.6838760E-03 Eh
   gradient norm :     0.0157023 Eh/α   predicted    -0.6418427E-03 (  -6.15%)
   displ. norm   :     0.6054582 α      lambda       -0.1284375E-02
   maximum displ.:     0.3502265 α      in ANC's #9, #7, #4, ...

........................................................................
.............................. CYCLE   51 ..............................
........................................................................

 iter      E             dE          RMSdq      gap      omega  full diag
   1    -84.5261895 -0.845262E+02  0.956E-02    1.49       0.0  T
   2    -84.5262083 -0.187779E-04  0.558E-02    1.48       1.0  T
   3    -84.5262063  0.196741E-05  0.147E-02    1.48       1.0  T
   4    -84.5262118 -0.547257E-05  0.559E-03    1.48       2.4  T
   5    -84.5262125 -0.637784E-06  0.321E-03    1.48       4.1  T
   6    -84.5262127 -0.281199E-06  0.130E-03    1.48      10.2  T
   7    -84.5262128 -0.203599E-07  0.598E-04    1.48      22.1  T
   8    -84.5262128 -0.442520E-08  0.216E-04    1.48      61.2  T
     SCC iter.                  ...        0 min,  0.074 sec
     gradient                   ...        0 min,  0.008 sec
 * total energy  :   -83.4119987 Eh     change       -0.1689787E-03 Eh
   gradient norm :     0.0312417 Eh/α   predicted    -0.8776010E-03 ( 419.36%)
   displ. norm   :     0.3450187 α      lambda       -0.1383210E-02
   maximum displ.:     0.1930318 α      in ANC's #9, #7, #4, ...

........................................................................
.............................. CYCLE   52 ..............................
........................................................................

 iter      E             dE          RMSdq      gap      omega  full diag
   1    -84.5230727 -0.845231E+02  0.621E-02    1.46       0.0  T
   2    -84.5230803 -0.756303E-05  0.371E-02    1.46       1.0  T
   3    -84.5230682  0.120823E-04  0.182E-02    1.46       1.0  T
   4    -84.5230823 -0.141470E-04  0.463E-03    1.46       2.9  T
   5    -84.5230832 -0.812254E-06  0.153E-03    1.46       8.7  T
   6    -84.5230832 -0.143240E-07  0.706E-04    1.46      18.8  T
   7    -84.5230832 -0.696811E-08  0.305E-04    1.46      43.4  T
     SCC iter.                  ...        0 min,  0.061 sec
     gradient                   ...        0 min,  0.009 sec
 * total energy  :   -83.4128335 Eh     change       -0.8348328E-03 Eh
   gradient norm :     0.0102106 Eh/α   predicted    -0.7739360E-03 (  -7.29%)
   displ. norm   :     0.5325976 α      lambda       -0.5296854E-03
   maximum displ.:     0.2951917 α      in ANC's #9, #4, #7, ...

........................................................................
.............................. CYCLE   53 ..............................
........................................................................

 iter      E             dE          RMSdq      gap      omega  full diag
   1    -84.5109867 -0.845110E+02  0.813E-02    1.43       0.0  T
   2    -84.5109984 -0.116487E-04  0.487E-02    1.43       1.0  T
   3    -84.5109784  0.199540E-04  0.238E-02    1.43       1.0  T
   4    -84.5110023 -0.238477E-04  0.582E-03    1.43       2.3  T
   5    -84.5110036 -0.129592E-05  0.221E-03    1.43       6.0  T
   6    -84.5110036 -0.257203E-07  0.104E-03    1.43      12.7  T
   7    -84.5110036 -0.123476E-07  0.287E-04    1.43      46.2  T
   8    -84.5110036 -0.866009E-09  0.119E-04    1.43     111.0  T
     SCC iter.                  ...        0 min,  0.070 sec
     gradient                   ...        0 min,  0.008 sec
 * total energy  :   -83.4128826 Eh     change       -0.4900695E-04 Eh
   gradient norm :     0.0203630 Eh/α   predicted    -0.3399712E-03 ( 593.72%)
   displ. norm   :     0.1887132 α      lambda       -0.8797817E-03
   maximum displ.:     0.0792839 α      in ANC's #22, #20, #17, ...

........................................................................
.............................. CYCLE   54 ..............................
........................................................................

 iter      E             dE          RMSdq      gap      omega  full diag
   1    -84.5223732 -0.845224E+02  0.602E-02    1.43       0.0  T
   2    -84.5223797 -0.643487E-05  0.352E-02    1.43       1.0  T
   3    -84.5223776  0.210004E-05  0.963E-03    1.43       1.4  T
   4    -84.5223809 -0.335708E-05  0.304E-03    1.43       4.4  T
   5    -84.5223812 -0.253605E-06  0.147E-03    1.43       9.0  T
   6    -84.5223812 -0.249493E-07  0.821E-04    1.43      16.1  T
   7    -84.5223812 -0.168229E-07  0.366E-04    1.43      36.2  T
     SCC iter.                  ...        0 min,  0.061 sec
     gradient                   ...        0 min,  0.009 sec
 * total energy  :   -83.4131788 Eh     change       -0.2962379E-03 Eh
   gradient norm :     0.0131416 Eh/α   predicted    -0.4555628E-03 (  53.78%)
   displ. norm   :     0.1499262 α      lambda       -0.4677084E-03
   maximum displ.:     0.0656682 α      in ANC's #11, #4, #15, ...

........................................................................
.............................. CYCLE   55 ..............................
........................................................................

 iter      E             dE          RMSdq      gap      omega  full diag
   1    -84.5251777 -0.845252E+02  0.465E-02    1.44       0.0  T
   2    -84.5251811 -0.342283E-05  0.275E-02    1.44       1.0  T
   3    -84.5251793  0.186395E-05  0.794E-03    1.43       1.7  T
   4    -84.5251815 -0.220801E-05  0.303E-03    1.43       4.4  T
   5    -84.5251818 -0.381942E-06  0.114E-03    1.43      11.6  T
   6    -84.5251819 -0.160193E-07  0.553E-04    1.43      23.9  T
   7    -84.5251819 -0.440401E-08  0.200E-04    1.43      66.2  T
     SCC iter.                  ...        0 min,  0.062 sec
     gradient                   ...        0 min,  0.007 sec
 * total energy  :   -83.4133856 Eh     change       -0.2067925E-03 Eh
   gradient norm :     0.0088431 Eh/α   predicted    -0.2391208E-03 (  15.63%)
   displ. norm   :     0.1717409 α      lambda       -0.3072718E-03
   maximum displ.:     0.0818870 α      in ANC's #15, #4, #7, ...

........................................................................
.............................. CYCLE   56 ..............................
........................................................................

 iter      E             dE          RMSdq      gap      omega  full diag
   1    -84.5217221 -0.845217E+02  0.352E-02    1.43       0.0  T
   2    -84.5217240 -0.193921E-05  0.212E-02    1.43       1.0  T
   3    -84.5217236  0.440918E-06  0.580E-03    1.43       2.3  T
   4    -84.5217247 -0.116368E-05  0.188E-03    1.43       7.1  T
   5    -84.5217248 -0.326971E-07  0.109E-03    1.43      12.2  T
   6    -84.5217248 -0.113187E-07  0.511E-04    1.43      25.9  T
   7    -84.5217248 -0.578447E-08  0.223E-04    1.43      59.3  T
     SCC iter.                  ...        0 min,  0.064 sec
     gradient                   ...        0 min,  0.005 sec
 * total energy  :   -83.4135844 Eh     change       -0.1988240E-03 Eh
   gradient norm :     0.0095949 Eh/α   predicted    -0.1581719E-03 ( -20.45%)
   displ. norm   :     0.3492970 α      lambda       -0.4152541E-03
   maximum displ.:     0.2131193 α      in ANC's #4, #8, #18, ...

........................................................................
.............................. CYCLE   57 ..............................
........................................................................

 iter      E             dE          RMSdq      gap      omega  full diag
   1    -84.5167101 -0.845167E+02  0.575E-02    1.42       0.0  T
   2    -84.5167147 -0.463232E-05  0.340E-02    1.42       1.0  T
   3    -84.5167117  0.297528E-05  0.107E-02    1.42       1.2  T
   4    -84.5167157 -0.392487E-05  0.324E-03    1.42       4.1  T
   5    -84.5167160 -0.331731E-06  0.152E-03    1.42       8.7  T
   6    -84.5167160 -0.361175E-07  0.723E-04    1.42      18.3  T
   7    -84.5167160 -0.849313E-08  0.280E-04    1.42      47.3  T
     SCC iter.                  ...        0 min,  0.055 sec
     gradient                   ...        0 min,  0.011 sec
 * total energy  :   -83.4137906 Eh     change       -0.2061773E-03 Eh
   gradient norm :     0.0143418 Eh/α   predicted    -0.2329600E-03 (  12.99%)
   displ. norm   :     0.4586865 α      lambda       -0.4331545E-03
   maximum displ.:     0.2686445 α      in ANC's #4, #9, #8, ...

........................................................................
.............................. CYCLE   58 ..............................
........................................................................

 iter      E             dE          RMSdq      gap      omega  full diag
   1    -84.5158554 -0.845159E+02  0.631E-02    1.42       0.0  T
   2    -84.5158585 -0.308801E-05  0.377E-02    1.42       1.0  T
   3    -84.5158568  0.171118E-05  0.815E-03    1.42       1.6  T
   4    -84.5158597 -0.293148E-05  0.241E-03    1.42       5.5  T
   5    -84.5158598 -0.683691E-07  0.135E-03    1.42       9.8  T
   6    -84.5158598 -0.397226E-08  0.560E-04    1.42      23.6  T
   7    -84.5158598 -0.933517E-08  0.242E-04    1.42      54.8  T
     SCC iter.                  ...        0 min,  0.050 sec
     gradient                   ...        0 min,  0.020 sec
 * total energy  :   -83.4140631 Eh     change       -0.2724973E-03 Eh
   gradient norm :     0.0162166 Eh/α   predicted    -0.2621485E-03 (  -3.80%)
   displ. norm   :     0.3061915 α      lambda       -0.4342876E-03
   maximum displ.:     0.1989144 α      in ANC's #4, #1, #8, ...

........................................................................
.............................. CYCLE   59 ..............................
........................................................................

 iter      E             dE          RMSdq      gap      omega  full diag
   1    -84.5225220 -0.845225E+02  0.346E-02    1.43       0.0  T
   2    -84.5225250 -0.300129E-05  0.205E-02    1.43       1.0  T
   3    -84.5225227  0.232986E-05  0.835E-03    1.43       1.6  T
   4    -84.5225253 -0.259740E-05  0.294E-03    1.43       4.5  T
   5    -84.5225257 -0.405436E-06  0.854E-04    1.43      15.5  T
   6    -84.5225257 -0.618026E-08  0.457E-04    1.43      29.0  T
     SCC iter.                  ...        0 min,  0.056 sec
     gradient                   ...        0 min,  0.006 sec
 * total energy  :   -83.4143706 Eh     change       -0.3075356E-03 Eh
   gradient norm :     0.0102136 Eh/α   predicted    -0.2375027E-03 ( -22.77%)
   displ. norm   :     0.5910123 α      lambda       -0.5225712E-03
   maximum displ.:     0.3955009 α      in ANC's #4, #8, #1, ...

........................................................................
.............................. CYCLE   60 ..............................
........................................................................

 iter      E             dE          RMSdq      gap      omega  full diag
   1    -84.5221363 -0.845221E+02  0.702E-02    1.44       0.0  T
   2    -84.5221393 -0.301865E-05  0.422E-02    1.44       1.0  T
   3    -84.5221377  0.157086E-05  0.697E-03    1.44       1.9  T
   4    -84.5221401 -0.239481E-05  0.286E-03    1.44       4.6  T
   5    -84.5221404 -0.242650E-06  0.150E-03    1.44       8.8  T
   6    -84.5221404 -0.193603E-07  0.722E-04    1.44      18.4  T
   7    -84.5221404 -0.137495E-07  0.213E-04    1.44      62.2  T
     SCC iter.                  ...        0 min,  0.064 sec
     gradient                   ...        0 min,  0.004 sec
 * total energy  :   -83.4147605 Eh     change       -0.3898418E-03 Eh
   gradient norm :     0.0095014 Eh/α   predicted    -0.3525588E-03 (  -9.56%)
   displ. norm   :     0.6098042 α      lambda       -0.5213798E-03
   maximum displ.:     0.4061981 α      in ANC's #4, #1, #8, ...

........................................................................
.............................. CYCLE   61 ..............................
........................................................................

 iter      E             dE          RMSdq      gap      omega  full diag
   1    -84.5222712 -0.845223E+02  0.713E-02    1.45       0.0  T
   2    -84.5222741 -0.280941E-05  0.423E-02    1.45       1.0  T
   3    -84.5222742 -0.101282E-06  0.435E-03    1.45       3.0  T
   4    -84.5222747 -0.524312E-06  0.193E-03    1.45       6.9  T
   5    -84.5222747 -0.638031E-07  0.102E-03    1.45      13.0  T
   6    -84.5222748 -0.151824E-07  0.394E-04    1.45      33.6  T
   7    -84.5222748 -0.107654E-08  0.159E-04    1.45      83.5  T
     SCC iter.                  ...        0 min,  0.058 sec
     gradient                   ...        0 min,  0.009 sec
 * total energy  :   -83.4151249 Eh     change       -0.3644134E-03 Eh
   gradient norm :     0.0114002 Eh/α   predicted    -0.3576331E-03 (  -1.86%)
   displ. norm   :     0.6648398 α      lambda       -0.5665749E-03
   maximum displ.:     0.4289177 α      in ANC's #4, #1, #8, ...

........................................................................
.............................. CYCLE   62 ..............................
........................................................................

 iter      E             dE          RMSdq      gap      omega  full diag
   1    -84.5212635 -0.845213E+02  0.727E-02    1.46       0.0  T
   2    -84.5212673 -0.381879E-05  0.435E-02    1.46       1.0  T
   3    -84.5212652  0.214796E-05  0.964E-03    1.46       1.4  T
   4    -84.5212688 -0.365644E-05  0.339E-03    1.46       3.9  T
   5    -84.5212690 -0.205736E-06  0.188E-03    1.46       7.1  T
   6    -84.5212691 -0.408525E-07  0.800E-04    1.46      16.6  T
   7    -84.5212691 -0.163106E-07  0.291E-04    1.46      45.5  T
     SCC iter.                  ...        0 min,  0.052 sec
     gradient                   ...        0 min,  0.018 sec
 * total energy  :   -83.4155431 Eh     change       -0.4182240E-03 Eh
   gradient norm :     0.0113296 Eh/α   predicted    -0.4085058E-03 (  -2.32%)
   displ. norm   :     0.5560760 α      lambda       -0.5381130E-03
   maximum displ.:     0.3323088 α      in ANC's #4, #1, #8, ...

........................................................................
.............................. CYCLE   63 ..............................
........................................................................

 iter      E             dE          RMSdq      gap      omega  full diag
   1    -84.5229704 -0.845230E+02  0.709E-02    1.45       0.0  T
   2    -84.5229736 -0.319982E-05  0.419E-02    1.45       1.0  T
   3    -84.5229731  0.488061E-06  0.595E-03    1.45       2.2  T
   4    -84.5229743 -0.119346E-05  0.250E-03    1.45       5.3  T
   5    -84.5229745 -0.133469E-06  0.137E-03    1.45       9.7  T
   6    -84.5229745 -0.193387E-07  0.616E-04    1.45      21.5  T
   7    -84.5229745 -0.867651E-08  0.229E-04    1.45      57.8  T
     SCC iter.                  ...        0 min,  0.060 sec
     gradient                   ...        0 min,  0.003 sec
 * total energy  :   -83.4159395 Eh     change       -0.3963659E-03 Eh
   gradient norm :     0.0092955 Eh/α   predicted    -0.3522560E-03 ( -11.13%)
   displ. norm   :     0.6399292 α      lambda       -0.4985436E-03
   maximum displ.:     0.3786837 α      in ANC's #4, #1, #8, ...

........................................................................
.............................. CYCLE   64 ..............................
........................................................................

 iter      E             dE          RMSdq      gap      omega  full diag
   1    -84.5203376 -0.845203E+02  0.747E-02    1.44       0.0  T
   2    -84.5203413 -0.373014E-05  0.444E-02    1.44       1.0  T
   3    -84.5203413  0.112786E-07  0.593E-03    1.44       2.2  T
   4    -84.5203423 -0.102034E-05  0.288E-03    1.44       4.6  T
   5    -84.5203425 -0.162378E-06  0.162E-03    1.44       8.2  T
   6    -84.5203425 -0.315710E-07  0.695E-04    1.44      19.1  T
   7    -84.5203425 -0.130925E-07  0.240E-04    1.44      55.1  T
     SCC iter.                  ...        0 min,  0.059 sec
     gradient                   ...        0 min,  0.009 sec
 * total energy  :   -83.4162978 Eh     change       -0.3583442E-03 Eh
   gradient norm :     0.0112956 Eh/α   predicted    -0.3513535E-03 (  -1.95%)
   displ. norm   :     0.4812879 α      lambda       -0.4902025E-03
   maximum displ.:     0.2205475 α      in ANC's #4, #1, #8, ...

........................................................................
.............................. CYCLE   65 ..............................
........................................................................

 iter      E             dE          RMSdq      gap      omega  full diag
   1    -84.5273103 -0.845273E+02  0.560E-02    1.43       0.0  T
   2    -84.5273198 -0.953777E-05  0.324E-02    1.43       1.0  T
   3    -84.5273187  0.116200E-05  0.101E-02    1.43       1.3  T
   4    -84.5273200 -0.135796E-05  0.438E-03    1.43       3.0  T
   5    -84.5273210 -0.926579E-06  0.140E-03    1.43       9.5  T
   6    -84.5273210 -0.265577E-07  0.591E-04    1.43      22.4  T
   7    -84.5273210 -0.488350E-08  0.256E-04    1.43      51.7  T
     SCC iter.                  ...        0 min,  0.061 sec
     gradient                   ...        0 min,  0.009 sec
 * total energy  :   -83.4165194 Eh     change       -0.2215867E-03 Eh
   gradient norm :     0.0111357 Eh/α   predicted    -0.3018780E-03 (  36.23%)
   displ. norm   :     0.6409865 α      lambda       -0.5398588E-03
   maximum displ.:     0.3744037 α      in ANC's #4, #8, #1, ...

........................................................................
.............................. CYCLE   66 ..............................
........................................................................

 iter      E             dE          RMSdq      gap      omega  full diag
   1    -84.5182141 -0.845182E+02  0.783E-02    1.44       0.0  T
   2    -84.5182202 -0.612261E-05  0.465E-02    1.43       1.0  T
   3    -84.5182145  0.568115E-05  0.116E-02    1.43       1.1  T
   4    -84.5182212 -0.669749E-05  0.366E-03    1.43       3.6  T
   5    -84.5182218 -0.553012E-06  0.151E-03    1.43       8.8  T
   6    -84.5182218 -0.289859E-07  0.807E-04    1.43      16.4  T
   7    -84.5182218 -0.894754E-08  0.292E-04    1.43      45.3  T
     SCC iter.                  ...        0 min,  0.059 sec
     gradient                   ...        0 min,  0.003 sec
 * total energy  :   -83.4167696 Eh     change       -0.2502220E-03 Eh
   gradient norm :     0.0136163 Eh/α   predicted    -0.3808371E-03 (  52.20%)
   displ. norm   :     0.3155240 α      lambda       -0.3904945E-03
   maximum displ.:     0.1757993 α      in ANC's #4, #8, #1, ...
 * RMSD in coord.:     1.0964554 α      energy gain  -0.8795236E-02 Eh

generating ANC from exact Hessian ...
Using Lindh-Hessian (1995)
 Shifting diagonal of input Hessian by   1.010238781825588E-002
 Lowest  eigenvalues of input Hessian
    0.010000    0.010020    0.000000    0.010058    0.000000    0.000000
    0.000000    0.000000    0.000000    0.010167    0.010210    0.010235
    0.010308    0.010383    0.010406    0.010559    0.010624    0.010680
 Highest eigenvalues
    1.905989    2.011329    2.109726    2.264004    2.306875    2.336160
 

........................................................................
.............................. CYCLE   67 ..............................
........................................................................

 iter      E             dE          RMSdq      gap      omega  full diag
   1    -84.5193378 -0.845193E+02  0.527E-02    1.42       0.0  T
   2    -84.5193410 -0.322357E-05  0.314E-02    1.42       1.0  T
   3    -84.5193397  0.133829E-05  0.747E-03    1.42       1.8  T
   4    -84.5193419 -0.217576E-05  0.285E-03    1.42       4.7  T
   5    -84.5193421 -0.219186E-06  0.143E-03    1.42       9.2  T
   6    -84.5193421 -0.184790E-07  0.681E-04    1.42      19.5  T
   7    -84.5193421 -0.135147E-07  0.266E-04    1.42      49.7  T
     SCC iter.                  ...        0 min,  0.065 sec
     gradient                   ...        0 min,  0.008 sec
 * total energy  :   -83.4170320 Eh     change       -0.2623719E-03 Eh
   gradient norm :     0.0121583 Eh/α   predicted     0.0000000E+00 (-100.00%)
   displ. norm   :     0.1319798 α      lambda       -0.3973689E-03
   maximum displ.:     0.0566356 α      in ANC's #19, #21, #29, ...

........................................................................
.............................. CYCLE   68 ..............................
........................................................................

 iter      E             dE          RMSdq      gap      omega  full diag
   1    -84.5239505 -0.845240E+02  0.439E-02    1.41       0.0  T
   2    -84.5239523 -0.178740E-05  0.268E-02    1.41       1.0  T
   3    -84.5239487  0.358187E-05  0.953E-03    1.41       1.4  T
   4    -84.5239531 -0.439536E-05  0.235E-03    1.41       5.6  T
   5    -84.5239533 -0.154809E-06  0.110E-03    1.41      12.0  T
   6    -84.5239533 -0.701087E-08  0.451E-04    1.41      29.4  T
   7    -84.5239533 -0.316550E-08  0.149E-04    1.41      88.7  T
     SCC iter.                  ...        0 min,  0.052 sec
     gradient                   ...        0 min,  0.008 sec
 * total energy  :   -83.4173265 Eh     change       -0.2944753E-03 Eh
   gradient norm :     0.0053364 Eh/α   predicted    -0.2021459E-03 ( -31.35%)
   displ. norm   :     0.2310429 α      lambda       -0.3706951E-03
   maximum displ.:     0.1013181 α      in ANC's #21, #19, #29, ...

........................................................................
.............................. CYCLE   69 ..............................
........................................................................

 iter      E             dE          RMSdq      gap      omega  full diag
   1    -84.5261825 -0.845262E+02  0.626E-02    1.40       0.0  T
   2    -84.5261853 -0.280192E-05  0.381E-02    1.40       1.0  T
   3    -84.5261792  0.612963E-05  0.124E-02    1.40       1.1  T
   4    -84.5261870 -0.777755E-05  0.304E-03    1.40       4.4  T
   5    -84.5261872 -0.190524E-06  0.167E-03    1.40       7.9  T
   6    -84.5261872 -0.174761E-07  0.620E-04    1.40      21.4  T
   7    -84.5261872 -0.872747E-08  0.191E-04    1.40      69.4  T
     SCC iter.                  ...        0 min,  0.053 sec
     gradient                   ...        0 min,  0.011 sec
 * total energy  :   -83.4175839 Eh     change       -0.2574105E-03 Eh
   gradient norm :     0.0071847 Eh/α   predicted    -0.1952540E-03 ( -24.15%)
   displ. norm   :     0.2981178 α      lambda       -0.3396965E-03
   maximum displ.:     0.1121341 α      in ANC's #19, #21, #14, ...

........................................................................
.............................. CYCLE   70 ..............................
........................................................................

 iter      E             dE          RMSdq      gap      omega  full diag
   1    -84.5251212 -0.845251E+02  0.782E-02    1.39       0.0  T
   2    -84.5251248 -0.354116E-05  0.468E-02    1.39       1.0  T
   3    -84.5251225  0.227296E-05  0.999E-03    1.40       1.3  T
   4    -84.5251267 -0.415690E-05  0.336E-03    1.39       3.9  T
   5    -84.5251268 -0.134520E-06  0.215E-03    1.39       6.1  T
   6    -84.5251269 -0.770934E-07  0.684E-04    1.39      19.4  T
   7    -84.5251269 -0.111019E-07  0.231E-04    1.39      57.4  T
     SCC iter.                  ...        0 min,  0.055 sec
     gradient                   ...        0 min,  0.014 sec
 * total energy  :   -83.4177517 Eh     change       -0.1677849E-03 Eh
   gradient norm :     0.0118635 Eh/α   predicted    -0.1849520E-03 (  10.23%)
   displ. norm   :     0.1657438 α      lambda       -0.2834688E-03
   maximum displ.:     0.0655203 α      in ANC's #14, #6, #26, ...

........................................................................
.............................. CYCLE   71 ..............................
........................................................................

 iter      E             dE          RMSdq      gap      omega  full diag
   1    -84.5262736 -0.845263E+02  0.429E-02    1.39       0.0  T
   2    -84.5262750 -0.141492E-05  0.255E-02    1.39       1.0  T
   3    -84.5262752 -0.130261E-06  0.366E-03    1.39       3.6  T
   4    -84.5262755 -0.330891E-06  0.180E-03    1.39       7.4  T
   5    -84.5262755 -0.386239E-07  0.907E-04    1.39      14.6  T
   6    -84.5262755 -0.179837E-07  0.470E-04    1.39      28.2  T
     SCC iter.                  ...        0 min,  0.053 sec
     gradient                   ...        0 min,  0.010 sec
 * total energy  :   -83.4179228 Eh     change       -0.1711375E-03 Eh
   gradient norm :     0.0055904 Eh/α   predicted    -0.1456350E-03 ( -14.90%)
   displ. norm   :     0.2948251 α      lambda       -0.2475867E-03
   maximum displ.:     0.0962487 α      in ANC's #14, #3, #21, ...

........................................................................
.............................. CYCLE   72 ..............................
........................................................................

 iter      E             dE          RMSdq      gap      omega  full diag
   1    -84.5235071 -0.845235E+02  0.693E-02    1.38       0.0  T
   2    -84.5235109 -0.377057E-05  0.415E-02    1.38       1.0  T
   3    -84.5235102  0.659413E-06  0.793E-03    1.38       1.7  T
   4    -84.5235125 -0.229995E-05  0.324E-03    1.38       4.1  T
   5    -84.5235126 -0.798249E-07  0.187E-03    1.38       7.1  T
   6    -84.5235127 -0.898189E-07  0.780E-04    1.38      17.0  T
   7    -84.5235127 -0.884225E-08  0.302E-04    1.38      43.9  T
     SCC iter.                  ...        0 min,  0.060 sec
     gradient                   ...        0 min,  0.008 sec
 * total energy  :   -83.4180150 Eh     change       -0.9218760E-04 Eh
   gradient norm :     0.0101701 Eh/α   predicted    -0.1345540E-03 (  45.96%)
   displ. norm   :     0.1579721 α      lambda       -0.1990432E-03
   maximum displ.:     0.0574222 α      in ANC's #1, #14, #3, ...

........................................................................
.............................. CYCLE   73 ..............................
........................................................................

 iter      E             dE          RMSdq      gap      omega  full diag
   1    -84.5242042 -0.845242E+02  0.355E-02    1.39       0.0  T
   2    -84.5242050 -0.779655E-06  0.212E-02    1.39       1.0  T
   3    -84.5242040  0.101539E-05  0.511E-03    1.39       2.6  T
   4    -84.5242053 -0.130403E-05  0.160E-03    1.39       8.3  T
   5    -84.5242054 -0.575613E-07  0.809E-04    1.39      16.4  T
   6    -84.5242054 -0.790837E-08  0.323E-04    1.39      41.0  T
     SCC iter.                  ...        0 min,  0.048 sec
     gradient                   ...        0 min,  0.015 sec
 * total energy  :   -83.4181536 Eh     change       -0.1385826E-03 Eh
   gradient norm :     0.0039405 Eh/α   predicted    -0.1020063E-03 ( -26.39%)
   displ. norm   :     0.3245430 α      lambda       -0.1677409E-03
   maximum displ.:     0.1141514 α      in ANC's #3, #1, #14, ...

........................................................................
.............................. CYCLE   74 ..............................
........................................................................

 iter      E             dE          RMSdq      gap      omega  full diag
   1    -84.5238174 -0.845238E+02  0.639E-02    1.38       0.0  T
   2    -84.5238190 -0.153370E-05  0.380E-02    1.38       1.0  T
   3    -84.5238186  0.380159E-06  0.553E-03    1.39       2.4  T
   4    -84.5238196 -0.105386E-05  0.208E-03    1.39       6.4  T
   5    -84.5238197 -0.337907E-07  0.127E-03    1.39      10.4  T
   6    -84.5238197 -0.326012E-07  0.459E-04    1.39      28.9  T
   7    -84.5238197 -0.502338E-08  0.162E-04    1.39      81.8  T
     SCC iter.                  ...        0 min,  0.061 sec
     gradient                   ...        0 min,  0.009 sec
 * total energy  :   -83.4182792 Eh     change       -0.1256250E-03 Eh
   gradient norm :     0.0059278 Eh/α   predicted    -0.9270474E-04 ( -26.21%)
   displ. norm   :     0.4842883 α      lambda       -0.3004385E-03
   maximum displ.:     0.1899324 α      in ANC's #3, #1, #6, ...

........................................................................
.............................. CYCLE   75 ..............................
........................................................................

 iter      E             dE          RMSdq      gap      omega  full diag
   1    -84.5291294 -0.845291E+02  0.818E-02    1.40       0.0  T
   2    -84.5291322 -0.282239E-05  0.485E-02    1.40       1.0  T
   3    -84.5291324 -0.231038E-06  0.496E-03    1.40       2.7  T
   4    -84.5291331 -0.630148E-06  0.220E-03    1.40       6.0  T
   5    -84.5291331 -0.410717E-07  0.115E-03    1.40      11.6  T
   6    -84.5291331 -0.108882E-07  0.404E-04    1.40      32.8  T
   7    -84.5291331 -0.193201E-08  0.197E-04    1.40      67.3  T
     SCC iter.                  ...        0 min,  0.059 sec
     gradient                   ...        0 min,  0.010 sec
 * total energy  :   -83.4183410 Eh     change       -0.6176250E-04 Eh
   gradient norm :     0.0144076 Eh/α   predicted    -0.1854556E-03 ( 200.27%)
   displ. norm   :     0.4216908 α      lambda       -0.3960556E-03
   maximum displ.:     0.1651439 α      in ANC's #3, #1, #14, ...

........................................................................
.............................. CYCLE   76 ..............................
........................................................................

 iter      E             dE          RMSdq      gap      omega  full diag
   1    -84.5238459 -0.845238E+02  0.756E-02    1.38       0.0  T
   2    -84.5238513 -0.534254E-05  0.452E-02    1.38       1.0  T
   3    -84.5238399  0.113240E-04  0.166E-02    1.39       1.0  T
   4    -84.5238535 -0.135748E-04  0.401E-03    1.38       3.3  T
   5    -84.5238539 -0.395838E-06  0.183E-03    1.38       7.2  T
   6    -84.5238539 -0.216578E-07  0.799E-04    1.38      16.6  T
   7    -84.5238539 -0.724341E-08  0.343E-04    1.38      38.6  T
     SCC iter.                  ...        0 min,  0.062 sec
     gradient                   ...        0 min,  0.007 sec
 * total energy  :   -83.4185468 Eh     change       -0.2058675E-03 Eh
   gradient norm :     0.0096167 Eh/α   predicted    -0.2332421E-03 (  13.30%)
   displ. norm   :     0.1245536 α      lambda       -0.2381990E-03
   maximum displ.:     0.0460647 α      in ANC's #8, #7, #20, ...

........................................................................
.............................. CYCLE   77 ..............................
........................................................................

 iter      E             dE          RMSdq      gap      omega  full diag
   1    -84.5274413 -0.845274E+02  0.330E-02    1.38       0.0  T
   2    -84.5274427 -0.131970E-05  0.197E-02    1.38       1.0  T
   3    -84.5274410  0.169685E-05  0.663E-03    1.38       2.0  T
   4    -84.5274430 -0.206331E-05  0.202E-03    1.38       6.5  T
   5    -84.5274431 -0.118775E-06  0.845E-04    1.38      15.7  T
   6    -84.5274431 -0.718371E-08  0.363E-04    1.38      36.4  T
     SCC iter.                  ...        0 min,  0.047 sec
     gradient                   ...        0 min,  0.018 sec
 * total energy  :   -83.4186777 Eh     change       -0.1309047E-03 Eh
   gradient norm :     0.0070828 Eh/α   predicted    -0.1209484E-03 (  -7.61%)
   displ. norm   :     0.4577755 α      lambda       -0.2886962E-03
   maximum displ.:     0.1799732 α      in ANC's #3, #1, #8, ...

........................................................................
.............................. CYCLE   78 ..............................
........................................................................

 iter      E             dE          RMSdq      gap      omega  full diag
   1    -84.5272654 -0.845273E+02  0.501E-02    1.38       0.0  T
   2    -84.5272671 -0.174697E-05  0.297E-02    1.38       1.0  T
   3    -84.5272643  0.284387E-05  0.808E-03    1.38       1.6  T
   4    -84.5272678 -0.347869E-05  0.240E-03    1.38       5.5  T
   5    -84.5272679 -0.150544E-06  0.112E-03    1.38      11.8  T
   6    -84.5272679 -0.132207E-07  0.494E-04    1.38      26.8  T
   7    -84.5272679 -0.333785E-08  0.218E-04    1.38      60.7  T
     SCC iter.                  ...        0 min,  0.063 sec
     gradient                   ...        0 min,  0.005 sec
 * total energy  :   -83.4189152 Eh     change       -0.2374609E-03 Eh
   gradient norm :     0.0044873 Eh/α   predicted    -0.1745980E-03 ( -26.47%)
   displ. norm   :     0.7362808 α      lambda       -0.4780070E-03
   maximum displ.:     0.3125036 α      in ANC's #1, #3, #8, ...

........................................................................
.............................. CYCLE   79 ..............................
........................................................................

 iter      E             dE          RMSdq      gap      omega  full diag
   1    -84.5262252 -0.845262E+02  0.839E-02    1.38       0.0  T
   2    -84.5262284 -0.327731E-05  0.503E-02    1.38       1.0  T
   3    -84.5262204  0.800885E-05  0.134E-02    1.37       1.0  T
   4    -84.5262303 -0.988310E-05  0.334E-03    1.37       4.0  T
   5    -84.5262305 -0.206829E-06  0.176E-03    1.37       7.5  T
   6    -84.5262305 -0.190850E-07  0.535E-04    1.37      24.8  T
   7    -84.5262305 -0.584062E-08  0.183E-04    1.37      72.2  T
     SCC iter.                  ...        0 min,  0.057 sec
     gradient                   ...        0 min,  0.011 sec
 * total energy  :   -83.4193218 Eh     change       -0.4066149E-03 Eh
   gradient norm :     0.0058542 Eh/α   predicted    -0.3685775E-03 (  -9.35%)
   displ. norm   :     0.7646368 α      lambda       -0.4648796E-03
   maximum displ.:     0.3424369 α      in ANC's #3, #1, #8, ...

........................................................................
.............................. CYCLE   80 ..............................
........................................................................

 iter      E             dE          RMSdq      gap      omega  full diag
   1    -84.5235778 -0.845236E+02  0.781E-02    1.35       0.0  T
   2    -84.5235821 -0.423506E-05  0.471E-02    1.36       1.0  T
   3    -84.5235626  0.194776E-04  0.201E-02    1.35       1.0  T
   4    -84.5235853 -0.226977E-04  0.354E-03    1.35       3.7  T
   5    -84.5235855 -0.206276E-06  0.185E-03    1.36       7.2  T
   6    -84.5235855 -0.199966E-07  0.678E-04    1.35      19.5  T
   7    -84.5235855 -0.743839E-08  0.227E-04    1.35      58.5  T
     SCC iter.                  ...        0 min,  0.049 sec
     gradient                   ...        0 min,  0.021 sec
 * total energy  :   -83.4197003 Eh     change       -0.3784580E-03 Eh
   gradient norm :     0.0094926 Eh/α   predicted    -0.3683429E-03 (  -2.67%)
   displ. norm   :     0.6256199 α      lambda       -0.4655245E-03
   maximum displ.:     0.2869624 α      in ANC's #3, #1, #8, ...

........................................................................
.............................. CYCLE   81 ..............................
........................................................................

 iter      E             dE          RMSdq      gap      omega  full diag
   1    -84.5257993 -0.845258E+02  0.631E-02    1.34       0.0  T
   2    -84.5258048 -0.551260E-05  0.380E-02    1.34       1.0  T
   3    -84.5257962  0.856636E-05  0.148E-02    1.34       1.0  T
   4    -84.5258064 -0.101672E-04  0.444E-03    1.34       3.0  T
   5    -84.5258071 -0.699474E-06  0.168E-03    1.34       7.9  T
   6    -84.5258071 -0.195532E-07  0.740E-04    1.34      17.9  T
   7    -84.5258071 -0.682138E-08  0.261E-04    1.34      50.7  T
     SCC iter.                  ...        0 min,  0.064 sec
     gradient                   ...        0 min,  0.008 sec
 * total energy  :   -83.4199712 Eh     change       -0.2709666E-03 Eh
   gradient norm :     0.0082721 Eh/α   predicted    -0.3238667E-03 (  19.52%)
   displ. norm   :     0.6298034 α      lambda       -0.5193938E-03
   maximum displ.:     0.2593745 α      in ANC's #1, #3, #6, ...

........................................................................
.............................. CYCLE   82 ..............................
........................................................................

 iter      E             dE          RMSdq      gap      omega  full diag
   1    -84.5221513 -0.845222E+02  0.610E-02    1.33       0.0  T
   2    -84.5221548 -0.351511E-05  0.367E-02    1.33       1.0  T
   3    -84.5221486  0.617698E-05  0.129E-02    1.33       1.0  T
   4    -84.5221564 -0.778849E-05  0.326E-03    1.33       4.1  T
   5    -84.5221566 -0.222504E-06  0.161E-03    1.33       8.2  T
   6    -84.5221567 -0.190274E-07  0.644E-04    1.33      20.6  T
   7    -84.5221567 -0.520043E-08  0.258E-04    1.33      51.3  T
     SCC iter.                  ...        0 min,  0.062 sec
     gradient                   ...        0 min,  0.004 sec
 * total energy  :   -83.4203574 Eh     change       -0.3861821E-03 Eh
   gradient norm :     0.0115784 Eh/α   predicted    -0.3627093E-03 (  -6.08%)
   displ. norm   :     0.4373381 α      lambda       -0.6209921E-03
   maximum displ.:     0.1561129 α      in ANC's #3, #6, #4, ...

........................................................................
.............................. CYCLE   83 ..............................
........................................................................

 iter      E             dE          RMSdq      gap      omega  full diag
   1    -84.5289101 -0.845289E+02  0.704E-02    1.33       0.0  T
   2    -84.5289216 -0.114693E-04  0.412E-02    1.33       1.0  T
   3    -84.5289209  0.643261E-06  0.115E-02    1.33       1.1  T
   4    -84.5289244 -0.343278E-05  0.440E-03    1.33       3.0  T
   5    -84.5289247 -0.312966E-06  0.177E-03    1.33       7.5  T
   6    -84.5289247 -0.453244E-07  0.907E-04    1.33      14.6  T
   7    -84.5289247 -0.469734E-08  0.330E-04    1.33      40.2  T
     SCC iter.                  ...        0 min,  0.068 sec
     gradient                   ...        0 min,  0.005 sec
 * total energy  :   -83.4204719 Eh     change       -0.1145428E-03 Eh
   gradient norm :     0.0238816 Eh/α   predicted    -0.3698840E-03 ( 222.92%)
   displ. norm   :     0.4967552 α      lambda       -0.9166671E-03
   maximum displ.:     0.1983095 α      in ANC's #3, #6, #14, ...

........................................................................
.............................. CYCLE   84 ..............................
........................................................................

 iter      E             dE          RMSdq      gap      omega  full diag
   1    -84.5212464 -0.845212E+02  0.917E-02    1.33       0.0  T
   2    -84.5212548 -0.836061E-05  0.540E-02    1.33       1.0  T
   3    -84.5212552 -0.362545E-06  0.758E-03    1.34       1.7  T
   4    -84.5212563 -0.118418E-05  0.275E-03    1.34       4.8  T
   5    -84.5212564 -0.532443E-07  0.177E-03    1.34       7.5  T
   6    -84.5212564 -0.436488E-07  0.744E-04    1.34      17.8  T
   7    -84.5212564 -0.141557E-07  0.309E-04    1.34      42.8  T
     SCC iter.                  ...        0 min,  0.063 sec
     gradient                   ...        0 min,  0.006 sec
 * total energy  :   -83.4206867 Eh     change       -0.2147911E-03 Eh
   gradient norm :     0.0185706 Eh/α   predicted    -0.5714366E-03 ( 166.04%)
   displ. norm   :     0.3512748 α      lambda       -0.1008924E-02
   maximum displ.:     0.1595577 α      in ANC's #3, #1, #2, ...

........................................................................
.............................. CYCLE   85 ..............................
........................................................................

 iter      E             dE          RMSdq      gap      omega  full diag
   1    -84.5249870 -0.845250E+02  0.782E-02    1.33       0.0  T
   2    -84.5249959 -0.893070E-05  0.468E-02    1.33       1.0  T
   3    -84.5249952  0.742664E-06  0.976E-03    1.33       1.4  T
   4    -84.5249978 -0.265436E-05  0.494E-03    1.33       2.7  T
   5    -84.5249986 -0.745997E-06  0.231E-03    1.33       5.7  T
   6    -84.5249987 -0.144200E-06  0.914E-04    1.33      14.5  T
   7    -84.5249987 -0.478892E-08  0.386E-04    1.33      34.3  T
     SCC iter.                  ...        0 min,  0.105 sec
     gradient                   ...        0 min,  0.019 sec
 * total energy  :   -83.4211062 Eh     change       -0.4194184E-03 Eh
   gradient norm :     0.0159804 Eh/α   predicted    -0.5667089E-03 (  35.12%)
   displ. norm   :     0.5190318 α      lambda       -0.6446152E-03
   maximum displ.:     0.2310909 α      in ANC's #3, #6, #8, ...

........................................................................
.............................. CYCLE   86 ..............................
........................................................................

 iter      E             dE          RMSdq      gap      omega  full diag
   1    -84.5228267 -0.845228E+02  0.492E-02    1.31       0.0  T
   2    -84.5228312 -0.448868E-05  0.293E-02    1.32       1.0  T
   3    -84.5228279  0.334784E-05  0.104E-02    1.32       1.3  T
   4    -84.5228325 -0.468333E-05  0.389E-03    1.32       3.4  T
   5    -84.5228329 -0.388901E-06  0.166E-03    1.32       8.0  T
   6    -84.5228329 -0.256636E-07  0.727E-04    1.32      18.2  T
   7    -84.5228330 -0.340424E-08  0.299E-04    1.32      44.3  T
     SCC iter.                  ...        0 min,  0.071 sec
     gradient                   ...        0 min,  0.011 sec
 * total energy  :   -83.4215027 Eh     change       -0.3965726E-03 Eh
   gradient norm :     0.0141282 Eh/α   predicted    -0.4091368E-03 (   3.17%)
   displ. norm   :     0.4687400 α      lambda       -0.6363782E-03
   maximum displ.:     0.1943525 α      in ANC's #3, #6, #1, ...

........................................................................
.............................. CYCLE   87 ..............................
........................................................................

 iter      E             dE          RMSdq      gap      omega  full diag
   1    -84.5330352 -0.845330E+02  0.590E-02    1.33       0.0  T
   2    -84.5330426 -0.732816E-05  0.340E-02    1.32       1.0  T
   3    -84.5330399  0.268982E-05  0.105E-02    1.32       1.3  T
   4    -84.5330438 -0.394028E-05  0.412E-03    1.32       3.2  T
   5    -84.5330443 -0.459409E-06  0.202E-03    1.32       6.6  T
   6    -84.5330444 -0.119183E-06  0.755E-04    1.32      17.6  T
   7    -84.5330444 -0.764167E-08  0.380E-04    1.32      34.9  T
     SCC iter.                  ...        0 min,  0.063 sec
     gradient                   ...        0 min,  0.005 sec
 * total energy  :   -83.4217918 Eh     change       -0.2891151E-03 Eh
   gradient norm :     0.0132458 Eh/α   predicted    -0.3881021E-03 (  34.24%)
   displ. norm   :     0.6860946 α      lambda       -0.8206032E-03
   maximum displ.:     0.3517307 α      in ANC's #3, #1, #6, ...

........................................................................
.............................. CYCLE   88 ..............................
........................................................................

 iter      E             dE          RMSdq      gap      omega  full diag
   1    -84.5290873 -0.845291E+02  0.785E-02    1.32       0.0  T
   2    -84.5290932 -0.586632E-05  0.471E-02    1.32       1.0  T
   3    -84.5290925  0.700634E-06  0.890E-03    1.32       1.5  T
   4    -84.5290949 -0.246025E-05  0.394E-03    1.32       3.4  T
   5    -84.5290952 -0.307902E-06  0.205E-03    1.32       6.5  T
   6    -84.5290953 -0.852946E-07  0.861E-04    1.32      15.4  T
   7    -84.5290953 -0.146406E-07  0.374E-04    1.32      35.4  T
     SCC iter.                  ...        0 min,  0.053 sec
     gradient                   ...        0 min,  0.017 sec
 * total energy  :   -83.4223980 Eh     change       -0.6061696E-03 Eh
   gradient norm :     0.0121743 Eh/α   predicted    -0.6034431E-03 (  -0.45%)
   displ. norm   :     0.7021249 α      lambda       -0.7900984E-03
   maximum displ.:     0.3484713 α      in ANC's #3, #6, #1, ...

........................................................................
.............................. CYCLE   89 ..............................
........................................................................

 iter      E             dE          RMSdq      gap      omega  full diag
   1    -84.5216625 -0.845217E+02  0.811E-02    1.32       0.0  T
   2    -84.5216691 -0.664886E-05  0.483E-02    1.32       1.0  T
   3    -84.5216670  0.217587E-05  0.995E-03    1.32       1.3  T
   4    -84.5216704 -0.338782E-05  0.435E-03    1.32       3.0  T
   5    -84.5216710 -0.652701E-06  0.194E-03    1.32       6.8  T
   6    -84.5216710 -0.335005E-07  0.808E-04    1.32      16.4  T
   7    -84.5216711 -0.123685E-07  0.298E-04    1.32      44.5  T
     SCC iter.                  ...        0 min,  0.062 sec
     gradient                   ...        0 min,  0.003 sec
 * total energy  :   -83.4227738 Eh     change       -0.3758209E-03 Eh
   gradient norm :     0.0227024 Eh/α   predicted    -0.5898046E-03 (  56.94%)
   displ. norm   :     0.5759467 α      lambda       -0.8898859E-03
   maximum displ.:     0.2794502 α      in ANC's #3, #6, #1, ...

........................................................................
.............................. CYCLE   90 ..............................
........................................................................

 iter      E             dE          RMSdq      gap      omega  full diag
   1    -84.5202862 -0.845203E+02  0.560E-02    1.32       0.0  T
   2    -84.5202892 -0.301252E-05  0.336E-02    1.32       1.0  T
   3    -84.5202891  0.979869E-07  0.622E-03    1.32       2.1  T
   4    -84.5202906 -0.154444E-05  0.277E-03    1.32       4.8  T
   5    -84.5202907 -0.624995E-07  0.135E-03    1.32       9.8  T
   6    -84.5202907 -0.221640E-07  0.621E-04    1.32      21.3  T
   7    -84.5202907 -0.103928E-07  0.262E-04    1.32      50.6  T
     SCC iter.                  ...        0 min,  0.064 sec
     gradient                   ...        0 min,  0.006 sec
 * total energy  :   -83.4233337 Eh     change       -0.5598235E-03 Eh
   gradient norm :     0.0153536 Eh/α   predicted    -0.5925375E-03 (   5.84%)
   displ. norm   :     0.5369146 α      lambda       -0.9056669E-03
   maximum displ.:     0.2554094 α      in ANC's #3, #6, #1, ...

........................................................................
.............................. CYCLE   91 ..............................
........................................................................

 iter      E             dE          RMSdq      gap      omega  full diag
   1    -84.5327706 -0.845328E+02  0.661E-02    1.31       0.0  T
   2    -84.5327802 -0.960865E-05  0.384E-02    1.31       1.0  T
   3    -84.5327782  0.209032E-05  0.107E-02    1.31       1.2  T
   4    -84.5327819 -0.378793E-05  0.342E-03    1.31       3.9  T
   5    -84.5327823 -0.319583E-06  0.164E-03    1.31       8.1  T
   6    -84.5327823 -0.309847E-07  0.730E-04    1.31      18.1  T
   7    -84.5327823 -0.964414E-08  0.302E-04    1.31      43.9  T
     SCC iter.                  ...        0 min,  0.064 sec
     gradient                   ...        0 min,  0.009 sec
 * total energy  :   -83.4238307 Eh     change       -0.4970888E-03 Eh
   gradient norm :     0.0135654 Eh/α   predicted    -0.5833764E-03 (  17.36%)
   displ. norm   :     0.6626675 α      lambda       -0.8687830E-03
   maximum displ.:     0.3650715 α      in ANC's #3, #6, #4, ...

........................................................................
.............................. CYCLE   92 ..............................
........................................................................

 iter      E             dE          RMSdq      gap      omega  full diag
   1    -84.5324438 -0.845324E+02  0.817E-02    1.30       0.0  T
   2    -84.5324498 -0.600350E-05  0.486E-02    1.30       1.0  T
   3    -84.5324477  0.211470E-05  0.933E-03    1.30       1.4  T
   4    -84.5324514 -0.367386E-05  0.346E-03    1.30       3.8  T
   5    -84.5324516 -0.247753E-06  0.178E-03    1.30       7.4  T
   6    -84.5324517 -0.567071E-07  0.825E-04    1.30      16.1  T
   7    -84.5324517 -0.143767E-07  0.394E-04    1.30      33.6  T
     SCC iter.                  ...        0 min,  0.062 sec
     gradient                   ...        0 min,  0.007 sec
 * total energy  :   -83.4244840 Eh     change       -0.6532429E-03 Eh
   gradient norm :     0.0130544 Eh/α   predicted    -0.6251492E-03 (  -4.30%)
   displ. norm   :     0.7595663 α      lambda       -0.1093629E-02
   maximum displ.:     0.3805175 α      in ANC's #3, #6, #1, ...
 * RMSD in coord.:     1.3553351 α      energy gain  -0.7714378E-02 Eh

generating ANC from exact Hessian ...
Using Lindh-Hessian (1995)
 Shifting diagonal of input Hessian by   1.012551970833951E-002
 Lowest  eigenvalues of input Hessian
    0.010000    0.000000    0.000000    0.000000    0.000000    0.000000
    0.000000    0.010209    0.010229    0.010253    0.010353    0.010435
    0.010445    0.010588    0.010684    0.010845    0.010952    0.011132
 Highest eigenvalues
    1.906711    2.010813    2.110544    2.245666    2.311193    2.315113
 

........................................................................
.............................. CYCLE   93 ..............................
........................................................................

 iter      E             dE          RMSdq      gap      omega  full diag
   1    -84.5217908 -0.845218E+02  0.902E-02    1.28       0.0  T
   2    -84.5218024 -0.116549E-04  0.529E-02    1.28       1.0  T
   3    -84.5217949  0.755138E-05  0.160E-02    1.29       1.0  T
   4    -84.5218043 -0.946417E-05  0.543E-03    1.28       2.4  T
   5    -84.5218054 -0.108777E-05  0.226E-03    1.28       5.9  T
   6    -84.5218055 -0.543215E-07  0.113E-03    1.28      11.8  T
   7    -84.5218055 -0.220360E-07  0.401E-04    1.28      33.0  T
   8    -84.5218055 -0.330063E-08  0.168E-04    1.28      78.7  T
     SCC iter.                  ...        0 min,  0.058 sec
     gradient                   ...        0 min,  0.011 sec
 * total energy  :   -83.4250218 Eh     change       -0.5378116E-03 Eh
   gradient norm :     0.0211331 Eh/α   predicted     0.0000000E+00 (-100.00%)
   displ. norm   :     0.2661343 α      lambda       -0.1474004E-02
   maximum displ.:     0.1074782 α      in ANC's #16, #12, #9, ...

........................................................................
.............................. CYCLE   94 ..............................
........................................................................

 iter      E             dE          RMSdq      gap      omega  full diag
   1    -84.5268928 -0.845269E+02  0.110E-01    1.26       0.0  T
   2    -84.5269042 -0.113381E-04  0.688E-02    1.26       1.0  T
   3    -84.5269015  0.269312E-05  0.133E-02    1.27       1.0  T
   4    -84.5269091 -0.765812E-05  0.491E-03    1.26       2.7  T
   5    -84.5269097 -0.560791E-06  0.246E-03    1.26       5.4  T
   6    -84.5269098 -0.505168E-07  0.989E-04    1.26      13.4  T
   7    -84.5269098 -0.351375E-07  0.290E-04    1.26      45.7  T
     SCC iter.                  ...        0 min,  0.052 sec
     gradient                   ...        0 min,  0.005 sec
 * total energy  :   -83.4257810 Eh     change       -0.7591842E-03 Eh
   gradient norm :     0.0179840 Eh/α   predicted    -0.7892342E-03 (   3.96%)
   displ. norm   :     0.1979667 α      lambda       -0.8297793E-03
   maximum displ.:     0.0729585 α      in ANC's #5, #14, #13, ...

........................................................................
.............................. CYCLE   95 ..............................
........................................................................

 iter      E             dE          RMSdq      gap      omega  full diag
   1    -84.5356557 -0.845357E+02  0.531E-02    1.27       0.0  T
   2    -84.5356596 -0.391734E-05  0.318E-02    1.27       1.0  T
   3    -84.5356525  0.703592E-05  0.127E-02    1.27       1.0  T
   4    -84.5356612 -0.869707E-05  0.345E-03    1.27       3.8  T
   5    -84.5356615 -0.272473E-06  0.167E-03    1.27       7.9  T
   6    -84.5356616 -0.549428E-07  0.690E-04    1.27      19.2  T
   7    -84.5356616 -0.626407E-08  0.284E-04    1.27      46.7  T
     SCC iter.                  ...        0 min,  0.060 sec
     gradient                   ...        0 min,  0.009 sec
 * total energy  :   -83.4262442 Eh     change       -0.4632061E-03 Eh
   gradient norm :     0.0091866 Eh/α   predicted    -0.4311516E-03 (  -6.92%)
   displ. norm   :     0.3272152 α      lambda       -0.6893674E-03
   maximum displ.:     0.1725827 α      in ANC's #9, #13, #10, ...

........................................................................
.............................. CYCLE   96 ..............................
........................................................................

 iter      E             dE          RMSdq      gap      omega  full diag
   1    -84.5368104 -0.845368E+02  0.736E-02    1.25       0.0  T
   2    -84.5368155 -0.511757E-05  0.444E-02    1.25       1.0  T
   3    -84.5368108  0.466484E-05  0.116E-02    1.25       1.1  T
   4    -84.5368177 -0.688439E-05  0.340E-03    1.25       3.9  T
   5    -84.5368178 -0.880125E-07  0.190E-03    1.25       7.0  T
   6    -84.5368179 -0.116542E-06  0.826E-04    1.25      16.0  T
   7    -84.5368179 -0.896820E-08  0.312E-04    1.25      42.4  T
     SCC iter.                  ...        0 min,  0.052 sec
     gradient                   ...        0 min,  0.004 sec
 * total energy  :   -83.4267462 Eh     change       -0.5019860E-03 Eh
   gradient norm :     0.0114338 Eh/α   predicted    -0.3815896E-03 ( -23.98%)
   displ. norm   :     0.6596181 α      lambda       -0.1280626E-02
   maximum displ.:     0.3141960 α      in ANC's #9, #13, #14, ...

........................................................................
.............................. CYCLE   97 ..............................
........................................................................

 iter      E             dE          RMSdq      gap      omega  full diag
   1    -84.5267552 -0.845268E+02  0.131E-01    1.22       0.0  T
   2    -84.5267673 -0.120804E-04  0.799E-02    1.22       1.0  T
   3    -84.5267364  0.308189E-04  0.269E-02    1.22       1.0  T
   4    -84.5267747 -0.382972E-04  0.597E-03    1.22       2.2  T
   5    -84.5267753 -0.529807E-06  0.303E-03    1.22       4.4  T
   6    -84.5267753 -0.692437E-07  0.121E-03    1.22      10.9  T
   7    -84.5267753 -0.194743E-07  0.458E-04    1.22      28.9  T
   8    -84.5267754 -0.472670E-08  0.147E-04    1.22      90.3  T
     SCC iter.                  ...        0 min,  0.057 sec
     gradient                   ...        0 min,  0.013 sec
 * total energy  :   -83.4269730 Eh     change       -0.2267919E-03 Eh
   gradient norm :     0.0395956 Eh/α   predicted    -0.9189119E-03 ( 305.18%)
   displ. norm   :     0.2129626 α      lambda       -0.2178501E-02
   maximum displ.:     0.0811324 α      in ANC's #9, #24, #22, ...

........................................................................
.............................. CYCLE   98 ..............................
........................................................................

 iter      E             dE          RMSdq      gap      omega  full diag
   1    -84.5312549 -0.845313E+02  0.614E-02    1.22       0.0  T
   2    -84.5312602 -0.523394E-05  0.362E-02    1.22       1.0  T
   3    -84.5312581  0.209027E-05  0.965E-03    1.22       1.4  T
   4    -84.5312614 -0.337260E-05  0.407E-03    1.22       3.3  T
   5    -84.5312619 -0.432735E-06  0.187E-03    1.22       7.1  T
   6    -84.5312619 -0.602887E-07  0.799E-04    1.22      16.6  T
   7    -84.5312619 -0.585399E-08  0.355E-04    1.22      37.3  T
     SCC iter.                  ...        0 min,  0.050 sec
     gradient                   ...        0 min,  0.017 sec
 * total energy  :   -83.4281403 Eh     change       -0.1167288E-02 Eh
   gradient norm :     0.0095651 Eh/α   predicted    -0.1138659E-02 (  -2.45%)
   displ. norm   :     0.5406349 α      lambda       -0.1018037E-02
   maximum displ.:     0.3064511 α      in ANC's #9, #13, #2, ...

........................................................................
.............................. CYCLE   99 ..............................
........................................................................

 iter      E             dE          RMSdq      gap      omega  full diag
   1    -84.5305402 -0.845305E+02  0.690E-02    1.20       0.0  T
   2    -84.5305454 -0.524069E-05  0.414E-02    1.19       1.0  T
   3    -84.5305428  0.268311E-05  0.914E-03    1.19       1.4  T
   4    -84.5305471 -0.434188E-05  0.304E-03    1.19       4.4  T
   5    -84.5305473 -0.181994E-06  0.113E-03    1.19      11.7  T
   6    -84.5305473 -0.144534E-07  0.643E-04    1.19      20.6  T
   7    -84.5305473 -0.389439E-08  0.312E-04    1.19      42.5  T
     SCC iter.                  ...        0 min,  0.056 sec
     gradient                   ...        0 min,  0.007 sec
 * total energy  :   -83.4289955 Eh     change       -0.8552258E-03 Eh
   gradient norm :     0.0081078 Eh/α   predicted    -0.6577994E-03 ( -23.08%)
   displ. norm   :     0.6137728 α      lambda       -0.1137964E-02
   maximum displ.:     0.3306622 α      in ANC's #9, #2, #13, ...

........................................................................
.............................. CYCLE  100 ..............................
........................................................................

 iter      E             dE          RMSdq      gap      omega  full diag
   1    -84.5308401 -0.845308E+02  0.949E-02    1.17       0.0  T
   2    -84.5308505 -0.103676E-04  0.581E-02    1.17       1.0  T
   3    -84.5308526 -0.214227E-05  0.819E-03    1.16       1.6  T
   4    -84.5308541 -0.143577E-05  0.407E-03    1.16       3.3  T
   5    -84.5308544 -0.335785E-06  0.169E-03    1.16       7.8  T
   6    -84.5308544 -0.290976E-07  0.837E-04    1.16      15.8  T
   7    -84.5308544 -0.954545E-08  0.201E-04    1.16      66.0  T
     SCC iter.                  ...        0 min,  0.060 sec
     gradient                   ...        0 min,  0.009 sec
 * total energy  :   -83.4292824 Eh     change       -0.2868687E-03 Eh
   gradient norm :     0.0225722 Eh/α   predicted    -0.7833293E-03 ( 173.06%)
   displ. norm   :     0.1747340 α      lambda       -0.1162474E-02
   maximum displ.:     0.0669237 α      in ANC's #2, #14, #12, ...

........................................................................
.............................. CYCLE  101 ..............................
........................................................................

 iter      E             dE          RMSdq      gap      omega  full diag
   1    -84.5371279 -0.845371E+02  0.555E-02    1.17       0.0  T
   2    -84.5371319 -0.402540E-05  0.335E-02    1.17       1.0  T
   3    -84.5371282  0.378814E-05  0.109E-02    1.17       1.2  T
   4    -84.5371339 -0.572544E-05  0.361E-03    1.17       3.7  T
   5    -84.5371341 -0.265867E-06  0.206E-03    1.17       6.4  T
   6    -84.5371342 -0.313986E-07  0.708E-04    1.17      18.7  T
   7    -84.5371342 -0.125425E-07  0.209E-04    1.17      63.3  T
     SCC iter.                  ...        0 min,  0.059 sec
     gradient                   ...        0 min,  0.008 sec
 * total energy  :   -83.4296026 Eh     change       -0.3202949E-03 Eh
   gradient norm :     0.0146459 Eh/α   predicted    -0.5989872E-03 (  87.01%)
   displ. norm   :     0.2410263 α      lambda       -0.8670776E-03
   maximum displ.:     0.1077390 α      in ANC's #8, #14, #13, ...

........................................................................
.............................. CYCLE  102 ..............................
........................................................................

 iter      E             dE          RMSdq      gap      omega  full diag
   1    -84.5390469 -0.845390E+02  0.497E-02    1.18       0.0  T
   2    -84.5390523 -0.547415E-05  0.294E-02    1.18       1.0  T
   3    -84.5390510  0.139336E-05  0.817E-03    1.18       1.6  T
   4    -84.5390533 -0.239007E-05  0.346E-03    1.18       3.8  T
   5    -84.5390537 -0.316846E-06  0.139E-03    1.18       9.5  T
   6    -84.5390537 -0.653489E-07  0.614E-04    1.18      21.6  T
   7    -84.5390537 -0.477274E-08  0.285E-04    1.18      46.5  T
     SCC iter.                  ...        0 min,  0.056 sec
     gradient                   ...        0 min,  0.006 sec
 * total energy  :   -83.4299309 Eh     change       -0.3282063E-03 Eh
   gradient norm :     0.0111525 Eh/α   predicted    -0.4587235E-03 (  39.77%)
   displ. norm   :     0.3369900 α      lambda       -0.6066784E-03
   maximum displ.:     0.1683182 α      in ANC's #9, #2, #8, ...

........................................................................
.............................. CYCLE  103 ..............................
........................................................................

 iter      E             dE          RMSdq      gap      omega  full diag
   1    -84.5325023 -0.845325E+02  0.641E-02    1.17       0.0  T
   2    -84.5325069 -0.454534E-05  0.383E-02    1.17       1.0  T
   3    -84.5325058  0.109702E-05  0.750E-03    1.17       1.8  T
   4    -84.5325080 -0.219201E-05  0.311E-03    1.17       4.3  T
   5    -84.5325082 -0.214025E-06  0.168E-03    1.17       7.9  T
   6    -84.5325083 -0.805426E-07  0.734E-04    1.17      18.0  T
   7    -84.5325083 -0.404930E-08  0.357E-04    1.17      37.1  T
     SCC iter.                  ...        0 min,  0.050 sec
     gradient                   ...        0 min,  0.019 sec
 * total energy  :   -83.4302701 Eh     change       -0.3392707E-03 Eh
   gradient norm :     0.0128173 Eh/α   predicted    -0.3377912E-03 (  -0.44%)
   displ. norm   :     0.3933254 α      lambda       -0.6678409E-03
   maximum displ.:     0.2374051 α      in ANC's #2, #9, #1, ...

........................................................................
.............................. CYCLE  104 ..............................
........................................................................

 iter      E             dE          RMSdq      gap      omega  full diag
   1    -84.5301621 -0.845302E+02  0.662E-02    1.16       0.0  T
   2    -84.5301641 -0.197484E-05  0.397E-02    1.16       1.0  T
   3    -84.5301632  0.847336E-06  0.636E-03    1.16       2.1  T
   4    -84.5301652 -0.196862E-05  0.257E-03    1.16       5.2  T
   5    -84.5301653 -0.624720E-07  0.134E-03    1.16       9.9  T
   6    -84.5301653 -0.263201E-07  0.450E-04    1.16      29.5  T
   7    -84.5301653 -0.567687E-08  0.163E-04    1.16      81.3  T
     SCC iter.                  ...        0 min,  0.056 sec
     gradient                   ...        0 min,  0.005 sec
 * total energy  :   -83.4306327 Eh     change       -0.3626210E-03 Eh
   gradient norm :     0.0166415 Eh/α   predicted    -0.3855796E-03 (   6.33%)
   displ. norm   :     0.3617079 α      lambda       -0.6448406E-03
   maximum displ.:     0.2057553 α      in ANC's #2, #1, #8, ...

........................................................................
.............................. CYCLE  105 ..............................
........................................................................

 iter      E             dE          RMSdq      gap      omega  full diag
   1    -84.5325870 -0.845326E+02  0.588E-02    1.15       0.0  T
   2    -84.5325885 -0.144547E-05  0.349E-02    1.15       1.0  T
   3    -84.5325870  0.149265E-05  0.617E-03    1.15       2.1  T
   4    -84.5325889 -0.195510E-05  0.189E-03    1.15       7.0  T
   5    -84.5325890 -0.682934E-07  0.982E-04    1.15      13.5  T
   6    -84.5325890 -0.165684E-07  0.453E-04    1.15      29.2  T
     SCC iter.                  ...        0 min,  0.048 sec
     gradient                   ...        0 min,  0.010 sec
 * total energy  :   -83.4310871 Eh     change       -0.4543988E-03 Eh
   gradient norm :     0.0074650 Eh/α   predicted    -0.3646040E-03 ( -19.76%)
   displ. norm   :     0.4722113 α      lambda       -0.5207882E-03
   maximum displ.:     0.2624293 α      in ANC's #2, #1, #8, ...

........................................................................
.............................. CYCLE  106 ..............................
........................................................................

 iter      E             dE          RMSdq      gap      omega  full diag
   1    -84.5337610 -0.845338E+02  0.790E-02    1.16       0.0  T
   2    -84.5337634 -0.241620E-05  0.471E-02    1.16       1.0  T
   3    -84.5337614  0.198166E-05  0.789E-03    1.16       1.7  T
   4    -84.5337644 -0.302192E-05  0.209E-03    1.16       6.4  T
   5    -84.5337644 -0.252050E-07  0.101E-03    1.16      13.1  T
   6    -84.5337645 -0.117071E-07  0.435E-04    1.16      30.5  T
   7    -84.5337645 -0.495331E-08  0.206E-04    1.16      64.3  T
     SCC iter.                  ...        0 min,  0.048 sec
     gradient                   ...        0 min,  0.017 sec
 * total energy  :   -83.4314450 Eh     change       -0.3578916E-03 Eh
   gradient norm :     0.0069218 Eh/α   predicted    -0.3184592E-03 ( -11.02%)
   displ. norm   :     0.5007773 α      lambda       -0.3781931E-03
   maximum displ.:     0.3066734 α      in ANC's #2, #1, #8, ...

........................................................................
.............................. CYCLE  107 ..............................
........................................................................

 iter      E             dE          RMSdq      gap      omega  full diag
   1    -84.5321724 -0.845322E+02  0.819E-02    1.16       0.0  T
   2    -84.5321758 -0.337894E-05  0.487E-02    1.16       1.0  T
   3    -84.5321703  0.549099E-05  0.115E-02    1.16       1.2  T
   4    -84.5321772 -0.682158E-05  0.317E-03    1.15       4.2  T
   5    -84.5321774 -0.212337E-06  0.160E-03    1.16       8.3  T
   6    -84.5321774 -0.458978E-07  0.653E-04    1.16      20.3  T
   7    -84.5321774 -0.312001E-08  0.275E-04    1.16      48.2  T
     SCC iter.                  ...        0 min,  0.049 sec
     gradient                   ...        0 min,  0.015 sec
 * total energy  :   -83.4316811 Eh     change       -0.2361042E-03 Eh
   gradient norm :     0.0081866 Eh/α   predicted    -0.2365209E-03 (   0.18%)
   displ. norm   :     0.3757653 α      lambda       -0.4359210E-03
   maximum displ.:     0.2213928 α      in ANC's #2, #1, #4, ...

........................................................................
.............................. CYCLE  108 ..............................
........................................................................

 iter      E             dE          RMSdq      gap      omega  full diag
   1    -84.5389422 -0.845389E+02  0.744E-02    1.15       0.0  T
   2    -84.5389460 -0.372737E-05  0.443E-02    1.16       1.0  T
   3    -84.5389250  0.209371E-04  0.209E-02    1.16       1.0  T
   4    -84.5389492 -0.241278E-04  0.328E-03    1.16       4.0  T
   5    -84.5389494 -0.274363E-06  0.159E-03    1.16       8.3  T
   6    -84.5389495 -0.285341E-07  0.652E-04    1.16      20.3  T
   7    -84.5389495 -0.524015E-08  0.256E-04    1.16      51.6  T
     SCC iter.                  ...        0 min,  0.054 sec
     gradient                   ...        0 min,  0.010 sec
 * total energy  :   -83.4317547 Eh     change       -0.7359430E-04 Eh
   gradient norm :     0.0132715 Eh/α   predicted    -0.2487370E-03 ( 237.98%)
   displ. norm   :     0.1780824 α      lambda       -0.3682961E-03
   maximum displ.:     0.0987202 α      in ANC's #8, #2, #4, ...

........................................................................
.............................. CYCLE  109 ..............................
........................................................................

 iter      E             dE          RMSdq      gap      omega  full diag
   1    -84.5368716 -0.845369E+02  0.393E-02    1.16       0.0  T
   2    -84.5368724 -0.782781E-06  0.237E-02    1.16       1.0  T
   3    -84.5368720  0.389693E-06  0.373E-03    1.16       3.5  T
   4    -84.5368728 -0.757841E-06  0.130E-03    1.16      10.2  T
   5    -84.5368728 -0.176855E-07  0.714E-04    1.16      18.5  T
   6    -84.5368728 -0.389420E-08  0.310E-04    1.16      42.7  T
     SCC iter.                  ...        0 min,  0.049 sec
     gradient                   ...        0 min,  0.011 sec
 * total energy  :   -83.4319118 Eh     change       -0.1570817E-03 Eh
   gradient norm :     0.0113432 Eh/α   predicted    -0.1899917E-03 (  20.95%)
   displ. norm   :     0.1101302 α      lambda       -0.2338131E-03
   maximum displ.:     0.0390037 α      in ANC's #2, #5, #26, ...

........................................................................
.............................. CYCLE  110 ..............................
........................................................................

 iter      E             dE          RMSdq      gap      omega  full diag
   1    -84.5374186 -0.845374E+02  0.373E-02    1.15       0.0  T
   2    -84.5374204 -0.175238E-05  0.223E-02    1.15       1.0  T
   3    -84.5374193  0.109865E-05  0.618E-03    1.15       2.1  T
   4    -84.5374210 -0.175446E-05  0.197E-03    1.15       6.7  T
   5    -84.5374211 -0.368083E-07  0.122E-03    1.15      10.9  T
   6    -84.5374211 -0.468541E-07  0.431E-04    1.15      30.8  T
   7    -84.5374211 -0.160652E-08  0.193E-04    1.15      68.5  T
     SCC iter.                  ...        0 min,  0.053 sec
     gradient                   ...        0 min,  0.007 sec
 * total energy  :   -83.4318656 Eh     change        0.4624425E-04 Eh
   gradient norm :     0.0124880 Eh/α   predicted    -0.1183258E-03 (-355.87%)
   displ. norm   :     0.0826617 α      lambda       -0.2696944E-03
   maximum displ.:     0.0458118 α      in ANC's #2, #5, #7, ...

........................................................................
.............................. CYCLE  111 ..............................
........................................................................

 iter      E             dE          RMSdq      gap      omega  full diag
   1    -84.5353400 -0.845353E+02  0.260E-02    1.15       0.0  T
   2    -84.5353408 -0.790150E-06  0.156E-02    1.15       1.0  T
   3    -84.5353404  0.397448E-06  0.374E-03    1.14       3.5  T
   4    -84.5353410 -0.653193E-06  0.138E-03    1.14       9.6  T
   5    -84.5353411 -0.396741E-07  0.753E-04    1.14      17.6  T
   6    -84.5353411 -0.149981E-07  0.305E-04    1.14      43.5  T
     SCC iter.                  ...        0 min,  0.047 sec
     gradient                   ...        0 min,  0.006 sec
 * total energy  :   -83.4320233 Eh     change       -0.1577050E-03 Eh
   gradient norm :     0.0027876 Eh/α   predicted    -0.1357721E-03 ( -13.91%)
   displ. norm   :     0.1494505 α      lambda       -0.8445623E-04
   maximum displ.:     0.0851563 α      in ANC's #2, #4, #8, ...

........................................................................
.............................. CYCLE  112 ..............................
........................................................................

 iter      E             dE          RMSdq      gap      omega  full diag
   1    -84.5360162 -0.845360E+02  0.273E-02    1.14       0.0  T
   2    -84.5360169 -0.625449E-06  0.166E-02    1.15       1.0  T
   3    -84.5360160  0.876004E-06  0.477E-03    1.15       2.8  T
   4    -84.5360172 -0.119602E-05  0.140E-03    1.15       9.5  T
   5    -84.5360172 -0.432064E-07  0.767E-04    1.15      17.3  T
   6    -84.5360172 -0.551262E-08  0.264E-04    1.15      50.2  T
     SCC iter.                  ...        0 min,  0.055 sec
     gradient                   ...        0 min,  0.008 sec
 * total energy  :   -83.4320768 Eh     change       -0.5355835E-04 Eh
   gradient norm :     0.0063053 Eh/α   predicted    -0.4317342E-04 ( -19.39%)
   displ. norm   :     0.1667391 α      lambda       -0.8934172E-04
   maximum displ.:     0.0933039 α      in ANC's #4, #2, #9, ...

........................................................................
.............................. CYCLE  113 ..............................
........................................................................

 iter      E             dE          RMSdq      gap      omega  full diag
   1    -84.5361389 -0.845361E+02  0.249E-02    1.14       0.0  T
   2    -84.5361392 -0.315507E-06  0.150E-02    1.14       1.0  T
   3    -84.5361390  0.262580E-06  0.281E-03    1.14       4.7  T
   4    -84.5361394 -0.407053E-06  0.101E-03    1.14      13.1  T
   5    -84.5361394 -0.211709E-07  0.544E-04    1.14      24.4  T
   6    -84.5361394 -0.375398E-08  0.190E-04    1.14      69.7  T
     SCC iter.                  ...        0 min,  0.050 sec
     gradient                   ...        0 min,  0.003 sec
 * total energy  :   -83.4321495 Eh     change       -0.7263174E-04 Eh
   gradient norm :     0.0063475 Eh/α   predicted    -0.4591409E-04 ( -36.79%)
   displ. norm   :     0.2811251 α      lambda       -0.1559684E-03
   maximum displ.:     0.1606259 α      in ANC's #4, #2, #12, ...

........................................................................
.............................. CYCLE  114 ..............................
........................................................................

 iter      E             dE          RMSdq      gap      omega  full diag
   1    -84.5360694 -0.845361E+02  0.403E-02    1.14       0.0  T
   2    -84.5360702 -0.823247E-06  0.241E-02    1.14       1.0  T
   3    -84.5360703 -0.123736E-06  0.266E-03    1.14       5.0  T
   4    -84.5360705 -0.193086E-06  0.139E-03    1.14       9.5  T
   5    -84.5360706 -0.253918E-07  0.815E-04    1.14      16.3  T
   6    -84.5360706 -0.116978E-07  0.290E-04    1.14      45.7  T
     SCC iter.                  ...        0 min,  0.047 sec
     gradient                   ...        0 min,  0.008 sec
 * total energy  :   -83.4322533 Eh     change       -0.1038617E-03 Eh
   gradient norm :     0.0035104 Eh/α   predicted    -0.8415108E-04 ( -18.98%)
   displ. norm   :     0.2626231 α      lambda       -0.7959213E-04
   maximum displ.:     0.1509233 α      in ANC's #4, #2, #12, ...

........................................................................
.............................. CYCLE  115 ..............................
........................................................................

 iter      E             dE          RMSdq      gap      omega  full diag
   1    -84.5347756 -0.845348E+02  0.367E-02    1.14       0.0  T
   2    -84.5347767 -0.116242E-05  0.219E-02    1.14       1.0  T
   3    -84.5347766  0.150119E-06  0.352E-03    1.14       3.8  T
   4    -84.5347770 -0.404330E-06  0.156E-03    1.14       8.5  T
   5    -84.5347771 -0.634190E-07  0.838E-04    1.14      15.8  T
   6    -84.5347771 -0.170973E-07  0.347E-04    1.14      38.2  T
     SCC iter.                  ...        0 min,  0.048 sec
     gradient                   ...        0 min,  0.008 sec
 * total energy  :   -83.4323086 Eh     change       -0.5525864E-04 Eh
   gradient norm :     0.0042412 Eh/α   predicted    -0.4254193E-04 ( -23.01%)
   displ. norm   :     0.2294345 α      lambda       -0.7783249E-04
   maximum displ.:     0.1392959 α      in ANC's #4, #2, #12, ...

........................................................................
.............................. CYCLE  116 ..............................
........................................................................

 iter      E             dE          RMSdq      gap      omega  full diag
   1    -84.5368332 -0.845368E+02  0.328E-02    1.14       0.0  T
   2    -84.5368336 -0.406294E-06  0.195E-02    1.14       1.0  T
   3    -84.5368333  0.323244E-06  0.307E-03    1.14       4.3  T
   4    -84.5368337 -0.454185E-06  0.103E-03    1.14      12.9  T
   5    -84.5368337 -0.257243E-07  0.560E-04    1.14      23.6  T
   6    -84.5368337 -0.248961E-08  0.249E-04    1.14      53.2  T
     SCC iter.                  ...        0 min,  0.046 sec
     gradient                   ...        0 min,  0.008 sec
 * total energy  :   -83.4323608 Eh     change       -0.5216253E-04 Eh
   gradient norm :     0.0031370 Eh/α   predicted    -0.4096730E-04 ( -21.46%)
   displ. norm   :     0.3495316 α      lambda       -0.9486722E-04
   maximum displ.:     0.2045096 α      in ANC's #4, #2, #8, ...

........................................................................
.............................. CYCLE  117 ..............................
........................................................................

 iter      E             dE          RMSdq      gap      omega  full diag
   1    -84.5352439 -0.845352E+02  0.507E-02    1.15       0.0  T
   2    -84.5352452 -0.133648E-05  0.302E-02    1.15       1.0  T
   3    -84.5352449  0.356083E-06  0.452E-03    1.15       2.9  T
   4    -84.5352458 -0.920535E-06  0.184E-03    1.15       7.2  T
   5    -84.5352458 -0.429975E-07  0.101E-03    1.15      13.1  T
   6    -84.5352458 -0.201497E-07  0.468E-04    1.15      28.3  T
   7    -84.5352458 -0.455721E-08  0.178E-04    1.15      74.3  T
     SCC iter.                  ...        0 min,  0.056 sec
     gradient                   ...        0 min,  0.006 sec
 * total energy  :   -83.4324144 Eh     change       -0.5368710E-04 Eh
   gradient norm :     0.0040906 Eh/α   predicted    -0.5323233E-04 (  -0.85%)
   displ. norm   :     0.1560795 α      lambda       -0.6705109E-04
   maximum displ.:     0.1026953 α      in ANC's #4, #6, #21, ...

........................................................................
.............................. CYCLE  118 ..............................
........................................................................

 iter      E             dE          RMSdq      gap      omega  full diag
   1    -84.5358375 -0.845358E+02  0.259E-02    1.16       0.0  T
   2    -84.5358380 -0.533582E-06  0.152E-02    1.16       1.0  T
   3    -84.5358375  0.518295E-06  0.367E-03    1.16       3.6  T
   4    -84.5358382 -0.680543E-06  0.780E-04    1.16      17.0  T
   5    -84.5358382 -0.141385E-07  0.390E-04    1.16      34.0  T
     SCC iter.                  ...        0 min,  0.045 sec
     gradient                   ...        0 min,  0.004 sec
 * total energy  :   -83.4324582 Eh     change       -0.4377235E-04 Eh
   gradient norm :     0.0030113 Eh/α   predicted    -0.3434677E-04 ( -21.53%)
   displ. norm   :     0.1949237 α      lambda       -0.5854345E-04
   maximum displ.:     0.1324020 α      in ANC's #4, #12, #18, ...

........................................................................
.............................. CYCLE  119 ..............................
........................................................................

 iter      E             dE          RMSdq      gap      omega  full diag
   1    -84.5365621 -0.845366E+02  0.308E-02    1.17       0.0  T
   2    -84.5365628 -0.625695E-06  0.182E-02    1.17       1.0  T
   3    -84.5365622  0.604316E-06  0.404E-03    1.17       3.3  T
   4    -84.5365629 -0.791012E-06  0.946E-04    1.17      14.0  T
   5    -84.5365630 -0.192951E-07  0.497E-04    1.17      26.7  T
     SCC iter.                  ...        0 min,  0.040 sec
     gradient                   ...        0 min,  0.005 sec
 * total energy  :   -83.4324953 Eh     change       -0.3707039E-04 Eh
   gradient norm :     0.0027899 Eh/α   predicted    -0.3038770E-04 ( -18.03%)
   displ. norm   :     0.1685871 α      lambda       -0.4404451E-04
   maximum displ.:     0.1197336 α      in ANC's #4, #21, #23, ...

........................................................................
.............................. CYCLE  120 ..............................
........................................................................

 iter      E             dE          RMSdq      gap      omega  full diag
   1    -84.5361815 -0.845362E+02  0.263E-02    1.18       0.0  T
   2    -84.5361821 -0.578611E-06  0.155E-02    1.18       1.0  T
   3    -84.5361817  0.374004E-06  0.338E-03    1.18       3.9  T
   4    -84.5361822 -0.505649E-06  0.994E-04    1.18      13.3  T
   5    -84.5361822 -0.328028E-07  0.487E-04    1.18      27.2  T
     SCC iter.                  ...        0 min,  0.041 sec
     gradient                   ...        0 min,  0.008 sec
 * total energy  :   -83.4325265 Eh     change       -0.3121829E-04 Eh
   gradient norm :     0.0022138 Eh/α   predicted    -0.2265290E-04 ( -27.44%)
   displ. norm   :     0.1787679 α      lambda       -0.5427760E-04
   maximum displ.:     0.1180821 α      in ANC's #4, #22, #5, ...
 * RMSD in coord.:     0.6017190 α      energy gain  -0.8042507E-02 Eh

generating ANC from exact Hessian ...
Using Lindh-Hessian (1995)
 Shifting diagonal of input Hessian by   1.011753400008877E-002
 Lowest  eigenvalues of input Hessian
    0.010000    0.000000    0.000000    0.000000    0.000000    0.000000
    0.000000    0.010206    0.010234    0.010267    0.010413    0.010550
    0.010668    0.010722    0.010917    0.011019    0.011158    0.011401
 Highest eigenvalues
    1.914625    2.012802    2.115907    2.239468    2.311953    2.335277
 

........................................................................
.............................. CYCLE  121 ..............................
........................................................................

 iter      E             dE          RMSdq      gap      omega  full diag
   1    -84.5363774 -0.845364E+02  0.257E-02    1.18       0.0  T
   2    -84.5363778 -0.407505E-06  0.152E-02    1.18       1.0  T
   3    -84.5363777  0.170283E-06  0.251E-03    1.18       5.3  T
   4    -84.5363779 -0.256345E-06  0.106E-03    1.18      12.5  T
   5    -84.5363780 -0.377665E-07  0.497E-04    1.18      26.7  T
   6    -84.5363780 -0.193988E-08  0.216E-04    1.18      61.3  T
     SCC iter.                  ...        0 min,  0.049 sec
     gradient                   ...        0 min,  0.004 sec
 * total energy  :   -83.4325646 Eh     change       -0.3809360E-04 Eh
   gradient norm :     0.0028328 Eh/α   predicted     0.0000000E+00 (-100.00%)
   displ. norm   :     0.0381790 α      lambda       -0.2872885E-04
   maximum displ.:     0.0151191 α      in ANC's #11, #2, #30, ...

........................................................................
.............................. CYCLE  122 ..............................
........................................................................

 iter      E             dE          RMSdq      gap      omega  full diag
   1    -84.5365900 -0.845366E+02  0.123E-02    1.17       0.0  T
   2    -84.5365902 -0.135721E-06  0.730E-03    1.17       1.8  T
   3    -84.5365898  0.354088E-06  0.302E-03    1.17       4.4  T
   4    -84.5365902 -0.419680E-06  0.579E-04    1.17      22.9  T
   5    -84.5365902 -0.101567E-07  0.285E-04    1.17      46.5  T
     SCC iter.                  ...        0 min,  0.038 sec
     gradient                   ...        0 min,  0.010 sec
 * total energy  :   -83.4325893 Eh     change       -0.2474671E-04 Eh
   gradient norm :     0.0013404 Eh/α   predicted    -0.1489176E-04 ( -39.82%)
   displ. norm   :     0.1704120 α      lambda       -0.5712629E-04
   maximum displ.:     0.0640753 α      in ANC's #11, #2, #6, ...

........................................................................
.............................. CYCLE  123 ..............................
........................................................................

 iter      E             dE          RMSdq      gap      omega  full diag
   1    -84.5367148 -0.845367E+02  0.498E-02    1.15       0.0  T
   2    -84.5367171 -0.227879E-05  0.296E-02    1.15       1.0  T
   3    -84.5367116  0.552997E-05  0.119E-02    1.15       1.1  T
   4    -84.5367181 -0.654832E-05  0.235E-03    1.15       5.6  T
   5    -84.5367183 -0.180360E-06  0.111E-03    1.15      12.0  T
   6    -84.5367183 -0.170266E-07  0.574E-04    1.15      23.1  T
   7    -84.5367183 -0.499510E-08  0.166E-04    1.15      79.8  T
     SCC iter.                  ...        0 min,  0.055 sec
     gradient                   ...        0 min,  0.008 sec
 * total energy  :   -83.4326231 Eh     change       -0.3379345E-04 Eh
   gradient norm :     0.0039972 Eh/α   predicted    -0.2893243E-04 ( -14.38%)
   displ. norm   :     0.0287045 α      lambda       -0.1999811E-04
   maximum displ.:     0.0132904 α      in ANC's #2, #9, #4, ...

........................................................................
.............................. CYCLE  124 ..............................
........................................................................

 iter      E             dE          RMSdq      gap      omega  full diag
   1    -84.5369342 -0.845369E+02  0.770E-03    1.15       0.0  T
   2    -84.5369342 -0.450945E-07  0.457E-03    1.14       2.9  T
   3    -84.5369342  0.220528E-07  0.845E-04    1.14      15.7  T
   4    -84.5369342 -0.284687E-07  0.361E-04    1.14      36.7  T
     SCC iter.                  ...        0 min,  0.032 sec
     gradient                   ...        0 min,  0.008 sec
 * total energy  :   -83.4326389 Eh     change       -0.1574143E-04 Eh
   gradient norm :     0.0025002 Eh/α   predicted    -0.1000965E-04 ( -36.41%)
   displ. norm   :     0.1167849 α      lambda       -0.5380303E-04
   maximum displ.:     0.0557457 α      in ANC's #2, #9, #4, ...

........................................................................
.............................. CYCLE  125 ..............................
........................................................................

 iter      E             dE          RMSdq      gap      omega  full diag
   1    -84.5373529 -0.845374E+02  0.246E-02    1.15       0.0  T
   2    -84.5373535 -0.576748E-06  0.144E-02    1.15       1.0  T
   3    -84.5373531  0.389938E-06  0.338E-03    1.15       3.9  T
   4    -84.5373536 -0.461906E-06  0.124E-03    1.15      10.6  T
   5    -84.5373537 -0.626518E-07  0.454E-04    1.15      29.2  T
   6    -84.5373537 -0.279384E-08  0.213E-04    1.15      62.3  T
     SCC iter.                  ...        0 min,  0.053 sec
     gradient                   ...        0 min,  0.009 sec
 * total energy  :   -83.4326715 Eh     change       -0.3263617E-04 Eh
   gradient norm :     0.0026149 Eh/α   predicted    -0.2726977E-04 ( -16.44%)
   displ. norm   :     0.1482434 α      lambda       -0.3428413E-04
   maximum displ.:     0.0715662 α      in ANC's #2, #9, #6, ...

........................................................................
.............................. CYCLE  126 ..............................
........................................................................

 iter      E             dE          RMSdq      gap      omega  full diag
   1    -84.5369195 -0.845369E+02  0.310E-02    1.14       0.0  T
   2    -84.5369202 -0.705057E-06  0.182E-02    1.14       1.0  T
   3    -84.5369198  0.417252E-06  0.357E-03    1.14       3.7  T
   4    -84.5369203 -0.534376E-06  0.116E-03    1.14      11.4  T
   5    -84.5369203 -0.522655E-07  0.508E-04    1.14      26.1  T
   6    -84.5369203 -0.233457E-08  0.270E-04    1.14      49.0  T
     SCC iter.                  ...        0 min,  0.048 sec
     gradient                   ...        0 min,  0.008 sec
 * total energy  :   -83.4327003 Eh     change       -0.2879990E-04 Eh
   gradient norm :     0.0029550 Eh/α   predicted    -0.1751959E-04 ( -39.17%)
   displ. norm   :     0.2978709 α      lambda       -0.6455895E-04
   maximum displ.:     0.1439877 α      in ANC's #2, #6, #9, ...

........................................................................
.............................. CYCLE  127 ..............................
........................................................................

 iter      E             dE          RMSdq      gap      omega  full diag
   1    -84.5355762 -0.845356E+02  0.612E-02    1.13       0.0  T
   2    -84.5355789 -0.270200E-05  0.359E-02    1.13       1.0  T
   3    -84.5355770  0.196259E-05  0.770E-03    1.13       1.7  T
   4    -84.5355793 -0.236899E-05  0.257E-03    1.13       5.2  T
   5    -84.5355796 -0.270905E-06  0.996E-04    1.13      13.3  T
   6    -84.5355796 -0.718636E-08  0.509E-04    1.13      26.0  T
     SCC iter.                  ...        0 min,  0.046 sec
     gradient                   ...        0 min,  0.005 sec
 * total energy  :   -83.4327493 Eh     change       -0.4903102E-04 Eh
   gradient norm :     0.0032224 Eh/α   predicted    -0.3514628E-04 ( -28.32%)
   displ. norm   :     0.2642857 α      lambda       -0.5110734E-04
   maximum displ.:     0.1349693 α      in ANC's #2, #6, #9, ...

........................................................................
.............................. CYCLE  128 ..............................
........................................................................

 iter      E             dE          RMSdq      gap      omega  full diag
   1    -84.5350126 -0.845350E+02  0.505E-02    1.12       0.0  T
   2    -84.5350142 -0.162898E-05  0.296E-02    1.12       1.0  T
   3    -84.5350128  0.143597E-05  0.651E-03    1.12       2.0  T
   4    -84.5350144 -0.168566E-05  0.216E-03    1.12       6.1  T
   5    -84.5350146 -0.192983E-06  0.791E-04    1.12      16.7  T
   6    -84.5350146 -0.402095E-08  0.365E-04    1.12      36.2  T
     SCC iter.                  ...        0 min,  0.055 sec
     gradient                   ...        0 min,  0.009 sec
 * total energy  :   -83.4327903 Eh     change       -0.4091646E-04 Eh
   gradient norm :     0.0038657 Eh/α   predicted    -0.2733884E-04 ( -33.18%)
   displ. norm   :     0.2730415 α      lambda       -0.7450325E-04
   maximum displ.:     0.1485770 α      in ANC's #2, #4, #6, ...

........................................................................
.............................. CYCLE  129 ..............................
........................................................................

 iter      E             dE          RMSdq      gap      omega  full diag
   1    -84.5360507 -0.845361E+02  0.463E-02    1.11       0.0  T
   2    -84.5360520 -0.123135E-05  0.271E-02    1.11       1.0  T
   3    -84.5360507  0.128589E-05  0.603E-03    1.12       2.2  T
   4    -84.5360522 -0.150968E-05  0.189E-03    1.12       7.0  T
   5    -84.5360523 -0.141690E-06  0.706E-04    1.12      18.8  T
   6    -84.5360523 -0.219184E-08  0.321E-04    1.12      41.2  T
     SCC iter.                  ...        0 min,  0.046 sec
     gradient                   ...        0 min,  0.008 sec
 * total energy  :   -83.4328498 Eh     change       -0.5951554E-04 Eh
   gradient norm :     0.0024581 Eh/α   predicted    -0.4003381E-04 ( -32.73%)
   displ. norm   :     0.3905024 α      lambda       -0.8730342E-04
   maximum displ.:     0.2212363 α      in ANC's #2, #4, #6, ...

........................................................................
.............................. CYCLE  130 ..............................
........................................................................

 iter      E             dE          RMSdq      gap      omega  full diag
   1    -84.5365548 -0.845366E+02  0.637E-02    1.11       0.0  T
   2    -84.5365579 -0.308320E-05  0.372E-02    1.11       1.0  T
   3    -84.5365564  0.142813E-05  0.749E-03    1.11       1.8  T
   4    -84.5365583 -0.184341E-05  0.276E-03    1.11       4.8  T
   5    -84.5365586 -0.290978E-06  0.109E-03    1.11      12.1  T
   6    -84.5365586 -0.112729E-07  0.472E-04    1.11      28.1  T
   7    -84.5365586 -0.423027E-08  0.188E-04    1.11      70.5  T
     SCC iter.                  ...        0 min,  0.042 sec
     gradient                   ...        0 min,  0.021 sec
 * total energy  :   -83.4329173 Eh     change       -0.6756354E-04 Eh
   gradient norm :     0.0030399 Eh/α   predicted    -0.5031182E-04 ( -25.53%)
   displ. norm   :     0.3611097 α      lambda       -0.8878257E-04
   maximum displ.:     0.2138934 α      in ANC's #2, #4, #6, ...

........................................................................
.............................. CYCLE  131 ..............................
........................................................................

 iter      E             dE          RMSdq      gap      omega  full diag
   1    -84.5376134 -0.845376E+02  0.535E-02    1.11       0.0  T
   2    -84.5376151 -0.178784E-05  0.313E-02    1.11       1.0  T
   3    -84.5376145  0.640473E-06  0.512E-03    1.11       2.6  T
   4    -84.5376156 -0.106130E-05  0.155E-03    1.11       8.5  T
   5    -84.5376156 -0.535042E-07  0.857E-04    1.11      15.5  T
   6    -84.5376156 -0.355591E-08  0.407E-04    1.11      32.6  T
     SCC iter.                  ...        0 min,  0.048 sec
     gradient                   ...        0 min,  0.008 sec
 * total energy  :   -83.4329815 Eh     change       -0.6413547E-04 Eh
   gradient norm :     0.0033388 Eh/α   predicted    -0.5018029E-04 ( -21.76%)
   displ. norm   :     0.3638423 α      lambda       -0.8046590E-04
   maximum displ.:     0.2281970 α      in ANC's #2, #4, #6, ...

........................................................................
.............................. CYCLE  132 ..............................
........................................................................

 iter      E             dE          RMSdq      gap      omega  full diag
   1    -84.5381275 -0.845381E+02  0.514E-02    1.11       0.0  T
   2    -84.5381289 -0.144023E-05  0.300E-02    1.11       1.0  T
   3    -84.5381287  0.195006E-06  0.414E-03    1.11       3.2  T
   4    -84.5381293 -0.563064E-06  0.137E-03    1.11       9.7  T
   5    -84.5381293 -0.193928E-07  0.816E-04    1.11      16.2  T
   6    -84.5381293 -0.726739E-08  0.366E-04    1.11      36.1  T
     SCC iter.                  ...        0 min,  0.040 sec
     gradient                   ...        0 min,  0.014 sec
 * total energy  :   -83.4330444 Eh     change       -0.6292058E-04 Eh
   gradient norm :     0.0026662 Eh/α   predicted    -0.4556062E-04 ( -27.59%)
   displ. norm   :     0.2904796 α      lambda       -0.6431729E-04
   maximum displ.:     0.1841224 α      in ANC's #2, #4, #6, ...

........................................................................
.............................. CYCLE  133 ..............................
........................................................................

 iter      E             dE          RMSdq      gap      omega  full diag
   1    -84.5368142 -0.845368E+02  0.455E-02    1.11       0.0  T
   2    -84.5368171 -0.291285E-05  0.264E-02    1.10       1.0  T
   3    -84.5368168  0.327982E-06  0.549E-03    1.10       2.4  T
   4    -84.5368175 -0.750122E-06  0.108E-03    1.10      12.3  T
   5    -84.5368175 -0.148688E-07  0.621E-04    1.10      21.3  T
   6    -84.5368175 -0.309829E-08  0.291E-04    1.10      45.5  T
     SCC iter.                  ...        0 min,  0.053 sec
     gradient                   ...        0 min,  0.010 sec
 * total energy  :   -83.4330936 Eh     change       -0.4924637E-04 Eh
   gradient norm :     0.0033948 Eh/α   predicted    -0.3487428E-04 ( -29.18%)
   displ. norm   :     0.3056673 α      lambda       -0.1076483E-03
   maximum displ.:     0.2065463 α      in ANC's #2, #4, #14, ...

........................................................................
.............................. CYCLE  134 ..............................
........................................................................

 iter      E             dE          RMSdq      gap      omega  full diag
   1    -84.5395653 -0.845396E+02  0.462E-02    1.10       0.0  T
   2    -84.5395667 -0.138403E-05  0.271E-02    1.10       1.0  T
   3    -84.5395657  0.105241E-05  0.559E-03    1.10       2.4  T
   4    -84.5395670 -0.133104E-05  0.184E-03    1.10       7.2  T
   5    -84.5395671 -0.120897E-06  0.822E-04    1.10      16.1  T
   6    -84.5395671 -0.759718E-08  0.337E-04    1.10      39.4  T
     SCC iter.                  ...        0 min,  0.049 sec
     gradient                   ...        0 min,  0.007 sec
 * total energy  :   -83.4331468 Eh     change       -0.5311761E-04 Eh
   gradient norm :     0.0036923 Eh/α   predicted    -0.5885756E-04 (  10.81%)
   displ. norm   :     0.3114618 α      lambda       -0.7194553E-04
   maximum displ.:     0.2020811 α      in ANC's #2, #4, #19, ...

........................................................................
.............................. CYCLE  135 ..............................
........................................................................

 iter      E             dE          RMSdq      gap      omega  full diag
   1    -84.5362054 -0.845362E+02  0.481E-02    1.09       0.0  T
   2    -84.5362073 -0.187108E-05  0.281E-02    1.09       1.0  T
   3    -84.5362069  0.427610E-06  0.484E-03    1.09       2.7  T
   4    -84.5362077 -0.812021E-06  0.134E-03    1.08       9.9  T
   5    -84.5362077 -0.238107E-07  0.852E-04    1.09      15.5  T
   6    -84.5362077 -0.122739E-07  0.397E-04    1.09      33.3  T
     SCC iter.                  ...        0 min,  0.047 sec
     gradient                   ...        0 min,  0.008 sec
 * total energy  :   -83.4331878 Eh     change       -0.4101197E-04 Eh
   gradient norm :     0.0029713 Eh/α   predicted    -0.3946644E-04 (  -3.77%)
   displ. norm   :     0.0881176 α      lambda       -0.2929824E-04
   maximum displ.:     0.0576685 α      in ANC's #2, #4, #14, ...

........................................................................
.............................. CYCLE  136 ..............................
........................................................................

 iter      E             dE          RMSdq      gap      omega  full diag
   1    -84.5364774 -0.845365E+02  0.140E-02    1.08       0.0  T
   2    -84.5364778 -0.417488E-06  0.816E-03    1.08       1.6  T
   3    -84.5364777  0.110152E-06  0.237E-03    1.08       5.6  T
   4    -84.5364778 -0.116122E-06  0.996E-04    1.08      13.3  T
   5    -84.5364779 -0.503136E-07  0.246E-04    1.08      53.8  T
     SCC iter.                  ...        0 min,  0.041 sec
     gradient                   ...        0 min,  0.005 sec
 * total energy  :   -83.4332121 Eh     change       -0.2437454E-04 Eh
   gradient norm :     0.0025190 Eh/α   predicted    -0.1476742E-04 ( -39.41%)
   displ. norm   :     0.2192428 α      lambda       -0.6785911E-04
   maximum displ.:     0.1309416 α      in ANC's #2, #4, #14, ...

........................................................................
.............................. CYCLE  137 ..............................
........................................................................

 iter      E             dE          RMSdq      gap      omega  full diag
   1    -84.5377440 -0.845377E+02  0.315E-02    1.08       0.0  T
   2    -84.5377445 -0.439779E-06  0.185E-02    1.08       1.0  T
   3    -84.5377436  0.863975E-06  0.424E-03    1.07       3.1  T
   4    -84.5377446 -0.100176E-05  0.119E-03    1.07      11.1  T
   5    -84.5377446 -0.482470E-07  0.502E-04    1.07      26.4  T
   6    -84.5377446 -0.186573E-08  0.230E-04    1.07      57.6  T
     SCC iter.                  ...        0 min,  0.049 sec
     gradient                   ...        0 min,  0.008 sec
 * total energy  :   -83.4332572 Eh     change       -0.4506720E-04 Eh
   gradient norm :     0.0018266 Eh/α   predicted    -0.3556200E-04 ( -21.09%)
   displ. norm   :     0.2922315 α      lambda       -0.2946055E-04
   maximum displ.:     0.1900880 α      in ANC's #2, #4, #14, ...

........................................................................
.............................. CYCLE  138 ..............................
........................................................................

 iter      E             dE          RMSdq      gap      omega  full diag
   1    -84.5371284 -0.845371E+02  0.414E-02    1.07       0.0  T
   2    -84.5371296 -0.122692E-05  0.242E-02    1.07       1.0  T
   3    -84.5371295  0.960302E-07  0.329E-03    1.06       4.0  T
   4    -84.5371299 -0.316571E-06  0.102E-03    1.07      12.9  T
   5    -84.5371299 -0.121284E-07  0.611E-04    1.07      21.7  T
   6    -84.5371299 -0.497938E-08  0.298E-04    1.07      44.5  T
     SCC iter.                  ...        0 min,  0.049 sec
     gradient                   ...        0 min,  0.011 sec
 * total energy  :   -83.4332847 Eh     change       -0.2746763E-04 Eh
   gradient norm :     0.0028759 Eh/α   predicted    -0.1529198E-04 ( -44.33%)
   displ. norm   :     0.1145376 α      lambda       -0.2480379E-04
   maximum displ.:     0.0698243 α      in ANC's #2, #4, #8, ...

........................................................................
.............................. CYCLE  139 ..............................
........................................................................

 iter      E             dE          RMSdq      gap      omega  full diag
   1    -84.5376975 -0.845377E+02  0.140E-02    1.07       0.0  T
   2    -84.5376977 -0.191397E-06  0.821E-03    1.06       1.6  T
   3    -84.5376976  0.942598E-07  0.177E-03    1.06       7.5  T
   4    -84.5376977 -0.110824E-06  0.687E-04    1.06      19.3  T
   5    -84.5376977 -0.209625E-07  0.256E-04    1.06      51.8  T
     SCC iter.                  ...        0 min,  0.034 sec
     gradient                   ...        0 min,  0.016 sec
 * total energy  :   -83.4333048 Eh     change       -0.2007434E-04 Eh
   gradient norm :     0.0015389 Eh/α   predicted    -0.1256796E-04 ( -37.39%)
   displ. norm   :     0.4251376 α      lambda       -0.4790691E-04
   maximum displ.:     0.2773604 α      in ANC's #2, #4, #8, ...

........................................................................
.............................. CYCLE  140 ..............................
........................................................................

 iter      E             dE          RMSdq      gap      omega  full diag
   1    -84.5371903 -0.845372E+02  0.590E-02    1.06       0.0  T
   2    -84.5371917 -0.143453E-05  0.345E-02    1.06       1.0  T
   3    -84.5371893  0.236677E-05  0.730E-03    1.06       1.8  T
   4    -84.5371922 -0.286221E-05  0.202E-03    1.06       6.5  T
   5    -84.5371923 -0.117722E-06  0.101E-03    1.06      13.1  T
   6    -84.5371923 -0.106485E-07  0.445E-04    1.06      29.8  T
   7    -84.5371923 -0.342774E-08  0.173E-04    1.06      76.7  T
     SCC iter.                  ...        0 min,  0.053 sec
     gradient                   ...        0 min,  0.009 sec
 * total energy  :   -83.4333447 Eh     change       -0.3999148E-04 Eh
   gradient norm :     0.0029760 Eh/α   predicted    -0.2588033E-04 ( -35.29%)
   displ. norm   :     0.0900330 α      lambda       -0.2567072E-04
   maximum displ.:     0.0446559 α      in ANC's #8, #4, #2, ...

........................................................................
.............................. CYCLE  141 ..............................
........................................................................

 iter      E             dE          RMSdq      gap      omega  full diag
   1    -84.5379752 -0.845380E+02  0.160E-02    1.06       0.0  T
   2    -84.5379753 -0.162495E-06  0.940E-03    1.06       1.4  T
   3    -84.5379752  0.137601E-06  0.179E-03    1.06       7.4  T
   4    -84.5379754 -0.178913E-06  0.430E-04    1.06      30.8  T
   5    -84.5379754 -0.550652E-08  0.226E-04    1.06      58.7  T
     SCC iter.                  ...        0 min,  0.040 sec
     gradient                   ...        0 min,  0.006 sec
 * total energy  :   -83.4333639 Eh     change       -0.1919706E-04 Eh
   gradient norm :     0.0021192 Eh/α   predicted    -0.1294201E-04 ( -32.58%)
   displ. norm   :     0.2303985 α      lambda       -0.3853985E-04
   maximum displ.:     0.1327752 α      in ANC's #2, #4, #8, ...

........................................................................
.............................. CYCLE  142 ..............................
........................................................................

 iter      E             dE          RMSdq      gap      omega  full diag
   1    -84.5380576 -0.845381E+02  0.368E-02    1.05       0.0  T
   2    -84.5380581 -0.497605E-06  0.216E-02    1.05       1.0  T
   3    -84.5380577  0.410496E-06  0.330E-03    1.05       4.0  T
   4    -84.5380583 -0.585130E-06  0.823E-04    1.05      16.1  T
   5    -84.5380583 -0.897461E-08  0.443E-04    1.05      29.9  T
     SCC iter.                  ...        0 min,  0.046 sec
     gradient                   ...        0 min,  0.008 sec
 * total energy  :   -83.4333917 Eh     change       -0.2775132E-04 Eh
   gradient norm :     0.0015648 Eh/α   predicted    -0.2029399E-04 ( -26.87%)
   displ. norm   :     0.2944454 α      lambda       -0.2452785E-04
   maximum displ.:     0.1742372 α      in ANC's #2, #4, #8, ...

........................................................................
.............................. CYCLE  143 ..............................
........................................................................

 iter      E             dE          RMSdq      gap      omega  full diag
   1    -84.5378398 -0.845378E+02  0.472E-02    1.04       0.0  T
   2    -84.5378409 -0.106686E-05  0.276E-02    1.04       1.0  T
   3    -84.5378405  0.430134E-06  0.381E-03    1.04       3.5  T
   4    -84.5378412 -0.692528E-06  0.111E-03    1.04      11.9  T
   5    -84.5378412 -0.208335E-07  0.635E-04    1.04      20.8  T
   6    -84.5378412 -0.877154E-08  0.317E-04    1.04      41.8  T
     SCC iter.                  ...        0 min,  0.046 sec
     gradient                   ...        0 min,  0.011 sec
 * total energy  :   -83.4334100 Eh     change       -0.1827747E-04 Eh
   gradient norm :     0.0016801 Eh/α   predicted    -0.1273754E-04 ( -30.31%)
   displ. norm   :     0.0367160 α      lambda       -0.7623058E-05
   maximum displ.:     0.0183590 α      in ANC's #7, #3, #13, ...

........................................................................
.............................. CYCLE  144 ..............................
........................................................................

 iter      E             dE          RMSdq      gap      omega  full diag
   1    -84.5382869 -0.845383E+02  0.683E-03    1.04       0.0  T
   2    -84.5382871 -0.224070E-06  0.397E-03    1.04       3.3  T
   3    -84.5382871  0.159288E-07  0.170E-03    1.04       7.8  T
   4    -84.5382872 -0.442254E-07  0.424E-04    1.04      31.2  T
   5    -84.5382872 -0.667744E-08  0.162E-04    1.04      81.6  T
     SCC iter.                  ...        0 min,  0.042 sec
     gradient                   ...        0 min,  0.009 sec
 * total energy  :   -83.4334179 Eh     change       -0.7960551E-05 Eh
   gradient norm :     0.0009111 Eh/α   predicted    -0.3816302E-05 ( -52.06%)
   displ. norm   :     0.1190986 α      lambda       -0.9207725E-05
   maximum displ.:     0.0867865 α      in ANC's #2, #4, #7, ...

........................................................................
.............................. CYCLE  145 ..............................
........................................................................

 iter      E             dE          RMSdq      gap      omega  full diag
   1    -84.5371545 -0.845372E+02  0.195E-02    1.03       0.0  T
   2    -84.5371550 -0.521281E-06  0.114E-02    1.03       1.2  T
   3    -84.5371549  0.115317E-06  0.265E-03    1.03       5.0  T
   4    -84.5371551 -0.207483E-06  0.664E-04    1.03      19.9  T
   5    -84.5371551 -0.874030E-08  0.376E-04    1.03      35.2  T
     SCC iter.                  ...        0 min,  0.040 sec
     gradient                   ...        0 min,  0.008 sec
 * total energy  :   -83.4334239 Eh     change       -0.5927269E-05 Eh
   gradient norm :     0.0018184 Eh/α   predicted    -0.4634644E-05 ( -21.81%)
   displ. norm   :     0.0613807 α      lambda       -0.7642057E-05
   maximum displ.:     0.0290688 α      in ANC's #7, #3, #8, ...

........................................................................
.............................. CYCLE  146 ..............................
........................................................................

 iter      E             dE          RMSdq      gap      omega  full diag
   1    -84.5385703 -0.845386E+02  0.905E-03    1.03       0.0  T
   2    -84.5385705 -0.171579E-06  0.533E-03    1.03       2.5  T
   3    -84.5385704  0.831744E-07  0.194E-03    1.03       6.8  T
   4    -84.5385705 -0.109837E-06  0.567E-04    1.03      23.4  T
   5    -84.5385705 -0.140753E-07  0.214E-04    1.03      61.9  T
     SCC iter.                  ...        0 min,  0.047 sec
     gradient                   ...        0 min,  0.004 sec
 * total energy  :   -83.4334290 Eh     change       -0.5113439E-05 Eh
   gradient norm :     0.0014623 Eh/α   predicted    -0.3831406E-05 ( -25.07%)
   displ. norm   :     0.0655549 α      lambda       -0.6004304E-05
   maximum displ.:     0.0440866 α      in ANC's #2, #7, #8, ...

........................................................................
.............................. CYCLE  147 ..............................
........................................................................

 iter      E             dE          RMSdq      gap      omega  full diag
   1    -84.5384260 -0.845384E+02  0.108E-02    1.03       0.0  T
   2    -84.5384262 -0.190882E-06  0.633E-03    1.03       2.1  T
   3    -84.5384261  0.865904E-07  0.168E-03    1.03       7.9  T
   4    -84.5384262 -0.911738E-07  0.678E-04    1.03      19.5  T
   5    -84.5384262 -0.257065E-07  0.183E-04    1.03      72.2  T
     SCC iter.                  ...        0 min,  0.037 sec
     gradient                   ...        0 min,  0.013 sec
 * total energy  :   -83.4334354 Eh     change       -0.6473645E-05 Eh
   gradient norm :     0.0012029 Eh/α   predicted    -0.3012848E-05 ( -53.46%)
   displ. norm   :     0.1485970 α      lambda       -0.1040289E-04
   maximum displ.:     0.1034728 α      in ANC's #2, #7, #8, ...

........................................................................
.............................. CYCLE  148 ..............................
........................................................................

 iter      E             dE          RMSdq      gap      omega  full diag
   1    -84.5381880 -0.845382E+02  0.254E-02    1.03       0.0  T
   2    -84.5381883 -0.323669E-06  0.149E-02    1.03       1.0  T
   3    -84.5381874  0.865307E-06  0.409E-03    1.03       3.2  T
   4    -84.5381884 -0.989431E-06  0.101E-03    1.03      13.1  T
   5    -84.5381885 -0.372068E-07  0.418E-04    1.03      31.7  T
   6    -84.5381885 -0.958195E-09  0.208E-04    1.03      63.7  T
     SCC iter.                  ...        0 min,  0.054 sec
     gradient                   ...        0 min,  0.009 sec
 * total energy  :   -83.4334458 Eh     change       -0.1037106E-04 Eh
   gradient norm :     0.0011240 Eh/α   predicted    -0.5254122E-05 ( -49.34%)
   displ. norm   :     0.1858099 α      lambda       -0.9311440E-05
   maximum displ.:     0.1331349 α      in ANC's #2, #7, #3, ...

........................................................................
.............................. CYCLE  149 ..............................
........................................................................

 iter      E             dE          RMSdq      gap      omega  full diag
   1    -84.5375137 -0.845375E+02  0.291E-02    1.03       0.0  T
   2    -84.5375145 -0.733738E-06  0.170E-02    1.03       1.0  T
   3    -84.5375133  0.114303E-05  0.513E-03    1.03       2.6  T
   4    -84.5375146 -0.124672E-05  0.158E-03    1.03       8.4  T
   5    -84.5375147 -0.119007E-06  0.454E-04    1.03      29.2  T
   6    -84.5375147  0.219416E-10  0.245E-04    1.03      54.1  T
     SCC iter.                  ...        0 min,  0.056 sec
     gradient                   ...        0 min,  0.012 sec
 * total energy  :   -83.4334544 Eh     change       -0.8551957E-05 Eh
   gradient norm :     0.0017093 Eh/α   predicted    -0.4731555E-05 ( -44.67%)
   displ. norm   :     0.1884289 α      lambda       -0.1059894E-04
   maximum displ.:     0.1258923 α      in ANC's #2, #7, #3, ...

........................................................................
.............................. CYCLE  150 ..............................
........................................................................

 iter      E             dE          RMSdq      gap      omega  full diag
   1    -84.5372245 -0.845372E+02  0.294E-02    1.03       0.0  T
   2    -84.5372249 -0.327450E-06  0.172E-02    1.03       1.0  T
   3    -84.5372238  0.104257E-05  0.468E-03    1.03       2.8  T
   4    -84.5372250 -0.118607E-05  0.101E-03    1.03      13.1  T
   5    -84.5372251 -0.345479E-07  0.435E-04    1.03      30.4  T
   6    -84.5372251 -0.590930E-09  0.203E-04    1.03      65.4  T
     SCC iter.                  ...        0 min,  0.068 sec
     gradient                   ...        0 min,  0.010 sec
 * total energy  :   -83.4334656 Eh     change       -0.1125440E-04 Eh
   gradient norm :     0.0018080 Eh/α   predicted    -0.5385537E-05 ( -52.15%)
   displ. norm   :     0.2339349 α      lambda       -0.1679494E-04
   maximum displ.:     0.1427652 α      in ANC's #2, #3, #7, ...
 * RMSD in coord.:     0.6258413 α      energy gain  -0.9391232E-03 Eh

generating ANC from exact Hessian ...
Using Lindh-Hessian (1995)
 Shifting diagonal of input Hessian by   1.012828537756056E-002
 Lowest  eigenvalues of input Hessian
    0.010000    0.000000    0.000000    0.000000    0.000000    0.000000
    0.000000    0.010219    0.010259    0.010289    0.010396    0.010632
    0.010720    0.010967    0.011062    0.011306    0.011363    0.011477
 Highest eigenvalues
    1.928425    2.014434    2.120264    2.238731    2.311736    2.330453
 

........................................................................
.............................. CYCLE  151 ..............................
........................................................................

 iter      E             dE          RMSdq      gap      omega  full diag
   1    -84.5377885 -0.845378E+02  0.342E-02    1.03       0.0  T
   2    -84.5377889 -0.462195E-06  0.201E-02    1.03       1.0  T
   3    -84.5377880  0.931562E-06  0.458E-03    1.03       2.9  T
   4    -84.5377891 -0.107316E-05  0.121E-03    1.03      10.9  T
   5    -84.5377891 -0.529142E-07  0.515E-04    1.03      25.7  T
   6    -84.5377891 -0.150123E-08  0.253E-04    1.03      52.3  T
     SCC iter.                  ...        0 min,  0.065 sec
     gradient                   ...        0 min,  0.015 sec
 * total energy  :   -83.4334829 Eh     change       -0.1730373E-04 Eh
   gradient norm :     0.0016031 Eh/α   predicted     0.0000000E+00 (-100.00%)
   displ. norm   :     0.0310015 α      lambda       -0.7933427E-05
   maximum displ.:     0.0113429 α      in ANC's #8, #12, #19, ...

........................................................................
.............................. CYCLE  152 ..............................
........................................................................

 iter      E             dE          RMSdq      gap      omega  full diag
   1    -84.5382424 -0.845382E+02  0.586E-03    1.03       0.0  T
   2    -84.5382424 -0.580275E-07  0.351E-03    1.03       3.8  T
   3    -84.5382424  0.568283E-07  0.131E-03    1.03      10.1  T
   4    -84.5382425 -0.682354E-07  0.424E-04    1.03      31.2  T
   5    -84.5382425 -0.726246E-08  0.153E-04    1.03      86.5  T
     SCC iter.                  ...        0 min,  0.056 sec
     gradient                   ...        0 min,  0.010 sec
 * total energy  :   -83.4334918 Eh     change       -0.8835054E-05 Eh
   gradient norm :     0.0005904 Eh/α   predicted    -0.4275488E-05 ( -51.61%)
   displ. norm   :     0.0730183 α      lambda       -0.1135543E-04
   maximum displ.:     0.0275191 α      in ANC's #19, #12, #8, ...

........................................................................
.............................. CYCLE  153 ..............................
........................................................................

 iter      E             dE          RMSdq      gap      omega  full diag
   1    -84.5385891 -0.845386E+02  0.119E-02    1.03       0.0  T
   2    -84.5385893 -0.168278E-06  0.695E-03    1.02       1.9  T
   3    -84.5385889  0.305345E-06  0.275E-03    1.02       4.8  T
   4    -84.5385893 -0.345060E-06  0.738E-04    1.02      17.9  T
   5    -84.5385893 -0.232332E-07  0.232E-04    1.02      57.1  T
     SCC iter.                  ...        0 min,  0.047 sec
     gradient                   ...        0 min,  0.013 sec
 * total energy  :   -83.4335017 Eh     change       -0.9974377E-05 Eh
   gradient norm :     0.0018710 Eh/α   predicted    -0.5693534E-05 ( -42.92%)
   displ. norm   :     0.1248402 α      lambda       -0.1572664E-04
   maximum displ.:     0.0507834 α      in ANC's #19, #12, #8, ...

........................................................................
.............................. CYCLE  154 ..............................
........................................................................

 iter      E             dE          RMSdq      gap      omega  full diag
   1    -84.5384870 -0.845385E+02  0.199E-02    1.02       0.0  T
   2    -84.5384875 -0.463292E-06  0.116E-02    1.02       1.1  T
   3    -84.5384867  0.761465E-06  0.441E-03    1.02       3.0  T
   4    -84.5384876 -0.851640E-06  0.124E-03    1.02      10.7  T
   5    -84.5384877 -0.677906E-07  0.371E-04    1.02      35.7  T
   6    -84.5384877 -0.645699E-09  0.187E-04    1.02      70.7  T
     SCC iter.                  ...        0 min,  0.063 sec
     gradient                   ...        0 min,  0.006 sec
 * total energy  :   -83.4335122 Eh     change       -0.1049901E-04 Eh
   gradient norm :     0.0021557 Eh/α   predicted    -0.7919475E-05 ( -24.57%)
   displ. norm   :     0.0559136 α      lambda       -0.1220169E-04
   maximum displ.:     0.0247905 α      in ANC's #19, #4, #8, ...

........................................................................
.............................. CYCLE  155 ..............................
........................................................................

 iter      E             dE          RMSdq      gap      omega  full diag
   1    -84.5383116 -0.845383E+02  0.982E-03    1.02       0.0  T
   2    -84.5383117 -0.920336E-07  0.575E-03    1.02       2.3  T
   3    -84.5383116  0.524745E-07  0.133E-03    1.02      10.0  T
   4    -84.5383117 -0.676358E-07  0.450E-04    1.02      29.5  T
   5    -84.5383117 -0.708572E-08  0.203E-04    1.02      65.2  T
     SCC iter.                  ...        0 min,  0.057 sec
     gradient                   ...        0 min,  0.010 sec
 * total energy  :   -83.4335220 Eh     change       -0.9717183E-05 Eh
   gradient norm :     0.0013150 Eh/α   predicted    -0.6120443E-05 ( -37.01%)
   displ. norm   :     0.2035010 α      lambda       -0.2442385E-04
   maximum displ.:     0.0986212 α      in ANC's #19, #4, #8, ...

........................................................................
.............................. CYCLE  156 ..............................
........................................................................

 iter      E             dE          RMSdq      gap      omega  full diag
   1    -84.5377047 -0.845377E+02  0.376E-02    1.01       0.0  T
   2    -84.5377059 -0.123493E-05  0.219E-02    1.01       1.0  T
   3    -84.5377056  0.265198E-06  0.376E-03    1.01       3.5  T
   4    -84.5377061 -0.472686E-06  0.114E-03    1.01      11.7  T
   5    -84.5377061 -0.242515E-07  0.708E-04    1.01      18.7  T
   6    -84.5377061 -0.137192E-07  0.288E-04    1.01      46.1  T
     SCC iter.                  ...        0 min,  0.062 sec
     gradient                   ...        0 min,  0.010 sec
 * total energy  :   -83.4335435 Eh     change       -0.2151766E-04 Eh
   gradient norm :     0.0020884 Eh/α   predicted    -0.1243926E-04 ( -42.19%)
   displ. norm   :     0.0933374 α      lambda       -0.1421193E-04
   maximum displ.:     0.0491615 α      in ANC's #19, #4, #8, ...

........................................................................
.............................. CYCLE  157 ..............................
........................................................................

 iter      E             dE          RMSdq      gap      omega  full diag
   1    -84.5376452 -0.845376E+02  0.190E-02    1.01       0.0  T
   2    -84.5376455 -0.316504E-06  0.111E-02    1.01       1.2  T
   3    -84.5376454  0.348287E-07  0.171E-03    1.01       7.7  T
   4    -84.5376455 -0.848935E-07  0.480E-04    1.01      27.6  T
   5    -84.5376455 -0.365567E-08  0.300E-04    1.01      44.2  T
     SCC iter.                  ...        0 min,  0.054 sec
     gradient                   ...        0 min,  0.011 sec
 * total energy  :   -83.4335568 Eh     change       -0.1329624E-04 Eh
   gradient norm :     0.0021999 Eh/α   predicted    -0.7168669E-05 ( -46.08%)
   displ. norm   :     0.3091562 α      lambda       -0.5579603E-04
   maximum displ.:     0.1652021 α      in ANC's #19, #4, #2, ...

........................................................................
.............................. CYCLE  158 ..............................
........................................................................

 iter      E             dE          RMSdq      gap      omega  full diag
   1    -84.5371391 -0.845371E+02  0.672E-02    1.02       0.0  T
   2    -84.5371429 -0.376318E-05  0.393E-02    1.02       1.0  T
   3    -84.5371419  0.105186E-05  0.682E-03    1.02       1.9  T
   4    -84.5371434 -0.155218E-05  0.235E-03    1.02       5.6  T
   5    -84.5371436 -0.206299E-06  0.112E-03    1.02      11.9  T
   6    -84.5371436 -0.152973E-07  0.506E-04    1.02      26.2  T
   7    -84.5371436 -0.545215E-08  0.203E-04    1.02      65.2  T
     SCC iter.                  ...        0 min,  0.070 sec
     gradient                   ...        0 min,  0.013 sec
 * total energy  :   -83.4336019 Eh     change       -0.4516185E-04 Eh
   gradient norm :     0.0030028 Eh/α   predicted    -0.3056479E-04 ( -32.32%)
   displ. norm   :     0.3711751 α      lambda       -0.5762003E-04
   maximum displ.:     0.1988084 α      in ANC's #19, #4, #2, ...

........................................................................
.............................. CYCLE  159 ..............................
........................................................................

 iter      E             dE          RMSdq      gap      omega  full diag
   1    -84.5357649 -0.845358E+02  0.815E-02    1.03       0.0  T
   2    -84.5357703 -0.541658E-05  0.476E-02    1.03       1.0  T
   3    -84.5357680  0.232124E-05  0.901E-03    1.04       1.5  T
   4    -84.5357710 -0.299890E-05  0.314E-03    1.04       4.2  T
   5    -84.5357714 -0.418882E-06  0.130E-03    1.04      10.2  T
   6    -84.5357714 -0.171027E-07  0.616E-04    1.04      21.5  T
   7    -84.5357714 -0.779778E-08  0.239E-04    1.04      55.5  T
     SCC iter.                  ...        0 min,  0.075 sec
     gradient                   ...        0 min,  0.009 sec
 * total energy  :   -83.4336413 Eh     change       -0.3932904E-04 Eh
   gradient norm :     0.0055990 Eh/α   predicted    -0.3278583E-04 ( -16.64%)
   displ. norm   :     0.2428537 α      lambda       -0.6741787E-04
   maximum displ.:     0.1221677 α      in ANC's #19, #4, #2, ...

........................................................................
.............................. CYCLE  160 ..............................
........................................................................

 iter      E             dE          RMSdq      gap      omega  full diag
   1    -84.5368899 -0.845369E+02  0.549E-02    1.04       0.0  T
   2    -84.5368917 -0.179663E-05  0.321E-02    1.05       1.0  T
   3    -84.5368894  0.232393E-05  0.749E-03    1.05       1.8  T
   4    -84.5368919 -0.255135E-05  0.249E-03    1.05       5.3  T
   5    -84.5368922 -0.292882E-06  0.764E-04    1.05      17.3  T
   6    -84.5368922  0.174794E-09  0.383E-04    1.05      34.6  T
     SCC iter.                  ...        0 min,  0.071 sec
     gradient                   ...        0 min,  0.005 sec
 * total energy  :   -83.4336932 Eh     change       -0.5196050E-04 Eh
   gradient norm :     0.0042260 Eh/α   predicted    -0.3570169E-04 ( -31.29%)
   displ. norm   :     0.4497759 α      lambda       -0.1107219E-03
   maximum displ.:     0.2350366 α      in ANC's #19, #4, #2, ...

........................................................................
.............................. CYCLE  161 ..............................
........................................................................

 iter      E             dE          RMSdq      gap      omega  full diag
   1    -84.5360199 -0.845360E+02  0.965E-02    1.06       0.0  T
   2    -84.5360279 -0.803538E-05  0.563E-02    1.06       1.0  T
   3    -84.5360238  0.410018E-05  0.115E-02    1.06       1.1  T
   4    -84.5360286 -0.482194E-05  0.428E-03    1.06       3.1  T
   5    -84.5360295 -0.862996E-06  0.144E-03    1.06       9.2  T
   6    -84.5360295 -0.138643E-07  0.705E-04    1.06      18.8  T
   7    -84.5360295 -0.100681E-07  0.256E-04    1.06      51.8  T
     SCC iter.                  ...        0 min,  0.070 sec
     gradient                   ...        0 min,  0.017 sec
 * total energy  :   -83.4337885 Eh     change       -0.9529129E-04 Eh
   gradient norm :     0.0061078 Eh/α   predicted    -0.6656143E-04 ( -30.15%)
   displ. norm   :     0.5408721 α      lambda       -0.3205897E-03
   maximum displ.:     0.2721832 α      in ANC's #4, #19, #2, ...

........................................................................
.............................. CYCLE  162 ..............................
........................................................................

 iter      E             dE          RMSdq      gap      omega  full diag
   1    -84.5411368 -0.845411E+02  0.113E-01    1.07       0.0  T
   2    -84.5411507 -0.139832E-04  0.655E-02    1.07       1.0  T
   3    -84.5411427  0.804725E-05  0.162E-02    1.07       1.0  T
   4    -84.5411514 -0.866289E-05  0.644E-03    1.07       2.1  T
   5    -84.5411534 -0.207252E-05  0.175E-03    1.07       7.6  T
   6    -84.5411534 -0.105499E-07  0.862E-04    1.07      15.4  T
   7    -84.5411535 -0.154431E-07  0.297E-04    1.07      44.6  T
     SCC iter.                  ...        0 min,  0.078 sec
     gradient                   ...        0 min,  0.008 sec
 * total energy  :   -83.4339796 Eh     change       -0.1910798E-03 Eh
   gradient norm :     0.0066770 Eh/α   predicted    -0.2071881E-03 (   8.43%)
   displ. norm   :     0.7930597 α      lambda       -0.3225732E-03
   maximum displ.:     0.4100112 α      in ANC's #19, #4, #2, ...

........................................................................
.............................. CYCLE  163 ..............................
........................................................................

 iter      E             dE          RMSdq      gap      omega  full diag
   1    -84.5310788 -0.845311E+02  0.172E-01    1.08       0.0  T
   2    -84.5311176 -0.388127E-04  0.101E-01    1.08       1.0  T
   3    -84.5311030  0.146171E-04  0.243E-02    1.08       1.0  T
   4    -84.5311239 -0.209601E-04  0.630E-03    1.08       2.1  T
   5    -84.5311253 -0.133446E-05  0.325E-03    1.08       4.1  T
   6    -84.5311255 -0.211093E-06  0.153E-03    1.08       8.6  T
   7    -84.5311255 -0.324109E-07  0.589E-04    1.08      22.5  T
   8    -84.5311255 -0.482098E-08  0.261E-04    1.08      50.7  T
     SCC iter.                  ...        0 min,  0.091 sec
     gradient                   ...        0 min,  0.015 sec
 * total energy  :   -83.4340035 Eh     change       -0.2390597E-04 Eh
   gradient norm :     0.0191407 Eh/α   predicted    -0.2627307E-03 ( 999.02%)
   displ. norm   :     0.1963270 α      lambda       -0.5629298E-03
   maximum displ.:     0.1057539 α      in ANC's #19, #4, #8, ...

........................................................................
.............................. CYCLE  164 ..............................
........................................................................

 iter      E             dE          RMSdq      gap      omega  full diag
   1    -84.5365898 -0.845366E+02  0.547E-02    1.07       0.0  T
   2    -84.5365972 -0.741543E-05  0.325E-02    1.07       1.0  T
   3    -84.5365936  0.359759E-05  0.119E-02    1.07       1.1  T
   4    -84.5365985 -0.492712E-05  0.336E-03    1.07       3.9  T
   5    -84.5365991 -0.523205E-06  0.122E-03    1.07      10.8  T
   6    -84.5365991 -0.215546E-07  0.575E-04    1.07      23.1  T
   7    -84.5365991 -0.391094E-08  0.257E-04    1.07      51.6  T
     SCC iter.                  ...        0 min,  0.081 sec
     gradient                   ...        0 min,  0.009 sec
 * total energy  :   -83.4343012 Eh     change       -0.2976641E-03 Eh
   gradient norm :     0.0079718 Eh/α   predicted    -0.2923160E-03 (  -1.80%)
   displ. norm   :     0.2836230 α      lambda       -0.3773815E-03
   maximum displ.:     0.1180533 α      in ANC's #4, #19, #17, ...

........................................................................
.............................. CYCLE  165 ..............................
........................................................................

 iter      E             dE          RMSdq      gap      omega  full diag
   1    -84.5394099 -0.845394E+02  0.613E-02    1.06       0.0  T
   2    -84.5394179 -0.793711E-05  0.354E-02    1.06       1.0  T
   3    -84.5394174  0.466301E-06  0.879E-03    1.06       1.5  T
   4    -84.5394188 -0.143482E-05  0.231E-03    1.06       5.7  T
   5    -84.5394190 -0.165574E-06  0.125E-03    1.06      10.6  T
   6    -84.5394190 -0.264120E-07  0.490E-04    1.06      27.0  T
   7    -84.5394190 -0.252899E-08  0.250E-04    1.06      53.0  T
     SCC iter.                  ...        0 min,  0.078 sec
     gradient                   ...        0 min,  0.012 sec
 * total energy  :   -83.4345698 Eh     change       -0.2686900E-03 Eh
   gradient norm :     0.0077255 Eh/α   predicted    -0.2038687E-03 ( -24.12%)
   displ. norm   :     0.7297291 α      lambda       -0.6639930E-03
   maximum displ.:     0.3292937 α      in ANC's #19, #4, #17, ...

........................................................................
.............................. CYCLE  166 ..............................
........................................................................

 iter      E             dE          RMSdq      gap      omega  full diag
   1    -84.5352707 -0.845353E+02  0.150E-01    1.06       0.0  T
   2    -84.5353102 -0.394227E-04  0.866E-02    1.06       1.0  T
   3    -84.5353065  0.371713E-05  0.199E-02    1.05       1.0  T
   4    -84.5353158 -0.937280E-05  0.403E-03    1.05       3.3  T
   5    -84.5353160 -0.196214E-06  0.230E-03    1.05       5.8  T
   6    -84.5353161 -0.507904E-07  0.112E-03    1.05      11.8  T
   7    -84.5353161 -0.206993E-07  0.571E-04    1.05      23.2  T
   8    -84.5353161 -0.584529E-08  0.195E-04    1.05      68.1  T
     SCC iter.                  ...        0 min,  0.091 sec
     gradient                   ...        0 min,  0.013 sec
 * total energy  :   -83.4352021 Eh     change       -0.6322129E-03 Eh
   gradient norm :     0.0164294 Eh/α   predicted    -0.5087822E-03 ( -19.52%)
   displ. norm   :     0.7202601 α      lambda       -0.9170736E-03
   maximum displ.:     0.3012165 α      in ANC's #19, #4, #17, ...

........................................................................
.............................. CYCLE  167 ..............................
........................................................................

 iter      E             dE          RMSdq      gap      omega  full diag
   1    -84.5273206 -0.845273E+02  0.156E-01    1.06       0.0  T
   2    -84.5273778 -0.571676E-04  0.901E-02    1.05       1.0  T
   3    -84.5273735  0.427127E-05  0.242E-02    1.05       1.0  T
   4    -84.5273856 -0.121271E-04  0.500E-03    1.05       2.6  T
   5    -84.5273859 -0.299342E-06  0.303E-03    1.05       4.4  T
   6    -84.5273861 -0.162636E-06  0.162E-03    1.05       8.2  T
   7    -84.5273861 -0.632210E-07  0.721E-04    1.05      18.4  T
   8    -84.5273861 -0.667046E-08  0.209E-04    1.05      63.4  T
     SCC iter.                  ...        0 min,  0.090 sec
     gradient                   ...        0 min,  0.004 sec
 * total energy  :   -83.4356809 Eh     change       -0.4788798E-03 Eh
   gradient norm :     0.0272508 Eh/α   predicted    -0.6964079E-03 (  45.42%)
   displ. norm   :     0.3454229 α      lambda       -0.1491943E-02
   maximum displ.:     0.1638854 α      in ANC's #22, #7, #4, ...

........................................................................
.............................. CYCLE  168 ..............................
........................................................................

 iter      E             dE          RMSdq      gap      omega  full diag
   1    -84.5341215 -0.845341E+02  0.113E-01    1.06       0.0  T
   2    -84.5341475 -0.259097E-04  0.668E-02    1.05       1.0  T
   3    -84.5341375  0.994323E-05  0.214E-02    1.05       1.0  T
   4    -84.5341517 -0.141910E-04  0.670E-03    1.05       2.0  T
   5    -84.5341535 -0.182578E-05  0.291E-03    1.05       4.6  T
   6    -84.5341536 -0.115738E-06  0.127E-03    1.05      10.4  T
   7    -84.5341537 -0.201744E-07  0.488E-04    1.05      27.1  T
   8    -84.5341537 -0.269239E-08  0.198E-04    1.05      66.9  T
     SCC iter.                  ...        0 min,  0.091 sec
     gradient                   ...        0 min,  0.010 sec
 * total energy  :   -83.4360243 Eh     change       -0.3433203E-03 Eh
   gradient norm :     0.0261868 Eh/α   predicted    -0.8349845E-03 ( 143.21%)
   displ. norm   :     0.2968439 α      lambda       -0.1218899E-02
   maximum displ.:     0.1250438 α      in ANC's #4, #19, #2, ...

........................................................................
.............................. CYCLE  169 ..............................
........................................................................

 iter      E             dE          RMSdq      gap      omega  full diag
   1    -84.5363093 -0.845363E+02  0.696E-02    1.06       0.0  T
   2    -84.5363195 -0.101555E-04  0.422E-02    1.07       1.0  T
   3    -84.5363151  0.440773E-05  0.135E-02    1.07       1.0  T
   4    -84.5363213 -0.627897E-05  0.446E-03    1.07       3.0  T
   5    -84.5363221 -0.743959E-06  0.205E-03    1.07       6.4  T
   6    -84.5363222 -0.701670E-07  0.803E-04    1.07      16.5  T
   7    -84.5363222 -0.552379E-08  0.331E-04    1.07      40.1  T
     SCC iter.                  ...        0 min,  0.079 sec
     gradient                   ...        0 min,  0.006 sec
 * total energy  :   -83.4367394 Eh     change       -0.7150992E-03 Eh
   gradient norm :     0.0162711 Eh/α   predicted    -0.6631531E-03 (  -7.26%)
   displ. norm   :     0.4195765 α      lambda       -0.9608089E-03
   maximum displ.:     0.1914015 α      in ANC's #19, #4, #2, ...

........................................................................
.............................. CYCLE  170 ..............................
........................................................................

 iter      E             dE          RMSdq      gap      omega  full diag
   1    -84.5346809 -0.845347E+02  0.858E-02    1.08       0.0  T
   2    -84.5346916 -0.106598E-04  0.498E-02    1.08       1.0  T
   3    -84.5346890  0.260241E-05  0.116E-02    1.08       1.1  T
   4    -84.5346932 -0.418528E-05  0.436E-03    1.08       3.0  T
   5    -84.5346937 -0.532769E-06  0.226E-03    1.08       5.9  T
   6    -84.5346939 -0.151064E-06  0.824E-04    1.08      16.1  T
   7    -84.5346939 -0.441716E-08  0.337E-04    1.08      39.3  T
     SCC iter.                  ...        0 min,  0.081 sec
     gradient                   ...        0 min,  0.005 sec
 * total energy  :   -83.4370885 Eh     change       -0.3491888E-03 Eh
   gradient norm :     0.0192554 Eh/α   predicted    -0.5649784E-03 (  61.80%)
   displ. norm   :     0.1521347 α      lambda       -0.5451503E-03
   maximum displ.:     0.0558035 α      in ANC's #17, #2, #4, ...

........................................................................
.............................. CYCLE  171 ..............................
........................................................................

 iter      E             dE          RMSdq      gap      omega  full diag
   1    -84.5375883 -0.845376E+02  0.367E-02    1.09       0.0  T
   2    -84.5375902 -0.191365E-05  0.216E-02    1.09       1.0  T
   3    -84.5375894  0.766666E-06  0.593E-03    1.09       2.2  T
   4    -84.5375905 -0.104317E-05  0.219E-03    1.10       6.0  T
   5    -84.5375906 -0.185467E-06  0.910E-04    1.09      14.6  T
   6    -84.5375906 -0.850643E-08  0.369E-04    1.09      35.9  T
     SCC iter.                  ...        0 min,  0.067 sec
     gradient                   ...        0 min,  0.010 sec
 * total energy  :   -83.4374377 Eh     change       -0.3491925E-03 Eh
   gradient norm :     0.0134646 Eh/α   predicted    -0.2788877E-03 ( -20.13%)
   displ. norm   :     0.1962477 α      lambda       -0.6074123E-03
   maximum displ.:     0.0652465 α      in ANC's #3, #19, #1, ...

........................................................................
.............................. CYCLE  172 ..............................
........................................................................

 iter      E             dE          RMSdq      gap      omega  full diag
   1    -84.5409731 -0.845410E+02  0.529E-02    1.10       0.0  T
   2    -84.5410036 -0.305036E-04  0.309E-02    1.10       1.0  T
   3    -84.5410058 -0.220154E-05  0.157E-02    1.10       1.0  T
   4    -84.5410068 -0.104381E-05  0.445E-03    1.10       3.0  T
   5    -84.5410074 -0.581523E-06  0.230E-03    1.10       5.8  T
   6    -84.5410076 -0.179131E-06  0.873E-04    1.10      15.2  T
   7    -84.5410076 -0.134449E-07  0.386E-04    1.10      34.3  T
     SCC iter.                  ...        0 min,  0.075 sec
     gradient                   ...        0 min,  0.011 sec
 * total energy  :   -83.4374559 Eh     change       -0.1817787E-04 Eh
   gradient norm :     0.0199516 Eh/α   predicted    -0.3154080E-03 (1635.12%)
   displ. norm   :     0.2671905 α      lambda       -0.7172408E-03
   maximum displ.:     0.0994420 α      in ANC's #17, #19, #4, ...

........................................................................
.............................. CYCLE  173 ..............................
........................................................................

 iter      E             dE          RMSdq      gap      omega  full diag
   1    -84.5375118 -0.845375E+02  0.724E-02    1.11       0.0  T
   2    -84.5375781 -0.663488E-04  0.440E-02    1.11       1.0  T
   3    -84.5375834 -0.527951E-05  0.221E-02    1.11       1.0  T
   4    -84.5375840 -0.633761E-06  0.547E-03    1.11       2.4  T
   5    -84.5375851 -0.110091E-05  0.272E-03    1.11       4.9  T
   6    -84.5375854 -0.277536E-06  0.987E-04    1.11      13.4  T
   7    -84.5375854 -0.189344E-07  0.451E-04    1.11      29.4  T
     SCC iter.                  ...        0 min,  0.066 sec
     gradient                   ...        0 min,  0.019 sec
 * total energy  :   -83.4378077 Eh     change       -0.3517659E-03 Eh
   gradient norm :     0.0155868 Eh/α   predicted    -0.3842238E-03 (   9.23%)
   displ. norm   :     0.1488841 α      lambda       -0.3915103E-03
   maximum displ.:     0.0488567 α      in ANC's #4, #3, #22, ...

........................................................................
.............................. CYCLE  174 ..............................
........................................................................

 iter      E             dE          RMSdq      gap      omega  full diag
   1    -84.5415200 -0.845415E+02  0.491E-02    1.11       0.0  T
   2    -84.5415681 -0.480898E-04  0.284E-02    1.11       1.0  T
   3    -84.5415715 -0.338867E-05  0.154E-02    1.11       1.0  T
   4    -84.5415716 -0.430529E-07  0.254E-03    1.11       5.2  T
   5    -84.5415718 -0.210097E-06  0.120E-03    1.11      11.0  T
   6    -84.5415718 -0.281609E-07  0.563E-04    1.11      23.5  T
   7    -84.5415718 -0.446597E-08  0.218E-04    1.11      60.7  T
     SCC iter.                  ...        0 min,  0.078 sec
     gradient                   ...        0 min,  0.009 sec
 * total energy  :   -83.4378850 Eh     change       -0.7735935E-04 Eh
   gradient norm :     0.0130177 Eh/α   predicted    -0.2000963E-03 ( 158.66%)
   displ. norm   :     0.1275202 α      lambda       -0.3369438E-03
   maximum displ.:     0.0646596 α      in ANC's #19, #3, #1, ...

........................................................................
.............................. CYCLE  175 ..............................
........................................................................

 iter      E             dE          RMSdq      gap      omega  full diag
   1    -84.5407041 -0.845407E+02  0.338E-02    1.11       0.0  T
   2    -84.5407202 -0.161663E-04  0.200E-02    1.11       1.0  T
   3    -84.5407213 -0.107307E-05  0.106E-02    1.11       1.3  T
   4    -84.5407210  0.334887E-06  0.358E-03    1.11       3.7  T
   5    -84.5407217 -0.711591E-06  0.729E-04    1.11      18.2  T
   6    -84.5407217 -0.218191E-08  0.407E-04    1.11      32.6  T
     SCC iter.                  ...        0 min,  0.052 sec
     gradient                   ...        0 min,  0.022 sec
 * total energy  :   -83.4381338 Eh     change       -0.2487391E-03 Eh
   gradient norm :     0.0097155 Eh/α   predicted    -0.1712154E-03 ( -31.17%)
   displ. norm   :     0.2981700 α      lambda       -0.4819344E-03
   maximum displ.:     0.1284834 α      in ANC's #19, #3, #1, ...

........................................................................
.............................. CYCLE  176 ..............................
........................................................................

 iter      E             dE          RMSdq      gap      omega  full diag
   1    -84.5397981 -0.845398E+02  0.690E-02    1.11       0.0  T
   2    -84.5398154 -0.173155E-04  0.410E-02    1.11       1.0  T
   3    -84.5398125  0.288259E-05  0.153E-02    1.11       1.0  T
   4    -84.5398159 -0.342615E-05  0.599E-03    1.11       2.2  T
   5    -84.5398179 -0.194405E-05  0.138E-03    1.11       9.6  T
   6    -84.5398179 -0.635525E-08  0.795E-04    1.11      16.7  T
   7    -84.5398179 -0.136229E-07  0.282E-04    1.11      47.1  T
     SCC iter.                  ...        0 min,  0.058 sec
     gradient                   ...        0 min,  0.020 sec
 * total energy  :   -83.4384466 Eh     change       -0.3128087E-03 Eh
   gradient norm :     0.0127036 Eh/α   predicted    -0.2623919E-03 ( -16.12%)
   displ. norm   :     0.4117470 α      lambda       -0.4404817E-03
   maximum displ.:     0.1747932 α      in ANC's #19, #3, #1, ...

........................................................................
.............................. CYCLE  177 ..............................
........................................................................

 iter      E             dE          RMSdq      gap      omega  full diag
   1    -84.5371756 -0.845372E+02  0.903E-02    1.11       0.0  T
   2    -84.5371819 -0.623775E-05  0.537E-02    1.10       1.0  T
   3    -84.5371728  0.905122E-05  0.145E-02    1.10       1.0  T
   4    -84.5371836 -0.107829E-04  0.437E-03    1.10       3.0  T
   5    -84.5371844 -0.747609E-06  0.184E-03    1.10       7.2  T
   6    -84.5371844 -0.136714E-07  0.862E-04    1.10      15.4  T
   7    -84.5371844 -0.144861E-07  0.240E-04    1.10      55.2  T
     SCC iter.                  ...        0 min,  0.055 sec
     gradient                   ...        0 min,  0.016 sec
 * total energy  :   -83.4387200 Eh     change       -0.2734516E-03 Eh
   gradient norm :     0.0181504 Eh/α   predicted    -0.2575841E-03 (  -5.80%)
   displ. norm   :     0.4087242 α      lambda       -0.7348663E-03
   maximum displ.:     0.1262057 α      in ANC's #21, #3, #1, ...

........................................................................
.............................. CYCLE  178 ..............................
........................................................................

 iter      E             dE          RMSdq      gap      omega  full diag
   1    -84.5453479 -0.845453E+02  0.118E-01    1.09       0.0  T
   2    -84.5454085 -0.605883E-04  0.684E-02    1.08       1.0  T
   3    -84.5454060  0.251640E-05  0.269E-02    1.08       1.0  T
   4    -84.5454129 -0.691109E-05  0.807E-03    1.08       1.6  T
   5    -84.5454162 -0.337868E-05  0.255E-03    1.08       5.2  T
   6    -84.5454163 -0.724147E-07  0.143E-03    1.08       9.3  T
   7    -84.5454163 -0.274032E-07  0.451E-04    1.08      29.4  T
   8    -84.5454163 -0.336699E-08  0.191E-04    1.08      69.4  T
     SCC iter.                  ...        0 min,  0.063 sec
     gradient                   ...        0 min,  0.016 sec
 * total energy  :   -83.4386429 Eh     change        0.7714624E-04 Eh
   gradient norm :     0.0234219 Eh/α   predicted    -0.4288175E-03 (-655.85%)
   displ. norm   :     0.2965012 α      lambda       -0.1256731E-02
   maximum displ.:     0.1216478 α      in ANC's #17, #19, #4, ...

........................................................................
.............................. CYCLE  179 ..............................
........................................................................

 iter      E             dE          RMSdq      gap      omega  full diag
   1    -84.5417173 -0.845417E+02  0.866E-02    1.09       0.0  T
   2    -84.5418443 -0.127009E-03  0.478E-02    1.09       1.0  T
   3    -84.5418550 -0.106529E-04  0.260E-02    1.09       1.0  T
   4    -84.5418552 -0.200601E-06  0.526E-03    1.09       2.5  T
   5    -84.5418564 -0.122753E-05  0.225E-03    1.09       5.9  T
   6    -84.5418564 -0.538665E-07  0.125E-03    1.09      10.6  T
   7    -84.5418565 -0.302330E-07  0.362E-04    1.09      36.6  T
   8    -84.5418565 -0.176534E-08  0.169E-04    1.09      78.4  T
     SCC iter.                  ...        0 min,  0.063 sec
     gradient                   ...        0 min,  0.014 sec
 * total energy  :   -83.4392501 Eh     change       -0.6072315E-03 Eh
   gradient norm :     0.0129556 Eh/α   predicted    -0.6836113E-03 (  12.58%)
   displ. norm   :     0.1597403 α      lambda       -0.3719773E-03
   maximum displ.:     0.0637913 α      in ANC's #17, #22, #1, ...

........................................................................
.............................. CYCLE  180 ..............................
........................................................................

 iter      E             dE          RMSdq      gap      omega  full diag
   1    -84.5414278 -0.845414E+02  0.409E-02    1.09       0.0  T
   2    -84.5414308 -0.306859E-05  0.244E-02    1.09       1.0  T
   3    -84.5414298  0.985197E-06  0.711E-03    1.09       1.9  T
   4    -84.5414315 -0.170619E-05  0.208E-03    1.09       6.4  T
   5    -84.5414316 -0.612852E-07  0.122E-03    1.09      10.8  T
   6    -84.5414316 -0.398405E-07  0.507E-04    1.09      26.1  T
   7    -84.5414316 -0.374517E-08  0.252E-04    1.09      52.5  T
     SCC iter.                  ...        0 min,  0.061 sec
     gradient                   ...        0 min,  0.009 sec
 * total energy  :   -83.4394507 Eh     change       -0.2006207E-03 Eh
   gradient norm :     0.0097331 Eh/α   predicted    -0.1907365E-03 (  -4.93%)
   displ. norm   :     0.3021952 α      lambda       -0.2921221E-03
   maximum displ.:     0.1184749 α      in ANC's #1, #8, #19, ...

........................................................................
.............................. CYCLE  181 ..............................
........................................................................

 iter      E             dE          RMSdq      gap      omega  full diag
   1    -84.5403169 -0.845403E+02  0.597E-02    1.09       0.0  T
   2    -84.5403278 -0.108921E-04  0.353E-02    1.08       1.0  T
   3    -84.5403273  0.490393E-06  0.109E-02    1.08       1.2  T
   4    -84.5403290 -0.168315E-05  0.228E-03    1.08       5.8  T
   5    -84.5403292 -0.191954E-06  0.121E-03    1.08      11.0  T
   6    -84.5403292 -0.137181E-07  0.664E-04    1.08      20.0  T
   7    -84.5403292 -0.117682E-07  0.222E-04    1.08      59.5  T
     SCC iter.                  ...        0 min,  0.062 sec
     gradient                   ...        0 min,  0.011 sec
 * total energy  :   -83.4396671 Eh     change       -0.2163252E-03 Eh
   gradient norm :     0.0111733 Eh/α   predicted    -0.1594046E-03 ( -26.31%)
   displ. norm   :     0.3929447 α      lambda       -0.6736768E-03
   maximum displ.:     0.1855872 α      in ANC's #8, #1, #12, ...

........................................................................
.............................. CYCLE  182 ..............................
........................................................................

 iter      E             dE          RMSdq      gap      omega  full diag
   1    -84.5452405 -0.845452E+02  0.786E-02    1.08       0.0  T
   2    -84.5452627 -0.221597E-04  0.475E-02    1.07       1.0  T
   3    -84.5452576  0.511531E-05  0.189E-02    1.07       1.0  T
   4    -84.5452660 -0.843826E-05  0.622E-03    1.07       2.1  T
   5    -84.5452675 -0.145242E-05  0.260E-03    1.07       5.1  T
   6    -84.5452676 -0.156568E-06  0.976E-04    1.07      13.6  T
   7    -84.5452676 -0.617702E-08  0.454E-04    1.07      29.2  T
     SCC iter.                  ...        0 min,  0.059 sec
     gradient                   ...        0 min,  0.010 sec
 * total energy  :   -83.4397933 Eh     change       -0.1262073E-03 Eh
   gradient norm :     0.0165623 Eh/α   predicted    -0.3888497E-03 ( 208.10%)
   displ. norm   :     0.3892964 α      lambda       -0.6174761E-03
   maximum displ.:     0.1471581 α      in ANC's #1, #19, #3, ...

........................................................................
.............................. CYCLE  183 ..............................
........................................................................

 iter      E             dE          RMSdq      gap      omega  full diag
   1    -84.5402819 -0.845403E+02  0.892E-02    1.08       0.0  T
   2    -84.5403036 -0.217525E-04  0.537E-02    1.08       1.0  T
   3    -84.5402959  0.772313E-05  0.199E-02    1.07       1.0  T
   4    -84.5403077 -0.118073E-04  0.561E-03    1.08       2.4  T
   5    -84.5403090 -0.125042E-05  0.248E-03    1.07       5.3  T
   6    -84.5403091 -0.122624E-06  0.103E-03    1.07      12.9  T
   7    -84.5403091 -0.694033E-08  0.452E-04    1.07      29.3  T
   8    -84.5403091 -0.277667E-08  0.160E-04    1.07      82.7  T
     SCC iter.                  ...        0 min,  0.076 sec
     gradient                   ...        0 min,  0.009 sec
 * total energy  :   -83.4400811 Eh     change       -0.2878372E-03 Eh
   gradient norm :     0.0118247 Eh/α   predicted    -0.3555306E-03 (  23.52%)
   displ. norm   :     0.0903243 α      lambda       -0.1768883E-03
   maximum displ.:     0.0290744 α      in ANC's #19, #7, #12, ...
 * RMSD in coord.:     0.9067733 α      energy gain  -0.6615498E-02 Eh

generating ANC from exact Hessian ...
Using Lindh-Hessian (1995)
 Shifting diagonal of input Hessian by   1.011475373078124E-002
 Lowest  eigenvalues of input Hessian
    0.010000    0.000000    0.000000    0.000000    0.000000    0.000000
    0.000000    0.010235    0.010271    0.010289    0.010360    0.010606
    0.010726    0.010931    0.011001    0.011320    0.011454    0.011532
 Highest eigenvalues
    1.952670    2.016979    2.123819    2.241772    2.309043    2.336803
 

........................................................................
.............................. CYCLE  184 ..............................
........................................................................

 iter      E             dE          RMSdq      gap      omega  full diag
   1    -84.5436253 -0.845436E+02  0.258E-02    1.08       0.0  T
   2    -84.5436270 -0.168001E-05  0.151E-02    1.08       1.0  T
   3    -84.5436262  0.790316E-06  0.598E-03    1.08       2.2  T
   4    -84.5436273 -0.103714E-05  0.195E-03    1.08       6.8  T
   5    -84.5436274 -0.163298E-06  0.671E-04    1.08      19.7  T
   6    -84.5436274 -0.537656E-08  0.326E-04    1.08      40.6  T
     SCC iter.                  ...        0 min,  0.053 sec
     gradient                   ...        0 min,  0.009 sec
 * total energy  :   -83.4401883 Eh     change       -0.1071651E-03 Eh
   gradient norm :     0.0051574 Eh/α   predicted     0.0000000E+00 (-100.00%)
   displ. norm   :     0.0634988 α      lambda       -0.1006430E-03
   maximum displ.:     0.0375803 α      in ANC's #20, #21, #29, ...

........................................................................
.............................. CYCLE  185 ..............................
........................................................................

 iter      E             dE          RMSdq      gap      omega  full diag
   1    -84.5439395 -0.845439E+02  0.163E-02    1.08       0.0  T
   2    -84.5439401 -0.591337E-06  0.981E-03    1.08       1.4  T
   3    -84.5439400  0.125741E-06  0.281E-03    1.08       4.7  T
   4    -84.5439402 -0.242704E-06  0.655E-04    1.08      20.2  T
   5    -84.5439402 -0.752307E-08  0.373E-04    1.08      35.5  T
     SCC iter.                  ...        0 min,  0.036 sec
     gradient                   ...        0 min,  0.011 sec
 * total energy  :   -83.4402729 Eh     change       -0.8456697E-04 Eh
   gradient norm :     0.0020558 Eh/α   predicted    -0.5141609E-04 ( -39.20%)
   displ. norm   :     0.2272046 α      lambda       -0.2409080E-03
   maximum displ.:     0.1362935 α      in ANC's #20, #21, #29, ...

........................................................................
.............................. CYCLE  186 ..............................
........................................................................

 iter      E             dE          RMSdq      gap      omega  full diag
   1    -84.5435322 -0.845435E+02  0.532E-02    1.09       0.0  T
   2    -84.5435348 -0.255058E-05  0.315E-02    1.09       1.0  T
   3    -84.5435335  0.128800E-05  0.640E-03    1.09       2.1  T
   4    -84.5435355 -0.197068E-05  0.185E-03    1.09       7.2  T
   5    -84.5435356 -0.821757E-07  0.958E-04    1.09      13.8  T
   6    -84.5435356 -0.121490E-07  0.368E-04    1.09      36.0  T
     SCC iter.                  ...        0 min,  0.050 sec
     gradient                   ...        0 min,  0.009 sec
 * total energy  :   -83.4404299 Eh     change       -0.1570924E-03 Eh
   gradient norm :     0.0054779 Eh/α   predicted    -0.1266935E-03 ( -19.35%)
   displ. norm   :     0.2101892 α      lambda       -0.1443659E-03
   maximum displ.:     0.1207051 α      in ANC's #20, #17, #21, ...

........................................................................
.............................. CYCLE  187 ..............................
........................................................................

 iter      E             dE          RMSdq      gap      omega  full diag
   1    -84.5424540 -0.845425E+02  0.506E-02    1.09       0.0  T
   2    -84.5424552 -0.111219E-05  0.298E-02    1.10       1.0  T
   3    -84.5424545  0.618958E-06  0.453E-03    1.10       2.9  T
   4    -84.5424556 -0.107534E-05  0.151E-03    1.10       8.8  T
   5    -84.5424556 -0.262650E-07  0.810E-04    1.10      16.3  T
   6    -84.5424556 -0.655659E-08  0.391E-04    1.10      33.9  T
     SCC iter.                  ...        0 min,  0.039 sec
     gradient                   ...        0 min,  0.015 sec
 * total energy  :   -83.4405167 Eh     change       -0.8679286E-04 Eh
   gradient norm :     0.0058042 Eh/α   predicted    -0.7538191E-04 ( -13.15%)
   displ. norm   :     0.1855853 α      lambda       -0.1263461E-03
   maximum displ.:     0.0967053 α      in ANC's #20, #17, #5, ...

........................................................................
.............................. CYCLE  188 ..............................
........................................................................

 iter      E             dE          RMSdq      gap      omega  full diag
   1    -84.5421388 -0.845421E+02  0.453E-02    1.10       0.0  T
   2    -84.5421400 -0.120054E-05  0.267E-02    1.10       1.0  T
   3    -84.5421395  0.464766E-06  0.435E-03    1.10       3.0  T
   4    -84.5421404 -0.846357E-06  0.138E-03    1.10       9.6  T
   5    -84.5421404 -0.292227E-07  0.826E-04    1.10      16.0  T
   6    -84.5421404 -0.112063E-07  0.342E-04    1.10      38.7  T
     SCC iter.                  ...        0 min,  0.048 sec
     gradient                   ...        0 min,  0.006 sec
 * total energy  :   -83.4405980 Eh     change       -0.8124780E-04 Eh
   gradient norm :     0.0043690 Eh/α   predicted    -0.6535218E-04 ( -19.56%)
   displ. norm   :     0.1040848 α      lambda       -0.9250328E-04
   maximum displ.:     0.0396757 α      in ANC's #17, #8, #5, ...

........................................................................
.............................. CYCLE  189 ..............................
........................................................................

 iter      E             dE          RMSdq      gap      omega  full diag
   1    -84.5439767 -0.845440E+02  0.248E-02    1.10       0.0  T
   2    -84.5439778 -0.106853E-05  0.145E-02    1.10       1.0  T
   3    -84.5439777  0.766575E-07  0.320E-03    1.10       4.1  T
   4    -84.5439779 -0.187621E-06  0.105E-03    1.10      12.7  T
   5    -84.5439780 -0.408747E-07  0.534E-04    1.10      24.8  T
   6    -84.5439780 -0.441577E-08  0.248E-04    1.10      53.5  T
     SCC iter.                  ...        0 min,  0.049 sec
     gradient                   ...        0 min,  0.006 sec
 * total energy  :   -83.4406533 Eh     change       -0.5533985E-04 Eh
   gradient norm :     0.0031640 Eh/α   predicted    -0.4676632E-04 ( -15.49%)
   displ. norm   :     0.1253813 α      lambda       -0.4458829E-04
   maximum displ.:     0.0543593 α      in ANC's #17, #20, #8, ...

........................................................................
.............................. CYCLE  190 ..............................
........................................................................

 iter      E             dE          RMSdq      gap      omega  full diag
   1    -84.5437985 -0.845438E+02  0.245E-02    1.11       0.0  T
   2    -84.5437988 -0.309123E-06  0.145E-02    1.11       1.0  T
   3    -84.5437988  0.388633E-08  0.159E-03    1.11       8.4  T
   4    -84.5437988 -0.906633E-07  0.667E-04    1.11      19.9  T
   5    -84.5437989 -0.715397E-08  0.388E-04    1.11      34.2  T
     SCC iter.                  ...        0 min,  0.044 sec
     gradient                   ...        0 min,  0.005 sec
 * total energy  :   -83.4406892 Eh     change       -0.3585971E-04 Eh
   gradient norm :     0.0033988 Eh/α   predicted    -0.2265010E-04 ( -36.84%)
   displ. norm   :     0.2211377 α      lambda       -0.8343664E-04
   maximum displ.:     0.1013184 α      in ANC's #17, #8, #5, ...

........................................................................
.............................. CYCLE  191 ..............................
........................................................................

 iter      E             dE          RMSdq      gap      omega  full diag
   1    -84.5436706 -0.845437E+02  0.377E-02    1.11       0.0  T
   2    -84.5436719 -0.126732E-05  0.222E-02    1.11       1.0  T
   3    -84.5436717  0.208334E-06  0.369E-03    1.10       3.6  T
   4    -84.5436721 -0.455200E-06  0.110E-03    1.10      12.0  T
   5    -84.5436722 -0.239276E-07  0.626E-04    1.10      21.2  T
   6    -84.5436722 -0.432534E-08  0.265E-04    1.10      50.0  T
     SCC iter.                  ...        0 min,  0.049 sec
     gradient                   ...        0 min,  0.015 sec
 * total energy  :   -83.4407430 Eh     change       -0.5381177E-04 Eh
   gradient norm :     0.0029528 Eh/α   predicted    -0.4376248E-04 ( -18.67%)
   displ. norm   :     0.1267031 α      lambda       -0.3828363E-04
   maximum displ.:     0.0578644 α      in ANC's #17, #8, #5, ...

........................................................................
.............................. CYCLE  192 ..............................
........................................................................

 iter      E             dE          RMSdq      gap      omega  full diag
   1    -84.5436943 -0.845437E+02  0.208E-02    1.10       0.0  T
   2    -84.5436947 -0.363624E-06  0.122E-02    1.10       1.1  T
   3    -84.5436946  0.767334E-07  0.207E-03    1.10       6.4  T
   4    -84.5436948 -0.152379E-06  0.608E-04    1.10      21.8  T
   5    -84.5436948 -0.790243E-08  0.344E-04    1.10      38.5  T
     SCC iter.                  ...        0 min,  0.037 sec
     gradient                   ...        0 min,  0.013 sec
 * total energy  :   -83.4407724 Eh     change       -0.2944730E-04 Eh
   gradient norm :     0.0026407 Eh/α   predicted    -0.1946269E-04 ( -33.91%)
   displ. norm   :     0.1962283 α      lambda       -0.5402612E-04
   maximum displ.:     0.0830774 α      in ANC's #17, #5, #8, ...

........................................................................
.............................. CYCLE  193 ..............................
........................................................................

 iter      E             dE          RMSdq      gap      omega  full diag
   1    -84.5432468 -0.845432E+02  0.328E-02    1.10       0.0  T
   2    -84.5432476 -0.788364E-06  0.192E-02    1.10       1.0  T
   3    -84.5432474  0.187538E-06  0.308E-03    1.10       4.3  T
   4    -84.5432478 -0.348927E-06  0.111E-03    1.10      12.0  T
   5    -84.5432478 -0.367149E-07  0.626E-04    1.10      21.2  T
   6    -84.5432478 -0.449590E-08  0.265E-04    1.10      50.0  T
     SCC iter.                  ...        0 min,  0.049 sec
     gradient                   ...        0 min,  0.006 sec
 * total energy  :   -83.4408088 Eh     change       -0.3633945E-04 Eh
   gradient norm :     0.0025819 Eh/α   predicted    -0.2805594E-04 ( -22.79%)
   displ. norm   :     0.1308649 α      lambda       -0.4812979E-04
   maximum displ.:     0.0539032 α      in ANC's #5, #8, #2, ...

........................................................................
.............................. CYCLE  194 ..............................
........................................................................

 iter      E             dE          RMSdq      gap      omega  full diag
   1    -84.5450614 -0.845451E+02  0.255E-02    1.10       0.0  T
   2    -84.5450624 -0.975939E-06  0.149E-02    1.10       1.0  T
   3    -84.5450621  0.302139E-06  0.364E-03    1.10       3.6  T
   4    -84.5450626 -0.476774E-06  0.100E-03    1.10      13.2  T
   5    -84.5450626 -0.256589E-07  0.575E-04    1.10      23.0  T
   6    -84.5450626 -0.691189E-08  0.261E-04    1.10      50.8  T
     SCC iter.                  ...        0 min,  0.041 sec
     gradient                   ...        0 min,  0.014 sec
 * total energy  :   -83.4408237 Eh     change       -0.1487232E-04 Eh
   gradient norm :     0.0038425 Eh/α   predicted    -0.2448170E-04 (  64.61%)
   displ. norm   :     0.1719653 α      lambda       -0.4434734E-04
   maximum displ.:     0.0722496 α      in ANC's #5, #2, #17, ...

........................................................................
.............................. CYCLE  195 ..............................
........................................................................

 iter      E             dE          RMSdq      gap      omega  full diag
   1    -84.5434370 -0.845434E+02  0.309E-02    1.10       0.0  T
   2    -84.5434378 -0.768469E-06  0.181E-02    1.10       1.0  T
   3    -84.5434373  0.477709E-06  0.390E-03    1.10       3.4  T
   4    -84.5434380 -0.630369E-06  0.128E-03    1.10      10.3  T
   5    -84.5434380 -0.611239E-07  0.598E-04    1.10      22.2  T
   6    -84.5434380 -0.353026E-08  0.271E-04    1.10      48.9  T
     SCC iter.                  ...        0 min,  0.050 sec
     gradient                   ...        0 min,  0.010 sec
 * total energy  :   -83.4408449 Eh     change       -0.2127919E-04 Eh
   gradient norm :     0.0023998 Eh/α   predicted    -0.2283598E-04 (   7.32%)
   displ. norm   :     0.0395496 α      lambda       -0.2021912E-04
   maximum displ.:     0.0237214 α      in ANC's #17, #8, #26, ...

........................................................................
.............................. CYCLE  196 ..............................
........................................................................

 iter      E             dE          RMSdq      gap      omega  full diag
   1    -84.5442917 -0.845443E+02  0.796E-03    1.10       0.0  T
   2    -84.5442919 -0.153205E-06  0.461E-03    1.10       2.9  T
   3    -84.5442918  0.570894E-07  0.165E-03    1.10       8.0  T
   4    -84.5442919 -0.840421E-07  0.461E-04    1.10      28.7  T
   5    -84.5442919 -0.823225E-08  0.207E-04    1.10      63.8  T
     SCC iter.                  ...        0 min,  0.034 sec
     gradient                   ...        0 min,  0.007 sec
 * total energy  :   -83.4408590 Eh     change       -0.1406494E-04 Eh
   gradient norm :     0.0012528 Eh/α   predicted    -0.1012603E-04 ( -28.01%)
   displ. norm   :     0.1189513 α      lambda       -0.1875736E-04
   maximum displ.:     0.0650252 α      in ANC's #5, #2, #26, ...

........................................................................
.............................. CYCLE  197 ..............................
........................................................................

 iter      E             dE          RMSdq      gap      omega  full diag
   1    -84.5449631 -0.845450E+02  0.159E-02    1.11       0.0  T
   2    -84.5449633 -0.292705E-06  0.940E-03    1.11       1.4  T
   3    -84.5449630  0.296718E-06  0.282E-03    1.11       4.7  T
   4    -84.5449634 -0.363018E-06  0.740E-04    1.11      17.9  T
   5    -84.5449634 -0.181910E-07  0.353E-04    1.11      37.5  T
     SCC iter.                  ...        0 min,  0.038 sec
     gradient                   ...        0 min,  0.008 sec
 * total energy  :   -83.4408747 Eh     change       -0.1574068E-04 Eh
   gradient norm :     0.0017401 Eh/α   predicted    -0.9438355E-05 ( -40.04%)
   displ. norm   :     0.0997042 α      lambda       -0.8110798E-05
   maximum displ.:     0.0554217 α      in ANC's #5, #2, #8, ...

........................................................................
.............................. CYCLE  198 ..............................
........................................................................

 iter      E             dE          RMSdq      gap      omega  full diag
   1    -84.5445745 -0.845446E+02  0.136E-02    1.11       0.0  T
   2    -84.5445746 -0.111170E-06  0.798E-03    1.11       1.7  T
   3    -84.5445745  0.685377E-07  0.138E-03    1.11       9.6  T
   4    -84.5445746 -0.907409E-07  0.450E-04    1.11      29.5  T
   5    -84.5445746 -0.758403E-08  0.226E-04    1.11      58.6  T
     SCC iter.                  ...        0 min,  0.039 sec
     gradient                   ...        0 min,  0.010 sec
 * total energy  :   -83.4408842 Eh     change       -0.9468943E-05 Eh
   gradient norm :     0.0009813 Eh/α   predicted    -0.4077717E-05 ( -56.94%)
   displ. norm   :     0.1245891 α      lambda       -0.1029840E-04
   maximum displ.:     0.0732371 α      in ANC's #5, #2, #20, ...

........................................................................
.............................. CYCLE  199 ..............................
........................................................................

 iter      E             dE          RMSdq      gap      omega  full diag
   1    -84.5444140 -0.845444E+02  0.162E-02    1.10       0.0  T
   2    -84.5444142 -0.186121E-06  0.960E-03    1.10       1.4  T
   3    -84.5444142  0.436952E-07  0.147E-03    1.10       9.0  T
   4    -84.5444143 -0.730756E-07  0.417E-04    1.10      31.8  T
   5    -84.5444143 -0.421799E-08  0.232E-04    1.10      57.1  T
     SCC iter.                  ...        0 min,  0.034 sec
     gradient                   ...        0 min,  0.014 sec
 * total energy  :   -83.4408951 Eh     change       -0.1084671E-04 Eh
   gradient norm :     0.0014003 Eh/α   predicted    -0.5188323E-05 ( -52.17%)
   displ. norm   :     0.1268407 α      lambda       -0.9750618E-05
   maximum displ.:     0.0796403 α      in ANC's #5, #2, #20, ...

........................................................................
.............................. CYCLE  200 ..............................
........................................................................

 iter      E             dE          RMSdq      gap      omega  full diag
   1    -84.5444773 -0.845445E+02  0.169E-02    1.10       0.0  T
   2    -84.5444776 -0.301851E-06  0.100E-02    1.10       1.3  T
   3    -84.5444776  0.733979E-07  0.192E-03    1.10       6.9  T
   4    -84.5444777 -0.112748E-06  0.484E-04    1.10      27.4  T
   5    -84.5444777 -0.754839E-08  0.269E-04    1.10      49.3  T
     SCC iter.                  ...        0 min,  0.035 sec
     gradient                   ...        0 min,  0.014 sec
 * total energy  :   -83.4409043 Eh     change       -0.9195545E-05 Eh
   gradient norm :     0.0011222 Eh/α   predicted    -0.4914981E-05 ( -46.55%)
   displ. norm   :     0.1366689 α      lambda       -0.8339896E-05
   maximum displ.:     0.0837610 α      in ANC's #5, #2, #37, ...

........................................................................
.............................. CYCLE  201 ..............................
........................................................................

 iter      E             dE          RMSdq      gap      omega  full diag
   1    -84.5441314 -0.845441E+02  0.182E-02    1.10       0.0  T
   2    -84.5441316 -0.126195E-06  0.108E-02    1.10       1.2  T
   3    -84.5441315  0.334054E-07  0.125E-03    1.11      10.6  T
   4    -84.5441316 -0.603090E-07  0.503E-04    1.10      26.3  T
   5    -84.5441316 -0.736235E-08  0.266E-04    1.10      49.8  T
     SCC iter.                  ...        0 min,  0.040 sec
     gradient                   ...        0 min,  0.009 sec
 * total energy  :   -83.4409122 Eh     change       -0.7948920E-05 Eh
   gradient norm :     0.0011924 Eh/α   predicted    -0.4207135E-05 ( -47.07%)
   displ. norm   :     0.1358939 α      lambda       -0.1095004E-04
   maximum displ.:     0.0825261 α      in ANC's #5, #2, #37, ...

........................................................................
.............................. CYCLE  202 ..............................
........................................................................

 iter      E             dE          RMSdq      gap      omega  full diag
   1    -84.5449269 -0.845449E+02  0.241E-02    1.11       0.0  T
   2    -84.5449272 -0.298783E-06  0.142E-02    1.10       1.0  T
   3    -84.5449269  0.268580E-06  0.265E-03    1.11       5.0  T
   4    -84.5449272 -0.315999E-06  0.906E-04    1.11      14.6  T
   5    -84.5449272 -0.349001E-07  0.350E-04    1.11      37.9  T
     SCC iter.                  ...        0 min,  0.039 sec
     gradient                   ...        0 min,  0.008 sec
 * total energy  :   -83.4409207 Eh     change       -0.8512355E-05 Eh
   gradient norm :     0.0016196 Eh/α   predicted    -0.5524083E-05 ( -35.11%)
   displ. norm   :     0.1096985 α      lambda       -0.7159716E-05
   maximum displ.:     0.0668120 α      in ANC's #5, #2, #35, ...

........................................................................
.............................. CYCLE  203 ..............................
........................................................................

 iter      E             dE          RMSdq      gap      omega  full diag
   1    -84.5446697 -0.845447E+02  0.154E-02    1.11       0.0  T
   2    -84.5446699 -0.194456E-06  0.917E-03    1.11       1.4  T
   3    -84.5446698  0.948196E-07  0.180E-03    1.11       7.4  T
   4    -84.5446700 -0.115887E-06  0.589E-04    1.11      22.5  T
   5    -84.5446700 -0.146461E-07  0.219E-04    1.11      60.6  T
     SCC iter.                  ...        0 min,  0.043 sec
     gradient                   ...        0 min,  0.006 sec
 * total energy  :   -83.4409273 Eh     change       -0.6556501E-05 Eh
   gradient norm :     0.0007256 Eh/α   predicted    -0.3603941E-05 ( -45.03%)
   displ. norm   :     0.0541029 α      lambda       -0.4378629E-05
   maximum displ.:     0.0256941 α      in ANC's #2, #5, #8, ...

........................................................................
.............................. CYCLE  204 ..............................
........................................................................

 iter      E             dE          RMSdq      gap      omega  full diag
   1    -84.5446268 -0.845446E+02  0.105E-02    1.11       0.0  T
   2    -84.5446269 -0.854414E-07  0.628E-03    1.11       2.1  T
   3    -84.5446269  0.671803E-07  0.149E-03    1.11       8.9  T
   4    -84.5446269 -0.863526E-07  0.470E-04    1.11      28.2  T
   5    -84.5446270 -0.748416E-08  0.208E-04    1.11      63.6  T
     SCC iter.                  ...        0 min,  0.046 sec
     gradient                   ...        0 min,  0.004 sec
 * total energy  :   -83.4409312 Eh     change       -0.3942019E-05 Eh
   gradient norm :     0.0007616 Eh/α   predicted    -0.2196612E-05 ( -44.28%)
   displ. norm   :     0.0446579 α      lambda       -0.2553002E-05
   maximum displ.:     0.0210123 α      in ANC's #2, #5, #8, ...

........................................................................
.............................. CYCLE  205 ..............................
........................................................................

 iter      E             dE          RMSdq      gap      omega  full diag
   1    -84.5445249 -0.845445E+02  0.716E-03    1.11       0.0  T
   2    -84.5445249 -0.445286E-07  0.420E-03    1.11       3.2  T
   3    -84.5445249  0.876060E-07  0.132E-03    1.11      10.0  T
   4    -84.5445250 -0.104706E-06  0.214E-04    1.11      61.9  T
   5    -84.5445250 -0.150725E-08  0.930E-05    1.11     142.4  T
     SCC iter.                  ...        0 min,  0.092 sec
     gradient                   ...        0 min,  0.014 sec
 * total energy  :   -83.4409337 Eh     change       -0.2508377E-05 Eh
   gradient norm :     0.0005576 Eh/α   predicted    -0.1280371E-05 ( -48.96%)
   displ. norm   :     0.0386034 α      lambda       -0.1705346E-05
   maximum displ.:     0.0182416 α      in ANC's #2, #8, #5, ...

........................................................................
.............................. CYCLE  206 ..............................
........................................................................

 iter      E             dE          RMSdq      gap      omega  full diag
   1    -84.5444876 -0.845445E+02  0.590E-03    1.11       0.0  T
   2    -84.5444876 -0.322525E-07  0.348E-03    1.11       3.8  T
   3    -84.5444875  0.477605E-07  0.992E-04    1.11      13.3  T
   4    -84.5444876 -0.588087E-07  0.211E-04    1.11      62.7  T
     SCC iter.                  ...        0 min,  0.046 sec
     gradient                   ...        0 min,  0.003 sec
 * total energy  :   -83.4409355 Eh     change       -0.1737429E-05 Eh
   gradient norm :     0.0003964 Eh/α   predicted    -0.8550072E-06 ( -50.79%)
   displ. norm   :     0.0332464 α      lambda       -0.1252233E-05
   maximum displ.:     0.0162607 α      in ANC's #2, #8, #5, ...

........................................................................
.............................. CYCLE  207 ..............................
........................................................................

 iter      E             dE          RMSdq      gap      omega  full diag
   1    -84.5445329 -0.845445E+02  0.452E-03    1.11       0.0  T
   2    -84.5445329 -0.285951E-07  0.268E-03    1.11       4.9  T
   3    -84.5445329  0.540154E-07  0.114E-03    1.11      11.6  T
   4    -84.5445329 -0.626498E-07  0.287E-04    1.11      46.2  T
   5    -84.5445329 -0.354832E-08  0.100E-04    1.11     131.8  T
     SCC iter.                  ...        0 min,  0.039 sec
     gradient                   ...        0 min,  0.016 sec
 * total energy  :   -83.4409367 Eh     change       -0.1266731E-05 Eh
   gradient norm :     0.0003629 Eh/α   predicted    -0.6307906E-06 ( -50.20%)
   displ. norm   :     0.0274287 α      lambda       -0.7855276E-06
   maximum displ.:     0.0143868 α      in ANC's #2, #5, #8, ...

........................................................................
.............................. CYCLE  208 ..............................
........................................................................

 iter      E             dE          RMSdq      gap      omega  full diag
   1    -84.5446004 -0.845446E+02  0.374E-03    1.11       0.0  T
   2    -84.5446004 -0.206990E-07  0.222E-03    1.11       6.0  T
   3    -84.5446004  0.311695E-07  0.906E-04    1.11      14.6  T
   4    -84.5446004 -0.361415E-07  0.258E-04    1.11      51.4  T
     SCC iter.                  ...        0 min,  0.035 sec
     gradient                   ...        0 min,  0.010 sec
 * total energy  :   -83.4409375 Eh     change       -0.8148516E-06 Eh
   gradient norm :     0.0002898 Eh/α   predicted    -0.3972689E-06 ( -51.25%)
   displ. norm   :     0.0223649 α      lambda       -0.6094949E-06
   maximum displ.:     0.0125370 α      in ANC's #2, #9, #5, ...

   *** GEOMETRY OPTIMIZATION CONVERGED AFTER 208 ITERATIONS ***

------------------------------------------------------------------------
 total energy gain   :        -0.1069232 Eh      -67.0953 kcal/mol
 total RMSD          :         3.5896364 a0        1.8996 Å
 total power (kW/mol):        -1.3496482 (step)  -18.4640 (real)
------------------------------------------------------------------------

 ANCopt (total)                0 d,  0 h,  0 min, 15.204 sec
 optimizer setup                ...        0 min,  0.001 sec (  0.007%)
 model hessian                  ...        0 min,  0.183 sec (  1.204%)
 ANC generation                 ...        0 min,  0.084 sec (  0.552%)
 coordinate transformation      ...        0 min,  0.020 sec (  0.132%)
 single point calculation       ...        0 min, 14.797 sec ( 97.323%)
 optimization log               ...        0 min,  0.065 sec (  0.428%)
 hessian update                 ...        0 min,  0.015 sec (  0.099%)
 rational function              ...        0 min,  0.030 sec (  0.197%)

================
 final structure:
================
57
 xtb: 6.7.1pre (5071a88)
N           -0.26863918720565        0.07573051825014       -1.15767360040515
C            1.03845982636053        0.18935114112088       -0.74525792168573
C            1.51747823363129        1.36384538757904       -0.16112658828520
C            2.86736698647154        1.52591886923563        0.07944885249366
C            3.77742096972630        0.52048303973468       -0.22129256043386
C            3.29046352077405       -0.67486914039004       -0.73761811422125
C            1.94769569265820       -0.83955790767617       -1.00131176105923
C            5.25489490759596        0.74816262884241       -0.08859617421514
C            5.81726509711961        1.19186272662083       -1.45811032663093
C            2.35188442057606        0.57983337760480       -3.72650053750229
C            2.75287556582546        1.93601642177766       -3.44845816357037
C            1.90385715274541        2.83386623211625       -2.93571397707448
C            2.26296468091146        4.22453836756822       -2.57269053003527
C            1.35037563490872        5.24482304406535       -3.26626110816632
C            1.69981440143178        6.66827363113910       -2.85321141454268
O            3.11054568035658       -0.31200299276704       -4.06872099716157
O           -0.63483150931555       -2.50407255126929       -2.59187210310663
H           -0.55774647324903       -0.85082494443451       -1.44668069486100
H           -0.95801680038953        0.60112851284660       -0.64544925778701
H            0.82176330528210        2.15282946420175        0.09004072280476
H            3.22461565519731        2.45160313645423        0.50882344805070
H            3.97557480157752       -1.48741560447749       -0.93263848159234
H            1.57634131381405       -1.76942345926495       -1.40233657221070
H            5.76389707517188       -0.16223878124786        0.22781532624006
H            5.45849456561179        1.53737606775296        0.63658488350207
H            5.17875756659691        1.99553392839816       -1.83811915002422
H            5.09384358245233        0.23021448804428       -3.18538789261470
H            7.94846507959242       -0.00888246222783       -0.82730946148659
H            1.27547554335794        0.38088222376930       -3.60903849286358
H            3.78542661537178        2.19713988204461       -3.64014877041988
H            0.87555592268530        2.54311534141109       -2.76103046006477
H            2.14293611836311        4.33530845502077       -1.49083299647742
H            3.30584849742019        4.42935575352289       -2.81972513515820
H            1.45768702809568        5.14078042398412       -4.34786341423969
H            0.30992390219524        5.03309549028362       -3.01143878559721
H            1.05835771081322        7.38042432101194       -3.36633899897562
H            1.57037356941667        6.79924761129579       -1.78131718495214
H            2.73331738893980        6.89552609147067       -3.10313038229346
H            0.17952349128734       -2.58784928557456       -3.12187384580949
H           -1.33621475333287       -2.87815582445806       -3.12665100769708
O            1.73218842406848       -2.75629521441420       -4.02062165195647
H            2.22234286235570       -1.92069074029770       -4.11266834371124
H            2.34097970517273       -3.38376048747296       -3.62609274373892
N            5.76763167058741        0.11777275306193       -2.44085977649987
C            7.21155163370888        1.82583337308887       -1.29130459051349
O            7.36798616974344        3.01920888704867       -1.47759353627600
C            5.94272342019928       -2.04546796774311       -3.45136063181680
C            6.30245291803528       -1.11155415695029       -2.31847175361845
O            7.04562291034809       -1.45194180993390       -1.40901219854272
H            6.05229324807740       -3.07428020510961       -3.11908276956750
H            6.63643617059758       -1.87724966810902       -4.27369810243390
H            4.93276235767802       -1.86485925651030       -3.80621643117874
N            8.16807602156288        0.98508239861294       -0.88798976849473
C            9.52845640738361        1.40807976313733       -0.67060897033572
H           10.20469150540048        0.90192138003591       -1.36230713552043
H            9.83434938494446        1.18287773529928        0.35233258551268
H            9.57836240932510        2.48334959250766       -0.83643055104384
 
 Bond Distances (Angstroems)
 ---------------------------
N1-C2=1.3753         N1-H18=1.0127        N1-H19=1.0068        C2-N1=1.3753         C2-C3=1.3965         C2-C7=1.3968         
C3-C2=1.3965         C3-C4=1.3807         C3-H20=1.0815        C4-C3=1.3807         C4-C5=1.3891         C4-H21=1.0811        
C5-C4=1.3891         C5-C6=1.3902         C5-C8=1.5008         C6-C5=1.3902         C6-C7=1.3783         C6-H22=1.0806        
C7-C2=1.3968         C7-C6=1.3783         C7-H23=1.0786        C8-C5=1.5008         C8-C9=1.5455         C8-H24=1.0900        
C8-H25=1.0910        C9-C8=1.5455         C9-H26=1.0945        C9-N44=1.4567        C9-C45=1.5407        C10-C11=1.4413       
C10-O16=1.2199       C10-H29=1.1009       C11-C10=1.4413       C11-C12=1.3379       C11-H30=1.0822       C12-C11=1.3379       
C12-C13=1.4815       C12-H31=1.0828       C13-C12=1.4815       C13-C14=1.5345       C13-H32=1.0941       C13-H33=1.0911       
C14-C13=1.5345       C14-C15=1.5228       C14-H34=1.0919       C14-H35=1.0919       C15-C14=1.5228       C15-H36=1.0872       
C15-H37=1.0876       C15-H38=1.0873       O16-C10=1.2199       O17-H39=0.9752       O17-H40=0.9581       H18-N1=1.0127        
H19-N1=1.0068        H20-C3=1.0815        H21-C4=1.0811        H22-C6=1.0806        H23-C7=1.0786        H24-C8=1.0900        
H25-C8=1.0910        H26-C9=1.0945        H27-N44=1.0104       H28-N53=1.0197       H29-C10=1.1009       H30-C11=1.0822       
H31-C12=1.0828       H32-C13=1.0941       H33-C13=1.0911       H34-C14=1.0919       H35-C14=1.0919       H36-C15=1.0872       
H37-C15=1.0876       H38-C15=1.0873       H39-O17=0.9752       H40-O17=0.9581       O41-H42=0.9731       O41-H43=0.9592       
H42-O41=0.9731       H43-O41=0.9592       N44-C9=1.4567        N44-H27=1.0104       N44-C48=1.3462       C45-C9=1.5407        
C45-O46=1.2179       C45-N53=1.3358       O46-C45=1.2179       C47-C48=1.5116       C47-H50=1.0867       C47-H51=1.0889       
C47-H52=1.0856       C48-N44=1.3462       C48-C47=1.5116       C48-O49=1.2228       O49-C48=1.2228       H50-C47=1.0867       
H51-C47=1.0889       H52-C47=1.0856       N53-H28=1.0197       N53-C45=1.3358       N53-C54=1.4411       C54-N53=1.4411       
C54-H55=1.0918       C54-H56=1.0912       C54-H57=1.0891       H55-C54=1.0918       H56-C54=1.0912       H57-C54=1.0891       
 C  H  Rav=1.0882 sigma=0.0052  Rmin=1.0786  Rmax=1.1009    23
 C  C  Rav=1.4499 sigma=0.0696  Rmin=1.3379  Rmax=1.5455    15
 N  H  Rav=1.0124 sigma=0.0047  Rmin=1.0068  Rmax=1.0197     4
 N  C  Rav=1.3910 sigma=0.0492  Rmin=1.3358  Rmax=1.4567     5
 O  H  Rav=0.9664 sigma=0.0078  Rmin=0.9581  Rmax=0.9752     4
 O  C  Rav=1.2202 sigma=0.0020  Rmin=1.2179  Rmax=1.2228     3
 
 selected bond angles (degree)
 --------------------
H18-N1-C2=115.62               H19-N1-C2=117.07               H19-N1-H18=115.29              C3-C2-N1=121.39                
C7-C2-N1=120.19                C7-C2-C3=118.23                C4-C3-C2=120.46                H20-C3-C2=119.34               
H20-C3-C4=120.19               C5-C4-C3=121.19                H21-C4-C3=119.52               H21-C4-C5=119.29               
C6-C5-C4=118.25                C8-C5-C4=121.07                C8-C5-C6=120.54                C7-C6-C5=121.00                
H22-C6-C5=119.44               H22-C6-C7=119.56               C6-C7-C2=120.74                H23-C7-C2=118.63               
H23-C7-C6=120.63               C9-C8-C5=108.87                H24-C8-C5=111.02               H24-C8-C9=109.09               
H25-C8-C5=110.62               H25-C8-C9=108.27               H25-C8-H24=108.91              H26-C9-C8=107.83               
N44-C9-C8=111.95               N44-C9-H26=106.70              C45-C9-C8=110.58               C45-C9-H26=105.27              
C45-C9-N44=114.03              O16-C10-C11=124.68             H29-C10-C11=114.93             H29-C10-O16=120.39             
 
 selected dihedral angles (degree)
 ---------------------------------
C3-C2-N1-H18=188.35           C3-C2-N1-H19=329.35           C7-C2-N1-H18= 13.47           C7-C2-N1-H19=154.48           
C4-C3-C2-N1=188.84            C4-C3-C2-C7=  3.81            H20-C3-C2-N1=  8.04           H20-C3-C2-C7=183.01           
C5-C4-C3-C2=358.48            C5-C4-C3-H20=179.28           H21-C4-C3-C2=178.43           H21-C4-C3-H20=359.23          
C6-C5-C4-C3=358.17            C6-C5-C4-H21=178.22           C8-C5-C4-C3=173.80            C8-C5-C4-H21=353.85           
C7-C6-C5-C4=  2.85            C7-C6-C5-C8=187.21            H22-C6-C5-C4=183.00           H22-C6-C5-C8=  7.35           
C6-C7-C2-N1=172.24            C6-C7-C2-C3=357.20            H23-C7-C2-N1=351.74           H23-C7-C2-C3=176.70           
C2-C7-C6-C5=359.46            C2-C7-C6-H22=179.32           H23-C7-C6-C5=179.97           H23-C7-C6-H22=359.83          
C9-C8-C5-C4=266.07            C9-C8-C5-C6= 81.59            H24-C8-C5-C4=145.96           H24-C8-C5-C6=321.48           
H25-C8-C5-C4= 24.92           H25-C8-C5-C6=200.45           H26-C9-C8-C5= 48.86           H26-C9-C8-H24=170.16          
H26-C9-C8-H25=288.54          N44-C9-C8-C5=291.80           N44-C9-C8-H24= 53.09          N44-C9-C8-H25=171.48          
C45-C9-C8-C5=163.46           C45-C9-C8-H24=284.75          C45-C9-C8-H25= 43.14          
 
 CMA Distance (Angstroems)
 ---------------------------
R(CMA):  3.9710
           -------------------------------------------------
          |                Final Singlepoint                |
           -------------------------------------------------

          ...................................................
          :                      SETUP                      :
          :.................................................:
          :  # basis functions                 135          :
          :  # atomic orbitals                 135          :
          :  # shells                           83          :
          :  # electrons                       148          :
          :  max. iterations                   250          :
          :  Hamiltonian                  GFN2-xTB          :
          :  restarted?                      false          :
          :  GBSA solvation                  false          :
          :  PC potential                    false          :
          :  electronic temp.          300.0000000     K    :
          :  accuracy                    1.0000000          :
          :  -> integral cutoff          0.2500000E+02      :
          :  -> integral neglect         0.1000000E-07      :
          :  -> SCF convergence          0.1000000E-05 Eh   :
          :  -> wf. convergence          0.1000000E-03 e    :
          :  Broyden damping             0.4000000          :
          :  net charge                          0          :
          :  unpaired electrons                  0          :
          ...................................................

 iter      E             dE          RMSdq      gap      omega  full diag
   1    -84.5446004 -0.845446E+02  0.866E-05    1.11       0.0  T
   2    -84.5446004 -0.360387E-10  0.568E-05    1.11     233.0  T
   3    -84.5446004 -0.454747E-10  0.380E-05    1.11     348.7  T

   *** convergence criteria satisfied after 3 iterations ***

         #    Occupation            Energy/Eh            Energy/eV
      -------------------------------------------------------------
         1        2.0000           -0.7288939             -19.8342
       ...           ...                  ...                  ...
        68        2.0000           -0.4141321             -11.2691
        69        2.0000           -0.4112446             -11.1905
        70        2.0000           -0.3958722             -10.7722
        71        2.0000           -0.3947706             -10.7423
        72        2.0000           -0.3870030             -10.5309
        73        2.0000           -0.3760287             -10.2323
        74        2.0000           -0.3506552              -9.5418 (HOMO)
        75                         -0.3099031              -8.4329 (LUMO)
        76                         -0.2127989              -5.7906
        77                         -0.2115388              -5.7563
        78                         -0.2042007              -5.5566
        79                         -0.1924362              -5.2365
       ...                                ...                  ...
       135                          0.6695568              18.2196
      -------------------------------------------------------------
                  HL-Gap            0.0407521 Eh            1.1089 eV
             Fermi-level           -0.3302791 Eh           -8.9874 eV

 SCC (total)                   0 d,  0 h,  0 min,  0.036 sec
 SCC setup                      ...        0 min,  0.000 sec (  0.000%)
 Dispersion                     ...        0 min,  0.001 sec (  2.778%)
 classical contributions        ...        0 min,  0.000 sec (  0.000%)
 integral evaluation            ...        0 min,  0.001 sec (  2.778%)
 iterations                     ...        0 min,  0.027 sec ( 75.000%)
 molecular gradient             ...        0 min,  0.007 sec ( 19.444%)
 printout                       ...        0 min,  0.000 sec (  0.000%)

         :::::::::::::::::::::::::::::::::::::::::::::::::::::
         ::                     SUMMARY                     ::
         :::::::::::::::::::::::::::::::::::::::::::::::::::::
         :: total energy             -83.440937541160 Eh    ::
         :: gradient norm              0.000291421520 Eh/a0 ::
         :: HOMO-LUMO gap              1.108920839437 eV    ::
         ::.................................................::
         :: SCC energy               -84.542831033333 Eh    ::
         :: -> isotropic ES            0.177587766830 Eh    ::
         :: -> anisotropic ES         -0.004734820873 Eh    ::
         :: -> anisotropic XC          0.030259343386 Eh    ::
         :: -> dispersion             -0.059047471956 Eh    ::
         :: repulsion energy           1.101893492173 Eh    ::
         :: add. restraining           0.000000000000 Eh    ::
         :: total charge              -0.000000000000 e     ::
         :::::::::::::::::::::::::::::::::::::::::::::::::::::

           -------------------------------------------------
          |                Property Printout                |
           -------------------------------------------------

    * Orbital Energies and Occupations

         #    Occupation            Energy/Eh            Energy/eV
      -------------------------------------------------------------
         1        2.0000           -0.7288939             -19.8342
       ...           ...                  ...                  ...
        62        2.0000           -0.4451687             -12.1137
        63        2.0000           -0.4353627             -11.8468
        64        2.0000           -0.4316377             -11.7455
        65        2.0000           -0.4288039             -11.6683
        66        2.0000           -0.4271432             -11.6232
        67        2.0000           -0.4195069             -11.4154
        68        2.0000           -0.4141321             -11.2691
        69        2.0000           -0.4112446             -11.1905
        70        2.0000           -0.3958722             -10.7722
        71        2.0000           -0.3947706             -10.7423
        72        2.0000           -0.3870030             -10.5309
        73        2.0000           -0.3760287             -10.2323
        74        2.0000           -0.3506552              -9.5418 (HOMO)
        75                         -0.3099031              -8.4329 (LUMO)
        76                         -0.2127989              -5.7906
        77                         -0.2115388              -5.7563
        78                         -0.2042007              -5.5566
        79                         -0.1924362              -5.2365
        80                         -0.1911884              -5.2025
        81                         -0.0817994              -2.2259
        82                         -0.0013929              -0.0379
        83                          0.0264815               0.7206
        84                          0.0294467               0.8013
        85                          0.0580117               1.5786
       ...                                ...                  ...
       135                          0.6695568              18.2196
      -------------------------------------------------------------
                  HL-Gap            0.0407521 Eh            1.1089 eV
             Fermi-level           -0.3302791 Eh           -8.9874 eV

     #   Z          covCN         q      C6AA      α(0)
     1   7 N        2.641    -0.293    27.557     7.796
     2   6 C        2.899     0.075    26.330     8.413
     3   6 C        2.922    -0.069    29.732     8.942
     4   6 C        2.924    -0.045    29.112     8.848
     5   6 C        2.972    -0.010    28.270     8.721
     6   6 C        2.924    -0.041    29.031     8.836
     7   6 C        2.924    -0.071    29.780     8.949
     8   6 C        3.809    -0.069    21.815     6.649
     9   6 C        3.791     0.019    20.258     6.410
    10   6 C        2.769     0.208    23.589     7.954
    11   6 C        2.891    -0.070    29.737     8.941
    12   6 C        2.899     0.003    27.963     8.670
    13   6 C        3.807    -0.063    21.711     6.633
    14   6 C        3.802    -0.050    21.469     6.597
    15   6 C        3.752    -0.107    22.605     6.780
    16   8 O        0.857    -0.390    21.485     6.215
    17   8 O        1.609    -0.604    25.292     6.788
    18   1 H        0.860     0.199     1.111     1.651
    19   1 H        0.860     0.151     1.394     1.850
    20   1 H        0.925     0.017     2.772     2.604
    21   1 H        0.926     0.024     2.680     2.560
    22   1 H        0.926     0.026     2.638     2.540
    23   1 H        0.926     0.046     2.364     2.404
    24   1 H        0.925     0.060     2.194     2.316
    25   1 H        0.924     0.044     2.399     2.422
    26   1 H        0.924     0.056     2.243     2.342
    27   1 H        0.860     0.195     1.130     1.666
    28   1 H        0.860     0.220     1.010     1.574
    29   1 H        0.923     0.038     2.479     2.462
    30   1 H        0.925     0.065     2.140     2.288
    31   1 H        0.925     0.065     2.136     2.286
    32   1 H        0.924     0.072     2.064     2.247
    33   1 H        0.924     0.057     2.231     2.336
    34   1 H        0.924     0.037     2.490     2.468
    35   1 H        0.924     0.038     2.471     2.458
    36   1 H        0.925     0.041     2.429     2.437
    37   1 H        0.925     0.040     2.445     2.445
    38   1 H        0.925     0.043     2.409     2.427
    39   1 H        0.804     0.316     0.676     1.291
    40   1 H        0.806     0.271     0.814     1.417
    41   8 O        1.609    -0.598    25.136     6.767
    42   1 H        0.804     0.317     0.671     1.287
    43   1 H        0.805     0.283     0.773     1.381
    44   7 N        2.688    -0.188    25.067     7.436
    45   6 C        2.753     0.264    22.539     7.774
    46   8 O        0.858    -0.455    22.806     6.403
    47   6 C        3.758    -0.148    23.411     6.898
    48   6 C        2.745     0.281    22.235     7.721
    49   8 O        0.858    -0.459    22.903     6.416
    50   1 H        0.925     0.068     2.111     2.272
    51   1 H        0.925     0.065     2.139     2.287
    52   1 H        0.925     0.068     2.110     2.272
    53   7 N        2.684    -0.180    24.905     7.412
    54   6 C        3.692    -0.041    21.489     6.633
    55   1 H        0.924     0.048     2.348     2.396
    56   1 H        0.924     0.050     2.322     2.383
    57   1 H        0.925     0.079     1.993     2.208

 Mol. C6AA /au·bohr⁶  :      29500.018994
 Mol. C8AA /au·bohr⁸  :     657457.498078
 Mol. α(0) /au        :        262.578166


Wiberg/Mayer (AO) data.
largest (>0.10) Wiberg bond orders for each atom

 ---------------------------------------------------------------------------
     #   Z sym  total        # sym  WBO       # sym  WBO       # sym  WBO
 ---------------------------------------------------------------------------
     1   7 N    3.254 --     2 C    1.174    19 H    0.956    18 H    0.923
     2   6 C    3.973 --     3 C    1.341     7 C    1.334     1 N    1.174
     3   6 C    3.986 --     4 C    1.461     2 C    1.341    20 H    0.969
     4   6 C    3.991 --     3 C    1.461     5 C    1.401    21 H    0.969
     5   6 C    3.986 --     4 C    1.401     6 C    1.393     8 C    1.011
     6   6 C    3.991 --     7 C    1.468     5 C    1.393    22 H    0.968
     7   6 C    3.987 --     6 C    1.468     2 C    1.334    23 H    0.963
     8   6 C    3.992 --     5 C    1.011    25 H    0.971    24 H    0.967
                             9 C    0.956
     9   6 C    3.962 --    44 N    0.978    26 H    0.963     8 C    0.956
                            45 C    0.923
    10   6 C    3.918 --    16 O    1.766    11 C    1.132    29 H    0.934
    11   6 C    3.987 --    12 C    1.772    10 C    1.132    30 H    0.954
    12   6 C    3.971 --    11 C    1.772    13 C    1.056    31 H    0.959
                            16 O    0.100
    13   6 C    3.994 --    12 C    1.056    14 C    0.979    33 H    0.972
                            32 H    0.939
    14   6 C    3.990 --    15 C    1.019    34 H    0.979    13 C    0.979
                            35 H    0.978
    15   6 C    3.994 --    14 C    1.019    37 H    0.987    38 H    0.987
                            36 H    0.985
    16   8 O    2.053 --    10 C    1.766    12 C    0.100
    17   8 O    1.832 --    40 H    0.923    39 H    0.853
    18   1 H    0.960 --     1 N    0.923
    19   1 H    0.977 --     1 N    0.956
    20   1 H    0.999 --     3 C    0.969
    21   1 H    0.999 --     4 C    0.969
    22   1 H    0.999 --     6 C    0.968
    23   1 H    0.998 --     7 C    0.963
    24   1 H    0.996 --     8 C    0.967
    25   1 H    0.997 --     8 C    0.971
    26   1 H    0.997 --     9 C    0.963
    27   1 H    0.962 --    44 N    0.922
    28   1 H    0.952 --    53 N    0.878
    29   1 H    0.999 --    10 C    0.934
    30   1 H    0.996 --    11 C    0.954
    31   1 H    0.996 --    12 C    0.959
    32   1 H    0.989 --    13 C    0.939
    33   1 H    0.997 --    13 C    0.972
    34   1 H    0.998 --    14 C    0.979
    35   1 H    0.999 --    14 C    0.978
    36   1 H    0.997 --    15 C    0.985
    37   1 H    0.998 --    15 C    0.987
    38   1 H    0.998 --    15 C    0.987
    39   1 H    0.900 --    17 O    0.853
    40   1 H    0.926 --    17 O    0.923
    41   8 O    1.861 --    43 H    0.917    42 H    0.857
    42   1 H    0.899 --    41 O    0.857
    43   1 H    0.920 --    41 O    0.917
    44   7 N    3.454 --    48 C    1.280     9 C    0.978    27 H    0.922
                            49 O    0.188
    45   6 C    3.958 --    46 O    1.655    53 N    1.310     9 C    0.923
    46   8 O    1.985 --    45 C    1.655    53 N    0.213
    47   6 C    3.992 --    48 C    0.986    50 H    0.980    52 H    0.973
                            51 H    0.962
    48   6 C    3.948 --    49 O    1.629    44 N    1.280    47 C    0.986
    49   8 O    2.001 --    48 C    1.629    44 N    0.188
    50   1 H    0.995 --    47 C    0.980
    51   1 H    0.996 --    47 C    0.962
    52   1 H    0.995 --    47 C    0.973
    53   7 N    3.473 --    45 C    1.310    54 C    1.007    28 H    0.878
                            46 O    0.213
    54   6 C    3.968 --    53 N    1.007    57 H    0.977    56 H    0.977
                            55 H    0.977
    55   1 H    0.998 --    54 C    0.977
    56   1 H    0.997 --    54 C    0.977
    57   1 H    0.994 --    54 C    0.977
 ---------------------------------------------------------------------------

Topologies differ in total number of bonds
Writing topology from bond orders to xtbtopo.mol

molecular dipole:
                 x           y           z       tot (Debye)
 q only:       -1.390       0.675      -0.563
   full:       -1.667       0.367      -0.697       4.686
molecular quadrupole (traceless):
                xx          xy          yy          xz          yz          zz
 q only:      -18.639      -9.761       9.172       3.264      -3.884       9.466
  q+dip:      -21.702     -15.984      10.279       0.488       0.832      11.422
   full:      -23.250     -15.410       8.583       0.483      -0.711      14.668

           -------------------------------------------------
          |                Geometry Summary                 |
           -------------------------------------------------

      molecular mass/u    :      369.4565437
   center of mass at/Å    :        3.7878088       0.8035456      -1.9406120
  moments of inertia/u·Å² :        0.2532486E+04   0.3437163E+04   0.4816274E+04
rotational constants/cm⁻¹ :        0.6656555E-02   0.4904519E-02   0.3500140E-02

 * 49 selected distances

     #   Z          #   Z                                           value/Å
     1   7 N        2   6 C                                       1.3753198
     2   6 C        3   6 C                                       1.3964617
     3   6 C        4   6 C                                       1.3807043
     4   6 C        5   6 C                                       1.3890807
     5   6 C        6   6 C                                       1.3901751
     2   6 C        7   6 C                                       1.3967561
     6   6 C        7   6 C                                       1.3782897
    11   6 C       12   6 C                                       1.3378615
    12   6 C       13   6 C                                       1.4814566
    13   6 C       14   6 C                                       1.5345488 (max)
    14   6 C       15   6 C                                       1.5228032
    10   6 C       16   8 O                                       1.2198582
     1   7 N       18   1 H                                       1.0127257
     1   7 N       19   1 H                                       1.0068061
     3   6 C       20   1 H                                       1.0814806
     4   6 C       21   1 H                                       1.0811479
     6   6 C       22   1 H                                       1.0805750
     7   6 C       23   1 H                                       1.0785987
     8   6 C       24   1 H                                       1.0899681
     8   6 C       25   1 H                                       1.0909622
     9   6 C       26   1 H                                       1.0945256
    10   6 C       29   1 H                                       1.1009247
    11   6 C       30   1 H                                       1.0821703
    12   6 C       31   1 H                                       1.0827992
    13   6 C       32   1 H                                       1.0941174
    13   6 C       33   1 H                                       1.0911385
    14   6 C       34   1 H                                       1.0918811
    14   6 C       35   1 H                                       1.0919263
    15   6 C       36   1 H                                       1.0871639
    15   6 C       37   1 H                                       1.0875967
    15   6 C       38   1 H                                       1.0873048
    17   8 O       39   1 H                                       0.9752408
    17   8 O       40   1 H                                       0.9580529 (min)
    41   8 O       42   1 H                                       0.9731182
    41   8 O       43   1 H                                       0.9591625
     9   6 C       44   7 N                                       1.4566845
    27   1 H       44   7 N                                       1.0104236
    45   6 C       46   8 O                                       1.2179166
    44   7 N       48   6 C                                       1.3462012
    48   6 C       49   8 O                                       1.2228174
    47   6 C       50   1 H                                       1.0866779
    47   6 C       51   1 H                                       1.0889325
    47   6 C       52   1 H                                       1.0856167
    28   1 H       53   7 N                                       1.0197438
    45   6 C       53   7 N                                       1.3358384
    53   7 N       54   6 C                                       1.4411164
    54   6 C       55   1 H                                       1.0917586
    54   6 C       56   1 H                                       1.0911902
    54   6 C       57   1 H                                       1.0891248

 * 6 distinct bonds (by element types)

   Z      Z             #   av. dist./Å        max./Å        min./Å
   1 H    6 C          23     1.0881557     1.1009247     1.0785987
   6 C    6 C          10     1.4208138     1.5345488     1.3378615
   1 H    7 N           4     1.0124248     1.0197438     1.0068061
   6 C    7 N           5     1.3910320     1.4566845     1.3358384
   1 H    8 O           4     0.9663936     0.9752408     0.9580529
   6 C    8 O           3     1.2201974     1.2228174     1.2179166


optimized geometry written to: xtbopt.xyz


           -------------------------------------------------
          | TOTAL ENERGY              -83.440937541160 Eh   |
          | GRADIENT NORM               0.000291421520 Eh/α |
          | HOMO-LUMO GAP               1.108920839437 eV   |
           -------------------------------------------------

------------------------------------------------------------------------
 * finished run on 2026/08/20 at 20:29:34.004     
------------------------------------------------------------------------
 total:
 * wall-time:     0 d,  0 h,  0 min, 15.371 sec
 *  cpu-time:     0 d,  0 h,  0 min, 31.641 sec
 * ratio c/w:     2.058 speedup
 SCF:
 * wall-time:     0 d,  0 h,  0 min,  0.104 sec
 *  cpu-time:     0 d,  0 h,  0 min,  0.172 sec
 * ratio c/w:     1.653 speedup
 ANC optimizer:
 * wall-time:     0 d,  0 h,  0 min, 15.243 sec
 *  cpu-time:     0 d,  0 h,  0 min, 31.453 sec
 * ratio c/w:     2.063 speedup



===== STDERR =====

normal termination of xtb
