      -----------------------------------------------------------      
     |                   =====================                   |     
     |                           x T B                           |     
     |                   =====================                   |     
     |                         S. Grimme                         |     
     |          Mulliken Center for Theoretical Chemistry        |     
     |                    University of Bonn                     |     
      -----------------------------------------------------------      

   * xtb version 6.7.1pre (5071a88) compiled by 'Marcel@Raven' on 2024-07-23

   xtb is free software: you can redistribute it and/or modify it under
   the terms of the GNU Lesser General Public License as published by
   the Free Software Foundation, either version 3 of the License, or
   (at your option) any later version.
   
   xtb is distributed in the hope that it will be useful,
   but WITHOUT ANY WARRANTY; without even the implied warranty of
   MERCHANTABILITY or FITNESS FOR A PARTICULAR PURPOSE.  See the
   GNU Lesser General Public License for more details.
   
   Cite this work as:
   * C. Bannwarth, E. Caldeweyher, S. Ehlert, A. Hansen, P. Pracht,
     J. Seibert, S. Spicher, S. Grimme, WIREs Comput. Mol. Sci., 2020, 11,
     e01493. DOI: 10.1002/wcms.1493
   
   for GFN2-xTB:
   * C. Bannwarth, S. Ehlert and S. Grimme., J. Chem. Theory Comput., 2019,
     15, 1652-1671. DOI: 10.1021/acs.jctc.8b01176
   for GFN1-xTB:
   * S. Grimme, C. Bannwarth, P. Shushkov, J. Chem. Theory Comput., 2017,
     13, 1989-2009. DOI: 10.1021/acs.jctc.7b00118
   for GFN0-xTB:
   * P. Pracht, E. Caldeweyher, S. Ehlert, S. Grimme, ChemRxiv, 2019, preprint.
     DOI: 10.26434/chemrxiv.8326202.v1
   for GFN-FF:
   * S. Spicher and S. Grimme, Angew. Chem. Int. Ed., 2020, 59, 15665-15673.
     DOI: 10.1002/anie.202004239
   
   for ALPB and GBSA implicit solvation:
   * S. Ehlert, M. Stahn, S. Spicher, S. Grimme, J. Chem. Theory Comput.,
     2021, 17, 4250-4261. DOI: 10.1021/acs.jctc.1c00471
   
   for ddCOSMO and CPCM-X implicit solvation:
   * M. Stahn, S. Ehlert, S. Grimme, J. Phys. Chem. A,
     2023, XX, XXXX-XXXX. DOI: 10.1021/acs.jpca.3c04382
   
   for DFT-D4:
   * E. Caldeweyher, C. Bannwarth and S. Grimme, J. Chem. Phys., 2017,
     147, 034112. DOI: 10.1063/1.4993215
   * E. Caldeweyher, S. Ehlert, A. Hansen, H. Neugebauer, S. Spicher,
     C. Bannwarth and S. Grimme, J. Chem. Phys., 2019, 150, 154122.
     DOI: 10.1063/1.5090222
   * E. Caldeweyher, J.-M. Mewes, S. Ehlert and S. Grimme, Phys. Chem. Chem. Phys.
     2020, 22, 8499-8512. DOI: 10.1039/D0CP00502A
   
   for sTDA-xTB:
   * S. Grimme and C. Bannwarth, J. Chem. Phys., 2016, 145, 054103.
     DOI: 10.1063/1.4959605
   
   in the mass-spec context:
   * V. Asgeirsson, C. Bauer and S. Grimme, Chem. Sci., 2017, 8, 4879.
     DOI: 10.1039/c7sc00601b
   * J. Koopman and S. Grimme, ACS Omega 2019, 4, 12, 15120-15133.
     DOI: 10.1021/acsomega.9b02011
   
   for metadynamics refer to:
   * S. Grimme, J. Chem. Theory Comput., 2019, 155, 2847-2862
     DOI: 10.1021/acs.jctc.9b00143
   
   for SPH calculations refer to:
   * S. Spicher and S. Grimme, J. Chem. Theory Comput., 2021, 17, 1701-1714
     DOI: 10.1021/acs.jctc.0c01306
   
   for ONIOM refer to:
   * C. Plett, A. Katbashev, S. Ehlert, S. Grimme, M. Bursch,
     Phys. Chem. Chem. Phys., 2023, 25, 17860-17868. DOI: 10.1039/D3CP02178E
   
   for DIPRO refer to:
   * J. Kohn, N. Gildemeister, S. Grimme, D. Fazzi, A. Hansen,
     J. Chem. Phys., 2023, just accepted.
   
   for PTB refer to:
   * S. Grimme, M. Mueller, A. Hansen, J. Chem. Phys., 2023, 158, 124111.
     DOI: 10.1063/5.0137838
   
   with help from (in alphabetical order)
   P. Atkinson, C. Bannwarth, F. Bohle, G. Brandenburg, E. Caldeweyher
   M. Checinski, S. Dohm, S. Ehlert, S. Ehrlich, I. Gerasimov, C. Hölzer
   A. Katbashev, J. Kohn, J. Koopman, C. Lavigne, S. Lehtola, F. März, M. Müller,
   F. Musil, H. Neugebauer, J. Pisarek, C. Plett, P. Pracht, F. Pultar,
   J. Seibert, P. Shushkov, S. Spicher, M. Stahn, M. Steiner, T. Strunk,
   J. Stückrath, T. Rose, and J. Unsleber
   
 * started run on 2026/08/31 at 13:16:29.052     
   ID    Z sym.   atoms
    1    7 N      1, 44, 53
    2    6 C      2-15, 45, 47, 48, 54
    3    8 O      16, 17, 41, 46, 49
    4    1 H      18-40, 42, 43, 50-52, 55-57

           -------------------------------------------------
          |                Calculation Setup                |
           -------------------------------------------------

          program call               : C:\Users\Nayanika\Downloads\xtb-6.7.1pre-windows-x86_64\xtb-6.7.1\bin\xtb.exe D:\PhD_Thesis\LmrR_EVB\charges\fast_lmrr_5QM\xtb_preparation\stage2_five_xtb_protocols\GFN2_etemp300\RS1_1_to_TS1_2\RS1_1_to_TS1_2_TS_xtbopt.xyz --gfn 2 --chrg 0 --uhf 0 --etemp 300
          coordinate file            : D:\PhD_Thesis\LmrR_EVB\charges\fast_lmrr_5QM\xtb_preparation\stage2_five_xtb_protocols\GFN2_etemp300\RS1_1_to_TS1_2\RS1_1_to_TS1_2_TS_xtbopt.xyz
          omp threads                :                     1


molecular fragmentation (1/2 indicates fragments):
111111111222222221111111111122222222222222211111111111111
# atoms in fragment 1/2:    34    23
 fragment masses (1/2) :      235.28      134.17
CMA distance (Bohr)    :   9.704
constraining FC (au)   :  0.0500

           -------------------------------------------------
          |                 G F N 2 - x T B                 |
           -------------------------------------------------

        Reference                      10.1021/acs.jctc.8b01176
      * Hamiltonian:
        H0-scaling (s, p, d)           1.850000    2.230000    2.230000
        zeta-weighting                 0.500000
      * Dispersion:
        s8                             2.700000
        a1                             0.520000
        a2                             5.000000
        s9                             5.000000
      * Repulsion:
        kExp                           1.500000    1.000000
        rExp                           1.000000
      * Coulomb:
        alpha                          2.000000
        third order                    shell-resolved
        anisotropic                    true
        a3                             3.000000
        a5                             4.000000
        cn-shift                       1.200000
        cn-exp                         4.000000
        max-rad                        5.000000

q/qsh data taken from xtbrestart
CAMM data taken from xtbrestart

          ...................................................
          :                      SETUP                      :
          :.................................................:
          :  # basis functions                 135          :
          :  # atomic orbitals                 135          :
          :  # shells                           83          :
          :  # electrons                       148          :
          :  max. iterations                   250          :
          :  Hamiltonian                  GFN2-xTB          :
          :  restarted?                       true          :
          :  GBSA solvation                  false          :
          :  PC potential                    false          :
          :  electronic temp.          300.0000000     K    :
          :  accuracy                    1.0000000          :
          :  -> integral cutoff          0.2500000E+02      :
          :  -> integral neglect         0.1000000E-07      :
          :  -> SCF convergence          0.1000000E-05 Eh   :
          :  -> wf. convergence          0.1000000E-03 e    :
          :  Broyden damping             0.4000000          :
          :  net charge                          0          :
          :  unpaired electrons                  0          :
          ...................................................

 iter      E             dE          RMSdq      gap      omega  full diag
   1    -84.5292183 -0.845292E+02  0.304E+00    2.08       0.0  T
   2    -84.5379086 -0.869033E-02  0.180E+00    2.18       1.0  T
   3    -84.5322147  0.569394E-02  0.449E-01    2.14       1.0  T
   4    -84.5407254 -0.851068E-02  0.171E-01    2.19       1.0  T
   5    -84.5414072 -0.681820E-03  0.849E-02    2.16       1.0  T
   6    -84.5414728 -0.656493E-04  0.357E-02    2.17       1.0  T
   7    -84.5414978 -0.250089E-04  0.141E-02    2.17       1.0  T
   8    -84.5415011 -0.322763E-05  0.452E-03    2.17       2.9  T
   9    -84.5415014 -0.312432E-06  0.214E-03    2.17       6.2  T
  10    -84.5415014 -0.320610E-07  0.658E-04    2.17      20.1  T
  11    -84.5415014 -0.520826E-08  0.183E-04    2.17      72.5  T

   *** convergence criteria satisfied after 11 iterations ***

         #    Occupation            Energy/Eh            Energy/eV
      -------------------------------------------------------------
         1        2.0000           -0.7095904             -19.3089
       ...           ...                  ...                  ...
        68        2.0000           -0.4125865             -11.2270
        69        2.0000           -0.4080273             -11.1030
        70        2.0000           -0.4011612             -10.9162
        71        2.0000           -0.3973952             -10.8137
        72        2.0000           -0.3936397             -10.7115
        73        2.0000           -0.3844752             -10.4621
        74        2.0000           -0.3601672              -9.8006 (HOMO)
        75                         -0.2804873              -7.6324 (LUMO)
        76                         -0.2207696              -6.0074
        77                         -0.2184862              -5.9453
        78                         -0.2099239              -5.7123
        79                         -0.2055069              -5.5921
       ...                                ...                  ...
       135                          0.6742525              18.3473
      -------------------------------------------------------------
                  HL-Gap            0.0796799 Eh            2.1682 eV
             Fermi-level           -0.3203273 Eh           -8.7165 eV

 SCC (total)                   0 d,  0 h,  0 min,  0.213 sec
 SCC setup                      ...        0 min,  0.001 sec (  0.470%)
 Dispersion                     ...        0 min,  0.004 sec (  1.878%)
 classical contributions        ...        0 min,  0.000 sec (  0.000%)
 integral evaluation            ...        0 min,  0.024 sec ( 11.268%)
 iterations                     ...        0 min,  0.120 sec ( 56.338%)
 molecular gradient             ...        0 min,  0.063 sec ( 29.577%)
 printout                       ...        0 min,  0.001 sec (  0.469%)

         :::::::::::::::::::::::::::::::::::::::::::::::::::::
         ::                     SUMMARY                     ::
         :::::::::::::::::::::::::::::::::::::::::::::::::::::
         :: total energy             -83.439043353752 Eh    ::
         :: gradient norm              0.000300167381 Eh/a0 ::
         :: HOMO-LUMO gap              2.168201163320 eV    ::
         ::.................................................::
         :: SCC energy               -84.539495992185 Eh    ::
         :: -> isotropic ES            0.174244932223 Eh    ::
         :: -> anisotropic ES         -0.001894680479 Eh    ::
         :: -> anisotropic XC          0.029685381628 Eh    ::
         :: -> dispersion             -0.057360872526 Eh    ::
         :: repulsion energy           1.100452638432 Eh    ::
         :: add. restraining           0.000000000000 Eh    ::
         :: total charge               0.000000000000 e     ::
         :::::::::::::::::::::::::::::::::::::::::::::::::::::

           -------------------------------------------------
          |                Property Printout                |
           -------------------------------------------------

    * Orbital Energies and Occupations

         #    Occupation            Energy/Eh            Energy/eV
      -------------------------------------------------------------
         1        2.0000           -0.7095904             -19.3089
       ...           ...                  ...                  ...
        62        2.0000           -0.4356576             -11.8548
        63        2.0000           -0.4314218             -11.7396
        64        2.0000           -0.4308876             -11.7250
        65        2.0000           -0.4307309             -11.7208
        66        2.0000           -0.4249473             -11.5634
        67        2.0000           -0.4165654             -11.3353
        68        2.0000           -0.4125865             -11.2270
        69        2.0000           -0.4080273             -11.1030
        70        2.0000           -0.4011612             -10.9162
        71        2.0000           -0.3973952             -10.8137
        72        2.0000           -0.3936397             -10.7115
        73        2.0000           -0.3844752             -10.4621
        74        2.0000           -0.3601672              -9.8006 (HOMO)
        75                         -0.2804873              -7.6324 (LUMO)
        76                         -0.2207696              -6.0074
        77                         -0.2184862              -5.9453
        78                         -0.2099239              -5.7123
        79                         -0.2055069              -5.5921
        80                         -0.1656730              -4.5082
        81                         -0.0870836              -2.3697
        82                          0.0009427               0.0257
        83                          0.0099970               0.2720
        84                          0.0313384               0.8528
        85                          0.0679620               1.8493
       ...                                ...                  ...
       135                          0.6742525              18.3473
      -------------------------------------------------------------
                  HL-Gap            0.0796799 Eh            2.1682 eV
             Fermi-level           -0.3203273 Eh           -8.7165 eV

     #   Z          covCN         q      C6AA      α(0)
     1   7 N        2.643    -0.282    27.286     7.758
     2   6 C        2.900     0.077    26.275     8.405
     3   6 C        2.923    -0.060    29.499     8.907
     4   6 C        2.924    -0.039    28.962     8.825
     5   6 C        2.970    -0.007    28.192     8.709
     6   6 C        2.924    -0.045    29.113     8.848
     7   6 C        2.921    -0.064    29.600     8.922
     8   6 C        3.812    -0.070    21.823     6.649
     9   6 C        3.796     0.020    20.239     6.406
    10   6 C        2.768     0.214    23.479     7.936
    11   6 C        2.890    -0.064    29.582     8.917
    12   6 C        2.896    -0.001    28.051     8.684
    13   6 C        3.807    -0.061    21.664     6.626
    14   6 C        3.802    -0.046    21.398     6.586
    15   6 C        3.753    -0.111    22.677     6.791
    16   8 O        0.856    -0.409    21.865     6.269
    17   8 O        1.609    -0.596    25.082     6.759
    18   1 H        0.860     0.215     1.034     1.593
    19   1 H        0.860     0.161     1.327     1.805
    20   1 H        0.926     0.046     2.372     2.409
    21   1 H        0.926     0.030     2.586     2.515
    22   1 H        0.925     0.022     2.706     2.573
    23   1 H        0.925     0.022     2.708     2.573
    24   1 H        0.924     0.061     2.190     2.315
    25   1 H        0.924     0.057     2.233     2.337
    26   1 H        0.924     0.060     2.197     2.318
    27   1 H        0.860     0.182     1.201     1.716
    28   1 H        0.860     0.206     1.077     1.625
    29   1 H        0.923     0.009     2.905     2.666
    30   1 H        0.926     0.035     2.515     2.480
    31   1 H        0.925     0.065     2.141     2.288
    32   1 H        0.924     0.056     2.244     2.342
    33   1 H        0.924     0.045     2.388     2.417
    34   1 H        0.924     0.031     2.574     2.509
    35   1 H        0.924     0.032     2.559     2.501
    36   1 H        0.925     0.035     2.519     2.482
    37   1 H        0.925     0.033     2.538     2.491
    38   1 H        0.925     0.063     2.170     2.303
    39   1 H        0.805     0.282     0.777     1.384
    40   1 H        0.804     0.331     0.635     1.252
    41   8 O        1.609    -0.604    25.293     6.788
    42   1 H        0.806     0.274     0.805     1.410
    43   1 H        0.803     0.321     0.661     1.277
    44   7 N        2.692    -0.181    24.919     7.414
    45   6 C        2.753     0.264    22.554     7.777
    46   8 O        0.858    -0.435    22.396     6.345
    47   6 C        3.757    -0.141    23.272     6.878
    48   6 C        2.749     0.277    22.312     7.734
    49   8 O        0.859    -0.462    22.955     6.424
    50   1 H        0.925     0.054     2.275     2.359
    51   1 H        0.925     0.061     2.186     2.312
    52   1 H        0.925     0.074     2.045     2.236
    53   7 N        2.686    -0.178    24.844     7.403
    54   6 C        3.690    -0.042    21.521     6.639
    55   1 H        0.924     0.052     2.291     2.367
    56   1 H        0.924     0.049     2.334     2.389
    57   1 H        0.925     0.082     1.957     2.187

 Mol. C6AA /au·bohr⁶  :      29554.985882
 Mol. C8AA /au·bohr⁸  :     658010.846484
 Mol. α(0) /au        :        262.829981


Wiberg/Mayer (AO) data.
largest (>0.10) Wiberg bond orders for each atom

 ---------------------------------------------------------------------------
     #   Z sym  total        # sym  WBO       # sym  WBO       # sym  WBO
 ---------------------------------------------------------------------------
     1   7 N    3.330 --     2 C    1.156    19 H    0.953    18 H    0.897
     2   6 C    3.972 --     7 C    1.352     3 C    1.337     1 N    1.156
     3   6 C    3.989 --     4 C    1.476     2 C    1.337    20 H    0.966
                             6 C    0.101
     4   6 C    3.992 --     3 C    1.476     5 C    1.392    21 H    0.969
                             7 C    0.101
     5   6 C    3.979 --     6 C    1.407     4 C    1.392     8 C    1.009
     6   6 C    3.991 --     7 C    1.455     5 C    1.407    22 H    0.968
                             3 C    0.101
     7   6 C    3.987 --     6 C    1.455     2 C    1.352    23 H    0.969
                             4 C    0.101
     8   6 C    3.990 --     5 C    1.009     9 C    0.982    24 H    0.970
                            25 H    0.965
     9   6 C    3.961 --     8 C    0.982    44 N    0.973    26 H    0.953
                            45 C    0.914
    10   6 C    3.926 --    16 O    1.741    11 C    1.091    29 H    0.937
    11   6 C    3.989 --    12 C    1.810    10 C    1.091    30 H    0.964
    12   6 C    3.979 --    11 C    1.810    13 C    1.046    31 H    0.961
    13   6 C    3.996 --    12 C    1.046    14 C    0.977    33 H    0.972
                            32 H    0.954
    14   6 C    3.995 --    15 C    1.018    34 H    0.980    35 H    0.979
                            13 C    0.977
    15   6 C    3.993 --    14 C    1.018    37 H    0.988    36 H    0.986
                            38 H    0.980
    16   8 O    2.029 --    10 C    1.741
    17   8 O    1.873 --    39 H    0.917    40 H    0.852
    18   1 H    0.953 --     1 N    0.897
    19   1 H    0.973 --     1 N    0.953
    20   1 H    0.998 --     3 C    0.966
    21   1 H    0.999 --     4 C    0.969
    22   1 H    0.999 --     6 C    0.968
    23   1 H    0.999 --     7 C    0.969
    24   1 H    0.996 --     8 C    0.970
    25   1 H    0.995 --     8 C    0.965
    26   1 H    0.996 --     9 C    0.953
    27   1 H    0.967 --    44 N    0.933
    28   1 H    0.958 --    53 N    0.905
    29   1 H    1.000 --    10 C    0.937
    30   1 H    0.999 --    11 C    0.964
    31   1 H    0.996 --    12 C    0.961
    32   1 H    0.997 --    13 C    0.954
    33   1 H    0.998 --    13 C    0.972
    34   1 H    0.999 --    14 C    0.980
    35   1 H    0.999 --    14 C    0.979
    36   1 H    0.997 --    15 C    0.986
    37   1 H    0.999 --    15 C    0.988
    38   1 H    0.996 --    15 C    0.980
    39   1 H    0.920 --    17 O    0.917
    40   1 H    0.891 --    17 O    0.852
    41   8 O    1.855 --    42 H    0.922    43 H    0.840
    42   1 H    0.925 --    41 O    0.922
    43   1 H    0.897 --    41 O    0.840
    44   7 N    3.459 --    48 C    1.280     9 C    0.973    27 H    0.933
                            49 O    0.192
    45   6 C    3.956 --    46 O    1.680    53 N    1.291     9 C    0.914
    46   8 O    2.011 --    45 C    1.680    53 N    0.212
    47   6 C    3.993 --    48 C    0.984    52 H    0.982    50 H    0.972
                            51 H    0.966
    48   6 C    3.950 --    49 O    1.634    44 N    1.280    47 C    0.984
    49   8 O    1.986 --    48 C    1.634    44 N    0.192
    50   1 H    0.997 --    47 C    0.972
    51   1 H    0.996 --    47 C    0.966
    52   1 H    0.994 --    47 C    0.982
    53   7 N    3.465 --    45 C    1.291    54 C    1.006    28 H    0.905
                            46 O    0.212
    54   6 C    3.966 --    53 N    1.006    55 H    0.977    57 H    0.977
                            56 H    0.976
    55   1 H    0.997 --    54 C    0.977
    56   1 H    0.998 --    54 C    0.976
    57   1 H    0.993 --    54 C    0.977
 ---------------------------------------------------------------------------

Topologies differ in total number of bonds
Writing topology from bond orders to xtbtopo.mol

molecular dipole:
                 x           y           z       tot (Debye)
 q only:       -0.344       0.455      -0.314
   full:       -0.741       0.284      -0.631       2.577
molecular quadrupole (traceless):
                xx          xy          yy          xz          yz          zz
 q only:      -19.753      11.544       9.805      -8.548       0.312       9.948
  q+dip:      -28.966       9.075      10.715     -13.704       4.409      18.251
   full:      -29.914       9.371      11.572     -13.089       0.806      18.341


           -------------------------------------------------
          | TOTAL ENERGY              -83.439043353752 Eh   |
          | GRADIENT NORM               0.000300167381 Eh/α |
          | HOMO-LUMO GAP               2.168201163320 eV   |
           -------------------------------------------------

------------------------------------------------------------------------
 * finished run on 2026/08/31 at 13:16:29.375     
------------------------------------------------------------------------
 total:
 * wall-time:     0 d,  0 h,  0 min,  0.320 sec
 *  cpu-time:     0 d,  0 h,  0 min,  0.250 sec
 * ratio c/w:     0.781 speedup
 SCF:
 * wall-time:     0 d,  0 h,  0 min,  0.215 sec
 *  cpu-time:     0 d,  0 h,  0 min,  0.203 sec
 * ratio c/w:     0.945 speedup



===== STDERR =====

normal termination of xtb
