57
 energy: -83.437170433259 gnorm: 0.000213776552 xtb: 6.7.1pre (5071a88)
N           -0.22662952688025       -0.35811574703419        0.55573646322886
C            1.15012418785330       -0.33535189422387        0.61617338037235
C            1.80425335581970        0.65787965277330        1.34805079256577
C            3.17475320616775        0.78847856907292        1.28220989307418
C            3.93898922049938       -0.06375067020865        0.49260977734777
C            3.29014975997305       -1.07619223216594       -0.20319997196757
C            1.91752934729125       -1.21878982395043       -0.14247936956467
C            5.41498823709692        0.16740642234054        0.33693211730876
C            5.66231649741614        1.39964295992810       -0.53764270048048
C           -0.89165443278314        0.91474724239905       -1.34478211405466
C            0.28206594238833        1.76692252770286       -1.22996795101673
C            0.27378820794240        2.95000667755897       -0.61141538603988
C            1.45938021690728        3.83187044623761       -0.47340190115848
C            1.30285357497348        5.11626781907393       -1.29959115178709
C            2.55893443599664        5.97271357016659       -1.21265177104801
O           -2.02437859691774        1.20658352434875       -0.98242779083006
O           -2.92681432500804       -1.31847235345186        0.21317665624134
H           -0.71184241691156        0.15490799824932        1.27949630862416
H           -0.68352234862539       -1.22897843338583        0.31771977875395
H            1.21921523748897        1.33068788314878        1.95741938826478
H            3.66307357107787        1.56769094123653        1.84939664114356
H            3.86720944299596       -1.76947830778443       -0.80044367738752
H            1.42637908226125       -2.00713043253889       -0.69451597216737
H            5.90232183089373       -0.69252534333645       -0.12561040314010
H            5.88933369449627        0.33713123595647        1.30451957070705
H            5.29913649314587        2.30654342393622       -0.03877399202987
H            4.71805228995006        0.34307607268027       -2.09821008585252
H            6.65672079592745        3.42068456854156       -1.55635481145934
H           -0.72981082213064        0.00184231446585       -1.94231241876387
H            1.19735244468623        1.37772637947458       -1.65109536795020
H           -0.65784822372170        3.31927094560024       -0.20115918555260
H            1.58149523766811        4.10787875953881        0.57716598249256
H            2.35852566977724        3.30615552948619       -0.79745481948951
H            1.11713459930486        4.84568859318476       -2.34113450677038
H            0.43790570211365        5.67907189430809       -0.94131942858236
H            2.45471524734476        6.86454659789605       -1.82592658793682
H            2.74095605976026        6.28115369268473       -0.18535886127213
H            3.42093110767209        5.40924489884053       -1.56181402535814
H           -3.01791272418059       -0.79487141603521        1.01803544145209
H           -2.92770214443300       -0.67055489090530       -0.50058480095565
O           -2.62200364447842        1.19543428640507        1.68208897935877
H           -2.48186454155598        1.37873621655958        0.73612620296238
H           -3.37078938936020        1.72890433431421        1.95315008491614
N            4.92119523215111        1.27809962038802       -1.78200733472317
C            7.16441269542602        1.58339534821549       -0.84609780840958
O            7.99100924799937        0.71831287282059       -0.64638328758204
C            3.64833559252440        2.00124661924720       -3.68999892130156
C            4.47950511295886        2.34087187202758       -2.47571603781824
O            4.74715984618210        3.48666879165072       -2.14798533645350
H            2.97089292077048        1.17634891210117       -3.48472427200713
H            4.31001161804890        1.71602932847164       -4.50626768353904
H            3.08195619145333        2.87682781780188       -3.99429464161611
N            7.43063831206288        2.79426741536747       -1.36105686793755
C            8.75137049697361        3.18479731803682       -1.78887667623217
H            9.05441805092898        4.10533050543640       -1.28796155758072
H            8.77897213630978        3.34227052448023       -2.86908544229499
H            9.43831098645460        2.38284862086411       -1.52292253869132
