57
 energy: -83.439171825093 gnorm: 0.000132865662 xtb: 6.7.1pre (5071a88)
N           -0.12122094603496        0.56357594796051        0.44617686146731
C            1.22479836294601        0.27371727636745        0.28798642968811
C            2.20162571766659        0.91377535626912        1.05444641502334
C            3.52259929725057        0.53210051122053        0.95046305256888
C            3.91093538458639       -0.48097302375650        0.08039829345253
C            2.93236059530263       -1.12187371327201       -0.67003907562281
C            1.60250673383796       -0.76599889395835       -0.55991621330268
C            5.36303892106177       -0.82613118486318       -0.08252699119231
C            6.07858395276023        0.24821258567162       -0.90520916575047
C           -0.61996941488299        1.73297756165724        0.35623699923228
C            0.03701383543981        2.93880403074900       -0.07900896540761
C           -0.55909047672789        4.13136481465243       -0.01035728572925
C            0.06049319935724        5.41709953289237       -0.42682289397354
C           -0.80068332784157        6.14352797523541       -1.46701681874700
C           -0.18232337190436        7.47503484120690       -1.87233424612100
O           -0.18980148341381        2.19546837481407        3.24887619886478
O           -2.85028599397367        1.38726677978772        2.91834733761531
H           -1.09534579161907       -0.50026922783325        1.46271921837643
H           -1.14850487151379        2.11347950042346        3.10988295138626
H            1.89944082554781        1.69243301471442        1.73936267595849
H            4.26817863076674        1.03147871926993        1.55230605395602
H            3.21017121439583       -1.92622832452398       -1.33822637562279
H            0.84799748193444       -1.26905808422197       -1.14659754098782
H            5.48502098070397       -1.78725514265313       -0.58522782550422
H            5.85704148175171       -0.89432178396433        0.88767447077216
H            6.07529179418133        1.20853628058707       -0.37453373374148
H            4.80171277692291       -0.30412767546828       -2.48892442245469
H            7.79242334768415        1.75541055101196       -1.85209004301319
H           -1.67224926359174        1.81970396917797        0.60822751784007
H            1.05002207169832        2.84766002930446       -0.44941222769743
H           -1.56624490353886        4.19752646749727        0.38170681144579
H            0.15722410870689        6.05960921272363        0.45368996204775
H            1.05993917811740        5.24303900593087       -0.83023377116250
H           -0.90863070886319        5.50686443530769       -2.34812526101548
H           -1.79750943893565        6.31383152056605       -1.05484746005515
H           -0.80057665180096        7.97131217758206       -2.61667164160397
H           -0.08943619563458        8.13155049699672       -1.00998225883769
H            0.80841883307178        7.32357061595444       -2.29511295575267
H           -2.53791146250328        0.50158816813781        2.64040636788196
H           -3.29061158759966        1.26707013064258        3.76107457964198
O           -1.76644490745556       -0.94776381176910        2.02629563167656
H            0.09964374749652        1.33182478375101        3.55101078635334
H           -2.26974005900931       -1.51705390570588        1.44203650441173
N            5.37977614763566        0.45398056981585       -2.16253280560473
C            7.54682978146184       -0.14721183686814       -1.17976002205437
O            7.97647599584022       -1.26534411652703       -0.98458676220536
C            4.49183708576647        1.65843822678546       -4.03849033646894
C            5.40278957165330        1.62033975971690       -2.83317957002502
O            6.10850793539871        2.55462195901253       -2.49224990853409
H            3.46561340506015        1.45932340304956       -3.73712640026033
H            4.79808064111925        0.90342995816781       -4.75945680662317
H            4.54906033270207        2.63890352944641       -4.50182671402563
N            8.26779773341230        0.88029402747961       -1.65283344929941
C            9.65206482390850        0.74908107439087       -2.03465404484930
H           10.26279807617695        1.47558510498848       -1.49656395901859
H            9.77539797791566        0.90689739363255       -3.10804621231453
H            9.97506887587648       -0.25869894927435       -1.77780095524265
