      -----------------------------------------------------------      
     |                   =====================                   |     
     |                           x T B                           |     
     |                   =====================                   |     
     |                         S. Grimme                         |     
     |          Mulliken Center for Theoretical Chemistry        |     
     |                    University of Bonn                     |     
      -----------------------------------------------------------      

   * xtb version 6.7.1pre (5071a88) compiled by 'Marcel@Raven' on 2024-07-23

   xtb is free software: you can redistribute it and/or modify it under
   the terms of the GNU Lesser General Public License as published by
   the Free Software Foundation, either version 3 of the License, or
   (at your option) any later version.
   
   xtb is distributed in the hope that it will be useful,
   but WITHOUT ANY WARRANTY; without even the implied warranty of
   MERCHANTABILITY or FITNESS FOR A PARTICULAR PURPOSE.  See the
   GNU Lesser General Public License for more details.
   
   Cite this work as:
   * C. Bannwarth, E. Caldeweyher, S. Ehlert, A. Hansen, P. Pracht,
     J. Seibert, S. Spicher, S. Grimme, WIREs Comput. Mol. Sci., 2020, 11,
     e01493. DOI: 10.1002/wcms.1493
   
   for GFN2-xTB:
   * C. Bannwarth, S. Ehlert and S. Grimme., J. Chem. Theory Comput., 2019,
     15, 1652-1671. DOI: 10.1021/acs.jctc.8b01176
   for GFN1-xTB:
   * S. Grimme, C. Bannwarth, P. Shushkov, J. Chem. Theory Comput., 2017,
     13, 1989-2009. DOI: 10.1021/acs.jctc.7b00118
   for GFN0-xTB:
   * P. Pracht, E. Caldeweyher, S. Ehlert, S. Grimme, ChemRxiv, 2019, preprint.
     DOI: 10.26434/chemrxiv.8326202.v1
   for GFN-FF:
   * S. Spicher and S. Grimme, Angew. Chem. Int. Ed., 2020, 59, 15665-15673.
     DOI: 10.1002/anie.202004239
   
   for ALPB and GBSA implicit solvation:
   * S. Ehlert, M. Stahn, S. Spicher, S. Grimme, J. Chem. Theory Comput.,
     2021, 17, 4250-4261. DOI: 10.1021/acs.jctc.1c00471
   
   for ddCOSMO and CPCM-X implicit solvation:
   * M. Stahn, S. Ehlert, S. Grimme, J. Phys. Chem. A,
     2023, XX, XXXX-XXXX. DOI: 10.1021/acs.jpca.3c04382
   
   for DFT-D4:
   * E. Caldeweyher, C. Bannwarth and S. Grimme, J. Chem. Phys., 2017,
     147, 034112. DOI: 10.1063/1.4993215
   * E. Caldeweyher, S. Ehlert, A. Hansen, H. Neugebauer, S. Spicher,
     C. Bannwarth and S. Grimme, J. Chem. Phys., 2019, 150, 154122.
     DOI: 10.1063/1.5090222
   * E. Caldeweyher, J.-M. Mewes, S. Ehlert and S. Grimme, Phys. Chem. Chem. Phys.
     2020, 22, 8499-8512. DOI: 10.1039/D0CP00502A
   
   for sTDA-xTB:
   * S. Grimme and C. Bannwarth, J. Chem. Phys., 2016, 145, 054103.
     DOI: 10.1063/1.4959605
   
   in the mass-spec context:
   * V. Asgeirsson, C. Bauer and S. Grimme, Chem. Sci., 2017, 8, 4879.
     DOI: 10.1039/c7sc00601b
   * J. Koopman and S. Grimme, ACS Omega 2019, 4, 12, 15120-15133.
     DOI: 10.1021/acsomega.9b02011
   
   for metadynamics refer to:
   * S. Grimme, J. Chem. Theory Comput., 2019, 155, 2847-2862
     DOI: 10.1021/acs.jctc.9b00143
   
   for SPH calculations refer to:
   * S. Spicher and S. Grimme, J. Chem. Theory Comput., 2021, 17, 1701-1714
     DOI: 10.1021/acs.jctc.0c01306
   
   for ONIOM refer to:
   * C. Plett, A. Katbashev, S. Ehlert, S. Grimme, M. Bursch,
     Phys. Chem. Chem. Phys., 2023, 25, 17860-17868. DOI: 10.1039/D3CP02178E
   
   for DIPRO refer to:
   * J. Kohn, N. Gildemeister, S. Grimme, D. Fazzi, A. Hansen,
     J. Chem. Phys., 2023, just accepted.
   
   for PTB refer to:
   * S. Grimme, M. Mueller, A. Hansen, J. Chem. Phys., 2023, 158, 124111.
     DOI: 10.1063/5.0137838
   
   with help from (in alphabetical order)
   P. Atkinson, C. Bannwarth, F. Bohle, G. Brandenburg, E. Caldeweyher
   M. Checinski, S. Dohm, S. Ehlert, S. Ehrlich, I. Gerasimov, C. Hölzer
   A. Katbashev, J. Kohn, J. Koopman, C. Lavigne, S. Lehtola, F. März, M. Müller,
   F. Musil, H. Neugebauer, J. Pisarek, C. Plett, P. Pracht, F. Pultar,
   J. Seibert, P. Shushkov, S. Spicher, M. Stahn, M. Steiner, T. Strunk,
   J. Stückrath, T. Rose, and J. Unsleber
   
 * started run on 2026/08/31 at 13:16:03.751     
   ID    Z sym.   atoms
    1    7 N      1, 44, 53
    2    6 C      2-15, 45, 47, 48, 54
    3    8 O      16, 17, 41, 46, 49
    4    1 H      18-40, 42, 43, 50-52, 55-57

           -------------------------------------------------
          |                Calculation Setup                |
           -------------------------------------------------

          program call               : C:\Users\Nayanika\Downloads\xtb-6.7.1pre-windows-x86_64\xtb-6.7.1\bin\xtb.exe D:\PhD_Thesis\LmrR_EVB\charges\fast_lmrr_5QM\xtb_preparation\stage2_five_xtb_protocols\GFN2_tight\TS1_2_to_PS1_2b\TS1_2_to_PS1_2b_TS_xtbopt.xyz --gfn 2 --chrg 0 --uhf 0 --etemp 0
          coordinate file            : D:\PhD_Thesis\LmrR_EVB\charges\fast_lmrr_5QM\xtb_preparation\stage2_five_xtb_protocols\GFN2_tight\TS1_2_to_PS1_2b\TS1_2_to_PS1_2b_TS_xtbopt.xyz
          omp threads                :                     1


molecular fragmentation (1/2 indicates fragments):
111111111222222221111111111122222222222222211111111111111
# atoms in fragment 1/2:    34    23
 fragment masses (1/2) :      235.28      134.17
CMA distance (Bohr)    :   9.586
constraining FC (au)   :  0.0500

           -------------------------------------------------
          |                 G F N 2 - x T B                 |
           -------------------------------------------------

        Reference                      10.1021/acs.jctc.8b01176
      * Hamiltonian:
        H0-scaling (s, p, d)           1.850000    2.230000    2.230000
        zeta-weighting                 0.500000
      * Dispersion:
        s8                             2.700000
        a1                             0.520000
        a2                             5.000000
        s9                             5.000000
      * Repulsion:
        kExp                           1.500000    1.000000
        rExp                           1.000000
      * Coulomb:
        alpha                          2.000000
        third order                    shell-resolved
        anisotropic                    true
        a3                             3.000000
        a5                             4.000000
        cn-shift                       1.200000
        cn-exp                         4.000000
        max-rad                        5.000000

q/qsh data taken from xtbrestart
CAMM data taken from xtbrestart

          ...................................................
          :                      SETUP                      :
          :.................................................:
          :  # basis functions                 135          :
          :  # atomic orbitals                 135          :
          :  # shells                           83          :
          :  # electrons                       148          :
          :  max. iterations                   250          :
          :  Hamiltonian                  GFN2-xTB          :
          :  restarted?                       true          :
          :  GBSA solvation                  false          :
          :  PC potential                    false          :
          :  electronic temp.            0.0000000     K    :
          :  accuracy                    1.0000000          :
          :  -> integral cutoff          0.2500000E+02      :
          :  -> integral neglect         0.1000000E-07      :
          :  -> SCF convergence          0.1000000E-05 Eh   :
          :  -> wf. convergence          0.1000000E-03 e    :
          :  Broyden damping             0.4000000          :
          :  net charge                          0          :
          :  unpaired electrons                  0          :
          ...................................................

 iter      E             dE          RMSdq      gap      omega  full diag
   1    -84.5398266 -0.845398E+02  0.129E+00    2.22       0.0  T
   2    -84.5400279 -0.201297E-03  0.762E-01    2.21       1.0  T
   3    -84.5400433 -0.153414E-04  0.418E-02    2.21       1.0  T
   4    -84.5401101 -0.668677E-04  0.189E-02    2.21       1.0  T
   5    -84.5401124 -0.222092E-05  0.909E-03    2.21       1.5  T
   6    -84.5401141 -0.176882E-05  0.275E-03    2.21       4.8  T
   7    -84.5401143 -0.193150E-06  0.123E-03    2.21      10.7  T
   8    -84.5401143 -0.956925E-08  0.587E-04    2.21      22.6  T
   9    -84.5401144 -0.957797E-08  0.256E-04    2.21      51.7  T

   *** convergence criteria satisfied after 9 iterations ***

         #    Occupation            Energy/Eh            Energy/eV
      -------------------------------------------------------------
         1        2.0000           -0.7122993             -19.3826
       ...           ...                  ...                  ...
        68        2.0000           -0.4165584             -11.3351
        69        2.0000           -0.4110997             -11.1866
        70        2.0000           -0.4062434             -11.0544
        71        2.0000           -0.4004752             -10.8975
        72        2.0000           -0.3995535             -10.8724
        73        2.0000           -0.3870525             -10.5322
        74        2.0000           -0.3662827              -9.9671 (HOMO)
        75                         -0.2850143              -7.7556 (LUMO)
        76                         -0.2246995              -6.1144
        77                         -0.2225071              -6.0547
        78                         -0.2153935              -5.8612
        79                         -0.2078891              -5.6569
       ...                                ...                  ...
       135                          0.6581255              17.9085
      -------------------------------------------------------------
                  HL-Gap            0.0812685 Eh            2.2114 eV
             Fermi-level            0.0000000 Eh            0.0000 eV

 SCC (total)                   0 d,  0 h,  0 min,  0.335 sec
 SCC setup                      ...        0 min,  0.004 sec (  1.194%)
 Dispersion                     ...        0 min,  0.002 sec (  0.597%)
 classical contributions        ...        0 min,  0.000 sec (  0.000%)
 integral evaluation            ...        0 min,  0.019 sec (  5.672%)
 iterations                     ...        0 min,  0.213 sec ( 63.582%)
 molecular gradient             ...        0 min,  0.095 sec ( 28.358%)
 printout                       ...        0 min,  0.002 sec (  0.597%)

         :::::::::::::::::::::::::::::::::::::::::::::::::::::
         ::                     SUMMARY                     ::
         :::::::::::::::::::::::::::::::::::::::::::::::::::::
         :: total energy             -83.439178768455 Eh    ::
         :: gradient norm              0.000241422784 Eh/a0 ::
         :: HOMO-LUMO gap              2.211428005986 eV    ::
         ::.................................................::
         :: SCC energy               -84.538165015642 Eh    ::
         :: -> isotropic ES            0.175886198748 Eh    ::
         :: -> anisotropic ES         -0.001635209009 Eh    ::
         :: -> anisotropic XC          0.029475685347 Eh    ::
         :: -> dispersion             -0.057991748602 Eh    ::
         :: repulsion energy           1.098986247187 Eh    ::
         :: add. restraining           0.000000000000 Eh    ::
         :: total charge              -0.000000000000 e     ::
         :::::::::::::::::::::::::::::::::::::::::::::::::::::

           -------------------------------------------------
          |                Property Printout                |
           -------------------------------------------------

    * Orbital Energies and Occupations

         #    Occupation            Energy/Eh            Energy/eV
      -------------------------------------------------------------
         1        2.0000           -0.7122993             -19.3826
       ...           ...                  ...                  ...
        62        2.0000           -0.4362819             -11.8718
        63        2.0000           -0.4361900             -11.8693
        64        2.0000           -0.4338005             -11.8043
        65        2.0000           -0.4308724             -11.7246
        66        2.0000           -0.4267826             -11.6133
        67        2.0000           -0.4208967             -11.4532
        68        2.0000           -0.4165584             -11.3351
        69        2.0000           -0.4110997             -11.1866
        70        2.0000           -0.4062434             -11.0544
        71        2.0000           -0.4004752             -10.8975
        72        2.0000           -0.3995535             -10.8724
        73        2.0000           -0.3870525             -10.5322
        74        2.0000           -0.3662827              -9.9671 (HOMO)
        75                         -0.2850143              -7.7556 (LUMO)
        76                         -0.2246995              -6.1144
        77                         -0.2225071              -6.0547
        78                         -0.2153935              -5.8612
        79                         -0.2078891              -5.6569
        80                         -0.1698379              -4.6215
        81                         -0.0924589              -2.5159
        82                         -0.0016580              -0.0451
        83                          0.0079373               0.2160
        84                          0.0280067               0.7621
        85                          0.0734954               1.9999
       ...                                ...                  ...
       135                          0.6581255              17.9085
      -------------------------------------------------------------
                  HL-Gap            0.0812685 Eh            2.2114 eV
             Fermi-level            0.0000000 Eh            0.0000 eV

     #   Z          covCN         q      C6AA      α(0)
     1   7 N        2.649    -0.278    27.179     7.743
     2   6 C        2.900     0.077    26.290     8.407
     3   6 C        2.923    -0.059    29.459     8.901
     4   6 C        2.924    -0.038    28.947     8.823
     5   6 C        2.970    -0.005    28.135     8.701
     6   6 C        2.924    -0.044    29.090     8.845
     7   6 C        2.922    -0.063    29.570     8.917
     8   6 C        3.812    -0.070    21.828     6.650
     9   6 C        3.796     0.020    20.240     6.406
    10   6 C        2.775     0.209    23.578     7.953
    11   6 C        2.890    -0.064    29.588     8.918
    12   6 C        2.896    -0.001    28.044     8.683
    13   6 C        3.807    -0.061    21.665     6.626
    14   6 C        3.802    -0.046    21.401     6.586
    15   6 C        3.753    -0.110    22.670     6.790
    16   8 O        0.856    -0.426    22.201     6.317
    17   8 O        1.609    -0.608    25.374     6.799
    18   1 H        0.859     0.217     1.022     1.584
    19   1 H        0.860     0.170     1.275     1.769
    20   1 H        0.926     0.040     2.452     2.449
    21   1 H        0.926     0.031     2.565     2.505
    22   1 H        0.925     0.023     2.689     2.565
    23   1 H        0.926     0.024     2.668     2.554
    24   1 H        0.924     0.062     2.181     2.309
    25   1 H        0.924     0.058     2.218     2.329
    26   1 H        0.924     0.060     2.196     2.317
    27   1 H        0.860     0.183     1.196     1.713
    28   1 H        0.860     0.206     1.078     1.626
    29   1 H        0.923     0.011     2.875     2.652
    30   1 H        0.926     0.036     2.496     2.471
    31   1 H        0.925     0.064     2.153     2.295
    32   1 H        0.924     0.056     2.250     2.346
    33   1 H        0.924     0.046     2.368     2.407
    34   1 H        0.924     0.032     2.553     2.499
    35   1 H        0.924     0.033     2.545     2.495
    36   1 H        0.925     0.036     2.508     2.477
    37   1 H        0.925     0.033     2.542     2.493
    38   1 H        0.925     0.062     2.178     2.308
    39   1 H        0.803     0.319     0.667     1.283
    40   1 H        0.806     0.275     0.802     1.407
    41   8 O        1.609    -0.595    25.059     6.756
    42   1 H        0.805     0.298     0.728     1.341
    43   1 H        0.804     0.311     0.688     1.302
    44   7 N        2.692    -0.182    24.935     7.416
    45   6 C        2.753     0.264    22.553     7.776
    46   8 O        0.858    -0.434    22.375     6.342
    47   6 C        3.757    -0.141    23.274     6.878
    48   6 C        2.749     0.277    22.317     7.735
    49   8 O        0.859    -0.462    22.956     6.424
    50   1 H        0.925     0.051     2.307     2.375
    51   1 H        0.925     0.063     2.159     2.298
    52   1 H        0.925     0.074     2.042     2.234
    53   7 N        2.686    -0.177    24.839     7.402
    54   6 C        3.690    -0.043    21.526     6.640
    55   1 H        0.924     0.053     2.285     2.364
    56   1 H        0.924     0.049     2.330     2.387
    57   1 H        0.925     0.082     1.954     2.186

 Mol. C6AA /au·bohr⁶  :      29543.869009
 Mol. C8AA /au·bohr⁸  :     657867.775358
 Mol. α(0) /au        :        262.771653


Wiberg/Mayer (AO) data.
largest (>0.10) Wiberg bond orders for each atom

 ---------------------------------------------------------------------------
     #   Z sym  total        # sym  WBO       # sym  WBO       # sym  WBO
 ---------------------------------------------------------------------------
     1   7 N    3.356 --     2 C    1.155    19 H    0.951    18 H    0.888
                            10 C    0.108
     2   6 C    3.972 --     7 C    1.351     3 C    1.339     1 N    1.155
     3   6 C    3.989 --     4 C    1.472     2 C    1.339    20 H    0.967
                             6 C    0.101
     4   6 C    3.992 --     3 C    1.472     5 C    1.395    21 H    0.969
                             7 C    0.102
     5   6 C    3.976 --     6 C    1.403     4 C    1.395     8 C    1.010
     6   6 C    3.991 --     7 C    1.458     5 C    1.403    22 H    0.967
                             3 C    0.101
     7   6 C    3.988 --     6 C    1.458     2 C    1.351    23 H    0.969
                             4 C    0.102
     8   6 C    3.990 --     5 C    1.010     9 C    0.980    24 H    0.969
                            25 H    0.967
     9   6 C    3.961 --     8 C    0.980    44 N    0.973    26 H    0.953
                            45 C    0.913
    10   6 C    3.927 --    16 O    1.703    11 C    1.098    29 H    0.940
                             1 N    0.108
    11   6 C    3.989 --    12 C    1.804    10 C    1.098    30 H    0.965
    12   6 C    3.978 --    11 C    1.804    13 C    1.047    31 H    0.961
    13   6 C    3.996 --    12 C    1.047    14 C    0.977    33 H    0.972
                            32 H    0.952
    14   6 C    3.994 --    15 C    1.018    34 H    0.980    35 H    0.979
                            13 C    0.977
    15   6 C    3.993 --    14 C    1.018    37 H    0.988    36 H    0.986
                            38 H    0.981
    16   8 O    2.023 --    10 C    1.703
    17   8 O    1.835 --    40 H    0.922    39 H    0.850
    18   1 H    0.952 --     1 N    0.888
    19   1 H    0.971 --     1 N    0.951
    20   1 H    0.998 --     3 C    0.967
    21   1 H    0.999 --     4 C    0.969
    22   1 H    0.999 --     6 C    0.967
    23   1 H    0.999 --     7 C    0.969
    24   1 H    0.996 --     8 C    0.969
    25   1 H    0.995 --     8 C    0.967
    26   1 H    0.996 --     9 C    0.953
    27   1 H    0.966 --    44 N    0.931
    28   1 H    0.958 --    53 N    0.906
    29   1 H    0.999 --    10 C    0.940
    30   1 H    0.999 --    11 C    0.965
    31   1 H    0.996 --    12 C    0.961
    32   1 H    0.997 --    13 C    0.952
    33   1 H    0.998 --    13 C    0.972
    34   1 H    0.999 --    14 C    0.980
    35   1 H    0.999 --    14 C    0.979
    36   1 H    0.997 --    15 C    0.986
    37   1 H    0.999 --    15 C    0.988
    38   1 H    0.996 --    15 C    0.981
    39   1 H    0.898 --    17 O    0.850
    40   1 H    0.924 --    17 O    0.922
    41   8 O    1.875 --    42 H    0.899    43 H    0.876
    42   1 H    0.911 --    41 O    0.899
    43   1 H    0.903 --    41 O    0.876
    44   7 N    3.459 --    48 C    1.280     9 C    0.973    27 H    0.931
                            49 O    0.192
    45   6 C    3.956 --    46 O    1.680    53 N    1.291     9 C    0.913
    46   8 O    2.012 --    45 C    1.680    53 N    0.212
    47   6 C    3.993 --    48 C    0.984    52 H    0.981    50 H    0.976
                            51 H    0.965
    48   6 C    3.951 --    49 O    1.633    44 N    1.280    47 C    0.984
    49   8 O    1.985 --    48 C    1.633    44 N    0.192
    50   1 H    0.997 --    47 C    0.976
    51   1 H    0.996 --    47 C    0.965
    52   1 H    0.994 --    47 C    0.981
    53   7 N    3.465 --    45 C    1.291    54 C    1.006    28 H    0.906
                            46 O    0.212
    54   6 C    3.965 --    53 N    1.006    55 H    0.977    57 H    0.977
                            56 H    0.976
    55   1 H    0.997 --    54 C    0.977
    56   1 H    0.998 --    54 C    0.976
    57   1 H    0.993 --    54 C    0.977
 ---------------------------------------------------------------------------

Topologies differ in total number of bonds
Writing topology from bond orders to xtbtopo.mol

molecular dipole:
                 x           y           z       tot (Debye)
 q only:       -0.154       0.445      -0.944
   full:       -0.659       0.302      -1.465       4.154
molecular quadrupole (traceless):
                xx          xy          yy          xz          yz          zz
 q only:      -14.390       9.901       7.396      -4.693       2.065       6.994
  q+dip:      -20.487       6.249       8.173      -6.636       7.839      12.315
   full:      -20.944       6.425       8.182      -5.762       4.353      12.762


           -------------------------------------------------
          | TOTAL ENERGY              -83.439178768455 Eh   |
          | GRADIENT NORM               0.000241422784 Eh/α |
          | HOMO-LUMO GAP               2.211428005986 eV   |
           -------------------------------------------------

------------------------------------------------------------------------
 * finished run on 2026/08/31 at 13:16:04.191     
------------------------------------------------------------------------
 total:
 * wall-time:     0 d,  0 h,  0 min,  0.437 sec
 *  cpu-time:     0 d,  0 h,  0 min,  0.250 sec
 * ratio c/w:     0.572 speedup
 SCF:
 * wall-time:     0 d,  0 h,  0 min,  0.337 sec
 *  cpu-time:     0 d,  0 h,  0 min,  0.219 sec
 * ratio c/w:     0.649 speedup



===== STDERR =====

normal termination of xtb
