57
 energy: -83.439227705634 gnorm: 0.000155576674 xtb: 6.7.1pre (5071a88)
N           -0.10021788985904       -0.58857688412491        0.58615217131683
C            1.25187558644024       -0.35494707064099        0.72483623704055
C            1.70108539784573        0.77823566616417        1.40619630313759
C            3.04152428998171        1.09993299917076        1.41941607892868
C            3.97835292099743        0.30401192344275        0.76948706382012
C            3.53362615650625       -0.84539894086749        0.12788301260600
C            2.19275472688994       -1.17476338998774        0.10217319362699
C            5.41918616983576        0.72096312302966        0.70074049292464
C            5.61362169434757        1.78703104091624       -0.38209464798775
C           -0.92003059908367        0.64000703220241       -1.27425805667772
C            0.26863799679776        1.47579569409847       -1.33199388909160
C            0.32413357523802        2.68819589339502       -0.77501909781286
C            1.50902789672065        3.58009173144022       -0.79329094317699
C            1.24121970393542        4.85808566505099       -1.59994224651421
C            2.47420017273912        5.75152729809755       -1.62627473824557
O           -2.00161317710784        0.98708042756592       -0.81574933233981
O           -3.65919801906580       -0.90670460945707        0.29057024105788
H           -0.70969836824652       -0.14175455066200        1.27431556042811
H           -0.36811671499239       -1.53661594392318        0.36741435568762
H            0.98107804642386        1.39711227587418        1.91952099631033
H            3.37246859605177        1.98438949129261        1.94451524213860
H            4.24700589783386       -1.50301869508167       -0.35163172006066
H            1.86308074184989       -2.06904821830327       -0.40834363472986
H            6.06494248967747       -0.12795317997275        0.46905549484167
H            5.75038538364550        1.14018633269273        1.65142423569336
H            5.07799935927762        2.70781188719411       -0.11915337950959
H            4.97650393354087        0.31674911004354       -1.74787179500934
H            6.48182758030791        3.68505614079690       -1.71220143150535
H           -0.84053332350355       -0.30929017658583       -1.83002259045007
H            1.13223273034520        1.05509411990771       -1.82579588430632
H           -0.56437401036678        3.07585194378604       -0.29199386854847
H            1.75339823387539        3.86410452441877        0.23372943794650
H            2.36750320829271        3.05929836871620       -1.21870214904473
H            0.96911449878195        4.58136023872560       -2.62054723249564
H            0.39722347891523        5.39615805304129       -1.16247657582598
H            2.29120415854426        6.63478948237474       -2.23343493885325
H            2.73401426157302        6.07403125893818       -0.62012108928767
H            3.31962136100600        5.21099253140497       -2.04488153935701
H           -3.13236903799928       -0.28762944458555       -0.25001429941779
H           -4.57249762494860       -0.78282687103658        0.02820622119430
O           -2.17269008401531        0.70286670902907        2.03892337543824
H           -2.23455208708827        1.35193126719331        1.32924683698647
H           -2.80426504605993        0.00966948596187        1.79143912850988
N            5.06178885911844        1.31526339698892       -1.64105133957425
C            7.10989818998201        2.12801264334664       -0.56476499423529
O            8.00170883197721        1.45236581816677       -0.09554980691837
C            3.96272361170902        1.42970445657238       -3.77295743600952
C            4.60807771037978        2.13543060885541       -2.60334491863945
O            4.72161402870482        3.34954888516542       -2.53372218975855
H            3.26831247328958        0.66731056584667       -3.42796669463894
H            4.73259159887034        0.95360090313041       -4.37747535901071
H            3.43630468608328        2.15586138947786       -4.38563751947051
N            7.29281027869531        3.23835622753927       -1.29576926660616
C            8.60185548838425        3.72472677920254       -1.65595363861155
H            8.71823025796862        4.76301520381814       -1.34213888917786
H            8.75699123526053        3.66003769310273       -2.73492735590682
H            9.33939848383277        3.10588168806482       -1.14717119088150
