      -----------------------------------------------------------      
     |                   =====================                   |     
     |                           x T B                           |     
     |                   =====================                   |     
     |                         S. Grimme                         |     
     |          Mulliken Center for Theoretical Chemistry        |     
     |                    University of Bonn                     |     
      -----------------------------------------------------------      

   * xtb version 6.7.1pre (5071a88) compiled by 'Marcel@Raven' on 2024-07-23

   xtb is free software: you can redistribute it and/or modify it under
   the terms of the GNU Lesser General Public License as published by
   the Free Software Foundation, either version 3 of the License, or
   (at your option) any later version.
   
   xtb is distributed in the hope that it will be useful,
   but WITHOUT ANY WARRANTY; without even the implied warranty of
   MERCHANTABILITY or FITNESS FOR A PARTICULAR PURPOSE.  See the
   GNU Lesser General Public License for more details.
   
   Cite this work as:
   * C. Bannwarth, E. Caldeweyher, S. Ehlert, A. Hansen, P. Pracht,
     J. Seibert, S. Spicher, S. Grimme, WIREs Comput. Mol. Sci., 2020, 11,
     e01493. DOI: 10.1002/wcms.1493
   
   for GFN2-xTB:
   * C. Bannwarth, S. Ehlert and S. Grimme., J. Chem. Theory Comput., 2019,
     15, 1652-1671. DOI: 10.1021/acs.jctc.8b01176
   for GFN1-xTB:
   * S. Grimme, C. Bannwarth, P. Shushkov, J. Chem. Theory Comput., 2017,
     13, 1989-2009. DOI: 10.1021/acs.jctc.7b00118
   for GFN0-xTB:
   * P. Pracht, E. Caldeweyher, S. Ehlert, S. Grimme, ChemRxiv, 2019, preprint.
     DOI: 10.26434/chemrxiv.8326202.v1
   for GFN-FF:
   * S. Spicher and S. Grimme, Angew. Chem. Int. Ed., 2020, 59, 15665-15673.
     DOI: 10.1002/anie.202004239
   
   for ALPB and GBSA implicit solvation:
   * S. Ehlert, M. Stahn, S. Spicher, S. Grimme, J. Chem. Theory Comput.,
     2021, 17, 4250-4261. DOI: 10.1021/acs.jctc.1c00471
   
   for ddCOSMO and CPCM-X implicit solvation:
   * M. Stahn, S. Ehlert, S. Grimme, J. Phys. Chem. A,
     2023, XX, XXXX-XXXX. DOI: 10.1021/acs.jpca.3c04382
   
   for DFT-D4:
   * E. Caldeweyher, C. Bannwarth and S. Grimme, J. Chem. Phys., 2017,
     147, 034112. DOI: 10.1063/1.4993215
   * E. Caldeweyher, S. Ehlert, A. Hansen, H. Neugebauer, S. Spicher,
     C. Bannwarth and S. Grimme, J. Chem. Phys., 2019, 150, 154122.
     DOI: 10.1063/1.5090222
   * E. Caldeweyher, J.-M. Mewes, S. Ehlert and S. Grimme, Phys. Chem. Chem. Phys.
     2020, 22, 8499-8512. DOI: 10.1039/D0CP00502A
   
   for sTDA-xTB:
   * S. Grimme and C. Bannwarth, J. Chem. Phys., 2016, 145, 054103.
     DOI: 10.1063/1.4959605
   
   in the mass-spec context:
   * V. Asgeirsson, C. Bauer and S. Grimme, Chem. Sci., 2017, 8, 4879.
     DOI: 10.1039/c7sc00601b
   * J. Koopman and S. Grimme, ACS Omega 2019, 4, 12, 15120-15133.
     DOI: 10.1021/acsomega.9b02011
   
   for metadynamics refer to:
   * S. Grimme, J. Chem. Theory Comput., 2019, 155, 2847-2862
     DOI: 10.1021/acs.jctc.9b00143
   
   for SPH calculations refer to:
   * S. Spicher and S. Grimme, J. Chem. Theory Comput., 2021, 17, 1701-1714
     DOI: 10.1021/acs.jctc.0c01306
   
   for ONIOM refer to:
   * C. Plett, A. Katbashev, S. Ehlert, S. Grimme, M. Bursch,
     Phys. Chem. Chem. Phys., 2023, 25, 17860-17868. DOI: 10.1039/D3CP02178E
   
   for DIPRO refer to:
   * J. Kohn, N. Gildemeister, S. Grimme, D. Fazzi, A. Hansen,
     J. Chem. Phys., 2023, just accepted.
   
   for PTB refer to:
   * S. Grimme, M. Mueller, A. Hansen, J. Chem. Phys., 2023, 158, 124111.
     DOI: 10.1063/5.0137838
   
   with help from (in alphabetical order)
   P. Atkinson, C. Bannwarth, F. Bohle, G. Brandenburg, E. Caldeweyher
   M. Checinski, S. Dohm, S. Ehlert, S. Ehrlich, I. Gerasimov, C. Hölzer
   A. Katbashev, J. Kohn, J. Koopman, C. Lavigne, S. Lehtola, F. März, M. Müller,
   F. Musil, H. Neugebauer, J. Pisarek, C. Plett, P. Pracht, F. Pultar,
   J. Seibert, P. Shushkov, S. Spicher, M. Stahn, M. Steiner, T. Strunk,
   J. Stückrath, T. Rose, and J. Unsleber
   
 * started run on 2026/08/20 at 00:56:24.545     
   ID    Z sym.   atoms
    1    7 N      1, 44, 53
    2    6 C      2-15, 45, 47, 48, 54
    3    8 O      16, 17, 41, 46, 49
    4    1 H      18-40, 42, 43, 50-52, 55-57

           -------------------------------------------------
          |                Calculation Setup                |
           -------------------------------------------------

          program call               : C:\Users\Nayanika\Downloads\xtb-6.7.1pre-windows-x86_64\xtb-6.7.1\bin\xtb.exe D:\PhD_Thesis\LmrR_EVB\charges\fast_lmrr_evb_qm\pdb_preserving_xtb_qm_inputs\RS1_1_to_TS1_2\RS1_1_to_TS1_2_TS_xtbopt.xyz --gfn 2 --hess --chrg 0 --uhf 0 --temper 298 --scf normal --etemp 500
          coordinate file            : D:\PhD_Thesis\LmrR_EVB\charges\fast_lmrr_evb_qm\pdb_preserving_xtb_qm_inputs\RS1_1_to_TS1_2\RS1_1_to_TS1_2_TS_xtbopt.xyz
          omp threads                :                     1


molecular fragmentation (1/2 indicates fragments):
111111111222222221111111111122222222222222211111111111111
# atoms in fragment 1/2:    34    23
 fragment masses (1/2) :      235.28      134.17
CMA distance (Bohr)    :   9.672
constraining FC (au)   :  0.0500
########################################################################
[WARNING] Please study the warnings concerning your input carefully
-2- prog_main_parseArguments: Unknown option '--scf' provided
-1- prog_main_parseArguments: Unknown option '--temper' provided
########################################################################

           -------------------------------------------------
          |                 G F N 2 - x T B                 |
           -------------------------------------------------

        Reference                      10.1021/acs.jctc.8b01176
      * Hamiltonian:
        H0-scaling (s, p, d)           1.850000    2.230000    2.230000
        zeta-weighting                 0.500000
      * Dispersion:
        s8                             2.700000
        a1                             0.520000
        a2                             5.000000
        s9                             5.000000
      * Repulsion:
        kExp                           1.500000    1.000000
        rExp                           1.000000
      * Coulomb:
        alpha                          2.000000
        third order                    shell-resolved
        anisotropic                    true
        a3                             3.000000
        a5                             4.000000
        cn-shift                       1.200000
        cn-exp                         4.000000
        max-rad                        5.000000

q/qsh data taken from xtbrestart
CAMM data taken from xtbrestart

          ...................................................
          :                      SETUP                      :
          :.................................................:
          :  # basis functions                 135          :
          :  # atomic orbitals                 135          :
          :  # shells                           83          :
          :  # electrons                       148          :
          :  max. iterations                   250          :
          :  Hamiltonian                  GFN2-xTB          :
          :  restarted?                       true          :
          :  GBSA solvation                  false          :
          :  PC potential                    false          :
          :  electronic temp.          500.0000000     K    :
          :  accuracy                    1.0000000          :
          :  -> integral cutoff          0.2500000E+02      :
          :  -> integral neglect         0.1000000E-07      :
          :  -> SCF convergence          0.1000000E-05 Eh   :
          :  -> wf. convergence          0.1000000E-03 e    :
          :  Broyden damping             0.4000000          :
          :  net charge                          0          :
          :  unpaired electrons                  0          :
          ...................................................

 iter      E             dE          RMSdq      gap      omega  full diag
   1    -84.5274598 -0.845275E+02  0.360E+00    2.09       0.0  T
   2    -84.5373026 -0.984287E-02  0.213E+00    2.11       1.0  T
   3    -84.5345892  0.271349E-02  0.383E-01    2.25       1.0  T
   4    -84.5408227 -0.623356E-02  0.147E-01    2.16       1.0  T
   5    -84.5410603 -0.237545E-03  0.853E-02    2.16       1.0  T
   6    -84.5411251 -0.647989E-04  0.398E-02    2.16       1.0  T
   7    -84.5411827 -0.576796E-04  0.134E-02    2.16       1.0  T
   8    -84.5411858 -0.307063E-05  0.561E-03    2.16       2.4  T
   9    -84.5411862 -0.437261E-06  0.203E-03    2.16       6.5  T
  10    -84.5411863 -0.407461E-07  0.796E-04    2.16      16.6  T
  11    -84.5411863 -0.710666E-08  0.253E-04    2.16      52.4  T

   *** convergence criteria satisfied after 11 iterations ***

         #    Occupation            Energy/Eh            Energy/eV
      -------------------------------------------------------------
         1        2.0000           -0.7099500             -19.3187
       ...           ...                  ...                  ...
        68        2.0000           -0.4122144             -11.2169
        69        2.0000           -0.4085992             -11.1185
        70        2.0000           -0.4021028             -10.9418
        71        2.0000           -0.3970814             -10.8051
        72        2.0000           -0.3950330             -10.7494
        73        2.0000           -0.3843589             -10.4589
        74        2.0000           -0.3605221              -9.8103 (HOMO)
        75                         -0.2811544              -7.6506 (LUMO)
        76                         -0.2212854              -6.0215
        77                         -0.2191241              -5.9627
        78                         -0.2105221              -5.7286
        79                         -0.2054979              -5.5919
       ...                                ...                  ...
       135                          0.6695223              18.2186
      -------------------------------------------------------------
                  HL-Gap            0.0793677 Eh            2.1597 eV
             Fermi-level           -0.3208383 Eh           -8.7305 eV

 SCC (total)                   0 d,  0 h,  0 min,  0.054 sec
 SCC setup                      ...        0 min,  0.000 sec (  0.000%)
 Dispersion                     ...        0 min,  0.000 sec (  0.000%)
 classical contributions        ...        0 min,  0.001 sec (  1.852%)
 integral evaluation            ...        0 min,  0.007 sec ( 12.963%)
 iterations                     ...        0 min,  0.023 sec ( 42.592%)
 molecular gradient             ...        0 min,  0.023 sec ( 42.592%)
 printout                       ...        0 min,  0.000 sec (  0.000%)

         :::::::::::::::::::::::::::::::::::::::::::::::::::::
         ::                     SUMMARY                     ::
         :::::::::::::::::::::::::::::::::::::::::::::::::::::
         :: total energy             -83.439037537439 Eh    ::
         :: gradient norm              0.000751955138 Eh/a0 ::
         :: HOMO-LUMO gap              2.159704726218 eV    ::
         ::.................................................::
         :: SCC energy               -84.539247560563 Eh    ::
         :: -> isotropic ES            0.174334716024 Eh    ::
         :: -> anisotropic ES         -0.001711737924 Eh    ::
         :: -> anisotropic XC          0.029664932375 Eh    ::
         :: -> dispersion             -0.057006319399 Eh    ::
         :: repulsion energy           1.100210023123 Eh    ::
         :: add. restraining           0.000000000000 Eh    ::
         :: total charge              -0.000000000000 e     ::
         :::::::::::::::::::::::::::::::::::::::::::::::::::::

           ------------------------------------------------- 
          |                Numerical Hessian                |
           ------------------------------------------------- 
step length          :   0.00500
SCC accuracy         :   0.30000
Hessian scale factor :   1.00000
frozen atoms in %    :   0.00000    0
RMS gradient         :   0.00075
estimated CPU  time      0.26 min
estimated wall time      0.27 min

writing file <hessian>.

 projected vibrational frequencies (cm⁻¹)
eigval :       -0.00    -0.00    -0.00     0.00     0.00     0.00
eigval :        8.79    16.88    17.73    29.20    31.42    36.77
eigval :       47.50    51.68    53.59    57.20    65.01    70.60
eigval :       76.76    80.18    87.22    96.25   103.74   112.71
eigval :      124.43   127.76   144.63   159.55   165.40   178.95
eigval :      191.41   195.10   204.35   217.46   235.57   242.37
eigval :      260.98   286.77   289.21   292.00   299.41   327.40
eigval :      342.01   352.34   381.94   383.77   390.04   404.65
eigval :      412.63   416.82   442.70   444.82   474.37   487.36
eigval :      515.45   532.14   577.12   601.65   614.16   644.85
eigval :      672.78   686.71   693.10   726.16   728.31   732.03
eigval :      749.48   771.98   791.27   808.98   814.56   865.14
eigval :      868.77   883.34   892.61   908.35   920.67   922.39
eigval :      927.19   940.17   975.23   992.81   996.38  1002.98
eigval :     1009.50  1018.93  1036.10  1058.76  1071.98  1078.29
eigval :     1090.02  1104.80  1109.93  1117.75  1131.45  1144.87
eigval :     1160.61  1165.80  1196.74  1209.51  1218.37  1223.67
eigval :     1225.14  1237.41  1251.32  1265.06  1282.11  1284.37
eigval :     1288.57  1294.49  1314.71  1325.19  1345.25  1348.18
eigval :     1374.16  1381.05  1393.02  1419.67  1423.57  1431.63
eigval :     1433.86  1456.75  1462.94  1466.52  1473.25  1479.23
eigval :     1484.56  1486.76  1494.26  1501.55  1504.98  1517.65
eigval :     1542.37  1550.84  1577.93  1617.43  1641.58  1694.39
eigval :     1711.06  1758.56  2791.33  2912.77  2957.56  2968.20
eigval :     2970.47  2985.62  2990.05  2991.08  3002.34  3004.97
eigval :     3022.84  3028.07  3030.68  3031.05  3039.23  3048.17
eigval :     3057.30  3060.77  3062.98  3067.38  3073.42  3082.63
eigval :     3096.69  3217.77  3296.20  3313.24  3342.48  3452.79
eigval :     3468.13  3654.39  3664.95
           -------------------------------------------------
          |                Property Printout                |
           -------------------------------------------------

    * Orbital Energies and Occupations

         #    Occupation            Energy/Eh            Energy/eV
      -------------------------------------------------------------
         1        2.0000           -0.7099496             -19.3187
       ...           ...                  ...                  ...
        62        2.0000           -0.4361926             -11.8694
        63        2.0000           -0.4317593             -11.7488
        64        2.0000           -0.4311373             -11.7318
        65        2.0000           -0.4301823             -11.7059
        66        2.0000           -0.4242131             -11.5434
        67        2.0000           -0.4178530             -11.3704
        68        2.0000           -0.4122139             -11.2169
        69        2.0000           -0.4085988             -11.1185
        70        2.0000           -0.4021036             -10.9418
        71        2.0000           -0.3970806             -10.8051
        72        2.0000           -0.3950318             -10.7494
        73        2.0000           -0.3843593             -10.4589
        74        2.0000           -0.3605220              -9.8103 (HOMO)
        75                         -0.2811532              -7.6506 (LUMO)
        76                         -0.2212855              -6.0215
        77                         -0.2191245              -5.9627
        78                         -0.2105236              -5.7286
        79                         -0.2054972              -5.5919
        80                         -0.1661159              -4.5202
        81                         -0.0878614              -2.3908
        82                          0.0008171               0.0222
        83                          0.0105782               0.2878
        84                          0.0319868               0.8704
        85                          0.0724750               1.9721
       ...                                ...                  ...
       135                          0.6695235              18.2187
      -------------------------------------------------------------
                  HL-Gap            0.0793688 Eh            2.1597 eV
             Fermi-level           -0.3208376 Eh           -8.7304 eV

     #   Z          covCN         q      C6AA      α(0)
     1   7 N        2.642    -0.284    27.341     7.766
     2   6 C        2.899     0.078    26.267     8.403
     3   6 C        2.923    -0.060    29.483     8.904
     4   6 C        2.924    -0.039    28.959     8.825
     5   6 C        2.970    -0.007    28.189     8.709
     6   6 C        2.924    -0.044    29.100     8.846
     7   6 C        2.922    -0.064    29.604     8.923
     8   6 C        3.812    -0.070    21.821     6.649
     9   6 C        3.795     0.020    20.239     6.406
    10   6 C        2.769     0.212    23.505     7.940
    11   6 C        2.890    -0.063    29.577     8.916
    12   6 C        2.898     0.000    28.024     8.680
    13   6 C        3.807    -0.060    21.648     6.623
    14   6 C        3.802    -0.047    21.410     6.588
    15   6 C        3.753    -0.111    22.673     6.790
    16   8 O        0.856    -0.404    21.767     6.255
    17   8 O        1.609    -0.598    25.132     6.766
    18   1 H        0.860     0.216     1.028     1.588
    19   1 H        0.860     0.161     1.329     1.806
    20   1 H        0.926     0.042     2.428     2.437
    21   1 H        0.926     0.030     2.593     2.518
    22   1 H        0.925     0.020     2.729     2.583
    23   1 H        0.925     0.021     2.713     2.576
    24   1 H        0.924     0.060     2.197     2.318
    25   1 H        0.924     0.058     2.221     2.331
    26   1 H        0.924     0.059     2.209     2.324
    27   1 H        0.860     0.184     1.194     1.712
    28   1 H        0.860     0.207     1.070     1.621
    29   1 H        0.923     0.009     2.902     2.664
    30   1 H        0.926     0.036     2.509     2.477
    31   1 H        0.925     0.070     2.085     2.258
    32   1 H        0.924     0.057     2.234     2.337
    33   1 H        0.924     0.043     2.409     2.427
    34   1 H        0.924     0.032     2.556     2.500
    35   1 H        0.924     0.034     2.536     2.490
    36   1 H        0.925     0.035     2.515     2.480
    37   1 H        0.925     0.033     2.547     2.496
    38   1 H        0.925     0.062     2.173     2.305
    39   1 H        0.805     0.283     0.775     1.383
    40   1 H        0.803     0.329     0.639     1.256
    41   8 O        1.608    -0.605    25.319     6.791
    42   1 H        0.806     0.273     0.809     1.413
    43   1 H        0.803     0.320     0.664     1.280
    44   7 N        2.692    -0.181    24.929     7.415
    45   6 C        2.753     0.264    22.553     7.777
    46   8 O        0.858    -0.435    22.401     6.346
    47   6 C        3.757    -0.141    23.274     6.878
    48   6 C        2.748     0.277    22.317     7.735
    49   8 O        0.859    -0.461    22.941     6.422
    50   1 H        0.925     0.053     2.278     2.360
    51   1 H        0.925     0.061     2.188     2.313
    52   1 H        0.925     0.074     2.047     2.237
    53   7 N        2.686    -0.178    24.855     7.404
    54   6 C        3.691    -0.042    21.519     6.639
    55   1 H        0.924     0.052     2.290     2.367
    56   1 H        0.924     0.049     2.334     2.389
    57   1 H        0.925     0.082     1.960     2.189

 Mol. C6AA /au·bohr⁶  :      29555.619598
 Mol. C8AA /au·bohr⁸  :     658016.608922
 Mol. α(0) /au        :        262.833325


Wiberg/Mayer (AO) data.
largest (>0.10) Wiberg bond orders for each atom

 ---------------------------------------------------------------------------
     #   Z sym  total        # sym  WBO       # sym  WBO       # sym  WBO
 ---------------------------------------------------------------------------
     1   7 N    3.324 --     2 C    1.161    19 H    0.954    18 H    0.896
     2   6 C    3.972 --     7 C    1.350     3 C    1.337     1 N    1.161
     3   6 C    3.989 --     4 C    1.474     2 C    1.337    20 H    0.967
                             6 C    0.101
     4   6 C    3.992 --     3 C    1.474     5 C    1.393    21 H    0.969
                             7 C    0.101
     5   6 C    3.979 --     6 C    1.404     4 C    1.393     8 C    1.010
     6   6 C    3.991 --     7 C    1.457     5 C    1.404    22 H    0.967
                             3 C    0.101
     7   6 C    3.987 --     6 C    1.457     2 C    1.350    23 H    0.969
                             4 C    0.101
     8   6 C    3.990 --     5 C    1.010     9 C    0.981    24 H    0.969
                            25 H    0.966
     9   6 C    3.962 --     8 C    0.981    44 N    0.973    26 H    0.953
                            45 C    0.913
    10   6 C    3.926 --    16 O    1.741    11 C    1.098    29 H    0.938
    11   6 C    3.989 --    12 C    1.803    10 C    1.098    30 H    0.966
    12   6 C    3.977 --    11 C    1.803    13 C    1.047    31 H    0.960
    13   6 C    3.996 --    12 C    1.047    14 C    0.978    33 H    0.972
                            32 H    0.951
    14   6 C    3.994 --    15 C    1.018    34 H    0.980    35 H    0.979
                            13 C    0.978
    15   6 C    3.993 --    14 C    1.018    37 H    0.988    36 H    0.986
                            38 H    0.980
    16   8 O    2.039 --    10 C    1.741
    17   8 O    1.876 --    39 H    0.918    40 H    0.846
    18   1 H    0.953 --     1 N    0.896
    19   1 H    0.974 --     1 N    0.954
    20   1 H    0.998 --     3 C    0.967
    21   1 H    0.999 --     4 C    0.969
    22   1 H    0.999 --     6 C    0.967
    23   1 H    0.999 --     7 C    0.969
    24   1 H    0.996 --     8 C    0.969
    25   1 H    0.995 --     8 C    0.966
    26   1 H    0.996 --     9 C    0.953
    27   1 H    0.966 --    44 N    0.931
    28   1 H    0.957 --    53 N    0.903
    29   1 H    1.000 --    10 C    0.938
    30   1 H    0.999 --    11 C    0.966
    31   1 H    0.995 --    12 C    0.960
    32   1 H    0.997 --    13 C    0.951
    33   1 H    0.998 --    13 C    0.972
    34   1 H    0.999 --    14 C    0.980
    35   1 H    0.999 --    14 C    0.979
    36   1 H    0.997 --    15 C    0.986
    37   1 H    0.999 --    15 C    0.988
    38   1 H    0.996 --    15 C    0.980
    39   1 H    0.920 --    17 O    0.918
    40   1 H    0.892 --    17 O    0.846
    41   8 O    1.853 --    42 H    0.923    43 H    0.838
    42   1 H    0.926 --    41 O    0.923
    43   1 H    0.897 --    41 O    0.838
    44   7 N    3.459 --    48 C    1.281     9 C    0.973    27 H    0.931
                            49 O    0.192
    45   6 C    3.956 --    46 O    1.679    53 N    1.292     9 C    0.913
    46   8 O    2.011 --    45 C    1.679    53 N    0.212
    47   6 C    3.993 --    48 C    0.983    52 H    0.983    50 H    0.973
                            51 H    0.967
    48   6 C    3.951 --    49 O    1.633    44 N    1.281    47 C    0.983
    49   8 O    1.987 --    48 C    1.633    44 N    0.192
    50   1 H    0.997 --    47 C    0.973
    51   1 H    0.996 --    47 C    0.967
    52   1 H    0.994 --    47 C    0.983
    53   7 N    3.465 --    45 C    1.292    54 C    1.006    28 H    0.903
                            46 O    0.212
    54   6 C    3.966 --    53 N    1.006    55 H    0.978    57 H    0.977
                            56 H    0.976
    55   1 H    0.997 --    54 C    0.978
    56   1 H    0.998 --    54 C    0.976
    57   1 H    0.993 --    54 C    0.977
 ---------------------------------------------------------------------------

Topologies differ in total number of bonds
Writing topology from bond orders to xtbtopo.mol

molecular dipole:
                 x           y           z       tot (Debye)
 q only:       -0.333       0.243      -0.524
   full:       -0.762      -0.021      -0.848       2.898
molecular quadrupole (traceless):
                xx          xy          yy          xz          yz          zz
 q only:      -17.308      11.518       7.056      -9.507       1.367      10.251
  q+dip:      -25.430       8.795       6.935     -14.798       5.611      18.495
   full:      -26.059       8.852       7.656     -14.264       2.199      18.404

           -------------------------------------------------
          |               Frequency Printout                |
           -------------------------------------------------
 projected vibrational frequencies (cm⁻¹)
eigval :       -0.00    -0.00    -0.00     0.00     0.00     0.00
eigval :        8.79    16.88    17.73    29.20    31.42    36.77
eigval :       47.50    51.68    53.59    57.20    65.01    70.60
eigval :       76.76    80.18    87.22    96.25   103.74   112.71
eigval :      124.43   127.76   144.63   159.55   165.40   178.95
eigval :      191.41   195.10   204.35   217.46   235.57   242.37
eigval :      260.98   286.77   289.21   292.00   299.41   327.40
eigval :      342.01   352.34   381.94   383.77   390.04   404.65
eigval :      412.63   416.82   442.70   444.82   474.37   487.36
eigval :      515.45   532.14   577.12   601.65   614.16   644.85
eigval :      672.78   686.71   693.10   726.16   728.31   732.03
eigval :      749.48   771.98   791.27   808.98   814.56   865.14
eigval :      868.77   883.34   892.61   908.35   920.67   922.39
eigval :      927.19   940.17   975.23   992.81   996.38  1002.98
eigval :     1009.50  1018.93  1036.10  1058.76  1071.98  1078.29
eigval :     1090.02  1104.80  1109.93  1117.75  1131.45  1144.87
eigval :     1160.61  1165.80  1196.74  1209.51  1218.37  1223.67
eigval :     1225.14  1237.41  1251.32  1265.06  1282.11  1284.37
eigval :     1288.57  1294.49  1314.71  1325.19  1345.25  1348.18
eigval :     1374.16  1381.05  1393.02  1419.67  1423.57  1431.63
eigval :     1433.86  1456.75  1462.94  1466.52  1473.25  1479.23
eigval :     1484.56  1486.76  1494.26  1501.55  1504.98  1517.65
eigval :     1542.37  1550.84  1577.93  1617.43  1641.58  1694.39
eigval :     1711.06  1758.56  2791.33  2912.77  2957.56  2968.20
eigval :     2970.47  2985.62  2990.05  2991.08  3002.34  3004.97
eigval :     3022.84  3028.07  3030.68  3031.05  3039.23  3048.17
eigval :     3057.30  3060.77  3062.98  3067.38  3073.42  3082.63
eigval :     3096.69  3217.77  3296.20  3313.24  3342.48  3452.79
eigval :     3468.13  3654.39  3664.95
 reduced masses (amu)
   1: 12.50   2: 11.97   3: 11.84   4: 12.43   5: 12.17   6: 12.28   7: 11.81   8: 13.25
   9: 11.85  10: 11.65  11: 11.45  12: 12.34  13: 12.07  14: 12.25  15: 12.74  16: 10.45
  17: 10.60  18:  9.05  19:  4.14  20:  9.63  21:  9.08  22: 10.61  23: 10.84  24: 11.08
  25: 10.10  26:  3.35  27: 11.46  28: 11.37  29: 10.64  30: 10.61  31: 11.42  32: 11.80
  33:  8.09  34:  6.67  35:  8.87  36: 10.44  37:  1.92  38: 10.57  39: 10.86  40: 10.42
  41: 10.68  42:  9.29  43:  8.87  44: 11.19  45:  8.84  46:  8.15  47:  4.34  48:  2.75
  49:  9.08  50:  9.13  51:  5.03  52:  9.28  53: 10.37  54: 10.74  55:  2.93  56:  9.26
  57:  8.29  58: 10.27  59: 11.18  60:  8.84  61:  9.76  62:  3.29  63:  6.86  64:  9.75
  65: 11.21  66:  2.44  67:  5.66  68:  7.55  69:  2.50  70:  6.47  71:  4.71  72:  3.33
  73:  8.36  74: 10.26  75:  3.72  76:  2.71  77:  5.36  78:  4.16  79:  8.62  80:  6.08
  81: 11.00  82:  5.67  83:  4.63  84:  5.35  85:  4.08  86:  8.38  87:  8.15  88:  4.36
  89:  5.37  90:  6.46  91:  8.80  92:  3.89  93:  7.19  94:  8.13  95:  7.35  96:  3.13
  97:  8.42  98:  6.15  99:  1.85 100:  5.22 101:  5.01 102:  6.01 103:  4.58 104:  3.45
 105:  4.61 106:  2.56 107:  4.22 108:  3.14 109:  3.67 110:  4.11 111:  5.61 112:  9.85
 113: 10.96 114:  5.12 115:  3.27 116:  3.46 117:  2.62 118:  3.30 119:  9.99 120:  9.73
 121:  8.63 122:  1.68 123:  1.57 124:  1.62 125:  2.10 126:  2.13 127:  2.46 128:  4.01
 129:  1.87 130:  1.52 131:  1.63 132:  8.87 133:  2.09 134:  2.21 135: 11.52 136: 11.53
 137: 12.18 138: 12.54 139: 13.10 140: 13.19 141:  1.70 142:  1.74 143:  1.79 144:  1.89
 145:  1.88 146:  1.54 147:  1.94 148:  1.50 149:  1.54 150:  1.69 151:  1.88 152:  1.53
 153:  1.82 154:  1.73 155:  1.64 156:  1.79 157:  1.70 158:  1.81 159:  1.75 160:  1.86
 161:  1.80 162:  1.83 163:  1.86 164:  1.87 165:  1.74 166:  1.88 167:  1.86 168:  1.84
 169:  1.90 170:  1.83 171:  1.84
 IR intensities (km·mol⁻¹)
   1:  0.10   2:  0.03   3:  0.11   4:  0.01   5:  0.01   6:  0.04   7:  1.13   8:  0.26
   9:  0.13  10:  0.04  11:  0.39  12:  0.72  13:  3.87  14:  2.21  15:  3.00  16:  2.65
  17:  0.66  18:  1.46  19:  3.80  20:  1.05  21:  4.17  22: 10.43  23:  6.50  24:  5.88
  25:  5.80  26:  2.44  27:  6.63  28: 21.97  29:  3.48  30:  6.34  31: 19.10  32:  5.65
  33: 33.39  34: 88.73  35:  8.55  36: 31.37  37:  0.96  38: 67.71  39: 16.43  40: 20.77
  41:  4.06  42: 20.52  43: 22.65  44: 11.77  45:  4.80  46: 13.82  47: 56.30  48: 53.55
  49: 27.02  50: 12.17  51:130.22  52:  6.57  53:  0.14  54:  1.72  55: 21.28  56:  3.85
  57:  4.55  58: 31.57  59:  0.40  60: 58.31  61: 14.50  62:284.16  63: 41.56  64:102.02
  65: 32.17  66:275.64  67:  3.33  68: 32.50  69: 16.27  70:  4.23  71:151.88  72:  2.43
  73:  2.51  74:  0.79  75:  9.34  76:  0.42  77: 34.31  78:  5.66  79:  1.31  80:  3.66
  81: 19.99  82:  2.34  83: 19.76  84: 25.45  85: 23.64  86:  0.08  87: 20.82  88:  3.81
  89:  6.79  90: 26.56  91:  0.10  92:  0.70  93: 11.02  94: 29.14  95: 22.58  96:  1.88
  97:  1.00  98:  2.16  99:  4.93 100:  2.32 101:  0.89 102: 10.49 103:  6.83 104: 13.32
 105: 28.59 106:  0.57 107: 12.79 108:  1.25 109:  3.05 110:  2.58 111: 17.52 112: 40.12
 113:  8.81 114:  5.55 115: 16.58 116: 27.79 117:  2.89 118:  4.62 119:221.86 120: 11.32
 121:238.52 122:  4.64 123: 10.36 124:  9.57 125:  7.63 126:  1.03 127: 27.19 128:  6.02
 129:  1.85 130:  4.37 131:  5.31 132:172.69 133: 51.14 134:318.54 135:  4.15 136: 37.44
 137:514.18 138:244.30 139:321.20 140:581.65 141:131.85 142: 15.88 143:  4.38 144: 30.93
 145: 38.81 146: 32.13 147: 14.78 148: 43.13 149: 17.53 150: 27.19 151: 13.78 152: 12.49
 153: 51.87 154:  6.26 155: 44.52 156: 37.17 157:  3.15 158:  6.60 159:  5.92 160: 63.85
 161: 19.81 162: 39.60 163: 22.93 164:419.35 165:694.08 166:162.42 167:826.27 168: 24.08
 169: 11.82 170: 12.49 171:  7.46
 Raman intensities (Ä⁴*amu⁻¹)
   1:  0.00   2:  0.00   3:  0.00   4:  0.00   5:  0.00   6:  0.00   7:  0.00   8:  0.00
   9:  0.00  10:  0.00  11:  0.00  12:  0.00  13:  0.00  14:  0.00  15:  0.00  16:  0.00
  17:  0.00  18:  0.00  19:  0.00  20:  0.00  21:  0.00  22:  0.00  23:  0.00  24:  0.00
  25:  0.00  26:  0.00  27:  0.00  28:  0.00  29:  0.00  30:  0.00  31:  0.00  32:  0.00
  33:  0.00  34:  0.00  35:  0.00  36:  0.00  37:  0.00  38:  0.00  39:  0.00  40:  0.00
  41:  0.00  42:  0.00  43:  0.00  44:  0.00  45:  0.00  46:  0.00  47:  0.00  48:  0.00
  49:  0.00  50:  0.00  51:  0.00  52:  0.00  53:  0.00  54:  0.00  55:  0.00  56:  0.00
  57:  0.00  58:  0.00  59:  0.00  60:  0.00  61:  0.00  62:  0.00  63:  0.00  64:  0.00
  65:  0.00  66:  0.00  67:  0.00  68:  0.00  69:  0.00  70:  0.00  71:  0.00  72:  0.00
  73:  0.00  74:  0.00  75:  0.00  76:  0.00  77:  0.00  78:  0.00  79:  0.00  80:  0.00
  81:  0.00  82:  0.00  83:  0.00  84:  0.00  85:  0.00  86:  0.00  87:  0.00  88:  0.00
  89:  0.00  90:  0.00  91:  0.00  92:  0.00  93:  0.00  94:  0.00  95:  0.00  96:  0.00
  97:  0.00  98:  0.00  99:  0.00 100:  0.00 101:  0.00 102:  0.00 103:  0.00 104:  0.00
 105:  0.00 106:  0.00 107:  0.00 108:  0.00 109:  0.00 110:  0.00 111:  0.00 112:  0.00
 113:  0.00 114:  0.00 115:  0.00 116:  0.00 117:  0.00 118:  0.00 119:  0.00 120:  0.00
 121:  0.00 122:  0.00 123:  0.00 124:  0.00 125:  0.00 126:  0.00 127:  0.00 128:  0.00
 129:  0.00 130:  0.00 131:  0.00 132:  0.00 133:  0.00 134:  0.00 135:  0.00 136:  0.00
 137:  0.00 138:  0.00 139:  0.00 140:  0.00 141:  0.00 142:  0.00 143:  0.00 144:  0.00
 145:  0.00 146:  0.00 147:  0.00 148:  0.00 149:  0.00 150:  0.00 151:  0.00 152:  0.00
 153:  0.00 154:  0.00 155:  0.00 156:  0.00 157:  0.00 158:  0.00 159:  0.00 160:  0.00
 161:  0.00 162:  0.00 163:  0.00 164:  0.00 165:  0.00 166:  0.00 167:  0.00 168:  0.00
 169:  0.00 170:  0.00 171:  0.00
 output can be read by thermo (or use thermo option).
 writing <g98.out> molden fake output.
 recommended (thermochemical) frequency scaling factor: 1.0
           -------------------------------------------------
          |             Thermodynamic Functions             |
           -------------------------------------------------

Refinement of some symmetry elements was terminated before convergence was reached.
Some symmetry elements may remain unidentified.
Molecule has no symmetry elements
It seems to be the C1 point group
c1  symmetry found (for desy threshold:  0.10E+00) used in thermo

          ...................................................
          :                      SETUP                      :
          :.................................................:
          :  # frequencies                         165      :
          :  # imaginary freq.                       0      :
          :  linear?                             false      :
          :  only rotor calc.                    false      :
          :  symmetry                               c1      :
          :  rotational number                       1      :
          :  scaling factor                  1.0000000      :
          :  rotor cutoff                   50.0000000 cm⁻¹ :
          :  imag. cutoff                  -20.0000000 cm⁻¹ :
          :.................................................:

    mode    ω/cm⁻¹     T·S(HO)/kcal·mol⁻¹    T·S(FR)/kcal·mol⁻¹   T·S(vib)
   ------------------------------------------------------------------------
       1      8.79    -2.46482 (  0.10%)    -1.57136 ( 99.90%)    -1.57222
       2     16.88    -2.07855 (  1.28%)    -1.37824 ( 98.72%)    -1.38721
       3     17.73    -2.04921 (  1.56%)    -1.36356 ( 98.44%)    -1.37424
       4     29.20    -1.75394 ( 10.43%)    -1.21580 ( 89.57%)    -1.27190
       5     31.42    -1.71066 ( 13.49%)    -1.19412 ( 86.51%)    -1.26382
       6     36.77    -1.61773 ( 22.63%)    -1.14756 ( 77.37%)    -1.25396
       7     47.50    -1.46654 ( 44.89%)    -1.07171 ( 55.11%)    -1.24895
       8     51.68    -1.41687 ( 53.29%)    -1.04676 ( 46.71%)    -1.24400
       9     53.59    -1.39540 ( 56.90%)    -1.03597 ( 43.10%)    -1.24047
      10     57.20    -1.35699 ( 63.14%)    -1.01665 ( 36.86%)    -1.23156
      11     65.01    -1.28171 ( 74.08%)    -0.97874 ( 25.92%)    -1.20320
      12     70.60    -1.23331 ( 79.90%)    -0.95433 ( 20.10%)    -1.17723
      13     76.76    -1.18428 ( 84.74%)    -0.92956 ( 15.26%)    -1.14542
      14     80.18    -1.15874 ( 86.86%)    -0.91663 ( 13.14%)    -1.12694
      15     87.22    -1.10957 ( 90.25%)    -0.89171 (  9.75%)    -1.08833
      16     96.25    -1.05214 ( 93.21%)    -0.86253 (  6.79%)    -1.03927
      17    103.74    -1.00856 ( 94.88%)    -0.84031 (  5.12%)    -0.99994
      18    112.71    -0.96056 ( 96.27%)    -0.81576 (  3.73%)    -0.95516
      19    124.43    -0.90350 ( 97.46%)    -0.78644 (  2.54%)    -0.90052
      20    127.76    -0.88833 ( 97.71%)    -0.77863 (  2.29%)    -0.88582
      21    144.63    -0.81745 ( 98.59%)    -0.74190 (  1.41%)    -0.81639
      22    159.55    -0.76182 ( 99.04%)    -0.71281 (  0.96%)    -0.76135
      23    165.40    -0.74153 ( 99.17%)    -0.70214 (  0.83%)    -0.74121
      24    178.95    -0.69746 ( 99.39%)    -0.67880 (  0.61%)    -0.69735
      25    191.41    -0.66015 ( 99.54%)    -0.65887 (  0.46%)    -0.66014
      26    195.10    -0.64963 ( 99.57%)    -0.65322 (  0.43%)    -0.64964
      27    204.35    -0.62419 ( 99.64%)    -0.63949 (  0.36%)    -0.62425
      28    217.46    -0.59038 ( 99.72%)    -0.62107 (  0.28%)    -0.59046
      29    235.57    -0.54743 ( 99.80%)    -0.59738 (  0.20%)    -0.54753
      30    242.37    -0.53233 ( 99.82%)    -0.58895 (  0.18%)    -0.53243
      31    260.98    -0.49349 ( 99.87%)    -0.56702 (  0.13%)    -0.49359
      32    286.77    -0.44512 ( 99.91%)    -0.53911 (  0.09%)    -0.44521
      33    289.21    -0.44084 ( 99.91%)    -0.53660 (  0.09%)    -0.44092
      34    292.00    -0.43600 ( 99.91%)    -0.53376 (  0.09%)    -0.43608
      35    299.41    -0.42343 ( 99.92%)    -0.52633 (  0.08%)    -0.42351
   ------------------------------------------------------------------------

   temp. (K)  partition function   enthalpy   heat capacity  entropy
                                   cal/mol     cal/K/mol   cal/K/mol   J/K/mol
 298.15  VIB  0.220E+18            19765.369    106.340    130.619
         ROT  0.161E+08              888.752      2.981     35.953
         INT  0.354E+25            20654.121    109.321    166.573
         TR   0.687E+28             1481.254      4.968     43.594
         TOT                       22135.3752   114.2887   210.1662   879.3355

       T/K    H(0)-H(T)+PV         H(T)/Eh          T*S/Eh         G(T)/Eh
   ------------------------------------------------------------------------
    298.15    0.352750E-01    0.502869E+00    0.998568E-01    0.403012E+00
   ------------------------------------------------------------------------

         :::::::::::::::::::::::::::::::::::::::::::::::::::::
         ::                  THERMODYNAMIC                  ::
         :::::::::::::::::::::::::::::::::::::::::::::::::::::
         :: total free energy         -83.036025087327 Eh   ::
         ::.................................................::
         :: total energy              -83.439037539983 Eh   ::
         :: zero point energy           0.467594239981 Eh   ::
         :: G(RRHO) w/o ZPVE           -0.064581787325 Eh   ::
         :: G(RRHO) contrib.            0.403012452656 Eh   ::
         :::::::::::::::::::::::::::::::::::::::::::::::::::::

           -------------------------------------------------
          | TOTAL ENERGY              -83.439037539983 Eh   |
          | TOTAL ENTHALPY            -82.936168334239 Eh   |
          | TOTAL FREE ENERGY         -83.036025087327 Eh   |
          | GRADIENT NORM               0.000750221633 Eh/α |
          | HOMO-LUMO GAP               2.159735691344 eV   |
           -------------------------------------------------

------------------------------------------------------------------------
 * finished run on 2026/08/20 at 00:56:38.197     
------------------------------------------------------------------------
 total:
 * wall-time:     0 d,  0 h,  0 min, 13.651 sec
 *  cpu-time:     0 d,  0 h,  0 min, 13.531 sec
 * ratio c/w:     0.991 speedup
 SCF:
 * wall-time:     0 d,  0 h,  0 min,  0.054 sec
 *  cpu-time:     0 d,  0 h,  0 min,  0.062 sec
 * ratio c/w:     1.157 speedup
 analytical hessian:
 * wall-time:     0 d,  0 h,  0 min, 13.563 sec
 *  cpu-time:     0 d,  0 h,  0 min, 13.453 sec
 * ratio c/w:     0.992 speedup

