      -----------------------------------------------------------      
     |                   =====================                   |     
     |                           x T B                           |     
     |                   =====================                   |     
     |                         S. Grimme                         |     
     |          Mulliken Center for Theoretical Chemistry        |     
     |                    University of Bonn                     |     
      -----------------------------------------------------------      

   * xtb version 6.7.1pre (5071a88) compiled by 'Marcel@Raven' on 2024-07-23

   xtb is free software: you can redistribute it and/or modify it under
   the terms of the GNU Lesser General Public License as published by
   the Free Software Foundation, either version 3 of the License, or
   (at your option) any later version.
   
   xtb is distributed in the hope that it will be useful,
   but WITHOUT ANY WARRANTY; without even the implied warranty of
   MERCHANTABILITY or FITNESS FOR A PARTICULAR PURPOSE.  See the
   GNU Lesser General Public License for more details.
   
   Cite this work as:
   * C. Bannwarth, E. Caldeweyher, S. Ehlert, A. Hansen, P. Pracht,
     J. Seibert, S. Spicher, S. Grimme, WIREs Comput. Mol. Sci., 2020, 11,
     e01493. DOI: 10.1002/wcms.1493
   
   for GFN2-xTB:
   * C. Bannwarth, S. Ehlert and S. Grimme., J. Chem. Theory Comput., 2019,
     15, 1652-1671. DOI: 10.1021/acs.jctc.8b01176
   for GFN1-xTB:
   * S. Grimme, C. Bannwarth, P. Shushkov, J. Chem. Theory Comput., 2017,
     13, 1989-2009. DOI: 10.1021/acs.jctc.7b00118
   for GFN0-xTB:
   * P. Pracht, E. Caldeweyher, S. Ehlert, S. Grimme, ChemRxiv, 2019, preprint.
     DOI: 10.26434/chemrxiv.8326202.v1
   for GFN-FF:
   * S. Spicher and S. Grimme, Angew. Chem. Int. Ed., 2020, 59, 15665-15673.
     DOI: 10.1002/anie.202004239
   
   for ALPB and GBSA implicit solvation:
   * S. Ehlert, M. Stahn, S. Spicher, S. Grimme, J. Chem. Theory Comput.,
     2021, 17, 4250-4261. DOI: 10.1021/acs.jctc.1c00471
   
   for ddCOSMO and CPCM-X implicit solvation:
   * M. Stahn, S. Ehlert, S. Grimme, J. Phys. Chem. A,
     2023, XX, XXXX-XXXX. DOI: 10.1021/acs.jpca.3c04382
   
   for DFT-D4:
   * E. Caldeweyher, C. Bannwarth and S. Grimme, J. Chem. Phys., 2017,
     147, 034112. DOI: 10.1063/1.4993215
   * E. Caldeweyher, S. Ehlert, A. Hansen, H. Neugebauer, S. Spicher,
     C. Bannwarth and S. Grimme, J. Chem. Phys., 2019, 150, 154122.
     DOI: 10.1063/1.5090222
   * E. Caldeweyher, J.-M. Mewes, S. Ehlert and S. Grimme, Phys. Chem. Chem. Phys.
     2020, 22, 8499-8512. DOI: 10.1039/D0CP00502A
   
   for sTDA-xTB:
   * S. Grimme and C. Bannwarth, J. Chem. Phys., 2016, 145, 054103.
     DOI: 10.1063/1.4959605
   
   in the mass-spec context:
   * V. Asgeirsson, C. Bauer and S. Grimme, Chem. Sci., 2017, 8, 4879.
     DOI: 10.1039/c7sc00601b
   * J. Koopman and S. Grimme, ACS Omega 2019, 4, 12, 15120-15133.
     DOI: 10.1021/acsomega.9b02011
   
   for metadynamics refer to:
   * S. Grimme, J. Chem. Theory Comput., 2019, 155, 2847-2862
     DOI: 10.1021/acs.jctc.9b00143
   
   for SPH calculations refer to:
   * S. Spicher and S. Grimme, J. Chem. Theory Comput., 2021, 17, 1701-1714
     DOI: 10.1021/acs.jctc.0c01306
   
   for ONIOM refer to:
   * C. Plett, A. Katbashev, S. Ehlert, S. Grimme, M. Bursch,
     Phys. Chem. Chem. Phys., 2023, 25, 17860-17868. DOI: 10.1039/D3CP02178E
   
   for DIPRO refer to:
   * J. Kohn, N. Gildemeister, S. Grimme, D. Fazzi, A. Hansen,
     J. Chem. Phys., 2023, just accepted.
   
   for PTB refer to:
   * S. Grimme, M. Mueller, A. Hansen, J. Chem. Phys., 2023, 158, 124111.
     DOI: 10.1063/5.0137838
   
   with help from (in alphabetical order)
   P. Atkinson, C. Bannwarth, F. Bohle, G. Brandenburg, E. Caldeweyher
   M. Checinski, S. Dohm, S. Ehlert, S. Ehrlich, I. Gerasimov, C. Hölzer
   A. Katbashev, J. Kohn, J. Koopman, C. Lavigne, S. Lehtola, F. März, M. Müller,
   F. Musil, H. Neugebauer, J. Pisarek, C. Plett, P. Pracht, F. Pultar,
   J. Seibert, P. Shushkov, S. Spicher, M. Stahn, M. Steiner, T. Strunk,
   J. Stückrath, T. Rose, and J. Unsleber
   
 * started run on 2026/08/31 at 13:16:36.363     
   ID    Z sym.   atoms
    1    7 N      1, 44, 53
    2    6 C      2-15, 45, 47, 48, 54
    3    8 O      16, 17, 41, 46, 49
    4    1 H      18-40, 42, 43, 50-52, 55-57

           -------------------------------------------------
          |                Calculation Setup                |
           -------------------------------------------------

          program call               : C:\Users\Nayanika\Downloads\xtb-6.7.1pre-windows-x86_64\xtb-6.7.1\bin\xtb.exe D:\PhD_Thesis\LmrR_EVB\charges\fast_lmrr_5QM\xtb_preparation\RS1_2b_to_PS1_3\RS1_2b_to_PS1_3_PS.xyz --gfn 2 --opt tight --chrg 0 --uhf 0 --etemp 300
          coordinate file            : D:\PhD_Thesis\LmrR_EVB\charges\fast_lmrr_5QM\xtb_preparation\RS1_2b_to_PS1_3\RS1_2b_to_PS1_3_PS.xyz
          omp threads                :                     1


molecular fragmentation (1/2 indicates fragments):
111111111111111221211111111111111111112222211111111111111
# atoms in fragment 1/2:    49     8
 fragment masses (1/2) :      316.42       53.04
CMA distance (Bohr)    :  10.684
constraining FC (au)   :  0.0500

           -------------------------------------------------
          |                 G F N 2 - x T B                 |
           -------------------------------------------------

        Reference                      10.1021/acs.jctc.8b01176
      * Hamiltonian:
        H0-scaling (s, p, d)           1.850000    2.230000    2.230000
        zeta-weighting                 0.500000
      * Dispersion:
        s8                             2.700000
        a1                             0.520000
        a2                             5.000000
        s9                             5.000000
      * Repulsion:
        kExp                           1.500000    1.000000
        rExp                           1.000000
      * Coulomb:
        alpha                          2.000000
        third order                    shell-resolved
        anisotropic                    true
        a3                             3.000000
        a5                             4.000000
        cn-shift                       1.200000
        cn-exp                         4.000000
        max-rad                        5.000000

q/qsh data taken from xtbrestart
CAMM data taken from xtbrestart

          ...................................................
          :                      SETUP                      :
          :.................................................:
          :  # basis functions                 135          :
          :  # atomic orbitals                 135          :
          :  # shells                           83          :
          :  # electrons                       148          :
          :  max. iterations                   250          :
          :  Hamiltonian                  GFN2-xTB          :
          :  restarted?                       true          :
          :  GBSA solvation                  false          :
          :  PC potential                    false          :
          :  electronic temp.          300.0000000     K    :
          :  accuracy                    1.0000000          :
          :  -> integral cutoff          0.2500000E+02      :
          :  -> integral neglect         0.1000000E-07      :
          :  -> SCF convergence          0.1000000E-05 Eh   :
          :  -> wf. convergence          0.1000000E-03 e    :
          :  Broyden damping             0.4000000          :
          :  net charge                          0          :
          :  unpaired electrons                  0          :
          ...................................................

 iter      E             dE          RMSdq      gap      omega  full diag
   1    -84.2605901 -0.842606E+02  0.256E+00    1.86       0.0  T
   2    -81.7765273  0.248406E+01  0.534E+00    0.05       1.0  T
   3    -84.2654312 -0.248890E+01  0.168E+00    2.08       1.0  T
   4    -84.2643810  0.105025E-02  0.110E+00    1.45       1.0  T
   5    -84.2792095 -0.148286E-01  0.926E-01    1.06       1.0  T
   6    -84.2821015 -0.289201E-02  0.843E-01    0.60       1.0  T
   7    -83.6062266  0.675875E+00  0.290E+00    0.02       1.0  T
   8    -83.6135611 -0.733451E-02  0.288E+00    0.02       1.0  T
   9    -83.7846740 -0.171113E+00  0.252E+00    0.02       1.0  T
  10    -83.6721297  0.112544E+00  0.276E+00    0.02       1.0  T
  11    -83.6045540  0.675758E-01  0.289E+00    0.01       1.0  T
  12    -84.2731968 -0.668643E+00  0.946E-01    0.03       1.0  T
  13    -84.3485588 -0.753620E-01  0.235E-01    0.07       1.0  T
  14    -84.3432311  0.532765E-02  0.321E-01    0.11       1.0  T
  15    -84.1841822  0.159049E+00  0.132E+00    0.00       1.0  T
  16    -84.3246709 -0.140489E+00  0.543E-01    0.13       1.0  T
  17    -84.3512416 -0.265707E-01  0.144E-01    0.06       1.0  T
  18    -84.3470183  0.422335E-02  0.252E-01    0.06       1.0  T
  19    -84.3510812 -0.406291E-02  0.149E-01    0.06       1.0  T
  20    -84.3502841  0.797112E-03  0.174E-01    0.06       1.0  T
  21    -84.3479702  0.231390E-02  0.232E-01    0.06       1.0  T
  22    -84.3516831 -0.371287E-02  0.127E-01    0.06       1.0  T
  23    -84.3520977 -0.414672E-03  0.110E-01    0.07       1.0  T
  24    -84.3531856 -0.108790E-02  0.364E-02    0.07       1.0  T
  25    -84.3531990 -0.134003E-04  0.341E-02    0.07       1.0  T
  26    -84.3531989  0.153287E-06  0.331E-02    0.07       1.0  T
  27    -84.3531584  0.405036E-04  0.385E-02    0.07       1.0  T
  28    -84.3531700 -0.116003E-04  0.373E-02    0.07       1.0  T
  29    -84.3523811  0.788915E-03  0.114E-01    0.08       1.0  T
  30    -84.3521336  0.247472E-03  0.128E-01    0.07       1.0  T
  31    -84.3528285 -0.694957E-03  0.789E-02    0.07       1.0  T
  32    -84.3531154 -0.286846E-03  0.442E-02    0.07       1.0  T
  33    -84.3531527 -0.373318E-04  0.390E-02    0.07       1.0  T
  34    -84.3530421  0.110675E-03  0.553E-02    0.06       1.0  T
  35    -84.3530061  0.359645E-04  0.596E-02    0.06       1.0  T
  36    -84.3530497 -0.436484E-04  0.542E-02    0.06       1.0  T
  37    -84.3531220 -0.722579E-04  0.442E-02    0.06       1.0  T
  38    -84.3531696 -0.475596E-04  0.365E-02    0.07       1.0  T
  39    -84.3531792 -0.967341E-05  0.362E-02    0.07       1.0  T
  40    -84.3530331  0.146153E-03  0.582E-02    0.06       1.0  T
  41    -84.3525045  0.528606E-03  0.108E-01    0.06       1.0  T
  42    -84.3504864  0.201809E-02  0.209E-01    0.05       1.0  T
  43    -84.3421108  0.837558E-02  0.417E-01    0.04       1.0  T
  44    -84.3024001  0.397107E-01  0.877E-01    0.01       1.0  T
  45    -84.0783131  0.224087E+00  0.205E+00    0.04       1.0  T
  46    -83.6605624  0.417751E+00  0.463E+00    0.21       1.0  T
  47    -83.6335505  0.270119E-01  0.826E+00    0.54       1.0  T
  48    -83.6290844  0.446615E-02  0.861E+00    0.80       1.0  T
  49    -83.6529713 -0.238870E-01  0.286E+01    0.99       1.0  T
  50    -83.7267996 -0.738282E-01  0.140E+02    0.13       1.0  T
  51    -82.3399035  0.138690E+01  0.567E+02    0.90       1.0  T
  52      9.4622275  0.918021E+02  0.189E+03    0.76       1.0  T
  53    -16.3507962 -0.258130E+02  0.526E+03    0.12       1.0  T
  54    138.5241663  0.154875E+03  0.156E+04    0.97       1.0  T
  55    168.8117174  0.302876E+02  0.448E+04    4.29       1.0  T
  56    156.5411571 -0.122706E+02  0.115E+05   13.75       1.0  T
  57    143.7577485 -0.127834E+02  0.245E+05   96.14       1.0  T
  58    134.0304551 -0.972729E+01  0.452E+05   15.36       1.0  T
  59    102.3199511 -0.317105E+02  0.737E+05   59.79       1.0  T
  60     86.1772738 -0.161427E+02  0.109E+06   70.74       1.0  T
  61     82.1784503 -0.399882E+01  0.147E+06   52.98       1.0  T
  62     71.1875790 -0.109909E+02  0.181E+06  494.98       1.0  T
  63     63.6663528 -0.752123E+01  0.207E+06  362.39       1.0  T
  64     60.2011936 -0.346516E+01  0.219E+06  231.60       1.0  T
  65     60.2337786  0.325850E-01  0.217E+06  105.98       1.0  T
  66     63.7907702  0.355699E+01  0.201E+06  452.16       1.0  T
  67     71.3573825  0.756661E+01  0.176E+06  578.79       1.0  T
  68     82.2000654  0.108427E+02  0.145E+06   16.80       1.0  T
  69     86.3681860  0.416812E+01  0.113E+06   54.92       1.0  T
  70     94.2423499  0.787416E+01  0.844E+05   45.47       1.0  T
  71    103.1535743  0.891122E+01  0.599E+05   27.87       1.0  T
  72    123.7895624  0.206360E+02  0.411E+05   18.90       1.0  T
  73    138.5237861  0.147342E+02  0.264E+05   57.22       1.0  T
  74    141.2192787  0.269549E+01  0.162E+05    5.33       1.0  T
  75    107.3038362 -0.339154E+02  0.101E+05    1.80       1.0  T
  76    148.0096392  0.407058E+02  0.615E+04    1.29       1.0  T
  77    208.8011130  0.607915E+02  0.302E+04    1.10       1.0  T
  78    162.5757022 -0.462254E+02  0.264E+04    1.00       1.0  T
  79    191.4087390  0.288330E+02  0.422E+03    2.59       1.0  T
  80    130.2039986 -0.612047E+02  0.480E+02    0.35       1.0  T
  81     54.0563658 -0.761476E+02  0.137E+04    2.11       1.0  T
  82    191.8430839  0.137787E+03  0.389E+03    3.17       1.0  T
  83    140.9911031 -0.508520E+02  0.215E+03    1.50       1.0  T
  84    108.6392656 -0.323518E+02  0.566E+02    0.13       1.0  T
  85    140.9331848  0.322939E+02  0.652E+03    0.89       1.0  T
  86     57.5070762 -0.834261E+02  0.458E+03    2.60       1.0  T
  87     73.3165190  0.158094E+02  0.449E+03    0.35       1.0  T
  88     56.0964050 -0.172201E+02  0.313E+03    0.35       1.0  T
  89     42.2902495 -0.138062E+02  0.587E+02    0.96       1.0  T
  90     59.2355002  0.169453E+02  0.679E+02    0.38       1.0  T
  91     49.1049657 -0.101305E+02  0.127E+03    1.74       1.0  T
  92     40.6487727 -0.845619E+01  0.109E+03    0.87       1.0  T
  93     53.8994730  0.132507E+02  0.531E+02    1.13       1.0  T
  94     45.9550780 -0.794439E+01  0.668E+02    1.75       1.0  T
  95     51.8827551  0.592768E+01  0.132E+03    0.38       1.0  T
  96     39.3273168 -0.125554E+02  0.679E+02    0.43       1.0  T
  97     49.7374051  0.104101E+02  0.823E+02    0.20       1.0  T
  98     49.7486756  0.112705E-01  0.122E+03    0.39       1.0  T
  99     49.1000656 -0.648610E+00  0.137E+03    0.76       1.0  T
 100     45.0063704 -0.409370E+01  0.384E+02    1.71       1.0  T
 101     49.3142871  0.430792E+01  0.461E+02    0.41       1.0  T
 102     56.1073974  0.679311E+01  0.578E+02    0.03       1.0  T
 103     44.9457751 -0.111616E+02  0.397E+02    0.74       1.0  T
 104     48.1361455  0.319037E+01  0.533E+02    0.10       1.0  T
 105     53.1115847  0.497544E+01  0.707E+02    0.10       1.0  T
 106     51.2173359 -0.189425E+01  0.768E+02    0.50       1.0  T
 107     46.1215457 -0.509579E+01  0.932E+02    0.89       1.0  T
 108     44.0829640 -0.203858E+01  0.119E+03    0.06       1.0  T
 109     30.7272342 -0.133557E+02  0.947E+02    0.63       1.0  T
 110     40.7497449  0.100225E+02  0.874E+02    0.59       1.0  T
 111     30.3958209 -0.103539E+02  0.110E+03    0.33       1.0  T
 112     52.4576506  0.220618E+02  0.345E+02    0.38       1.0  T
 113     25.5548685 -0.269028E+02  0.242E+03    0.42       1.0  T
 114     97.7017134  0.721468E+02  0.707E+02    0.35       1.0  T
 115     17.9299044 -0.797718E+02  0.418E+03    0.79       1.0  T
 116    169.4814606  0.151552E+03  0.125E+03    2.21       1.0  T
 117    140.0351376 -0.294463E+02  0.218E+03    0.53       1.0  T
 118    180.3295860  0.402944E+02  0.301E+03    0.06       1.0  T
 119    161.2151508 -0.191144E+02  0.638E+02    0.57       1.0  T
 120     11.7231195 -0.149492E+03  0.436E+03    0.11       1.0  T
 121     79.7245146  0.680014E+02  0.119E+04    0.70       1.0  T
 122    176.6095501  0.968850E+02  0.438E+03    2.32       1.0  T
 123    121.4897805 -0.551198E+02  0.277E+03    1.17       1.0  T
 124    170.6604859  0.491707E+02  0.994E+03    0.25       1.0  T
 125    157.5605187 -0.131000E+02  0.116E+04    3.04       1.0  T
 126    157.8939179  0.333399E+00  0.117E+04    0.51       1.0  T
 127    164.4223776  0.652846E+01  0.813E+03    2.41       1.0  T
 128    151.7428577 -0.126795E+02  0.607E+03    0.21       1.0  T
 129    154.4703990  0.272754E+01  0.960E+03    0.22       1.0  T
 130    132.7013894 -0.217690E+02  0.108E+04    1.73       1.0  T
 131    144.4580758  0.117567E+02  0.755E+03    0.35       1.0  T
 132    101.3886440 -0.430694E+02  0.883E+03    0.70       1.0  T
 133    121.7395849  0.203509E+02  0.110E+04    0.72       1.0  T
 134     81.6725100 -0.400671E+02  0.992E+03    1.41       1.0  T
 135     77.2430690 -0.442944E+01  0.119E+04    0.79       1.0  T
 136     63.6298672 -0.136132E+02  0.155E+04    0.18       1.0  T
 137    -11.2304167 -0.748603E+02  0.131E+04    1.08       1.0  T
 138     -5.7694499  0.546097E+01  0.167E+04    0.13       1.0  T
 139      2.0099849  0.777943E+01  0.136E+04    0.07       1.0  T
 140     81.9070357  0.798971E+02  0.749E+03    0.50       1.0  T
 141     -4.2023523 -0.861094E+02  0.462E+03    0.72       1.0  T
 142     90.1109698  0.943133E+02  0.140E+03    0.07       1.0  T
 143     58.1152287 -0.319957E+02  0.161E+04    0.34       1.0  T
 144     -5.9559329 -0.640712E+02  0.231E+04    0.64       1.0  T
 145    -33.5771455 -0.276212E+02  0.228E+04    0.29       1.0  T
 146    -25.9299044  0.764724E+01  0.195E+04    0.71       1.0  T
 147    -15.8959966  0.100339E+02  0.104E+04    0.31       1.0  T
 148    -33.3688826 -0.174729E+02  0.363E+03    0.28       1.0  T
 149    -37.1082493 -0.373937E+01  0.538E+02    0.34       1.0  T
 150     -4.4989663  0.326093E+02  0.425E+03    0.12       1.0  T
 151     27.4413022  0.319403E+02  0.605E+03    0.16       1.0  T
 152     20.0883690 -0.735293E+01  0.522E+03    0.80       1.0  T
 153    -40.0979185 -0.601863E+02  0.624E+03    0.69       1.0  T
 154    136.6896555  0.176788E+03  0.198E+03    0.38       1.0  T
 155    -15.3001158 -0.151990E+03  0.572E+03    0.71       1.0  T
 156    -59.5419131 -0.442418E+02  0.106E+04    0.26       1.0  T
 157    -46.8208644  0.127210E+02  0.115E+04    0.26       1.0  T
 158    -24.8493196  0.219715E+02  0.502E+03    0.62       1.0  T
 159    117.4307784  0.142280E+03  0.730E+03    0.49       1.0  T
 160     45.1047504 -0.723260E+02  0.133E+02    0.92       1.0  T
 161     75.4443876  0.303396E+02  0.258E+03    0.20       1.0  T
 162     77.0726232  0.162824E+01  0.465E+03    0.01       1.0  T
 163     45.7718942 -0.313007E+02  0.122E+03    0.04       1.0  T
 164     56.1386120  0.103667E+02  0.244E+03    0.03       1.0  T
 165    -33.3417826 -0.894804E+02  0.906E+02    0.18       1.0  T
 166     55.7143889  0.890562E+02  0.157E+03    0.28       1.0  T
 167    -57.5027771 -0.113217E+03  0.696E+02    0.28       1.0  T
 168    -23.8300539  0.336727E+02  0.327E+03    0.18       1.0  T
 169     25.2953051  0.491254E+02  0.317E+03    0.03       1.0  T
 170    -41.5655318 -0.668608E+02  0.194E+03    0.31       1.0  T
 171     85.6619095  0.127227E+03  0.171E+03    0.30       1.0  T
 172     45.5109631 -0.401509E+02  0.521E+03    0.58       1.0  T
 173     31.1609232 -0.143500E+02  0.594E+03    0.48       1.0  T
 174    -46.5465865 -0.777075E+02  0.542E+03    0.25       1.0  T
 175    -58.7218683 -0.121753E+02  0.561E+03    0.18       1.0  T
 176    -64.4898676 -0.576800E+01  0.383E+03    0.65       1.0  T
 177    -63.9750067  0.514861E+00  0.247E+03    0.41       1.0  T
 178    -20.6718273  0.433032E+02  0.335E+03    0.07       1.0  T
 179    -69.5211063 -0.488493E+02  0.146E+03    0.48       1.0  T
 180    -66.2726137  0.324849E+01  0.837E+02    1.68       1.0  T
 181    -63.6675781  0.260504E+01  0.828E+02    0.88       1.0  T
 182    -59.7460654  0.392151E+01  0.136E+02    0.89       1.0  T
 183    -48.8807269  0.108653E+02  0.950E+02    0.12       1.0  T
 184    -33.3097512  0.155710E+02  0.155E+03    0.50       1.0  T
 185    -62.9164258 -0.296067E+02  0.186E+03    0.53       1.0  T
 186    -60.9328714  0.198355E+01  0.101E+02    1.59       1.0  T
 187    -50.1250865  0.108078E+02  0.105E+03    0.47       1.0  T
 188    -59.7198743 -0.959479E+01  0.290E+02    1.73       1.0  T
 189    -62.9456747 -0.322580E+01  0.142E+03    0.30       1.0  T
 190    -60.5378179  0.240786E+01  0.159E+03    0.39       1.0  T
 191    -59.4752097  0.106261E+01  0.169E+03    0.59       1.0  T
 192    -59.2614745  0.213735E+00  0.165E+03    0.17       1.0  T
 193    -43.3314021  0.159301E+02  0.218E+03    0.11       1.0  T
 194    -63.6164118 -0.202850E+02  0.146E+03    0.18       1.0  T
 195    -62.6335136  0.982898E+00  0.120E+03    0.47       1.0  T
 196     -1.0942177  0.615393E+02  0.212E+03    0.19       1.0  T
 197    -64.7487630 -0.636545E+02  0.953E+02    0.20       1.0  T
 198    -63.7029253  0.104584E+01  0.121E+03    0.32       1.0  T
 199    -56.3602211  0.734270E+01  0.846E+02    0.36       1.0  T
 200    -57.8911379 -0.153092E+01  0.919E+02    0.97       1.0  T
 201    -57.9258064 -0.346685E-01  0.704E+02    0.40       1.0  T
 202    -57.2247727  0.701034E+00  0.100E+03    0.43       1.0  T
 203    -47.8485471  0.937623E+01  0.176E+03    0.12       1.0  T
 204    -59.7972033 -0.119487E+02  0.120E+03    1.03       1.0  T
 205    -64.1228014 -0.432560E+01  0.111E+03    0.09       1.0  T
 206    -57.4163730  0.670643E+01  0.153E+03    0.16       1.0  T
 207    -56.3777990  0.103857E+01  0.165E+03    0.29       1.0  T
 208    -58.0932616 -0.171546E+01  0.143E+03    0.16       1.0  T
 209    -56.4736922  0.161957E+01  0.153E+03    0.43       1.0  T
 210    -58.1178538 -0.164416E+01  0.126E+03    0.33       1.0  T
 211    -53.0409677  0.507689E+01  0.124E+03    0.21       1.0  T
 212    -53.5684448 -0.527477E+00  0.122E+03    0.15       1.0  T
 213    -56.4299847 -0.286154E+01  0.116E+03    0.06       1.0  T
 214    -57.5724159 -0.114243E+01  0.887E+02    0.20       1.0  T
 215    -59.1975520 -0.162514E+01  0.641E+02    0.53       1.0  T
 216    -55.0151662  0.418239E+01  0.992E+02    0.19       1.0  T
 217    -59.5795945 -0.456443E+01  0.103E+03    0.35       1.0  T
 218    -60.3998270 -0.820232E+00  0.116E+03    0.10       1.0  T
 219    -64.2602616 -0.386043E+01  0.112E+03    0.13       1.0  T
 220    -64.3232568 -0.629952E-01  0.112E+03    0.14       1.0  T
 221    -63.8357533  0.487504E+00  0.976E+02    0.30       1.0  T
 222    -59.2056034  0.463015E+01  0.835E+02    0.26       1.0  T
 223    -63.9736390 -0.476804E+01  0.782E+02    0.26       1.0  T
 224    -59.5533816  0.442026E+01  0.816E+02    0.30       1.0  T
 225    -64.4179484 -0.486457E+01  0.736E+02    0.51       1.0  T
 226    -64.4925205 -0.745722E-01  0.612E+02    0.55       1.0  T
 227    -65.8129710 -0.132045E+01  0.404E+02    0.73       1.0  T
 228    -67.1232463 -0.131028E+01  0.300E+02    0.52       1.0  T
 229    -67.7540261 -0.630780E+00  0.969E+01    0.62       1.0  T
 230    -67.6509907  0.103035E+00  0.115E+02    0.57       1.0  T
 231    -68.9422164 -0.129123E+01  0.317E+02    0.25       1.0  T
 232    -68.8574060  0.848103E-01  0.497E+02    0.58       1.0  T
 233    -65.5554136  0.330199E+01  0.328E+02    0.17       1.0  T
 234    -72.6600803 -0.710467E+01  0.621E+02    1.19       1.0  T
 235    -59.2175617  0.134425E+02  0.261E+02    0.34       1.0  T
 236    -68.5300645 -0.931250E+01  0.530E+01    0.48       1.0  T
 237    -65.3338162  0.319625E+01  0.782E+02    0.27       1.0  T
 238    -67.0755683 -0.174175E+01  0.488E+02    0.22       1.0  T
 239    -67.7774238 -0.701856E+00  0.380E+02    0.18       1.0  T
 240    -66.9995613  0.777863E+00  0.322E+02    0.18       1.0  T
 241    -68.4099690 -0.141041E+01  0.188E+02    0.29       1.0  T
 242    -69.6087810 -0.119881E+01  0.101E+02    0.12       1.0  T
 243    -68.8437753  0.765006E+00  0.390E+01    0.22       1.0  T
 244    -69.8991879 -0.105541E+01  0.644E+01    0.37       1.0  T
 245    -70.4047140 -0.505526E+00  0.153E+02    0.16       1.0  T
 246    -70.5678845 -0.163170E+00  0.237E+02    0.25       1.0  T
 247    -73.1344167 -0.256653E+01  0.305E+02    0.96       1.0  T
 248    -69.6741053  0.346031E+01  0.175E+02    0.36       1.0  T
 249    -73.1651055 -0.349100E+01  0.335E+02    1.06       1.0  T
 250    -72.9878315  0.177274E+00  0.374E+02    0.79       1.0  T

   *** convergence criteria cannot be satisfied within 250 iterations ***

         #    Occupation            Energy/Eh            Energy/eV
      -------------------------------------------------------------
         1        2.0000           -8.1081166            -220.6331
       ...           ...                  ...                  ...
        68        2.0000            0.4671952              12.7130
        69        2.0000            0.4872346              13.2583
        70        2.0000            0.5176777              14.0867
        71        2.0000            0.5358721              14.5818
        72        2.0000            0.5471044              14.8875
        73        2.0000            0.5752644              15.6537
        74        2.0000            0.5956952              16.2097 (HOMO)
        75        0.0000            0.6245534              16.9950 (LUMO)
        76                          0.6370956              17.3363
        77                          0.6418040              17.4644
        78                          0.6544799              17.8093
        79                          0.6966114              18.9558
       ...                                ...                  ...
       135                          3.3977978              92.4588
      -------------------------------------------------------------
                  HL-Gap            0.0288582 Eh            0.7853 eV
             Fermi-level            0.6101243 Eh           16.6023 eV

 SCC (total)                   0 d,  0 h,  0 min,  2.296 sec
 SCC setup                      ...        0 min,  0.000 sec (  0.000%)
 Dispersion                     ...        0 min,  0.003 sec (  0.131%)
 classical contributions        ...        0 min,  0.003 sec (  0.131%)
 integral evaluation            ...        0 min,  0.023 sec (  1.002%)
 iterations                     ...        0 min,  2.212 sec ( 96.341%)
 molecular gradient             ...        0 min,  0.055 sec (  2.395%)
 printout                       ...        0 min,  0.000 sec (  0.000%)

########################################################################
[ERROR] Program stopped due to fatal error
-3- Single point calculation terminated
-2- xtb_calculator_singlepoint: Electronic structure method terminated
-1- scf: Self consistent charge iterator did not converge
########################################################################


===== STDERR =====

abnormal termination of xtb
