      -----------------------------------------------------------      
     |                   =====================                   |     
     |                           x T B                           |     
     |                   =====================                   |     
     |                         S. Grimme                         |     
     |          Mulliken Center for Theoretical Chemistry        |     
     |                    University of Bonn                     |     
      -----------------------------------------------------------      

   * xtb version 6.7.1pre (5071a88) compiled by 'Marcel@Raven' on 2024-07-23

   xtb is free software: you can redistribute it and/or modify it under
   the terms of the GNU Lesser General Public License as published by
   the Free Software Foundation, either version 3 of the License, or
   (at your option) any later version.
   
   xtb is distributed in the hope that it will be useful,
   but WITHOUT ANY WARRANTY; without even the implied warranty of
   MERCHANTABILITY or FITNESS FOR A PARTICULAR PURPOSE.  See the
   GNU Lesser General Public License for more details.
   
   Cite this work as:
   * C. Bannwarth, E. Caldeweyher, S. Ehlert, A. Hansen, P. Pracht,
     J. Seibert, S. Spicher, S. Grimme, WIREs Comput. Mol. Sci., 2020, 11,
     e01493. DOI: 10.1002/wcms.1493
   
   for GFN2-xTB:
   * C. Bannwarth, S. Ehlert and S. Grimme., J. Chem. Theory Comput., 2019,
     15, 1652-1671. DOI: 10.1021/acs.jctc.8b01176
   for GFN1-xTB:
   * S. Grimme, C. Bannwarth, P. Shushkov, J. Chem. Theory Comput., 2017,
     13, 1989-2009. DOI: 10.1021/acs.jctc.7b00118
   for GFN0-xTB:
   * P. Pracht, E. Caldeweyher, S. Ehlert, S. Grimme, ChemRxiv, 2019, preprint.
     DOI: 10.26434/chemrxiv.8326202.v1
   for GFN-FF:
   * S. Spicher and S. Grimme, Angew. Chem. Int. Ed., 2020, 59, 15665-15673.
     DOI: 10.1002/anie.202004239
   
   for ALPB and GBSA implicit solvation:
   * S. Ehlert, M. Stahn, S. Spicher, S. Grimme, J. Chem. Theory Comput.,
     2021, 17, 4250-4261. DOI: 10.1021/acs.jctc.1c00471
   
   for ddCOSMO and CPCM-X implicit solvation:
   * M. Stahn, S. Ehlert, S. Grimme, J. Phys. Chem. A,
     2023, XX, XXXX-XXXX. DOI: 10.1021/acs.jpca.3c04382
   
   for DFT-D4:
   * E. Caldeweyher, C. Bannwarth and S. Grimme, J. Chem. Phys., 2017,
     147, 034112. DOI: 10.1063/1.4993215
   * E. Caldeweyher, S. Ehlert, A. Hansen, H. Neugebauer, S. Spicher,
     C. Bannwarth and S. Grimme, J. Chem. Phys., 2019, 150, 154122.
     DOI: 10.1063/1.5090222
   * E. Caldeweyher, J.-M. Mewes, S. Ehlert and S. Grimme, Phys. Chem. Chem. Phys.
     2020, 22, 8499-8512. DOI: 10.1039/D0CP00502A
   
   for sTDA-xTB:
   * S. Grimme and C. Bannwarth, J. Chem. Phys., 2016, 145, 054103.
     DOI: 10.1063/1.4959605
   
   in the mass-spec context:
   * V. Asgeirsson, C. Bauer and S. Grimme, Chem. Sci., 2017, 8, 4879.
     DOI: 10.1039/c7sc00601b
   * J. Koopman and S. Grimme, ACS Omega 2019, 4, 12, 15120-15133.
     DOI: 10.1021/acsomega.9b02011
   
   for metadynamics refer to:
   * S. Grimme, J. Chem. Theory Comput., 2019, 155, 2847-2862
     DOI: 10.1021/acs.jctc.9b00143
   
   for SPH calculations refer to:
   * S. Spicher and S. Grimme, J. Chem. Theory Comput., 2021, 17, 1701-1714
     DOI: 10.1021/acs.jctc.0c01306
   
   for ONIOM refer to:
   * C. Plett, A. Katbashev, S. Ehlert, S. Grimme, M. Bursch,
     Phys. Chem. Chem. Phys., 2023, 25, 17860-17868. DOI: 10.1039/D3CP02178E
   
   for DIPRO refer to:
   * J. Kohn, N. Gildemeister, S. Grimme, D. Fazzi, A. Hansen,
     J. Chem. Phys., 2023, just accepted.
   
   for PTB refer to:
   * S. Grimme, M. Mueller, A. Hansen, J. Chem. Phys., 2023, 158, 124111.
     DOI: 10.1063/5.0137838
   
   with help from (in alphabetical order)
   P. Atkinson, C. Bannwarth, F. Bohle, G. Brandenburg, E. Caldeweyher
   M. Checinski, S. Dohm, S. Ehlert, S. Ehrlich, I. Gerasimov, C. Hölzer
   A. Katbashev, J. Kohn, J. Koopman, C. Lavigne, S. Lehtola, F. März, M. Müller,
   F. Musil, H. Neugebauer, J. Pisarek, C. Plett, P. Pracht, F. Pultar,
   J. Seibert, P. Shushkov, S. Spicher, M. Stahn, M. Steiner, T. Strunk,
   J. Stückrath, T. Rose, and J. Unsleber
   
 * started run on 2026/08/31 at 13:16:33.299     
   ID    Z sym.   atoms
    1    7 N      1, 44, 53
    2    6 C      2-15, 45, 47, 48, 54
    3    8 O      16, 17, 41, 46, 49
    4    1 H      18-40, 42, 43, 50-52, 55-57

           -------------------------------------------------
          |                Calculation Setup                |
           -------------------------------------------------

          program call               : C:\Users\Nayanika\Downloads\xtb-6.7.1pre-windows-x86_64\xtb-6.7.1\bin\xtb.exe D:\PhD_Thesis\LmrR_EVB\charges\fast_lmrr_5QM\xtb_preparation\RS1_2b_to_PS1_3\RS1_2b_to_PS1_3_RS.xyz --gfn 2 --opt tight --chrg 0 --uhf 0 --etemp 300
          coordinate file            : D:\PhD_Thesis\LmrR_EVB\charges\fast_lmrr_5QM\xtb_preparation\RS1_2b_to_PS1_3\RS1_2b_to_PS1_3_RS.xyz
          omp threads                :                     1


molecular fragmentation (1/2 indicates fragments):
111111111111111121211111111111111111112221211111111111111
# atoms in fragment 1/2:    51     6
 fragment masses (1/2) :      333.43       36.03
CMA distance (Bohr)    :  14.164
constraining FC (au)   :  0.0500

           -------------------------------------------------
          |                 G F N 2 - x T B                 |
           -------------------------------------------------

        Reference                      10.1021/acs.jctc.8b01176
      * Hamiltonian:
        H0-scaling (s, p, d)           1.850000    2.230000    2.230000
        zeta-weighting                 0.500000
      * Dispersion:
        s8                             2.700000
        a1                             0.520000
        a2                             5.000000
        s9                             5.000000
      * Repulsion:
        kExp                           1.500000    1.000000
        rExp                           1.000000
      * Coulomb:
        alpha                          2.000000
        third order                    shell-resolved
        anisotropic                    true
        a3                             3.000000
        a5                             4.000000
        cn-shift                       1.200000
        cn-exp                         4.000000
        max-rad                        5.000000

q/qsh data taken from xtbrestart
CAMM data taken from xtbrestart

          ...................................................
          :                      SETUP                      :
          :.................................................:
          :  # basis functions                 135          :
          :  # atomic orbitals                 135          :
          :  # shells                           83          :
          :  # electrons                       148          :
          :  max. iterations                   250          :
          :  Hamiltonian                  GFN2-xTB          :
          :  restarted?                       true          :
          :  GBSA solvation                  false          :
          :  PC potential                    false          :
          :  electronic temp.          300.0000000     K    :
          :  accuracy                    1.0000000          :
          :  -> integral cutoff          0.2500000E+02      :
          :  -> integral neglect         0.1000000E-07      :
          :  -> SCF convergence          0.1000000E-05 Eh   :
          :  -> wf. convergence          0.1000000E-03 e    :
          :  Broyden damping             0.4000000          :
          :  net charge                          0          :
          :  unpaired electrons                  0          :
          ...................................................

 iter      E             dE          RMSdq      gap      omega  full diag
   1    -84.1655215 -0.841655E+02  0.300E+00    3.13       0.0  T
   2    -84.2186389 -0.531175E-01  0.174E+00    0.92       1.0  T
   3    -79.8115897  0.440705E+01  0.678E+00    0.26       1.0  T
   4    -84.2053750 -0.439379E+01  0.980E-01    0.47       1.0  T
   5    -79.8922178  0.431316E+01  0.658E+00    0.17       1.0  T
   6    -84.2180436 -0.432583E+01  0.663E-01    0.67       1.0  T
   7    -84.2295308 -0.114871E-01  0.421E-01    0.78       1.0  T
   8    -84.2303137 -0.782918E-03  0.378E-01    0.82       1.0  T
   9    -84.2308670 -0.553308E-03  0.356E-01    0.82       1.0  T
  10    -84.2311897 -0.322687E-03  0.341E-01    0.73       1.0  T
  11    -84.2314004 -0.210753E-03  0.331E-01    0.64       1.0  T
  12    -84.2316293 -0.228877E-03  0.320E-01    0.55       1.0  T
  13    -84.2320888 -0.459504E-03  0.301E-01    0.41       1.0  T
  14    -84.2366519 -0.456308E-02  0.209E-01    0.21       1.0  T
  15    -84.2383019 -0.164996E-02  0.173E-01    0.18       1.0  T
  16    -84.1851733  0.531286E-01  0.722E-01    0.07       1.0  T
  17    -84.2403703 -0.551970E-01  0.121E-01    0.14       1.0  T
  18    -84.2323164  0.805388E-02  0.294E-01    0.37       1.0  T
  19    -84.0367314  0.195585E+00  0.136E+00    0.03       1.0  T
  20    -84.2320218 -0.195290E+00  0.303E-01    0.43       1.0  T
  21    -84.2373480 -0.532624E-02  0.190E-01    0.20       1.0  T
  22    -84.2379262 -0.578206E-03  0.191E-01    0.12       1.0  T
  23    -84.2365201  0.140619E-02  0.208E-01    0.21       1.0  T
  24    -83.9734651  0.263055E+00  0.155E+00    0.02       1.0  T
  25    -84.2315911 -0.258126E+00  0.322E-01    0.57       1.0  T
  26    -84.2321967 -0.605615E-03  0.297E-01    0.40       1.0  T
  27    -80.0803886  0.415181E+01  0.637E+00    0.17       1.0  T
  28    -84.2044555 -0.412407E+01  0.108E+00    3.83       1.0  T
  29    -84.2244951 -0.200396E-01  0.602E-01    2.71       1.0  T
  30    -84.2255925 -0.109738E-02  0.567E-01    2.44       1.0  T
  31    -84.2256677 -0.751448E-04  0.564E-01    2.42       1.0  T
  32    -84.2266394 -0.971693E-03  0.531E-01    2.17       1.0  T
  33    -84.2273673 -0.727906E-03  0.505E-01    1.97       1.0  T
  34    -84.2287759 -0.140865E-02  0.450E-01    1.55       1.0  T
  35    -84.2314739 -0.269795E-02  0.327E-01    0.61       1.0  T
  36    -80.8230995  0.340837E+01  0.571E+00    0.08       1.0  T
  37    -84.1360739 -0.331297E+01  0.205E+00    1.82       1.0  T
  38    -84.1590663 -0.229923E-01  0.177E+00    2.74       1.0  T
  39    -84.1817171 -0.226508E-01  0.146E+00    3.47       1.0  T
  40    -84.2075158 -0.257987E-01  0.102E+00    3.84       1.0  T
  41    -84.2180192 -0.105034E-01  0.784E-01    3.77       1.0  T
  42    -84.2272713 -0.925207E-02  0.508E-01    1.97       1.0  T
  43    -84.2341977 -0.692644E-02  0.253E-01    0.27       1.0  T
  44    -79.9061432  0.432805E+01  0.655E+00    0.19       1.0  T
  45    -77.5305449  0.237560E+01  0.696E+00    1.18       1.0  T
  46    -77.5465971 -0.160523E-01  0.693E+00    1.00       1.0  T
  47    -77.5473775 -0.780396E-03  0.692E+00    0.98       1.0  T
  48    -77.5515779 -0.420033E-02  0.691E+00    0.91       1.0  T
  49    -77.5214560  0.301218E-01  0.699E+00    1.14       1.0  T
  50    -77.4785768  0.428792E-01  0.712E+00    1.32       1.0  T
  51    -77.5722528 -0.936760E-01  0.691E+00    0.42       1.0  T
  52    -84.1299477 -0.655769E+01  0.226E+00    3.53       1.0  T
  53    -84.2066501 -0.767024E-01  0.117E+00    3.26       1.0  T
  54    -84.2175412 -0.108910E-01  0.934E-01    1.44       1.0  T
  55    -75.1019916  0.911555E+01  0.836E+00    0.12       1.0  T
  56    -75.1036490 -0.165738E-02  0.835E+00    0.11       1.0  T
  57    -75.1564372 -0.527882E-01  0.830E+00    0.11       1.0  T
  58    -75.9995519 -0.843115E+00  0.800E+00    0.07       1.0  T
  59    -75.0906184  0.908933E+00  0.845E+00    0.16       1.0  T
  60    -75.0979739 -0.735549E-02  0.844E+00    0.16       1.0  T
  61    -75.1176560 -0.196821E-01  0.841E+00    0.16       1.0  T
  62    -76.7311337 -0.161348E+01  0.769E+00    0.04       1.0  T
  63    -79.1969350 -0.246580E+01  0.662E+00    0.42       1.0  T
  64    -79.2043657 -0.743065E-02  0.660E+00    0.45       1.0  T
  65    -77.0225111  0.218185E+01  0.756E+00    0.03       1.0  T
  66    -79.2166981 -0.219419E+01  0.658E+00    0.42       1.0  T
  67    -79.2271193 -0.104212E-01  0.655E+00    0.44       1.0  T
  68    -79.2276696 -0.550302E-03  0.655E+00    0.45       1.0  T
  69    -79.2627589 -0.350893E-01  0.650E+00    0.45       1.0  T
  70    -79.2626194  0.139479E-03  0.650E+00    0.45       1.0  T
  71    -79.2493247  0.132947E-01  0.658E+00    0.42       1.0  T
  72    -79.5039788 -0.254654E+00  0.636E+00    0.24       1.0  T
  73    -79.2395169  0.264462E+00  0.650E+00    0.15       1.0  T
  74    -79.5114423 -0.271925E+00  0.630E+00    0.24       1.0  T
  75    -74.6234665  0.488798E+01  0.839E+00    0.08       1.0  T
  76    -78.4103586 -0.378689E+01  0.680E+00    0.06       1.0  T
  77    -74.6478871  0.376247E+01  0.836E+00    0.06       1.0  T
  78    -74.7021539 -0.542667E-01  0.831E+00    0.09       1.0  T
  79    -74.7134252 -0.112713E-01  0.830E+00    0.09       1.0  T
  80    -74.7406276 -0.272024E-01  0.829E+00    0.09       1.0  T
  81    -79.6314184 -0.489079E+01  0.623E+00    0.16       1.0  T
  82    -84.1591250 -0.452771E+01  0.198E+00    2.97       1.0  T
  83    -84.1960152 -0.368902E-01  0.131E+00    3.58       1.0  T
  84    -84.2071078 -0.110926E-01  0.108E+00    3.65       1.0  T
  85    -84.2133258 -0.621793E-02  0.900E-01    3.71       1.0  T
  86    -84.2116243  0.170150E-02  0.946E-01    3.70       1.0  T
  87    -84.2047339  0.689036E-02  0.110E+00    3.71       1.0  T
  88    -84.2024056  0.232831E-02  0.115E+00    3.70       1.0  T
  89    -84.2057406 -0.333499E-02  0.110E+00    3.59       1.0  T
  90    -84.2168639 -0.111233E-01  0.840E-01    2.85       1.0  T
  91    -84.2230592 -0.619529E-02  0.652E-01    1.94       1.0  T
  92    -84.2261203 -0.306114E-02  0.552E-01    1.35       1.0  T
  93    -84.2376014 -0.114811E-01  0.253E-01    0.13       1.0  T
  94    -79.7927232  0.444488E+01  0.618E+00    0.16       1.0  T
  95    -84.1474066 -0.435468E+01  0.203E+00    3.52       1.0  T
  96    -84.2181897 -0.707831E-01  0.811E-01    3.32       1.0  T
  97    -84.2233978 -0.520811E-02  0.664E-01    2.30       1.0  T
  98    -84.2270662 -0.366841E-02  0.538E-01    1.42       1.0  T
  99    -84.2316388 -0.457256E-02  0.399E-01    0.27       1.0  T
 100    -80.1960189  0.403562E+01  0.618E+00    0.13       1.0  T
 101    -81.9501848 -0.175417E+01  0.462E+00    0.19       1.0  T
 102    -81.2382158  0.711969E+00  0.545E+00    0.52       1.0  T
 103    -81.2762750 -0.380592E-01  0.540E+00    0.48       1.0  T
 104    -81.2689581  0.731692E-02  0.541E+00    0.49       1.0  T
 105    -81.2589872  0.997096E-02  0.542E+00    0.49       1.0  T
 106    -81.2469672  0.120199E-01  0.544E+00    0.48       1.0  T
 107    -81.2395223  0.744488E-02  0.546E+00    0.47       1.0  T
 108    -81.2740956 -0.345733E-01  0.541E+00    0.37       1.0  T
 109    -83.9294373 -0.265534E+01  0.362E+00    0.18       1.0  T
 110    -84.1737694 -0.244332E+00  0.165E+00    3.86       1.0  T
 111    -84.2141741 -0.404046E-01  0.923E-01    3.75       1.0  T
 112    -84.2262603 -0.120862E-01  0.579E-01    1.53       1.0  T
 113    -83.3447401  0.881520E+00  0.279E+00    0.04       1.0  T
 114    -79.6297527  0.371499E+01  0.624E+00    0.19       1.0  T
 115    -84.1671971 -0.453744E+01  0.178E+00    3.70       1.0  T
 116    -84.2205137 -0.533166E-01  0.766E-01    2.61       1.0  T
 117    -84.2262585 -0.574485E-02  0.583E-01    1.16       1.0  T
 118    -84.2269481 -0.689601E-03  0.559E-01    0.92       1.0  T
 119    -84.2276193 -0.671158E-03  0.536E-01    0.66       1.0  T
 120    -82.8098945  0.141772E+01  0.354E+00    0.04       1.0  T
 121    -84.2119650 -0.140207E+01  0.102E+00    2.32       1.0  T
 122    -82.5322620  0.167970E+01  0.386E+00    0.04       1.0  T
 123    -84.2004971 -0.166824E+01  0.122E+00    3.63       1.0  T
 124    -84.2358524 -0.353552E-01  0.398E-01    0.14       1.0  T
 125    -79.8407570  0.439510E+01  0.657E+00    0.38       1.0  T
 126    -77.5323727  0.230838E+01  0.716E+00    1.47       1.0  T
 127    -84.0588199 -0.652645E+01  0.320E+00    2.25       1.0  T
 128    -84.2047952 -0.145975E+00  0.123E+00    1.84       1.0  T
 129    -79.8980656  0.430673E+01  0.597E+00    0.07       1.0  T
 130    -84.1042610 -0.420620E+01  0.249E+00    3.27       1.0  T
 131    -84.2073470 -0.103086E+00  0.111E+00    3.39       1.0  T
 132    -84.2196979 -0.123509E-01  0.831E-01    1.56       1.0  T
 133    -84.2256166 -0.591871E-02  0.647E-01    0.32       1.0  T
 134    -84.2340917 -0.847509E-02  0.424E-01    0.12       1.0  T
 135    -84.2337944  0.297243E-03  0.489E-01    0.17       1.0  T
 136    -83.2514445  0.982350E+00  0.289E+00    0.04       1.0  T
 137    -84.1738902 -0.922446E+00  0.720E-01    0.06       1.0  T
 138    -79.9771524  0.419674E+01  0.642E+00    0.18       1.0  T
 139    -80.9978398 -0.102069E+01  0.567E+00    0.15       1.0  T
 140    -84.1587729 -0.316093E+01  0.186E+00    3.92       1.0  T
 141    -84.2097121 -0.509392E-01  0.103E+00    3.55       1.0  T
 142    -84.2222310 -0.125189E-01  0.716E-01    2.00       1.0  T
 143    -84.2250197 -0.278870E-02  0.630E-01    1.18       1.0  T
 144    -84.2261344 -0.111467E-02  0.594E-01    0.88       1.0  T
 145    -84.2274237 -0.128937E-02  0.542E-01    0.69       1.0  T
 146    -84.2285710 -0.114730E-02  0.489E-01    0.54       1.0  T
 147    -84.2300187 -0.144762E-02  0.432E-01    0.35       1.0  T
 148    -84.2321732 -0.215457E-02  0.427E-01    0.11       1.0  T
 149    -84.2281974  0.397580E-02  0.480E-01    1.08       1.0  T
 150    -84.2305774 -0.237992E-02  0.384E-01    0.37       1.0  T
 151    -84.2366215 -0.604411E-02  0.298E-01    0.16       1.0  T
 152    -84.2318536  0.476783E-02  0.345E-01    0.29       1.0  T
 153    -84.1249569  0.106897E+00  0.120E+00    0.05       1.0  T
 154    -84.2274378 -0.102481E+00  0.500E-01    1.53       1.0  T
 155    -84.2306714 -0.323360E-02  0.363E-01    0.49       1.0  T
 156    -84.2347655 -0.409411E-02  0.282E-01    0.21       1.0  T
 157    -84.1449377  0.898278E-01  0.109E+00    0.05       1.0  T
 158    -84.2288375 -0.838997E-01  0.441E-01    1.17       1.0  T
 159    -84.2317659 -0.292844E-02  0.322E-01    0.33       1.0  T
 160    -84.1904434  0.413226E-01  0.815E-01    0.07       1.0  T
 161    -84.2304189 -0.399755E-01  0.370E-01    0.68       1.0  T
 162    -84.2315732 -0.115435E-02  0.398E-01    0.11       1.0  T
 163    -84.2336406 -0.206736E-02  0.283E-01    0.24       1.0  T
 164    -83.7302219  0.503419E+00  0.243E+00    0.01       1.0  T
 165    -84.2223741 -0.492152E+00  0.666E-01    3.00       1.0  T
 166    -84.2298560 -0.748183E-02  0.397E-01    0.96       1.0  T
 167    -84.2315472 -0.169127E-02  0.317E-01    0.42       1.0  T
 168    -84.0419342  0.189613E+00  0.154E+00    0.03       1.0  T
 169    -84.2291090 -0.187175E+00  0.427E-01    1.25       1.0  T
 170    -84.2263560  0.275300E-02  0.466E-01    0.10       1.0  T
 171    -84.2237979  0.255810E-02  0.498E-01    0.10       1.0  T
 172    -84.2169423  0.685558E-02  0.576E-01    0.09       1.0  T
 173    -84.2334116 -0.164692E-01  0.353E-01    0.11       1.0  T
 174    -83.5538782  0.679533E+00  0.281E+00    0.03       1.0  T
 175    -84.2206363 -0.666758E+00  0.714E-01    3.45       1.0  T
 176    -84.2302385 -0.960217E-02  0.377E-01    0.91       1.0  T
 177    -84.2350993 -0.486076E-02  0.240E-01    0.22       1.0  T
 178    -83.0141873  0.122091E+01  0.375E+00    0.04       1.0  T
 179    -84.2032941 -0.118911E+01  0.111E+00    3.71       1.0  T
 180    -84.2270700 -0.237759E-01  0.507E-01    1.94       1.0  T
 181    -84.2311009 -0.403089E-02  0.333E-01    0.66       1.0  T
 182    -84.1763661  0.547349E-01  0.899E-01    0.06       1.0  T
 183    -84.2344294 -0.580633E-01  0.248E-01    0.23       1.0  T
 184    -82.6422366  0.159219E+01  0.420E+00    0.04       1.0  T
 185    -84.1853107 -0.154307E+01  0.142E+00    3.68       1.0  T
 186    -84.2241660 -0.388554E-01  0.606E-01    2.73       1.0  T
 187    -84.2303458 -0.617975E-02  0.369E-01    0.98       1.0  T
 188    -84.2373754 -0.702962E-02  0.192E-01    0.18       1.0  T
 189    -82.8998264  0.133755E+01  0.392E+00    0.04       1.0  T
 190    -84.2005972 -0.130077E+01  0.115E+00    3.73       1.0  T
 191    -84.2278528 -0.272556E-01  0.475E-01    1.77       1.0  T
 192    -84.2324387 -0.458586E-02  0.279E-01    0.34       1.0  T
 193    -82.8965384  0.133590E+01  0.392E+00    0.04       1.0  T
 194    -84.2000355 -0.130350E+01  0.116E+00    3.73       1.0  T
 195    -84.2284469 -0.284115E-01  0.452E-01    1.59       1.0  T
 196    -84.2381845 -0.973755E-02  0.189E-01    0.16       1.0  T
 197    -81.4413413  0.279684E+01  0.534E+00    0.03       1.0  T
 198    -84.0856576 -0.264432E+01  0.264E+00    1.29       1.0  T
 199    -84.2024003 -0.116743E+00  0.111E+00    3.75       1.0  T
 200    -84.2237544 -0.213541E-01  0.608E-01    2.91       1.0  T
 201    -84.2302149 -0.646045E-02  0.368E-01    1.09       1.0  T
 202    -84.2353332 -0.511835E-02  0.213E-01    0.22       1.0  T
 203    -82.4798458  0.175549E+01  0.436E+00    0.04       1.0  T
 204    -84.1756999 -0.169585E+01  0.155E+00    3.30       1.0  T
 205    -84.2237687 -0.480688E-01  0.610E-01    2.92       1.0  T
 206    -84.2312808 -0.751217E-02  0.322E-01    0.68       1.0  T
 207    -82.9163735  0.131491E+01  0.388E+00    0.04       1.0  T
 208    -84.2004769 -0.128410E+01  0.115E+00    3.70       1.0  T
 209    -84.2296009 -0.291241E-01  0.404E-01    1.25       1.0  T
 210    -81.7286403  0.250096E+01  0.508E+00    0.01       1.0  T
 211    -84.1041189 -0.237548E+01  0.244E+00    1.49       1.0  T
 212    -84.2105833 -0.106464E+00  0.945E-01    3.74       1.0  T
 213    -84.2280601 -0.174768E-01  0.463E-01    1.77       1.0  T
 214    -84.2354606 -0.740048E-02  0.212E-01    0.22       1.0  T
 215    -80.4009150  0.383455E+01  0.619E+00    0.11       1.0  T
 216    -77.5999773  0.280094E+01  0.698E+00    0.82       1.0  T
 217    -84.0388176 -0.643884E+01  0.344E+00    0.89       1.0  T
 218    -82.7586407  0.128018E+01  0.339E+00    0.04       1.0  T
 219    -84.2004827 -0.144184E+01  0.126E+00    2.53       1.0  T
 220    -79.7823585  0.441812E+01  0.678E+00    0.14       1.0  T
 221    -83.9822205 -0.419986E+01  0.361E+00    1.97       1.0  T
 222    -84.1734964 -0.191276E+00  0.165E+00    3.90       1.0  T
 223    -84.2170003 -0.435039E-01  0.852E-01    3.65       1.0  T
 224    -84.2282940 -0.112937E-01  0.485E-01    1.39       1.0  T
 225    -84.2313878 -0.309378E-02  0.338E-01    0.50       1.0  T
 226    -82.9191108  0.131228E+01  0.362E+00    0.02       1.0  T
 227    -84.1984592 -0.127935E+01  0.119E+00    3.89       1.0  T
 228    -84.2277832 -0.293240E-01  0.482E-01    1.83       1.0  T
 229    -84.2371144 -0.933122E-02  0.242E-01    0.13       1.0  T
 230    -79.9619684  0.427515E+01  0.651E+00    0.15       1.0  T
 231    -77.6466825  0.231529E+01  0.693E+00    0.31       1.0  T
 232    -84.0181260 -0.637144E+01  0.360E+00    1.59       1.0  T
 233    -84.1962779 -0.178152E+00  0.142E+00    1.87       1.0  T
 234    -79.4306990  0.476558E+01  0.641E+00    0.16       1.0  T
 235    -84.0711508 -0.464045E+01  0.285E+00    2.69       1.0  T
 236    -84.1975014 -0.126351E+00  0.127E+00    3.81       1.0  T
 237    -84.2235517 -0.260503E-01  0.674E-01    2.14       1.0  T
 238    -83.3731471  0.850405E+00  0.276E+00    0.04       1.0  T
 239    -84.2169379 -0.843791E+00  0.848E-01    3.50       1.0  T
 240    -80.0108403  0.420610E+01  0.630E+00    0.10       1.0  T
 241    -77.5867575  0.242408E+01  0.705E+00    0.39       1.0  T
 242    -84.0437564 -0.645700E+01  0.335E+00    1.48       1.0  T
 243    -84.1999910 -0.156235E+00  0.134E+00    0.46       1.0  T
 244    -79.6046344  0.459536E+01  0.632E+00    0.12       1.0  T
 245    -84.1089701 -0.450434E+01  0.249E+00    3.24       1.0  T
 246    -84.2145005 -0.105530E+00  0.955E-01    2.84       1.0  T
 247    -82.8270658  0.138743E+01  0.349E+00    0.04       1.0  T
 248    -84.1934979 -0.136643E+01  0.136E+00    3.75       1.0  T
 249    -84.2376254 -0.441275E-01  0.319E-01    0.14       1.0  T
 250    -79.8536254  0.438400E+01  0.661E+00    0.23       1.0  T

   *** convergence criteria cannot be satisfied within 250 iterations ***

         #    Occupation            Energy/Eh            Energy/eV
      -------------------------------------------------------------
         1        2.0000           -0.8354986             -22.7351
       ...           ...                  ...                  ...
        68        2.0000           -0.3903229             -10.6212
        69        2.0000           -0.3772933             -10.2667
        70        2.0000           -0.3581364              -9.7454
        71        2.0000           -0.3331070              -9.0643
        72        2.0000           -0.2991031              -8.1390
        73        2.0000           -0.2290529              -6.2328
        74        1.9765           -0.2151031              -5.8533 (HOMO)
        75        0.0235           -0.2066825              -5.6241 (LUMO)
        76        0.0000           -0.1989154              -5.4128
        77        0.0000           -0.1955234              -5.3205
        78                         -0.1846853              -5.0255
        79                         -0.1831116              -4.9827
       ...                                ...                  ...
       135                          0.6665730              18.1384
      -------------------------------------------------------------
                  HL-Gap            0.0084206 Eh            0.2291 eV
             Fermi-level           -0.2108930 Eh           -5.7387 eV

 SCC (total)                   0 d,  0 h,  0 min,  2.416 sec
 SCC setup                      ...        0 min,  0.001 sec (  0.041%)
 Dispersion                     ...        0 min,  0.001 sec (  0.041%)
 classical contributions        ...        0 min,  0.000 sec (  0.000%)
 integral evaluation            ...        0 min,  0.016 sec (  0.662%)
 iterations                     ...        0 min,  2.346 sec ( 97.103%)
 molecular gradient             ...        0 min,  0.052 sec (  2.152%)
 printout                       ...        0 min,  0.000 sec (  0.000%)

########################################################################
[ERROR] Program stopped due to fatal error
-3- Single point calculation terminated
-2- xtb_calculator_singlepoint: Electronic structure method terminated
-1- scf: Self consistent charge iterator did not converge
########################################################################


===== STDERR =====

abnormal termination of xtb
