 Entering Gaussian System
 *********************************************
 Gaussian 98:
 frequency output generated by the xtb code
 *********************************************
                         Standard orientation:
 --------------------------------------------------------------------
  Center     Atomic     Atomic              Coordinates (Angstroms)
  Number     Number      Type              X           Y           Z
 --------------------------------------------------------------------
    1          7             0       -0.083285    0.415161    0.296365
    2          6             0        1.253025    0.024447    0.319846
    3          6             0        2.130337    0.491497    1.297965
    4          6             0        3.470946    0.178126    1.229418
    5          6             0        3.968827   -0.591347    0.183911
    6          6             0        3.070771   -1.139971   -0.723342
    7          6             0        1.721016   -0.857676   -0.649504
    8          6             0        5.449083   -0.651206   -0.056031
    9          6             0        5.873523    0.716736   -0.605969
   10          6             0       -0.406898    1.632193    0.100465
   11          6             0        0.491632    2.720105   -0.193647
   12          6             0        0.092187    3.963401   -0.469507
   13          6             0        1.025245    5.052423   -0.866664
   14          6             0        0.846977    5.407124   -2.349662
   15          6             0        1.825756    6.491589   -2.779572
   16          8             0        0.561969    1.356844   -2.985978
   17          8             0       -1.355553   -0.630487   -3.104374
   18          1             0       -1.175166   -0.889107   -0.153804
   19          1             0       -0.059136    0.605769   -3.006080
   20          1             0        1.751764    1.124419    2.087967
   21          1             0        4.148648    0.574668    1.971719
   22          1             0        3.434528   -1.780965   -1.514579
   23          1             0        1.035516   -1.252732   -1.381473
   24          1             0        5.710699   -1.425042   -0.778735
   25          1             0        6.003978   -0.842531    0.862843
   26          1             0        5.715404    1.491759    0.155497
   27          1             0        4.641380    0.325833   -2.276689
   28          1             0        7.089415    2.764501   -1.195568
   29          1             0       -1.471151    1.851187    0.105778
   30          1             0        1.544337    2.476770   -0.232954
   31          1             0       -0.961915    4.213972   -0.449686
   32          1             0        0.829572    5.944767   -0.266114
   33          1             0        2.056900    4.738770   -0.699004
   34          1             0        1.012702    4.507613   -2.945889
   35          1             0       -0.177743    5.743547   -2.524702
   36          1             0        1.707272    6.714634   -3.837400
   37          1             0        1.657672    7.406018   -2.215008
   38          1             0        2.849875    6.168234   -2.607074
   39          1             0       -1.574764   -0.968516   -2.210028
   40          1             0       -1.191763   -1.402726   -3.647228
   41          8             0       -1.826657   -1.493019   -0.578513
   42          1             0        0.068982    2.095314   -3.348002
   43          1             0       -2.672888   -1.311874   -0.167454
   44          7             0        5.045076    1.079199   -1.743214
   45          6             0        7.358532    0.757440   -1.015091
   46          8             0        8.058121   -0.229839   -1.101108
   47          6             0        3.656104    2.488165   -3.101763
   48          6             0        4.655771    2.346841   -1.984953
   49          8             0        5.106613    3.288639   -1.351750
   50          1             0        4.032417    2.009288   -4.003030
   51          1             0        3.483137    3.541888   -3.300119
   52          1             0        2.713161    2.012863   -2.830656
   53          7             0        7.765895    2.012404   -1.266659
   54          6             0        9.101179    2.329293   -1.707180
   55          1             0        9.577417    3.022376   -1.011723
   56          1             0        9.084535    2.779372   -2.701731
   57          1             0        9.669314    1.400903   -1.739298
 --------------------------------------------------------------------
     1 basis functions        1 primitive gaussians
     1 alpha electrons        1 beta electrons
 
 Harmonic frequencies (cm**-1), IR intensities (km*mol⁻¹),
 Raman scattering activities (A**4/amu), Raman depolarization ratios,
 reduced masses (AMU), force constants (mDyne/A) and normal coordinates:
                      1                      2                      3
                        a                      a                      a 
 Frequencies --     9.8657                18.1805                23.1967
 Red. masses --    11.5801                13.1716                11.2844
 Frc consts  --     0.0000                 0.0000                 0.0000
 IR Inten    --     0.8678                 0.0178                 0.9196
 Raman Activ --     0.0000                 0.0000                 0.0000
 Depolar     --     0.0000                 0.0000                 0.0000
 Atom AN      X      Y      Z        X      Y      Z        X      Y      Z
   1   7     0.03  -0.01  -0.01    -0.05   0.07   0.01    -0.05  -0.04   0.06
   2   6     0.02  -0.05  -0.00    -0.05   0.04   0.01    -0.04   0.00   0.04
   3   6     0.01  -0.10   0.03    -0.05   0.04   0.01    -0.04   0.02   0.04
   4   6     0.01  -0.11   0.02    -0.05   0.03   0.00    -0.03   0.06   0.02
   5   6     0.02  -0.05  -0.01    -0.06   0.02   0.00    -0.02   0.07   0.02
   6   6     0.02  -0.02  -0.04    -0.07   0.01   0.02    -0.02   0.05   0.02
   7   6     0.02  -0.01  -0.04    -0.07   0.02   0.02    -0.02   0.02   0.03
   8   6     0.02  -0.01  -0.03    -0.06   0.02  -0.01    -0.02   0.08   0.02
   9   6    -0.05   0.02  -0.02    -0.06   0.01  -0.02    -0.02   0.06  -0.03
  10   6     0.08   0.00  -0.03    -0.01   0.07   0.02    -0.08  -0.03   0.11
  11   6     0.14  -0.04  -0.03     0.02   0.05   0.04    -0.11  -0.00   0.14
  12   6     0.21  -0.02  -0.03     0.06   0.08   0.08    -0.13  -0.00   0.17
  13   6     0.27  -0.08  -0.02     0.10   0.05   0.09    -0.13  -0.00   0.17
  14   6     0.24   0.01   0.00     0.10   0.09   0.10     0.10  -0.25   0.08
  15   6     0.33  -0.07   0.01     0.18   0.02   0.11     0.18  -0.34   0.05
  16   8    -0.16  -0.03  -0.04     0.01  -0.06   0.05    -0.01   0.22   0.07
  17   8    -0.22   0.03   0.04     0.54  -0.57  -0.14     0.06   0.16  -0.08
  18   1    -0.00   0.01   0.01    -0.02   0.02  -0.00     0.00  -0.01  -0.02
  19   1    -0.05  -0.00  -0.01     0.05  -0.06  -0.01     0.01   0.05   0.00
  20   1     0.00  -0.04   0.01    -0.01   0.01   0.00    -0.01   0.00   0.01
  21   1     0.00  -0.04   0.01    -0.01   0.01  -0.00    -0.01   0.02   0.01
  22   1     0.01   0.00  -0.02    -0.02   0.00   0.01    -0.00   0.02   0.01
  23   1     0.01   0.01  -0.02    -0.02   0.01   0.01    -0.01   0.00   0.01
  24   1     0.01   0.00  -0.01    -0.02   0.00  -0.00    -0.00   0.01   0.02
  25   1     0.01   0.00  -0.01    -0.02   0.01  -0.00    -0.01   0.03   0.01
  26   1    -0.04   0.00  -0.01    -0.01   0.01  -0.01    -0.02   0.03  -0.02
  27   1     0.02  -0.02  -0.02    -0.02   0.00  -0.00    -0.00  -0.02  -0.01
  28   1    -0.05   0.03   0.01    -0.02   0.00  -0.01    -0.00   0.01  -0.04
  29   1     0.03   0.01  -0.01    -0.00   0.03   0.01    -0.03  -0.02   0.03
  30   1     0.04  -0.03  -0.00     0.00   0.00   0.00    -0.03   0.01   0.04
  31   1     0.06   0.01  -0.01     0.02   0.04   0.03    -0.04  -0.00   0.05
  32   1     0.11  -0.03   0.01     0.04   0.01   0.03    -0.08   0.02   0.00
  33   1     0.07  -0.05  -0.02     0.03  -0.00   0.02    -0.04   0.02   0.11
  34   1     0.03   0.01  -0.01     0.01   0.02   0.02     0.06  -0.10   0.08
  35   1     0.08   0.04   0.02     0.04   0.05   0.04     0.04  -0.08  -0.04
  36   1     0.09  -0.00   0.01     0.05   0.02   0.03     0.10  -0.15  -0.00
  37   1     0.13  -0.02   0.02     0.07   0.01   0.04     0.03  -0.07  -0.04
  38   1     0.09  -0.05  -0.01     0.05  -0.02   0.03     0.04  -0.10   0.07
  39   1    -0.04   0.01   0.01     0.08  -0.09  -0.03     0.02   0.02  -0.03
  40   1    -0.06   0.01   0.01     0.19  -0.18   0.03     0.02   0.05  -0.03
  41   8    -0.05   0.04   0.07    -0.03   0.06  -0.03     0.04  -0.04  -0.15
  42   1    -0.04  -0.00  -0.00    -0.04  -0.04   0.00    -0.01   0.06   0.04
  43   1    -0.01   0.01   0.03    -0.03   0.05  -0.06     0.01  -0.03  -0.04
  44   7    -0.03  -0.04  -0.05    -0.08   0.01  -0.02     0.02  -0.02  -0.09
  45   6    -0.04   0.13   0.04    -0.07   0.00  -0.05    -0.00   0.04   0.03
  46   8     0.05   0.21   0.08    -0.09  -0.00  -0.07     0.01   0.05   0.16
  47   6    -0.11  -0.15  -0.09    -0.06   0.02  -0.03     0.09  -0.10  -0.24
  48   6    -0.15  -0.07  -0.04    -0.06   0.01  -0.03     0.06  -0.03  -0.21
  49   8    -0.32  -0.05   0.01    -0.06   0.02  -0.04     0.09   0.02  -0.34
  50   1    -0.02  -0.06  -0.01    -0.02  -0.00  -0.01     0.01  -0.08  -0.05
  51   1    -0.03  -0.05  -0.05    -0.01   0.00  -0.01     0.05  -0.03  -0.11
  52   1    -0.03  -0.04  -0.02    -0.02   0.01  -0.01     0.01   0.00  -0.05
  53   7    -0.14   0.17   0.05    -0.07   0.00  -0.06    -0.00   0.03  -0.04
  54   6    -0.14   0.26   0.10    -0.07  -0.01  -0.08     0.02   0.01   0.00
  55   1    -0.06   0.09   0.03    -0.02  -0.00  -0.03    -0.01   0.02  -0.01
  56   1    -0.04   0.08   0.03    -0.03  -0.00  -0.02     0.02  -0.02  -0.01
  57   1    -0.02   0.09   0.04    -0.02  -0.00  -0.03     0.01   0.00   0.03
                      4                      5                      6
                        a                      a                      a 
 Frequencies --    27.2946                32.7156                36.3307
 Red. masses --    11.2440                11.9867                12.2254
 Frc consts  --     0.0000                 0.0000                 0.0000
 IR Inten    --     0.3364                 0.5403                 0.4359
 Raman Activ --     0.0000                 0.0000                 0.0000
 Depolar     --     0.0000                 0.0000                 0.0000
 Atom AN      X      Y      Z        X      Y      Z        X      Y      Z
   1   7     0.01  -0.02  -0.11    -0.02   0.02  -0.03    -0.08  -0.07  -0.10
   2   6     0.02   0.01   0.00    -0.02   0.01  -0.06    -0.07  -0.03  -0.06
   3   6    -0.03   0.12  -0.01    -0.00   0.01  -0.07    -0.10   0.01  -0.05
   4   6    -0.02   0.15   0.07    -0.01  -0.00  -0.09    -0.09   0.06  -0.03
   5   6     0.04   0.06   0.16    -0.02  -0.01  -0.09    -0.04   0.07  -0.01
   6   6     0.08  -0.05   0.18    -0.04   0.00  -0.09    -0.01   0.02  -0.01
   7   6     0.07  -0.08   0.11    -0.04   0.01  -0.07    -0.02  -0.03  -0.04
   8   6     0.04   0.08   0.20    -0.02  -0.03  -0.09    -0.04   0.09   0.02
   9   6     0.02   0.04   0.07    -0.00  -0.03  -0.08    -0.02   0.09   0.03
  10   6     0.00  -0.03  -0.13    -0.02   0.02  -0.02    -0.09  -0.07  -0.14
  11   6    -0.00  -0.01  -0.07    -0.02   0.02  -0.03    -0.09  -0.07  -0.11
  12   6     0.00   0.00  -0.02    -0.02   0.04   0.05    -0.05  -0.05  -0.07
  13   6     0.02   0.03   0.08    -0.02   0.05   0.07     0.00  -0.06   0.04
  14   6     0.00   0.21   0.13    -0.11   0.18   0.11     0.18  -0.01   0.04
  15   6     0.03   0.23   0.24    -0.16   0.23   0.16     0.32  -0.09   0.16
  16   8    -0.05  -0.17   0.03     0.13  -0.18  -0.04     0.18  -0.24  -0.15
  17   8    -0.22   0.05  -0.21    -0.00  -0.10   0.21    -0.13  -0.01   0.29
  18   1     0.03  -0.02  -0.05    -0.02   0.00   0.04    -0.02  -0.04   0.04
  19   1    -0.04  -0.02  -0.02     0.02  -0.04   0.01     0.02  -0.04   0.02
  20   1    -0.02   0.05  -0.02     0.00   0.00  -0.02    -0.04   0.00  -0.02
  21   1    -0.02   0.07   0.01     0.00  -0.00  -0.03    -0.03   0.03  -0.01
  22   1     0.04  -0.04   0.08    -0.02   0.00  -0.03     0.01   0.01  -0.00
  23   1     0.03  -0.05   0.04    -0.01   0.00  -0.02     0.00  -0.02  -0.01
  24   1     0.02   0.00   0.08    -0.01  -0.01  -0.03    -0.00   0.03   0.01
  25   1     0.01   0.06   0.07    -0.01  -0.01  -0.03    -0.02   0.03   0.01
  26   1     0.01   0.03  -0.00    -0.03  -0.01  -0.03     0.01   0.03   0.01
  27   1    -0.01  -0.03   0.04     0.03  -0.03  -0.04    -0.04   0.04   0.03
  28   1    -0.00  -0.01  -0.06    -0.00  -0.00  -0.01     0.02   0.01   0.01
  29   1    -0.00  -0.01  -0.06    -0.00   0.01   0.00    -0.03  -0.03  -0.05
  30   1     0.00  -0.00  -0.02    -0.01   0.00  -0.03    -0.02  -0.02  -0.02
  31   1     0.00   0.00  -0.01    -0.00   0.01   0.03    -0.01  -0.01  -0.03
  32   1     0.01  -0.01   0.06     0.01   0.00   0.05    -0.01  -0.02   0.01
  33   1     0.00  -0.00   0.01    -0.01   0.01  -0.01    -0.01  -0.02   0.04
  34   1    -0.01   0.08   0.00    -0.04   0.07   0.01     0.05  -0.00   0.01
  35   1     0.00   0.08   0.05    -0.04   0.05   0.06     0.07   0.02  -0.02
  36   1     0.00   0.11   0.08    -0.07   0.10   0.05     0.13  -0.01   0.05
  37   1     0.03   0.05   0.11    -0.04   0.05   0.07     0.10  -0.02   0.05
  38   1     0.01   0.05   0.05    -0.04   0.07   0.02     0.08  -0.05   0.08
  39   1    -0.02  -0.00  -0.05    -0.01  -0.01   0.05    -0.03  -0.02   0.07
  40   1    -0.05   0.02  -0.07    -0.03  -0.03   0.05    -0.08   0.01   0.04
  41   8     0.16  -0.12  -0.21    -0.15   0.03   0.23    -0.09  -0.21   0.23
  42   1     0.01  -0.01   0.03     0.04  -0.04  -0.01     0.07  -0.07  -0.09
  43   1     0.04  -0.07  -0.03    -0.03   0.04   0.05    -0.02  -0.05   0.07
  44   7    -0.02  -0.07   0.06     0.09  -0.08  -0.17    -0.05   0.14   0.07
  45   6     0.01   0.00   0.01     0.04   0.00   0.09    -0.04   0.03  -0.03
  46   8     0.01  -0.01   0.12     0.10   0.03   0.27    -0.11  -0.01  -0.12
  47   6    -0.06  -0.19  -0.02     0.10  -0.13  -0.24     0.06   0.20   0.04
  48   6    -0.03  -0.09  -0.04     0.07  -0.08  -0.21     0.07   0.16   0.02
  49   8    -0.02  -0.04  -0.16     0.05  -0.07  -0.27     0.20   0.17  -0.03
  50   1    -0.02  -0.06  -0.00     0.04  -0.04  -0.06     0.03   0.09  -0.00
  51   1    -0.03  -0.06  -0.02     0.02  -0.04  -0.08     0.00   0.06   0.04
  52   1    -0.01  -0.06   0.01     0.03  -0.04  -0.07     0.02   0.04  -0.00
  53   7    -0.01  -0.03  -0.17     0.03   0.01   0.08     0.03   0.02  -0.00
  54   6    -0.03  -0.07  -0.25     0.08   0.04   0.27     0.02  -0.05  -0.07
  55   1    -0.00   0.00  -0.10    -0.02   0.03   0.09     0.03  -0.03  -0.02
  56   1    -0.02  -0.06  -0.09     0.06  -0.00   0.07    -0.00  -0.01  -0.02
  57   1    -0.01  -0.02  -0.05     0.04   0.02   0.11    -0.01  -0.02  -0.03
                      7                      8                      9
                        a                      a                      a 
 Frequencies --    42.2368                46.1612                50.7187
 Red. masses --    12.9445                12.5567                12.6702
 Frc consts  --     0.0000                 0.0000                 0.0000
 IR Inten    --     1.1112                 1.9314                 1.9943
 Raman Activ --     0.0000                 0.0000                 0.0000
 Depolar     --     0.0000                 0.0000                 0.0000
 Atom AN      X      Y      Z        X      Y      Z        X      Y      Z
   1   7     0.01   0.10  -0.14     0.06  -0.03  -0.12     0.00   0.11   0.04
   2   6     0.02   0.10  -0.13     0.07   0.01  -0.10     0.00   0.09   0.01
   3   6     0.00   0.06  -0.10     0.04   0.04  -0.09     0.05   0.17  -0.07
   4   6    -0.00   0.02  -0.07     0.05   0.05  -0.05     0.04   0.12  -0.09
   5   6     0.00   0.01  -0.06     0.08   0.03  -0.02    -0.02   0.02  -0.05
   6   6     0.01   0.07  -0.11     0.10   0.02  -0.04    -0.07  -0.04   0.04
   7   6     0.02   0.12  -0.15     0.10   0.01  -0.08    -0.06  -0.01   0.07
   8   6     0.01  -0.04  -0.02     0.09   0.02   0.03    -0.02  -0.04  -0.09
   9   6     0.05  -0.05  -0.01     0.11   0.01   0.02    -0.00  -0.04  -0.07
  10   6    -0.03   0.08  -0.08     0.01  -0.03  -0.05    -0.01   0.10   0.09
  11   6    -0.07   0.13  -0.02    -0.04   0.03   0.02    -0.02   0.11   0.07
  12   6    -0.11   0.12   0.01    -0.11   0.02   0.09    -0.03   0.13   0.14
  13   6    -0.13   0.16   0.06    -0.16   0.08   0.12    -0.04   0.11   0.08
  14   6     0.05   0.03   0.00     0.01  -0.11   0.06     0.01  -0.05   0.03
  15   6     0.11  -0.02   0.02     0.04  -0.16   0.03     0.06  -0.13  -0.07
  16   8    -0.37   0.20  -0.05    -0.13  -0.18  -0.04     0.17  -0.47   0.12
  17   8    -0.04  -0.17   0.15    -0.15  -0.16  -0.11    -0.25  -0.04  -0.20
  18   1     0.06  -0.03   0.01    -0.05   0.05  -0.02     0.03   0.02  -0.03
  19   1    -0.07   0.03   0.01    -0.03  -0.04  -0.02     0.01  -0.09  -0.01
  20   1     0.00   0.02  -0.03     0.01   0.01  -0.03     0.03   0.07  -0.03
  21   1    -0.00  -0.01  -0.01     0.01   0.02  -0.01     0.02   0.05  -0.04
  22   1     0.00   0.02  -0.03     0.04   0.00  -0.01    -0.03  -0.03   0.02
  23   1     0.01   0.05  -0.05     0.03  -0.00  -0.03    -0.03  -0.02   0.04
  24   1     0.00  -0.01  -0.00     0.03   0.00   0.01    -0.02  -0.01  -0.03
  25   1    -0.01  -0.01   0.00     0.02   0.01   0.01    -0.00  -0.02  -0.03
  26   1     0.01  -0.01  -0.01     0.03   0.01   0.00    -0.00  -0.01  -0.02
  27   1     0.04  -0.01  -0.02     0.04   0.00   0.00     0.01  -0.00  -0.03
  28   1     0.02  -0.02  -0.01     0.02  -0.00  -0.03     0.01   0.00   0.07
  29   1    -0.01   0.01  -0.02     0.00  -0.02  -0.01    -0.00   0.03   0.04
  30   1    -0.02   0.05   0.00    -0.01   0.03   0.01    -0.01   0.03  -0.01
  31   1    -0.03   0.02  -0.01    -0.04  -0.01   0.03    -0.01   0.04   0.07
  32   1    -0.08   0.06  -0.01    -0.09   0.04  -0.00    -0.02   0.05  -0.01
  33   1    -0.04   0.07   0.06    -0.05   0.06   0.08    -0.01   0.04   0.04
  34   1     0.03  -0.01   0.03     0.02  -0.05   0.06     0.00  -0.03   0.04
  35   1     0.02   0.00  -0.04     0.01  -0.04  -0.03     0.01  -0.01  -0.01
  36   1     0.07  -0.03  -0.00     0.05  -0.08  -0.00     0.03  -0.07  -0.03
  37   1     0.02   0.01  -0.02    -0.01  -0.02  -0.03     0.02  -0.02  -0.05
  38   1     0.02  -0.00   0.05     0.01  -0.04   0.05     0.01  -0.04   0.00
  39   1     0.02  -0.06   0.04    -0.07   0.01  -0.02    -0.02  -0.01  -0.04
  40   1     0.02  -0.03   0.03    -0.03  -0.07   0.02    -0.09  -0.01  -0.06
  41   8     0.34  -0.33   0.17    -0.45   0.39   0.02     0.22  -0.03  -0.11
  42   1    -0.11   0.02  -0.05    -0.01  -0.06  -0.07     0.07  -0.07   0.10
  43   1     0.08  -0.14   0.06    -0.10   0.20  -0.01     0.06  -0.06  -0.00
  44   7     0.08  -0.05  -0.04     0.11   0.01   0.02     0.01  -0.02  -0.07
  45   6     0.06  -0.06   0.03     0.11   0.01   0.02    -0.00  -0.02  -0.07
  46   8     0.09  -0.06   0.12     0.16   0.03   0.14    -0.04  -0.03  -0.28
  47   6    -0.07  -0.06   0.09    -0.05  -0.04   0.13    -0.01   0.01  -0.01
  48   6    -0.04  -0.06   0.06    -0.00  -0.01   0.09    -0.03  -0.01   0.00
  49   8    -0.12  -0.08   0.14    -0.05  -0.01   0.13    -0.09  -0.04   0.08
  50   1    -0.04  -0.04   0.03    -0.02  -0.00   0.03     0.02   0.05  -0.02
  51   1    -0.01  -0.02   0.02    -0.03  -0.01   0.05    -0.04   0.00   0.03
  52   1    -0.03   0.00   0.05    -0.01  -0.02   0.05     0.01  -0.04  -0.03
  53   7     0.05  -0.07  -0.02     0.08  -0.00  -0.11     0.03   0.02   0.17
  54   6     0.07  -0.07   0.04     0.07  -0.01  -0.12     0.04   0.06   0.23
  55   1     0.01  -0.02   0.02     0.02   0.01  -0.05     0.01  -0.02   0.10
  56   1     0.03  -0.02   0.01     0.02  -0.02  -0.04     0.02   0.07   0.09
  57   1     0.02  -0.02   0.03     0.02   0.00  -0.02     0.01   0.02   0.03
                     10                     11                     12
                        a                      a                      a 
 Frequencies --    56.5181                57.3158                60.3861
 Red. masses --    12.7032                13.5931                12.8982
 Frc consts  --     0.0000                 0.0000                 0.0000
 IR Inten    --     1.2942                 6.3295                 0.3861
 Raman Activ --     0.0000                 0.0000                 0.0000
 Depolar     --     0.0000                 0.0000                 0.0000
 Atom AN      X      Y      Z        X      Y      Z        X      Y      Z
   1   7     0.03  -0.02  -0.09     0.03  -0.05  -0.07     0.02   0.03   0.11
   2   6     0.04   0.01  -0.03     0.03  -0.03  -0.01     0.02   0.02   0.08
   3   6     0.03   0.14  -0.09     0.01   0.02  -0.01     0.01  -0.05   0.13
   4   6     0.03   0.13  -0.04     0.02   0.04   0.02     0.01  -0.05   0.12
   5   6     0.04  -0.02   0.08     0.05   0.00   0.06     0.01   0.02   0.07
   6   6     0.04  -0.14   0.15     0.07  -0.06   0.08     0.02   0.09   0.02
   7   6     0.04  -0.13   0.10     0.06  -0.07   0.04     0.02   0.09   0.02
   8   6     0.04  -0.03   0.09     0.05   0.03   0.07     0.01   0.03   0.07
   9   6     0.01  -0.06   0.01     0.02   0.02   0.02    -0.01   0.02   0.03
  10   6    -0.01  -0.03  -0.11     0.02  -0.05  -0.09     0.03   0.03   0.11
  11   6    -0.05   0.01  -0.08     0.01  -0.03  -0.05     0.05   0.01   0.07
  12   6    -0.10   0.01   0.00    -0.02  -0.05  -0.09     0.07   0.03   0.15
  13   6    -0.14   0.07   0.07    -0.03  -0.02  -0.03     0.06   0.01   0.08
  14   6     0.01  -0.01   0.03     0.02   0.03  -0.03    -0.07  -0.02   0.09
  15   6     0.01   0.01   0.09     0.03   0.06   0.05    -0.10  -0.03  -0.02
  16   8     0.21   0.21  -0.24    -0.42   0.17   0.22    -0.14  -0.02  -0.74
  17   8     0.24   0.18   0.19    -0.09  -0.15  -0.05    -0.13  -0.12  -0.11
  18   1    -0.01   0.00   0.02    -0.02   0.00  -0.01     0.01   0.01   0.00
  19   1     0.05   0.05  -0.00    -0.08   0.02   0.02    -0.04  -0.00  -0.11
  20   1     0.01   0.07  -0.05    -0.00   0.01  -0.01    -0.00  -0.03   0.05
  21   1     0.01   0.07  -0.02    -0.00   0.02   0.00     0.00  -0.03   0.04
  22   1     0.01  -0.07   0.07     0.03  -0.03   0.03     0.01   0.04  -0.00
  23   1     0.01  -0.07   0.04     0.02  -0.03   0.01     0.01   0.05  -0.01
  24   1     0.01  -0.02   0.04     0.02   0.00   0.03     0.00   0.00   0.02
  25   1     0.01   0.01   0.03     0.01   0.03   0.02     0.00   0.02   0.02
  26   1    -0.00  -0.01  -0.01     0.01   0.01   0.00     0.00   0.01   0.01
  27   1     0.05  -0.04  -0.03    -0.04  -0.01   0.04    -0.01  -0.00   0.02
  28   1    -0.01   0.00   0.06     0.03   0.02   0.08     0.01   0.00   0.02
  29   1    -0.00  -0.02  -0.04     0.00  -0.02  -0.04     0.01   0.02   0.04
  30   1    -0.01   0.02  -0.03     0.01   0.00   0.01     0.01  -0.01  -0.01
  31   1    -0.03  -0.01   0.01    -0.01  -0.02  -0.05     0.02   0.02   0.07
  32   1    -0.08   0.02   0.00    -0.02  -0.01  -0.00     0.03   0.01   0.03
  33   1    -0.04   0.04   0.06    -0.01   0.00  -0.00     0.02  -0.00   0.00
  34   1     0.04  -0.01   0.03     0.02   0.02  -0.01    -0.04  -0.01   0.03
  35   1     0.00  -0.02  -0.03     0.01   0.01  -0.02    -0.02  -0.00   0.05
  36   1     0.03  -0.01   0.02     0.02   0.03   0.02    -0.06  -0.02  -0.00
  37   1    -0.03   0.01   0.01     0.00   0.01   0.02    -0.01  -0.01  -0.01
  38   1     0.00   0.02   0.06     0.01   0.02   0.02    -0.02  -0.01  -0.03
  39   1     0.03   0.04   0.04    -0.03  -0.02  -0.01    -0.01  -0.01  -0.01
  40   1     0.06   0.05   0.04     0.03  -0.05   0.02    -0.04  -0.04  -0.01
  41   8    -0.09   0.05   0.08    -0.14   0.06   0.01     0.08   0.03  -0.01
  42   1     0.05   0.02  -0.12    -0.11   0.03   0.03    -0.01  -0.06  -0.32
  43   1    -0.02   0.05   0.00    -0.03   0.05   0.00     0.02  -0.01  -0.00
  44   7     0.00  -0.13   0.00    -0.03  -0.02   0.04    -0.03  -0.00   0.04
  45   6    -0.01  -0.01  -0.06    -0.00   0.01  -0.06    -0.02  -0.00  -0.01
  46   8    -0.03  -0.00  -0.33    -0.10  -0.03  -0.40    -0.07  -0.03  -0.11
  47   6     0.07  -0.16  -0.11    -0.03  -0.04   0.02     0.03  -0.01  -0.03
  48   6    -0.07  -0.14   0.02     0.08  -0.01  -0.07     0.03  -0.00  -0.03
  49   8    -0.28  -0.16   0.16     0.27   0.02  -0.26     0.09   0.02  -0.10
  50   1     0.04  -0.07  -0.01    -0.05  -0.05   0.01     0.01  -0.00  -0.01
  51   1     0.04  -0.05  -0.05     0.01  -0.01  -0.02     0.01  -0.00  -0.01
  52   1     0.01  -0.03  -0.05    -0.01   0.02   0.05     0.01  -0.00  -0.01
  53   7    -0.03   0.03   0.11     0.10   0.05   0.27     0.03  -0.00   0.08
  54   6    -0.08   0.10   0.00     0.09   0.04   0.27     0.02  -0.03   0.04
  55   1    -0.00   0.00   0.01     0.04  -0.03   0.11     0.02  -0.02   0.02
  56   1    -0.05   0.07   0.02     0.03   0.06   0.10     0.00   0.00   0.02
  57   1    -0.02   0.03  -0.05     0.01   0.01   0.03    -0.00  -0.01  -0.00
                     13                     14                     15
                        a                      a                      a 
 Frequencies --    69.0861                76.5832                80.4927
 Red. masses --    10.0341                11.3560                 9.9844
 Frc consts  --     0.0000                 0.0000                 0.0000
 IR Inten    --     1.3213                 5.4929                 5.6171
 Raman Activ --     0.0000                 0.0000                 0.0000
 Depolar     --     0.0000                 0.0000                 0.0000
 Atom AN      X      Y      Z        X      Y      Z        X      Y      Z
   1   7    -0.03  -0.05   0.01     0.05   0.07  -0.25     0.06   0.03   0.18
   2   6    -0.03  -0.05   0.01     0.02  -0.01  -0.17     0.05   0.00   0.14
   3   6     0.03   0.23  -0.18    -0.02  -0.02  -0.13     0.14   0.02   0.05
   4   6     0.04   0.26  -0.20    -0.03  -0.09  -0.04     0.12  -0.05  -0.04
   5   6    -0.02   0.03  -0.06    -0.01  -0.15   0.02     0.01  -0.13  -0.04
   6   6    -0.07  -0.24   0.15     0.01  -0.16   0.00    -0.08  -0.15   0.08
   7   6    -0.08  -0.28   0.20     0.02  -0.10  -0.09    -0.07  -0.09   0.17
   8   6    -0.03   0.01  -0.12    -0.00  -0.11   0.05    -0.01  -0.15  -0.17
   9   6    -0.00   0.02  -0.08    -0.06  -0.06   0.12    -0.03  -0.10  -0.06
  10   6     0.00  -0.04   0.00     0.10   0.10  -0.10     0.01   0.00   0.06
  11   6     0.04  -0.09  -0.08     0.12   0.11  -0.00    -0.05   0.05   0.04
  12   6     0.12  -0.02   0.12     0.11   0.15   0.21    -0.16  -0.05  -0.23
  13   6     0.17  -0.10   0.03     0.05   0.17   0.12    -0.21   0.06  -0.08
  14   6    -0.07  -0.01   0.08    -0.01  -0.07   0.06     0.15   0.02  -0.13
  15   6    -0.01  -0.12  -0.07    -0.12  -0.06  -0.16     0.13   0.15   0.16
  16   8    -0.17   0.18  -0.12     0.06  -0.02   0.06    -0.02  -0.02  -0.17
  17   8     0.01   0.01   0.01     0.01   0.03   0.08    -0.02  -0.02  -0.07
  18   1    -0.01  -0.01   0.00     0.01   0.01  -0.01     0.02   0.02   0.01
  19   1    -0.02   0.03  -0.01     0.01  -0.00   0.03    -0.01  -0.00  -0.03
  20   1     0.02   0.12  -0.09    -0.01   0.01  -0.05     0.07   0.02   0.01
  21   1     0.02   0.13  -0.10    -0.02  -0.03  -0.00     0.06  -0.01  -0.03
  22   1    -0.03  -0.12   0.08     0.01  -0.06   0.02    -0.05  -0.06   0.02
  23   1    -0.04  -0.14   0.10     0.01  -0.03  -0.03    -0.04  -0.03   0.07
  24   1    -0.02   0.01  -0.05     0.01  -0.02   0.01    -0.03  -0.02  -0.08
  25   1    -0.00  -0.01  -0.04    -0.00  -0.04   0.02     0.02  -0.07  -0.07
  26   1     0.00  -0.00  -0.02    -0.01  -0.03   0.05    -0.01  -0.05   0.00
  27   1    -0.01   0.03  -0.02    -0.09  -0.01   0.08    -0.06   0.00   0.01
  28   1     0.01  -0.00  -0.04    -0.07  -0.00   0.01    -0.06  -0.01  -0.04
  29   1     0.00   0.00   0.02     0.03   0.04  -0.03     0.00  -0.01   0.01
  30   1     0.00  -0.05  -0.09     0.03   0.02  -0.04    -0.00   0.05   0.08
  31   1     0.04   0.03   0.11     0.03   0.04   0.11    -0.06  -0.06  -0.15
  32   1     0.11  -0.03   0.03    -0.00   0.07  -0.00    -0.14   0.01  -0.04
  33   1     0.05  -0.07  -0.05     0.02   0.08   0.04    -0.06   0.06   0.06
  34   1    -0.09  -0.00   0.00     0.01  -0.05   0.06     0.13   0.01  -0.02
  35   1    -0.02   0.04   0.08    -0.01  -0.05   0.01     0.04  -0.03  -0.12
  36   1    -0.05  -0.02  -0.01    -0.05  -0.08  -0.06     0.12   0.04   0.04
  37   1     0.06  -0.03  -0.00    -0.05   0.01  -0.09    -0.05   0.04   0.03
  38   1    -0.01  -0.07  -0.08    -0.03   0.02  -0.04     0.04   0.08   0.13
  39   1    -0.00  -0.00  -0.00     0.00  -0.00   0.02     0.00   0.01  -0.01
  40   1     0.03   0.00   0.01    -0.00   0.01   0.01     0.01  -0.02  -0.00
  41   8    -0.03  -0.05  -0.02     0.05  -0.04   0.05     0.10   0.10  -0.01
  42   1    -0.05   0.02  -0.08     0.04  -0.02  -0.06     0.01  -0.02  -0.09
  43   1    -0.01  -0.01  -0.01     0.02  -0.01   0.02     0.02   0.01   0.00
  44   7     0.01   0.07  -0.07    -0.13  -0.05   0.17    -0.07  -0.03  -0.02
  45   6     0.03   0.00   0.01    -0.07   0.03   0.06    -0.02  -0.00  -0.01
  46   8     0.06   0.01   0.22    -0.02   0.08   0.05     0.09   0.06   0.15
  47   6    -0.07   0.15   0.08    -0.01  -0.00   0.10    -0.07   0.10   0.11
  48   6    -0.01   0.08   0.02     0.07  -0.02   0.02     0.03   0.00   0.00
  49   8     0.03   0.05   0.06     0.33   0.01  -0.18     0.22  -0.03  -0.07
  50   1    -0.03   0.06   0.01    -0.02  -0.00   0.02    -0.05   0.04   0.01
  51   1    -0.02   0.05   0.04    -0.00   0.00   0.03    -0.02   0.03   0.06
  52   1    -0.02   0.04   0.03    -0.00   0.00   0.04    -0.02   0.03   0.04
  53   7     0.03  -0.02  -0.09    -0.19   0.06   0.05    -0.14   0.02  -0.08
  54   6     0.09  -0.04   0.10    -0.25   0.15  -0.10    -0.12   0.13   0.03
  55   1    -0.00  -0.00   0.04    -0.08   0.08  -0.06    -0.08   0.07   0.01
  56   1     0.07  -0.03   0.02    -0.11   0.02  -0.04    -0.02   0.02  -0.00
  57   1     0.03  -0.01   0.07    -0.04   0.06  -0.02    -0.00   0.06   0.05
                     16                     17                     18
                        a                      a                      a 
 Frequencies --    92.4178               103.8809               119.5378
 Red. masses --     7.4348                 9.4801                10.0085
 Frc consts  --     0.0000                 0.0000                 0.0000
 IR Inten    --     3.9106                 0.7234                 6.1035
 Raman Activ --     0.0000                 0.0000                 0.0000
 Depolar     --     0.0000                 0.0000                 0.0000
 Atom AN      X      Y      Z        X      Y      Z        X      Y      Z
   1   7    -0.03  -0.00  -0.03     0.04  -0.01  -0.09     0.14   0.01  -0.11
   2   6    -0.03  -0.04   0.00     0.03  -0.03  -0.02     0.10  -0.07  -0.00
   3   6    -0.04   0.02  -0.02    -0.01  -0.05   0.03     0.07  -0.12   0.05
   4   6    -0.03   0.05  -0.02    -0.00  -0.02   0.05     0.06  -0.16   0.09
   5   6    -0.03   0.02   0.00     0.03   0.02   0.03     0.06  -0.13   0.07
   6   6    -0.02  -0.04   0.04     0.07   0.02   0.00     0.08  -0.16   0.08
   7   6    -0.03  -0.07   0.04     0.06  -0.01  -0.03     0.08  -0.14   0.05
   8   6    -0.03   0.04  -0.00     0.02   0.10   0.02     0.04   0.02  -0.01
   9   6    -0.03   0.04   0.01    -0.05   0.08  -0.09    -0.12   0.07  -0.01
  10   6     0.05   0.02  -0.02     0.07  -0.00  -0.06     0.15   0.01  -0.10
  11   6     0.10  -0.02   0.01     0.08   0.01   0.02     0.10   0.07   0.01
  12   6     0.13   0.00   0.06     0.06  -0.00   0.02    -0.04   0.03  -0.03
  13   6     0.12   0.01   0.04     0.02   0.04   0.04    -0.18   0.17   0.03
  14   6     0.32  -0.29  -0.05     0.12  -0.12  -0.01    -0.15   0.14   0.02
  15   6    -0.22   0.24   0.06    -0.08   0.06  -0.00     0.08  -0.09  -0.06
  16   8    -0.12  -0.01  -0.03     0.18  -0.05   0.01    -0.04   0.01  -0.02
  17   8    -0.11  -0.12  -0.03     0.12   0.14   0.07    -0.04  -0.04  -0.01
  18   1    -0.01  -0.00  -0.00     0.01   0.00  -0.01     0.03   0.02  -0.01
  19   1    -0.02  -0.01  -0.03     0.02   0.01   0.04     0.01  -0.01  -0.03
  20   1    -0.01   0.01  -0.01    -0.01  -0.02   0.01     0.02  -0.03   0.01
  21   1    -0.01   0.03  -0.01    -0.01  -0.01   0.02     0.02  -0.05   0.03
  22   1    -0.00  -0.02   0.02     0.03   0.01   0.00     0.03  -0.05   0.03
  23   1    -0.01  -0.03   0.02     0.02   0.00  -0.02     0.02  -0.04   0.01
  24   1    -0.01   0.01  -0.00     0.02   0.02   0.02     0.02   0.02  -0.01
  25   1    -0.01   0.01  -0.00     0.02   0.06   0.01     0.04   0.02  -0.02
  26   1    -0.01   0.01   0.00    -0.00   0.04  -0.03    -0.03   0.01   0.01
  27   1     0.04   0.02  -0.03    -0.07   0.00   0.02    -0.02   0.03  -0.01
  28   1     0.02   0.01   0.00     0.03   0.00  -0.07     0.02   0.01  -0.03
  29   1     0.02   0.02  -0.01     0.02   0.00  -0.03     0.04  -0.01  -0.05
  30   1     0.03  -0.02  -0.00     0.03   0.01   0.02     0.04   0.05   0.03
  31   1     0.04   0.00   0.03     0.01  -0.01  -0.01    -0.02  -0.04  -0.03
  32   1    -0.02   0.03  -0.05    -0.04   0.02  -0.02    -0.09   0.04   0.01
  33   1     0.04   0.04   0.08     0.01   0.04   0.05    -0.04   0.09   0.02
  34   1     0.29  -0.08   0.03     0.11  -0.04   0.03    -0.10   0.02   0.02
  35   1     0.05  -0.26  -0.11     0.02  -0.10  -0.05    -0.02   0.10   0.01
  36   1    -0.01  -0.01  -0.01     0.00  -0.03  -0.01     0.02  -0.03  -0.02
  37   1    -0.29   0.07  -0.05    -0.11   0.02  -0.04     0.09  -0.01  -0.02
  38   1    -0.02   0.26   0.13    -0.01   0.09   0.05     0.00  -0.09  -0.03
  39   1    -0.02  -0.03  -0.00     0.02   0.02   0.01     0.00  -0.00   0.00
  40   1    -0.05  -0.03  -0.01     0.06   0.04   0.02    -0.05  -0.02  -0.01
  41   8    -0.03  -0.05   0.03     0.03   0.02  -0.03     0.07   0.08   0.06
  42   1    -0.09   0.03   0.15     0.12  -0.05  -0.18    -0.08   0.04   0.17
  43   1    -0.01  -0.02   0.01     0.01   0.02  -0.02     0.03   0.04   0.03
  44   7     0.01   0.06  -0.01    -0.14   0.03  -0.06    -0.17   0.10   0.04
  45   6    -0.02   0.01   0.02    -0.05   0.01  -0.08    -0.12   0.03  -0.01
  46   8    -0.06  -0.01   0.03    -0.11  -0.04   0.04    -0.19  -0.02   0.13
  47   6     0.20   0.09  -0.17    -0.44  -0.05   0.18     0.16   0.16  -0.24
  48   6     0.02   0.06  -0.01    -0.21   0.01  -0.02    -0.06   0.11  -0.04
  49   8    -0.12   0.05   0.12    -0.12   0.05  -0.18    -0.16   0.12   0.04
  50   1     0.09   0.02  -0.03    -0.18  -0.02   0.03     0.11   0.07  -0.05
  51   1     0.08   0.03  -0.06    -0.15  -0.02   0.05     0.05   0.05  -0.06
  52   1     0.04   0.04  -0.09    -0.11  -0.02   0.11     0.03   0.03  -0.13
  53   7     0.01  -0.00  -0.01     0.05  -0.04  -0.15    -0.04  -0.03  -0.15
  54   6     0.02  -0.06  -0.05     0.20  -0.14   0.25     0.08  -0.18   0.10
  55   1     0.02  -0.03  -0.02     0.02  -0.06   0.11     0.05  -0.15   0.10
  56   1     0.00  -0.01  -0.01     0.15  -0.04   0.07     0.08   0.04   0.07
  57   1    -0.01  -0.03  -0.02     0.03  -0.06   0.12    -0.04  -0.09  -0.03
                     19                     20                     21
                        a                      a                      a 
 Frequencies --   123.9557               136.2929               146.6578
 Red. masses --     2.0558                 5.0285                 9.9538
 Frc consts  --     0.0000                 0.0000                 0.0000
 IR Inten    --     0.6550                73.9442                10.7444
 Raman Activ --     0.0000                 0.0000                 0.0000
 Depolar     --     0.0000                 0.0000                 0.0000
 Atom AN      X      Y      Z        X      Y      Z        X      Y      Z
   1   7     0.03  -0.00  -0.02    -0.00   0.00   0.00    -0.02   0.01   0.04
   2   6     0.02  -0.01  -0.00    -0.02  -0.04   0.02    -0.00   0.05   0.09
   3   6     0.02  -0.02   0.01     0.00  -0.04  -0.00    -0.03  -0.01   0.14
   4   6     0.02  -0.02   0.01    -0.00  -0.04  -0.04    -0.02  -0.02   0.15
   5   6     0.01  -0.02   0.01    -0.02  -0.03  -0.06     0.00   0.04   0.12
   6   6     0.02  -0.03   0.01    -0.05  -0.07  -0.01     0.02   0.12   0.05
   7   6     0.02  -0.03   0.01    -0.05  -0.08   0.04     0.03   0.12   0.03
   8   6     0.01   0.01  -0.01    -0.03   0.00  -0.08    -0.00  -0.01   0.07
   9   6    -0.02   0.02  -0.01    -0.01   0.05   0.04    -0.01  -0.08  -0.11
  10   6     0.03  -0.00  -0.01     0.04   0.02   0.02    -0.04  -0.04  -0.23
  11   6     0.02   0.01   0.00     0.05   0.02   0.07    -0.03  -0.09  -0.35
  12   6    -0.01   0.00  -0.01     0.01  -0.02  -0.04     0.01   0.01   0.05
  13   6    -0.03   0.03   0.00    -0.03   0.03  -0.01     0.01   0.02   0.08
  14   6    -0.02   0.02   0.00    -0.01   0.03  -0.01    -0.00  -0.04   0.07
  15   6     0.01  -0.02  -0.01    -0.00   0.02  -0.01    -0.03  -0.04  -0.00
  16   8    -0.00   0.00  -0.02    -0.10  -0.05   0.28    -0.08  -0.00   0.18
  17   8    -0.00  -0.01  -0.00    -0.07   0.01  -0.01    -0.04  -0.01  -0.03
  18   1     0.01   0.00   0.00     0.01   0.03  -0.02     0.00   0.01   0.00
  19   1     0.01  -0.00  -0.01    -0.08   0.03   0.16    -0.04   0.01   0.07
  20   1     0.00  -0.01   0.00     0.01  -0.01   0.00    -0.01  -0.01   0.04
  21   1     0.00  -0.01   0.00     0.01  -0.01  -0.02    -0.01  -0.02   0.05
  22   1     0.01  -0.01   0.00    -0.02  -0.02  -0.00     0.01   0.05   0.01
  23   1     0.01  -0.01   0.00    -0.02  -0.03   0.02     0.01   0.05  -0.00
  24   1     0.01   0.01  -0.00    -0.01   0.02  -0.04    -0.02  -0.03   0.05
  25   1     0.01   0.01  -0.00    -0.01  -0.02  -0.03     0.01   0.03   0.02
  26   1    -0.00   0.01  -0.00    -0.01   0.00   0.02     0.01  -0.01  -0.04
  27   1    -0.00   0.01  -0.01     0.04   0.02  -0.02    -0.01  -0.02  -0.04
  28   1     0.01   0.00  -0.01     0.03   0.02   0.04    -0.05  -0.03  -0.07
  29   1     0.01  -0.00  -0.01     0.01   0.01  -0.01    -0.01  -0.01  -0.07
  30   1     0.01   0.01   0.01     0.02   0.02   0.05    -0.02  -0.05  -0.18
  31   1    -0.00  -0.01  -0.01    -0.00  -0.02  -0.05     0.01   0.03   0.10
  32   1    -0.02   0.01   0.00    -0.02   0.00  -0.00     0.00   0.01   0.02
  33   1    -0.01   0.02   0.00    -0.00   0.02   0.00     0.00   0.01   0.02
  34   1    -0.02   0.00   0.00    -0.01   0.00   0.00     0.00  -0.02   0.03
  35   1    -0.00   0.02  -0.00    -0.00   0.01  -0.00    -0.00  -0.02   0.02
  36   1     0.00  -0.01  -0.00    -0.00   0.01  -0.00    -0.01  -0.03  -0.01
  37   1     0.01  -0.00  -0.00     0.00   0.01  -0.00    -0.02  -0.00  -0.02
  38   1     0.00  -0.02  -0.00    -0.00   0.00  -0.00    -0.01   0.00   0.01
  39   1     0.00  -0.00   0.00    -0.04   0.02   0.00    -0.02   0.01  -0.01
  40   1    -0.02  -0.00  -0.00     0.19  -0.00   0.07     0.08  -0.01   0.03
  41   8     0.01   0.02   0.01     0.09   0.05  -0.05     0.03   0.03  -0.02
  42   1    -0.03   0.02   0.06     0.24  -0.19  -0.66     0.09  -0.07  -0.23
  43   1     0.00   0.01   0.01     0.02  -0.01  -0.00     0.01  -0.01   0.01
  44   7    -0.03   0.03  -0.00     0.07   0.09  -0.00    -0.05  -0.10  -0.09
  45   6    -0.03   0.00  -0.02    -0.00   0.03   0.08    -0.01  -0.06  -0.15
  46   8    -0.08  -0.03  -0.12    -0.05   0.00   0.02     0.08  -0.01  -0.04
  47   6     0.02   0.04  -0.04     0.12  -0.02  -0.13     0.16   0.19  -0.06
  48   6    -0.03   0.03  -0.00     0.03   0.07  -0.02     0.05  -0.05  -0.00
  49   8    -0.07   0.02   0.03    -0.14   0.10   0.04     0.10  -0.17   0.16
  50   1     0.02   0.02  -0.01     0.01  -0.11   0.01     0.07   0.11  -0.04
  51   1     0.00   0.01  -0.01     0.10  -0.01  -0.13     0.05   0.07   0.05
  52   1     0.00   0.01  -0.03     0.00   0.08   0.01     0.04   0.04  -0.07
  53   7     0.05   0.01   0.15     0.07   0.02   0.15    -0.15  -0.05  -0.32
  54   6     0.03  -0.06   0.02     0.00  -0.08  -0.12    -0.03   0.15   0.16
  55   1    -0.18   0.41  -0.29     0.05  -0.02  -0.07    -0.12   0.08   0.09
  56   1     0.06  -0.52  -0.23    -0.04  -0.04  -0.04     0.07   0.03   0.04
  57   1     0.15   0.05   0.52    -0.02  -0.04  -0.05     0.04   0.07   0.12
                     22                     23                     24
                        a                      a                      a 
 Frequencies --   154.9230               167.0561               175.0587
 Red. masses --    10.3031                10.7027                 3.0879
 Frc consts  --     0.0000                 0.0000                 0.0000
 IR Inten    --     0.6065                 2.7073                92.6022
 Raman Activ --     0.0000                 0.0000                 0.0000
 Depolar     --     0.0000                 0.0000                 0.0000
 Atom AN      X      Y      Z        X      Y      Z        X      Y      Z
   1   7     0.05   0.01   0.20     0.07  -0.03   0.03     0.01  -0.01  -0.04
   2   6     0.05   0.04   0.07     0.10   0.10  -0.17     0.01  -0.00  -0.05
   3   6     0.11   0.01   0.03     0.10   0.17  -0.20    -0.01   0.01  -0.04
   4   6     0.09  -0.06  -0.03     0.08   0.10  -0.13    -0.01   0.01  -0.01
   5   6     0.01  -0.05  -0.07     0.06  -0.04  -0.03     0.01   0.00   0.00
   6   6    -0.04   0.03  -0.07     0.09   0.03  -0.10     0.03  -0.00  -0.01
   7   6    -0.03   0.07   0.01     0.10   0.11  -0.17     0.02  -0.00  -0.04
   8   6    -0.01  -0.05  -0.11     0.06  -0.07   0.08     0.01   0.01   0.03
   9   6    -0.03   0.03   0.06    -0.04  -0.02   0.13    -0.02   0.00  -0.00
  10   6    -0.02  -0.07  -0.18    -0.10  -0.04   0.21    -0.01  -0.00   0.05
  11   6    -0.06  -0.14  -0.53    -0.17  -0.04   0.07    -0.02   0.01   0.09
  12   6    -0.03  -0.01   0.06    -0.09  -0.03   0.01    -0.01  -0.01  -0.00
  13   6    -0.04  -0.00   0.06     0.08  -0.22  -0.10     0.01  -0.04  -0.02
  14   6     0.01  -0.06   0.04     0.03  -0.08  -0.05     0.01  -0.02  -0.01
  15   6    -0.01  -0.04   0.07    -0.01   0.02   0.10     0.00  -0.00   0.01
  16   8    -0.02  -0.02   0.01    -0.02  -0.01   0.03    -0.16  -0.20  -0.10
  17   8     0.04   0.04  -0.01    -0.02  -0.02   0.00    -0.01   0.16   0.07
  18   1     0.05   0.04   0.04     0.06   0.03   0.01    -0.01   0.04  -0.01
  19   1    -0.01  -0.00  -0.03    -0.00  -0.00   0.01    -0.16   0.04  -0.02
  20   1     0.05   0.01   0.01     0.03   0.07  -0.07    -0.01   0.00  -0.01
  21   1     0.04  -0.03  -0.02     0.02   0.03  -0.04    -0.01   0.00  -0.00
  22   1    -0.03   0.02  -0.04     0.03  -0.00  -0.02     0.01  -0.00  -0.00
  23   1    -0.02   0.03   0.01     0.03   0.04  -0.06     0.01  -0.00  -0.01
  24   1    -0.01   0.02  -0.07     0.04  -0.01   0.02     0.01  -0.00   0.02
  25   1     0.01  -0.06  -0.05     0.01  -0.02   0.03    -0.00   0.02   0.01
  26   1    -0.02  -0.01   0.04     0.01  -0.02   0.06    -0.01   0.01  -0.01
  27   1    -0.00   0.02   0.02    -0.05   0.00   0.07     0.00  -0.01  -0.01
  28   1     0.02   0.01   0.05    -0.03  -0.01  -0.04    -0.00   0.00   0.01
  29   1    -0.01  -0.02  -0.01    -0.03  -0.03   0.13    -0.00  -0.01   0.02
  30   1    -0.03  -0.08  -0.30    -0.05  -0.02  -0.02    -0.00   0.01   0.04
  31   1     0.00   0.03   0.18    -0.01   0.03   0.02    -0.00  -0.00  -0.02
  32   1    -0.02   0.00   0.01     0.10  -0.06  -0.01     0.01  -0.01  -0.00
  33   1    -0.01   0.00   0.02     0.01  -0.13  -0.06     0.00  -0.02  -0.01
  34   1     0.02  -0.02   0.02     0.02   0.00  -0.05     0.00  -0.00  -0.01
  35   1     0.00  -0.03  -0.00     0.01  -0.03   0.00     0.00  -0.00  -0.00
  36   1     0.02  -0.03   0.01    -0.01   0.06   0.04     0.00   0.01   0.00
  37   1    -0.03  -0.00   0.00    -0.01  -0.02   0.08    -0.00  -0.00   0.01
  38   1    -0.00   0.01   0.05     0.00   0.01   0.01     0.00   0.00   0.00
  39   1     0.03   0.03   0.01     0.02   0.01   0.01    -0.08   0.08   0.01
  40   1     0.02  -0.00   0.02    -0.03  -0.02   0.01     0.73   0.03   0.25
  41   8     0.20   0.23   0.05     0.17   0.18   0.05     0.03   0.08  -0.04
  42   1    -0.03   0.03   0.10     0.02  -0.03  -0.07     0.02   0.07   0.15
  43   1     0.05   0.04   0.01     0.04   0.09  -0.01     0.03  -0.11   0.09
  44   7    -0.00   0.07   0.06    -0.22   0.01   0.28    -0.02  -0.02  -0.01
  45   6    -0.02   0.02   0.12    -0.10  -0.02  -0.04    -0.01   0.01   0.02
  46   8    -0.09  -0.01   0.07    -0.12  -0.03   0.00    -0.02   0.00   0.02
  47   6    -0.10  -0.10   0.03     0.12  -0.06  -0.08     0.01   0.02  -0.02
  48   6    -0.05   0.04  -0.00    -0.03   0.02   0.07    -0.00  -0.02  -0.01
  49   8    -0.06   0.12  -0.11    -0.02   0.08  -0.01     0.03  -0.03  -0.02
  50   1    -0.02  -0.01   0.01     0.05  -0.09   0.02     0.12   0.22  -0.07
  51   1    -0.07  -0.04   0.01     0.09  -0.02  -0.10    -0.15   0.01   0.15
  52   1    -0.01  -0.06   0.01     0.01   0.04  -0.03     0.07  -0.19  -0.12
  53   7     0.06   0.02   0.25    -0.15  -0.05  -0.21    -0.00   0.01   0.04
  54   6    -0.02  -0.12  -0.11    -0.03  -0.03   0.15    -0.01  -0.01  -0.01
  55   1     0.07  -0.05  -0.07    -0.07  -0.00   0.07     0.01  -0.01  -0.01
  56   1    -0.07  -0.03  -0.03     0.07  -0.02   0.04    -0.01  -0.00  -0.00
  57   1    -0.04  -0.05  -0.08    -0.00  -0.01   0.09    -0.01  -0.01  -0.01
                     25                     26                     27
                        a                      a                      a 
 Frequencies --   182.4719               189.6915               196.4295
 Red. masses --     8.9841                 8.6635                 5.8795
 Frc consts  --     0.0000                 0.0000                 0.0000
 IR Inten    --    38.4920                12.8679                37.0466
 Raman Activ --     0.0000                 0.0000                 0.0000
 Depolar     --     0.0000                 0.0000                 0.0000
 Atom AN      X      Y      Z        X      Y      Z        X      Y      Z
   1   7    -0.02   0.05   0.10     0.10  -0.01   0.03     0.03   0.03   0.11
   2   6    -0.02   0.01   0.07     0.12   0.08  -0.03     0.05   0.05   0.03
   3   6     0.04  -0.02   0.04     0.12   0.11  -0.04     0.10   0.05  -0.01
   4   6     0.03  -0.06  -0.02     0.11   0.06  -0.01     0.08   0.00  -0.03
   5   6    -0.00  -0.04  -0.05     0.08  -0.02   0.04     0.04  -0.04  -0.02
   6   6    -0.07  -0.01  -0.01     0.10   0.04  -0.01     0.01   0.02  -0.02
   7   6    -0.06   0.01   0.06     0.11   0.10  -0.05     0.02   0.06   0.01
   8   6     0.01  -0.08  -0.07     0.05   0.00   0.02     0.04  -0.06  -0.03
   9   6     0.10  -0.02   0.12    -0.11   0.01  -0.07     0.01  -0.01   0.06
  10   6     0.02   0.04  -0.01     0.02  -0.02   0.07     0.04   0.03   0.09
  11   6     0.02   0.02  -0.11    -0.02  -0.00   0.00     0.02   0.02  -0.04
  12   6     0.01   0.06   0.02    -0.01  -0.00   0.01     0.01   0.03   0.01
  13   6    -0.03   0.10   0.02     0.02  -0.04  -0.03    -0.02   0.06  -0.03
  14   6    -0.00   0.05  -0.00     0.01  -0.01  -0.02     0.02   0.04  -0.04
  15   6     0.01   0.02  -0.04     0.01   0.01   0.02     0.04   0.04  -0.02
  16   8     0.07   0.01  -0.04     0.15   0.17   0.07    -0.05   0.09   0.08
  17   8    -0.02   0.01  -0.14    -0.03  -0.08  -0.27     0.00  -0.03   0.07
  18   1    -0.10  -0.04  -0.01    -0.05  -0.02  -0.02    -0.06  -0.12   0.01
  19   1    -0.01   0.02  -0.02     0.05   0.03   0.01    -0.02   0.03   0.05
  20   1     0.03  -0.00   0.02     0.03   0.04  -0.02     0.04   0.02  -0.00
  21   1     0.02  -0.03  -0.01     0.03   0.02  -0.00     0.03  -0.00  -0.01
  22   1    -0.04  -0.00  -0.01     0.03   0.01  -0.00    -0.01   0.01  -0.01
  23   1    -0.03   0.01   0.03     0.03   0.04  -0.02    -0.00   0.03   0.00
  24   1    -0.01   0.01  -0.06     0.03  -0.01   0.02     0.01   0.00  -0.03
  25   1    -0.00  -0.08  -0.03     0.03   0.03   0.00     0.01  -0.04  -0.02
  26   1     0.07  -0.03   0.07    -0.06   0.01  -0.03     0.01  -0.02   0.03
  27   1     0.01   0.03   0.06    -0.04  -0.02  -0.02    -0.01   0.00   0.03
  28   1     0.00  -0.01  -0.04    -0.00   0.01   0.03     0.00   0.00  -0.00
  29   1     0.01   0.02   0.00     0.00  -0.02   0.04     0.01   0.02   0.06
  30   1     0.00  -0.00  -0.06    -0.01  -0.00  -0.02     0.00   0.00  -0.05
  31   1     0.00   0.02   0.05    -0.00   0.01   0.02     0.00   0.01   0.04
  32   1    -0.03   0.03  -0.00     0.02  -0.01  -0.00    -0.02   0.02  -0.01
  33   1    -0.01   0.05   0.01     0.00  -0.02  -0.01    -0.01   0.03   0.00
  34   1     0.00   0.01   0.01     0.00   0.00  -0.01     0.01   0.01  -0.00
  35   1     0.00   0.01  -0.01     0.00  -0.00  -0.00     0.01   0.01  -0.02
  36   1     0.01  -0.01  -0.02     0.01   0.01   0.01     0.04  -0.01  -0.01
  37   1     0.00   0.02  -0.03    -0.00  -0.00   0.01    -0.01   0.02  -0.03
  38   1     0.00   0.00  -0.00     0.00   0.00   0.01     0.01   0.02   0.03
  39   1    -0.09   0.03  -0.05    -0.10   0.05  -0.07     0.05  -0.10  -0.00
  40   1     0.21  -0.01   0.05    -0.07  -0.07  -0.02    -0.12   0.05  -0.10
  41   8    -0.30  -0.22  -0.01    -0.25  -0.12   0.10    -0.24  -0.34  -0.13
  42   1     0.02   0.04   0.07     0.07   0.00  -0.11     0.06  -0.02  -0.16
  43   1    -0.02  -0.32   0.23     0.05  -0.37   0.40    -0.13   0.16  -0.29
  44   7    -0.02   0.11   0.28    -0.08  -0.08  -0.14    -0.07   0.02   0.14
  45   6     0.06  -0.03  -0.06    -0.10   0.04   0.06    -0.01   0.00   0.01
  46   8     0.10  -0.01  -0.11    -0.15   0.01   0.12    -0.01   0.00   0.00
  47   6     0.06  -0.22   0.00    -0.06   0.15  -0.02     0.02  -0.10  -0.05
  48   6     0.01   0.08   0.09    -0.05  -0.05  -0.06    -0.04   0.00   0.02
  49   8    -0.08   0.23  -0.06     0.02  -0.15   0.02    -0.05   0.08  -0.08
  50   1    -0.01  -0.22   0.07    -0.01   0.11  -0.04     0.21   0.28  -0.10
  51   1     0.08  -0.08  -0.15    -0.03   0.06   0.07    -0.26  -0.03   0.20
  52   1    -0.01   0.03   0.06    -0.01   0.01  -0.04     0.11  -0.34  -0.19
  53   7    -0.01  -0.03  -0.23    -0.02   0.03   0.20    -0.00  -0.00  -0.00
  54   6     0.07   0.05   0.09    -0.07  -0.11  -0.05     0.01  -0.04   0.01
  55   1    -0.04   0.03   0.06     0.04  -0.05  -0.04     0.01  -0.01   0.00
  56   1     0.08   0.01   0.02    -0.06  -0.03  -0.02     0.01  -0.01   0.00
  57   1     0.04   0.03   0.07    -0.05  -0.05  -0.04    -0.00  -0.02   0.01
                     28                     29                     30
                        a                      a                      a 
 Frequencies --   201.2964               221.3126               227.8847
 Red. masses --     7.6045                 9.9114                 8.9046
 Frc consts  --     0.0000                 0.0000                 0.0000
 IR Inten    --     4.3612                 0.8299                 0.1569
 Raman Activ --     0.0000                 0.0000                 0.0000
 Depolar     --     0.0000                 0.0000                 0.0000
 Atom AN      X      Y      Z        X      Y      Z        X      Y      Z
   1   7     0.08   0.00   0.06    -0.00   0.08  -0.03     0.05   0.03  -0.21
   2   6     0.11   0.09   0.04    -0.02   0.02  -0.09     0.08   0.16   0.09
   3   6     0.14   0.11   0.01    -0.03  -0.16   0.01     0.12   0.06   0.11
   4   6     0.13   0.05   0.01    -0.04  -0.26   0.11     0.10  -0.07   0.10
   5   6     0.07  -0.01   0.02     0.05  -0.16   0.08     0.05  -0.06   0.06
   6   6     0.07   0.08  -0.02     0.01  -0.21   0.12    -0.00  -0.01   0.09
   7   6     0.09   0.14  -0.00     0.01  -0.13   0.04     0.04   0.10   0.12
   8   6     0.04  -0.04  -0.04     0.07   0.01   0.02     0.01  -0.11  -0.15
   9   6    -0.08  -0.02  -0.05     0.01   0.04  -0.03     0.01  -0.06  -0.04
  10   6     0.05  -0.01   0.01    -0.20   0.06   0.15    -0.20  -0.06  -0.32
  11   6     0.02   0.00  -0.05    -0.35   0.13  -0.08    -0.26   0.10   0.16
  12   6     0.01   0.01   0.02    -0.17   0.24   0.14    -0.10   0.09  -0.05
  13   6    -0.01   0.03   0.01     0.09  -0.05  -0.11     0.19  -0.10   0.11
  14   6    -0.00   0.02   0.00     0.06   0.03  -0.09     0.10  -0.12   0.12
  15   6     0.01   0.00  -0.02     0.04   0.09  -0.02    -0.10  -0.02  -0.06
  16   8    -0.06  -0.19  -0.06     0.01   0.00   0.00     0.01   0.02  -0.00
  17   8    -0.01   0.09   0.15    -0.02  -0.00  -0.00    -0.00  -0.01   0.01
  18   1    -0.05  -0.12  -0.00    -0.01  -0.02   0.00     0.02  -0.01  -0.03
  19   1    -0.05  -0.03   0.01    -0.00   0.01   0.01     0.00   0.00  -0.00
  20   1     0.05   0.04   0.00    -0.00  -0.05   0.01     0.06   0.02   0.04
  21   1     0.05   0.01  -0.00    -0.03  -0.10   0.06     0.04  -0.04   0.03
  22   1     0.01   0.03  -0.01    -0.00  -0.08   0.05    -0.02  -0.01   0.02
  23   1     0.02   0.05  -0.00     0.01  -0.05   0.01    -0.00   0.04   0.04
  24   1     0.00  -0.01  -0.02     0.03   0.00   0.01    -0.05  -0.01  -0.09
  25   1     0.03  -0.00  -0.02     0.03   0.02   0.00     0.05  -0.08  -0.08
  26   1    -0.04  -0.01  -0.02    -0.01   0.02  -0.02     0.01  -0.04   0.01
  27   1    -0.04  -0.01  -0.01    -0.00  -0.02  -0.01     0.00   0.03  -0.01
  28   1    -0.01   0.00   0.02     0.05   0.06  -0.02    -0.01  -0.03   0.02
  29   1     0.01  -0.01   0.00    -0.06  -0.02   0.13    -0.07  -0.09  -0.23
  30   1     0.01   0.00  -0.03    -0.11  -0.00  -0.14    -0.06   0.05   0.18
  31   1     0.00   0.01   0.03    -0.02   0.16   0.16    -0.02   0.06  -0.15
  32   1    -0.01   0.01   0.00     0.14   0.01  -0.03     0.12  -0.02   0.04
  33   1     0.00   0.02   0.00     0.01  -0.11  -0.07     0.04  -0.10   0.02
  34   1    -0.00   0.00   0.00     0.02   0.02  -0.04     0.03  -0.03   0.03
  35   1    -0.00   0.01  -0.00     0.02   0.01  -0.02     0.01  -0.06   0.06
  36   1     0.00  -0.01  -0.01     0.05   0.00  -0.02    -0.18   0.07   0.02
  37   1     0.01   0.00  -0.01    -0.04   0.03  -0.03     0.05  -0.05   0.07
  38   1     0.00  -0.00  -0.00     0.01   0.05   0.05    -0.00  -0.02  -0.19
  39   1     0.01  -0.06   0.01     0.00  -0.02  -0.01    -0.01  -0.01  -0.00
  40   1     0.22   0.08   0.02     0.03   0.01  -0.01    -0.01   0.00  -0.01
  41   8    -0.21  -0.29  -0.19    -0.04  -0.05  -0.01    -0.03  -0.02   0.00
  42   1    -0.04  -0.00   0.10     0.01   0.00  -0.01     0.00   0.01   0.00
  43   1    -0.12   0.16  -0.29    -0.02   0.03  -0.05     0.01   0.04   0.01
  44   7    -0.07  -0.04  -0.08     0.01  -0.04  -0.06     0.01   0.09  -0.00
  45   6    -0.08   0.01   0.03     0.03   0.15  -0.03     0.03  -0.08   0.00
  46   8    -0.11  -0.01   0.09     0.09   0.21  -0.05     0.04  -0.08   0.03
  47   6    -0.01   0.14  -0.01    -0.01   0.05   0.01    -0.02  -0.01  -0.03
  48   6    -0.01  -0.01  -0.03     0.00  -0.03  -0.02    -0.02   0.08  -0.01
  49   8     0.04  -0.09   0.06     0.02  -0.08   0.04    -0.08   0.16  -0.07
  50   1    -0.16  -0.21   0.07    -0.03  -0.01   0.00     0.02   0.03  -0.01
  51   1     0.23   0.05  -0.17     0.03   0.02  -0.00    -0.05  -0.01   0.00
  52   1    -0.10   0.30   0.12    -0.02   0.05   0.02     0.01  -0.04  -0.02
  53   7    -0.05   0.00   0.12     0.11   0.14  -0.03     0.01  -0.06   0.07
  54   6    -0.07  -0.07  -0.02     0.16  -0.09  -0.04    -0.04   0.03  -0.01
  55   1     0.01  -0.03  -0.02     0.08  -0.04  -0.02    -0.01   0.01  -0.01
  56   1    -0.04  -0.02  -0.01     0.07  -0.04  -0.02    -0.04   0.01   0.00
  57   1    -0.04  -0.03  -0.02    -0.00  -0.06   0.00     0.01   0.02  -0.02
                     31                     32                     33
                        a                      a                      a 
 Frequencies --   239.0720               242.8714               246.9865
 Red. masses --     4.8439                 8.9661                10.4135
 Frc consts  --     0.0000                 0.0000                 0.0000
 IR Inten    --     1.3061                10.3555                98.0733
 Raman Activ --     0.0000                 0.0000                 0.0000
 Depolar     --     0.0000                 0.0000                 0.0000
 Atom AN      X      Y      Z        X      Y      Z        X      Y      Z
   1   7    -0.04   0.03   0.05     0.05   0.01   0.01    -0.01  -0.01  -0.01
   2   6    -0.04  -0.01   0.02     0.02  -0.04  -0.10    -0.02  -0.01   0.03
   3   6    -0.01  -0.00  -0.01    -0.04  -0.06  -0.02    -0.01   0.01   0.01
   4   6    -0.01   0.00  -0.05    -0.04  -0.04   0.08    -0.01   0.02  -0.03
   5   6    -0.03  -0.00  -0.06     0.02  -0.01   0.09    -0.02   0.02  -0.03
   6   6    -0.06   0.01  -0.04     0.08  -0.06   0.06    -0.03   0.02  -0.03
   7   6    -0.06   0.01   0.00     0.07  -0.08  -0.04    -0.03   0.01   0.01
   8   6    -0.00  -0.00  -0.00    -0.00   0.06   0.07    -0.02  -0.00  -0.01
   9   6    -0.02   0.02   0.04     0.02   0.00  -0.06    -0.01   0.01   0.01
  10   6     0.04   0.04  -0.02     0.06   0.05   0.18    -0.01  -0.02  -0.07
  11   6     0.07   0.00  -0.04     0.00   0.02  -0.09     0.02  -0.02   0.01
  12   6     0.01  -0.01  -0.00    -0.04   0.06   0.11     0.02  -0.04  -0.03
  13   6    -0.09   0.08   0.04    -0.10   0.04  -0.10     0.02  -0.01   0.04
  14   6     0.12  -0.16  -0.04     0.06  -0.07  -0.14    -0.02   0.01   0.05
  15   6    -0.03  -0.00   0.03     0.04   0.03   0.07    -0.01  -0.03  -0.02
  16   8    -0.01  -0.01   0.00     0.08   0.07   0.01     0.36   0.31   0.01
  17   8     0.01   0.00   0.01    -0.10  -0.06  -0.06    -0.41  -0.26  -0.21
  18   1    -0.01   0.01   0.01     0.01  -0.02   0.01     0.05  -0.04   0.05
  19   1    -0.00  -0.00   0.00    -0.01   0.04  -0.00    -0.02   0.17  -0.04
  20   1     0.00   0.00   0.00    -0.03  -0.02  -0.02     0.00   0.00   0.00
  21   1     0.00   0.00  -0.02    -0.03  -0.01   0.04     0.00   0.01  -0.01
  22   1    -0.03   0.00  -0.02     0.04  -0.02   0.03    -0.01   0.01  -0.01
  23   1    -0.02   0.00   0.01     0.03  -0.03  -0.02    -0.01   0.00   0.01
  24   1     0.01   0.01  -0.00     0.01  -0.00   0.05    -0.00   0.00  -0.01
  25   1    -0.02  -0.01   0.01     0.01   0.06   0.02    -0.01  -0.01  -0.00
  26   1    -0.02   0.01   0.01     0.02   0.01  -0.03    -0.01   0.00   0.00
  27   1    -0.02  -0.03   0.03     0.04   0.04  -0.05    -0.00  -0.01   0.01
  28   1     0.03   0.06  -0.02    -0.03  -0.08   0.03     0.01   0.02  -0.01
  29   1     0.01   0.03  -0.01     0.02   0.03   0.14    -0.00  -0.01  -0.05
  30   1     0.02   0.01  -0.01    -0.01  -0.01  -0.14     0.01  -0.00   0.04
  31   1    -0.00  -0.03  -0.00    -0.01   0.03   0.15     0.00  -0.02  -0.04
  32   1    -0.11   0.04  -0.04    -0.05   0.03  -0.07     0.00  -0.01   0.02
  33   1    -0.02   0.09   0.08    -0.03   0.03  -0.00     0.01  -0.00   0.01
  34   1     0.10  -0.05   0.02     0.07  -0.02  -0.03    -0.02   0.00   0.01
  35   1     0.02  -0.10  -0.06     0.02  -0.05  -0.08    -0.01   0.01   0.02
  36   1    -0.32   0.33   0.11    -0.12   0.21   0.08     0.02  -0.05  -0.02
  37   1     0.23  -0.16   0.34     0.12  -0.09   0.21    -0.02   0.01  -0.05
  38   1     0.02  -0.13  -0.40     0.02  -0.07  -0.17    -0.01   0.01   0.03
  39   1     0.00  -0.00   0.00    -0.01  -0.02  -0.02    -0.04  -0.07  -0.04
  40   1    -0.00   0.00  -0.00     0.08  -0.01   0.01     0.29  -0.05   0.05
  41   8    -0.00  -0.01  -0.01    -0.01  -0.06   0.06     0.10  -0.07   0.26
  42   1    -0.00  -0.00   0.00     0.05   0.04  -0.00     0.20   0.18   0.06
  43   1    -0.01  -0.02  -0.01    -0.02   0.07  -0.06    -0.03   0.30  -0.19
  44   7    -0.07  -0.10   0.06     0.14   0.13  -0.13    -0.02  -0.04   0.02
  45   6    -0.03   0.16  -0.01     0.05  -0.21   0.00    -0.02   0.05   0.00
  46   8     0.02   0.23  -0.05    -0.05  -0.32   0.07    -0.01   0.08  -0.02
  47   6     0.03  -0.03   0.02    -0.07   0.07  -0.01    -0.01  -0.03   0.03
  48   6     0.01  -0.09   0.04    -0.00   0.12  -0.05     0.00  -0.03   0.01
  49   8     0.08  -0.15   0.07    -0.11   0.19  -0.07     0.03  -0.05   0.01
  50   1     0.02  -0.00   0.01    -0.04   0.01  -0.01    -0.02  -0.03   0.01
  51   1     0.01  -0.01   0.02    -0.02   0.02  -0.01     0.01  -0.01  -0.00
  52   1     0.01  -0.01  -0.01    -0.01   0.02   0.02    -0.01   0.01   0.03
  53   7     0.01   0.15  -0.06     0.00  -0.21   0.06    -0.01   0.05  -0.02
  54   6     0.10  -0.15  -0.00    -0.12   0.23   0.00     0.02  -0.05   0.00
  55   1     0.06  -0.06  -0.01    -0.09   0.09   0.01     0.02  -0.02  -0.00
  56   1     0.08  -0.06  -0.01    -0.10   0.09   0.01     0.02  -0.02  -0.00
  57   1    -0.03  -0.08   0.03     0.05   0.12  -0.04    -0.01  -0.03   0.01
                     34                     35                     36
                        a                      a                      a 
 Frequencies --   289.5621               294.7295               297.8037
 Red. masses --    13.0585                11.9559                10.2248
 Frc consts  --     0.0000                 0.0000                 0.0000
 IR Inten    --    44.2823                 9.1498                 1.8907
 Raman Activ --     0.0000                 0.0000                 0.0000
 Depolar     --     0.0000                 0.0000                 0.0000
 Atom AN      X      Y      Z        X      Y      Z        X      Y      Z
   1   7    -0.01   0.00  -0.02     0.05  -0.05   0.11    -0.05  -0.07   0.18
   2   6    -0.00   0.01   0.01     0.05  -0.05   0.03    -0.04  -0.10   0.00
   3   6    -0.00   0.01   0.01     0.08  -0.03  -0.01    -0.00  -0.08  -0.04
   4   6     0.00   0.01   0.02     0.07  -0.04  -0.08     0.01   0.01  -0.11
   5   6     0.01  -0.00   0.03     0.03  -0.01  -0.11     0.03   0.01  -0.09
   6   6     0.01   0.01   0.02     0.02  -0.03  -0.09     0.02  -0.01  -0.07
   7   6     0.01   0.03  -0.00     0.01  -0.08   0.03    -0.01  -0.06  -0.03
   8   6     0.00  -0.04  -0.02     0.03   0.13   0.05     0.07   0.06   0.09
   9   6     0.01  -0.04  -0.04    -0.04   0.16   0.13     0.03   0.02  -0.05
  10   6     0.02   0.02  -0.00    -0.05  -0.08   0.03    -0.09  -0.08   0.08
  11   6     0.03  -0.00  -0.00    -0.14   0.01  -0.03    -0.15  -0.04  -0.05
  12   6     0.01   0.00   0.03    -0.06   0.04  -0.05    -0.04  -0.01  -0.11
  13   6    -0.02  -0.01  -0.04     0.04   0.06   0.11     0.03   0.11   0.18
  14   6    -0.03  -0.02  -0.04     0.13   0.09   0.10     0.18   0.14   0.15
  15   6     0.00  -0.02   0.05     0.02   0.09  -0.20     0.02   0.12  -0.29
  16   8     0.20   0.19  -0.01     0.03   0.04  -0.01     0.01  -0.00   0.01
  17   8    -0.25  -0.32   0.45    -0.05  -0.08   0.12    -0.01  -0.00  -0.01
  18   1    -0.05   0.08  -0.10    -0.01   0.01  -0.01    -0.01  -0.00   0.03
  19   1     0.07   0.03   0.04     0.01   0.01  -0.00     0.01  -0.00   0.00
  20   1    -0.00   0.00   0.00     0.04  -0.01  -0.00     0.00  -0.03  -0.00
  21   1    -0.00   0.00   0.01     0.03  -0.02  -0.03     0.00   0.02  -0.04
  22   1     0.00   0.00   0.01    -0.00  -0.00  -0.04     0.00  -0.00  -0.02
  23   1     0.00   0.01  -0.01    -0.01  -0.03   0.03     0.00  -0.03  -0.01
  24   1    -0.02  -0.01  -0.01     0.07   0.05   0.02     0.07  -0.01   0.07
  25   1     0.01  -0.02  -0.01    -0.02   0.05   0.04    -0.02   0.07   0.06
  26   1     0.02  -0.02  -0.00    -0.07   0.06   0.01     0.05   0.02  -0.02
  27   1    -0.03   0.00   0.01     0.11  -0.00  -0.04    -0.10  -0.03   0.07
  28   1     0.01  -0.00  -0.00    -0.02   0.01   0.00     0.04  -0.03  -0.00
  29   1     0.01   0.01  -0.00    -0.02  -0.05   0.02    -0.03  -0.03   0.06
  30   1     0.01  -0.00  -0.02    -0.04   0.01   0.01    -0.04  -0.01   0.02
  31   1     0.00  -0.00   0.04    -0.02   0.03  -0.05    -0.01   0.01  -0.09
  32   1     0.00   0.00  -0.02    -0.00   0.01   0.04    -0.05   0.01   0.07
  33   1    -0.00  -0.00  -0.02     0.00   0.01   0.06     0.00   0.05   0.11
  34   1    -0.01  -0.00  -0.02     0.04   0.01   0.04     0.05   0.02   0.07
  35   1    -0.01  -0.00  -0.02     0.03   0.01   0.03     0.04   0.02   0.04
  36   1     0.02   0.01   0.02    -0.07  -0.02  -0.06    -0.11  -0.04  -0.09
  37   1    -0.00  -0.01   0.02     0.03   0.05  -0.09     0.05   0.07  -0.13
  38   1    -0.00  -0.01   0.03     0.02   0.05  -0.11     0.03   0.06  -0.17
  39   1    -0.12   0.01   0.13    -0.03   0.01   0.04     0.00   0.01   0.00
  40   1    -0.04  -0.15   0.21    -0.03  -0.04   0.05     0.01  -0.01   0.01
  41   8     0.04   0.16  -0.54    -0.00   0.04  -0.16     0.02   0.02   0.01
  42   1     0.01   0.04   0.03     0.00   0.01   0.02    -0.00  -0.00  -0.00
  43   1     0.02  -0.22  -0.01     0.00  -0.07  -0.00    -0.01  -0.01  -0.02
  44   7    -0.10  -0.01   0.05     0.36   0.03  -0.16    -0.33  -0.08   0.17
  45   6     0.03  -0.02  -0.03    -0.13   0.07   0.10     0.10  -0.06  -0.06
  46   8     0.10   0.02   0.01    -0.42  -0.09  -0.02     0.05  -0.13   0.11
  47   6    -0.02   0.03  -0.02     0.03  -0.15   0.11    -0.02   0.12  -0.09
  48   6    -0.05   0.00   0.00     0.16  -0.02  -0.02    -0.15  -0.05   0.02
  49   8    -0.03   0.01  -0.03     0.09  -0.05   0.10    -0.04  -0.09  -0.04
  50   1    -0.00   0.01  -0.00    -0.01  -0.03   0.02     0.01   0.03  -0.02
  51   1     0.01   0.01  -0.00    -0.05  -0.05   0.03     0.06   0.05  -0.02
  52   1    -0.01   0.02  -0.02     0.04  -0.08   0.08    -0.04   0.07  -0.07
  53   7     0.04  -0.00   0.06    -0.15   0.00  -0.20     0.23  -0.05   0.12
  54   6     0.02  -0.00  -0.02    -0.08   0.02   0.06     0.12   0.19  -0.08
  55   1     0.02  -0.00  -0.01    -0.06   0.01   0.04     0.02   0.07  -0.03
  56   1    -0.01  -0.00  -0.00     0.03   0.01   0.02    -0.04   0.08  -0.01
  57   1     0.00  -0.00  -0.01    -0.02   0.01   0.05     0.09   0.09  -0.07
                     37                     38                     39
                        a                      a                      a 
 Frequencies --   315.7059               341.6083               352.9276
 Red. masses --    11.0408                 9.5561                 9.3057
 Frc consts  --     0.0000                 0.0000                 0.0000
 IR Inten    --    10.0847                 2.3889                 2.6005
 Raman Activ --     0.0000                 0.0000                 0.0000
 Depolar     --     0.0000                 0.0000                 0.0000
 Atom AN      X      Y      Z        X      Y      Z        X      Y      Z
   1   7    -0.03  -0.08   0.10    -0.03   0.19   0.14     0.06  -0.05  -0.01
   2   6    -0.00  -0.02  -0.11     0.00   0.22  -0.09     0.03  -0.11   0.18
   3   6    -0.07   0.02  -0.07     0.08   0.16  -0.14     0.11   0.03   0.02
   4   6    -0.05   0.08   0.07    -0.02  -0.25  -0.01     0.06  -0.08  -0.11
   5   6     0.00  -0.03   0.17    -0.05  -0.29   0.00    -0.02   0.04  -0.23
   6   6     0.07  -0.03   0.11    -0.12  -0.19  -0.00    -0.03   0.15  -0.29
   7   6     0.08   0.05  -0.12    -0.09   0.10  -0.03    -0.08  -0.18   0.17
   8   6    -0.03  -0.13   0.04     0.03   0.04   0.28     0.04   0.09   0.30
   9   6     0.00  -0.16  -0.05    -0.00   0.03   0.04     0.04  -0.04   0.01
  10   6    -0.04  -0.06   0.15    -0.01   0.15  -0.01     0.04  -0.06  -0.12
  11   6    -0.04  -0.10  -0.05     0.10  -0.02  -0.09    -0.06   0.09   0.07
  12   6     0.01  -0.09  -0.10     0.05  -0.10  -0.25    -0.04   0.12   0.14
  13   6    -0.02   0.06   0.14     0.06  -0.07   0.09     0.01   0.01  -0.08
  14   6     0.13   0.10   0.12    -0.07  -0.11   0.14    -0.01   0.00  -0.09
  15   6     0.02   0.09  -0.20    -0.10  -0.14   0.13     0.03   0.03   0.01
  16   8    -0.00  -0.00   0.00     0.01   0.00   0.00     0.00   0.01  -0.00
  17   8    -0.00  -0.00   0.00    -0.02  -0.01   0.01    -0.00   0.00  -0.00
  18   1     0.01  -0.01   0.02    -0.07   0.02   0.05     0.01  -0.01  -0.01
  19   1    -0.01   0.01  -0.01     0.01  -0.01   0.01     0.02  -0.01   0.02
  20   1    -0.05   0.01  -0.03     0.06   0.08  -0.05     0.06   0.03   0.00
  21   1    -0.04   0.05   0.03     0.00  -0.12   0.01     0.05  -0.06  -0.04
  22   1     0.05  -0.02   0.05    -0.07  -0.08   0.00    -0.02   0.09  -0.13
  23   1     0.05   0.03  -0.07    -0.04   0.04   0.00    -0.06  -0.09   0.11
  24   1    -0.05  -0.06   0.02     0.13  -0.03   0.17     0.15  -0.05   0.22
  25   1     0.03  -0.02  -0.00    -0.05   0.14   0.15    -0.11   0.17   0.19
  26   1     0.01  -0.06  -0.00    -0.00   0.03  -0.01     0.04   0.02  -0.02
  27   1     0.04   0.05  -0.06     0.03   0.00  -0.02     0.03   0.00  -0.02
  28   1    -0.06   0.00   0.01     0.02   0.00  -0.01    -0.05  -0.02   0.01
  29   1    -0.01  -0.01   0.12     0.01   0.08   0.03     0.00  -0.05  -0.12
  30   1    -0.01  -0.03  -0.01     0.03   0.01   0.06    -0.01   0.04   0.01
  31   1    -0.00  -0.04  -0.06     0.00  -0.06  -0.19    -0.01   0.06   0.08
  32   1    -0.08  -0.01   0.06    -0.00  -0.04   0.05     0.05   0.03  -0.04
  33   1    -0.00   0.05   0.09     0.02  -0.01   0.03    -0.00  -0.03  -0.05
  34   1     0.04   0.02   0.05    -0.03  -0.04   0.04     0.00   0.01  -0.03
  35   1     0.03   0.02   0.03    -0.03  -0.03   0.06     0.00   0.01  -0.03
  36   1    -0.07  -0.03  -0.06    -0.02  -0.05   0.03     0.03   0.03   0.01
  37   1     0.04   0.05  -0.10    -0.03  -0.04   0.03     0.00  -0.00   0.02
  38   1     0.02   0.04  -0.12    -0.03  -0.04   0.05     0.00   0.00   0.01
  39   1     0.00   0.01   0.01     0.02  -0.01   0.00    -0.01  -0.00  -0.01
  40   1    -0.00  -0.01   0.01     0.01   0.01  -0.00     0.01   0.00  -0.00
  41   8     0.02   0.03  -0.01    -0.02  -0.02  -0.02    -0.00  -0.01   0.00
  42   1     0.01   0.01   0.01    -0.02  -0.01   0.01    -0.02  -0.02  -0.01
  43   1     0.01  -0.00   0.00    -0.05  -0.07  -0.07     0.01   0.02   0.01
  44   7     0.14   0.09  -0.10     0.11   0.02  -0.07    -0.01   0.00   0.03
  45   6    -0.01  -0.06  -0.01     0.04   0.01   0.02     0.02  -0.10  -0.00
  46   8     0.34   0.19  -0.12     0.03   0.01  -0.04     0.25   0.05  -0.06
  47   6    -0.02   0.05   0.01    -0.04   0.11  -0.01    -0.03   0.11  -0.02
  48   6     0.04   0.10  -0.03     0.01   0.02  -0.05    -0.03   0.01  -0.02
  49   8    -0.09   0.20  -0.08    -0.08   0.06  -0.06    -0.07   0.07  -0.09
  50   1    -0.03   0.01  -0.00    -0.04   0.04  -0.02    -0.02   0.05  -0.02
  51   1    -0.02   0.01   0.00     0.01   0.04   0.03     0.02   0.04   0.02
  52   1    -0.00   0.01   0.02    -0.01   0.04   0.01    -0.02   0.05  -0.01
  53   7    -0.24   0.00   0.06     0.07  -0.00  -0.05    -0.17  -0.05   0.07
  54   6    -0.17  -0.28   0.08     0.07   0.06  -0.02    -0.16  -0.16   0.07
  55   1    -0.00  -0.11   0.01     0.01   0.02  -0.00    -0.02  -0.06   0.01
  56   1    -0.00  -0.10   0.01     0.02   0.02  -0.00    -0.03  -0.05   0.02
  57   1    -0.12  -0.13   0.05     0.04   0.03  -0.01    -0.08  -0.07   0.03
                     40                     41                     42
                        a                      a                      a 
 Frequencies --   377.4731               386.4203               401.0515
 Red. masses --     8.6337                 3.1130                 5.7403
 Frc consts  --     0.0000                 0.0000                 0.0000
 IR Inten    --    12.6452                47.2197                16.5800
 Raman Activ --     0.0000                 0.0000                 0.0000
 Depolar     --     0.0000                 0.0000                 0.0000
 Atom AN      X      Y      Z        X      Y      Z        X      Y      Z
   1   7    -0.01  -0.08  -0.09     0.01   0.01  -0.03    -0.07  -0.13  -0.06
   2   6     0.01   0.07  -0.06    -0.01  -0.06  -0.04    -0.01   0.05   0.07
   3   6     0.04   0.37  -0.22     0.00   0.05  -0.10     0.04   0.12  -0.00
   4   6    -0.08  -0.30   0.31    -0.00  -0.06   0.11     0.01  -0.04  -0.03
   5   6    -0.04  -0.02   0.11     0.06   0.08   0.04    -0.04  -0.18   0.05
   6   6     0.01   0.30  -0.13     0.10   0.17  -0.05    -0.08  -0.08   0.02
   7   6    -0.07  -0.21   0.17     0.03  -0.16   0.06    -0.03   0.16  -0.02
   8   6    -0.07  -0.05  -0.07     0.03  -0.00  -0.07    -0.01  -0.06   0.08
   9   6    -0.02  -0.01  -0.00    -0.00  -0.01  -0.05    -0.03  -0.02   0.03
  10   6    -0.02  -0.04   0.10     0.03   0.02  -0.01    -0.09  -0.14  -0.08
  11   6     0.04  -0.11   0.03    -0.02   0.04  -0.01     0.02  -0.13   0.16
  12   6     0.04  -0.11   0.01    -0.04   0.02  -0.04     0.10  -0.08   0.23
  13   6    -0.06   0.00   0.02     0.02  -0.02   0.01    -0.09   0.04  -0.07
  14   6     0.04   0.06   0.01    -0.00  -0.02   0.03     0.02   0.09  -0.12
  15   6     0.03   0.05  -0.08    -0.02  -0.02   0.02     0.08   0.10  -0.09
  16   8     0.01   0.01  -0.01    -0.01  -0.01   0.01    -0.09  -0.09   0.02
  17   8     0.00   0.01   0.01    -0.03  -0.00  -0.06     0.10  -0.03   0.03
  18   1     0.12  -0.08  -0.09    -0.41   0.30   0.29    -0.03   0.02   0.04
  19   1     0.04  -0.03   0.02    -0.05   0.04  -0.03    -0.31   0.22  -0.24
  20   1     0.02   0.19  -0.13    -0.01   0.04  -0.05     0.04   0.06  -0.01
  21   1    -0.05  -0.19   0.17    -0.02  -0.04   0.06     0.02  -0.00  -0.03
  22   1     0.02   0.17  -0.10     0.05   0.09  -0.04    -0.04  -0.02  -0.00
  23   1    -0.03  -0.14   0.11     0.01  -0.10   0.05    -0.02   0.11  -0.03
  24   1    -0.07   0.01  -0.06    -0.03   0.01  -0.05     0.03  -0.02   0.04
  25   1     0.02  -0.06  -0.06     0.04  -0.03  -0.04    -0.01   0.02   0.04
  26   1    -0.01  -0.01   0.01     0.00  -0.01  -0.00    -0.02  -0.01   0.01
  27   1     0.01   0.00  -0.01    -0.04   0.01   0.02     0.01   0.00  -0.01
  28   1     0.02   0.01  -0.00    -0.01  -0.00   0.00     0.03   0.01  -0.00
  29   1    -0.00  -0.00   0.05     0.01   0.01   0.01    -0.03  -0.05  -0.10
  30   1     0.00  -0.05  -0.03    -0.00   0.03   0.01    -0.00  -0.07   0.01
  31   1     0.01  -0.04   0.04    -0.01   0.01  -0.04     0.03  -0.02   0.15
  32   1    -0.06  -0.01   0.01     0.03  -0.01   0.01    -0.07   0.01  -0.04
  33   1    -0.01   0.04   0.03     0.00  -0.03  -0.00    -0.01   0.06  -0.01
  34   1     0.02   0.02   0.00    -0.00  -0.01   0.01     0.02   0.03  -0.04
  35   1     0.01   0.02  -0.01    -0.00  -0.01   0.01     0.01   0.03  -0.06
  36   1    -0.01  -0.01  -0.02    -0.01  -0.01   0.00     0.02   0.03  -0.03
  37   1     0.02   0.03  -0.04    -0.01  -0.01   0.00     0.03   0.03  -0.03
  38   1     0.01   0.02  -0.04    -0.00  -0.00   0.00     0.02   0.02  -0.03
  39   1    -0.06   0.01  -0.01     0.21  -0.01   0.04     0.12   0.07   0.06
  40   1     0.01  -0.01   0.02    -0.02   0.01  -0.04    -0.16  -0.06   0.03
  41   8    -0.01  -0.01  -0.02     0.07   0.09   0.13     0.01   0.03   0.00
  42   1    -0.05  -0.03  -0.01     0.07   0.04  -0.00     0.39   0.26   0.03
  43   1     0.08   0.13   0.11    -0.27  -0.41  -0.37    -0.02  -0.07  -0.01
  44   7    -0.01  -0.00   0.00    -0.03   0.01  -0.01     0.04  -0.00  -0.03
  45   6     0.01   0.03  -0.00    -0.02  -0.01  -0.02     0.01   0.03   0.02
  46   8    -0.03   0.01   0.00    -0.00  -0.01   0.02    -0.03   0.01  -0.01
  47   6    -0.00  -0.02   0.00     0.02  -0.04  -0.00    -0.01   0.06  -0.01
  48   6     0.00  -0.00  -0.00    -0.01   0.01   0.02     0.02   0.00  -0.03
  49   8     0.01  -0.02   0.01     0.03  -0.01   0.03    -0.05   0.03  -0.02
  50   1    -0.00  -0.00   0.00     0.02  -0.02   0.01    -0.03   0.01  -0.01
  51   1    -0.01  -0.01  -0.00    -0.00  -0.02  -0.02     0.02   0.02   0.00
  52   1     0.00  -0.01   0.00     0.01  -0.02  -0.00    -0.00   0.04   0.02
  53   7     0.07   0.02  -0.03    -0.03  -0.00   0.03     0.07   0.02  -0.04
  54   6     0.07   0.05  -0.03    -0.04  -0.02   0.01     0.08   0.05  -0.03
  55   1     0.01   0.02  -0.01    -0.00  -0.01   0.00     0.01   0.02  -0.01
  56   1     0.01   0.02  -0.01    -0.01  -0.01   0.00     0.02   0.02  -0.01
  57   1     0.03   0.02  -0.01    -0.02  -0.01   0.00     0.03   0.02  -0.01
                     43                     44                     45
                        a                      a                      a 
 Frequencies --   406.8011               411.3645               419.0634
 Red. masses --     6.7377                 2.3592                 7.9665
 Frc consts  --     0.0000                 0.0000                 0.0000
 IR Inten    --    24.6467                31.9234                11.9053
 Raman Activ --     0.0000                 0.0000                 0.0000
 Depolar     --     0.0000                 0.0000                 0.0000
 Atom AN      X      Y      Z        X      Y      Z        X      Y      Z
   1   7    -0.09  -0.09  -0.04     0.01   0.03   0.02     0.06   0.08   0.04
   2   6    -0.03   0.01   0.05     0.01   0.00  -0.02    -0.00  -0.09  -0.04
   3   6     0.00   0.02   0.01    -0.00  -0.01  -0.01    -0.04  -0.07  -0.01
   4   6     0.01   0.03  -0.04    -0.00  -0.01   0.01    -0.01   0.06   0.04
   5   6     0.02  -0.09   0.05     0.00   0.02  -0.01     0.01   0.14  -0.01
   6   6    -0.01  -0.02   0.04     0.01   0.00  -0.00     0.05   0.11  -0.02
   7   6     0.02   0.13  -0.03     0.00  -0.03   0.00     0.00  -0.15   0.02
   8   6     0.03  -0.13   0.00    -0.00   0.04  -0.00    -0.01  -0.06  -0.08
   9   6     0.05  -0.01   0.22    -0.02   0.00  -0.07     0.09   0.02   0.26
  10   6    -0.08  -0.09  -0.06     0.03   0.03  -0.01     0.10   0.09   0.05
  11   6     0.00  -0.09   0.11    -0.00   0.05  -0.02    -0.01   0.12  -0.11
  12   6     0.07  -0.04   0.15    -0.01   0.04  -0.04    -0.10   0.08  -0.15
  13   6    -0.06   0.04  -0.05     0.03   0.00   0.00     0.07  -0.03   0.04
  14   6     0.02   0.06  -0.09    -0.01  -0.02   0.01    -0.01  -0.06   0.08
  15   6     0.05   0.07  -0.06    -0.02  -0.03   0.03    -0.05  -0.07   0.06
  16   8     0.07   0.06   0.01    -0.04  -0.00   0.05    -0.05  -0.06   0.01
  17   8    -0.08   0.06  -0.10     0.04   0.10  -0.14     0.07  -0.02   0.03
  18   1    -0.10   0.05   0.13     0.05  -0.20   0.16     0.06  -0.06  -0.04
  19   1     0.27  -0.20   0.11     0.08  -0.07  -0.21    -0.18   0.13  -0.14
  20   1     0.02   0.01   0.01    -0.01  -0.01  -0.00    -0.04  -0.02  -0.01
  21   1     0.01   0.03  -0.02    -0.00  -0.01   0.01    -0.02   0.02   0.02
  22   1    -0.02  -0.01   0.01     0.01  -0.00   0.00     0.04   0.05  -0.01
  23   1     0.01   0.05  -0.02     0.00  -0.02   0.00     0.02  -0.07   0.01
  24   1    -0.02   0.01  -0.06     0.01  -0.00   0.02    -0.07   0.05  -0.11
  25   1     0.02  -0.11  -0.02    -0.00   0.03   0.01     0.01  -0.15  -0.06
  26   1    -0.02  -0.02   0.07     0.01   0.01  -0.02     0.00  -0.01   0.08
  27   1     0.19  -0.04  -0.05    -0.05   0.01   0.01     0.19  -0.06  -0.03
  28   1     0.02   0.01   0.01    -0.01  -0.00  -0.00    -0.00  -0.00   0.02
  29   1    -0.02  -0.03  -0.07     0.01   0.01   0.01     0.03   0.03   0.07
  30   1    -0.01  -0.05   0.01     0.00   0.02   0.01     0.01   0.07  -0.01
  31   1     0.02  -0.01   0.10    -0.00   0.01  -0.03    -0.03   0.02  -0.10
  32   1    -0.05   0.01  -0.03     0.02   0.00   0.00     0.06  -0.01   0.02
  33   1    -0.01   0.05  -0.01     0.00  -0.01  -0.00     0.01  -0.06   0.00
  34   1     0.01   0.02  -0.02    -0.01  -0.01   0.01    -0.01  -0.02   0.02
  35   1     0.01   0.02  -0.04    -0.01  -0.01   0.01    -0.01  -0.02   0.04
  36   1     0.02   0.02  -0.02     0.00  -0.00   0.01    -0.02  -0.02   0.02
  37   1     0.02   0.02  -0.01    -0.01  -0.01   0.01    -0.02  -0.02   0.02
  38   1     0.01   0.02  -0.02    -0.01  -0.01   0.01    -0.01  -0.02   0.02
  39   1    -0.02   0.12   0.02    -0.03   0.56   0.16     0.03   0.05   0.03
  40   1     0.08  -0.06   0.11    -0.15  -0.38   0.48    -0.10  -0.05   0.03
  41   8     0.06   0.01   0.08     0.01  -0.14  -0.00    -0.04  -0.03  -0.05
  42   1    -0.30  -0.22  -0.04    -0.01  -0.02  -0.03     0.23   0.16   0.02
  43   1    -0.08  -0.06  -0.16    -0.03   0.09  -0.12     0.04   0.04   0.06
  44   7     0.13  -0.06   0.11    -0.04   0.02  -0.04     0.08  -0.09   0.18
  45   6     0.04   0.04   0.14    -0.01  -0.01  -0.05     0.05   0.00   0.15
  46   8    -0.08  -0.01  -0.06     0.02   0.00   0.02    -0.01  -0.03  -0.08
  47   6    -0.06   0.21  -0.01     0.02  -0.08   0.00    -0.06   0.26  -0.02
  48   6     0.01  -0.12  -0.11    -0.00   0.04   0.03    -0.00  -0.17  -0.12
  49   8    -0.15  -0.02  -0.18     0.05   0.01   0.06    -0.16  -0.08  -0.19
  50   1    -0.09   0.13  -0.06     0.03  -0.04   0.02    -0.11   0.12  -0.07
  51   1     0.04   0.09   0.11    -0.02  -0.03  -0.03     0.09   0.12   0.11
  52   1    -0.04   0.10  -0.01     0.02  -0.04  -0.00    -0.05   0.15  -0.00
  53   7     0.03   0.01  -0.11    -0.01  -0.00   0.03    -0.03  -0.02  -0.08
  54   6     0.06   0.04  -0.01    -0.02  -0.01   0.00    -0.01  -0.01   0.01
  55   1    -0.00   0.02   0.01     0.00  -0.00  -0.00    -0.02  -0.00   0.01
  56   1     0.03   0.01  -0.00    -0.01  -0.00   0.00     0.02  -0.00   0.00
  57   1     0.03   0.02   0.01    -0.01  -0.01  -0.00    -0.00  -0.00   0.02
                     46                     47                     48
                        a                      a                      a 
 Frequencies --   451.0235               458.7216               469.9172
 Red. masses --    10.8165                 4.8225                 9.7722
 Frc consts  --     0.0000                 0.0000                 0.0000
 IR Inten    --    17.0675               115.1487                 4.2715
 Raman Activ --     0.0000                 0.0000                 0.0000
 Depolar     --     0.0000                 0.0000                 0.0000
 Atom AN      X      Y      Z        X      Y      Z        X      Y      Z
   1   7     0.36  -0.05  -0.19    -0.02   0.01  -0.04     0.07  -0.08   0.19
   2   6     0.29   0.16  -0.06     0.00   0.07  -0.03    -0.02  -0.32   0.13
   3   6     0.01   0.08   0.22     0.01  -0.00   0.01    -0.04   0.08  -0.08
   4   6    -0.04   0.03   0.10     0.01  -0.03   0.01    -0.04   0.12   0.02
   5   6    -0.30   0.13  -0.10     0.03   0.04  -0.04    -0.11  -0.21   0.22
   6   6    -0.16  -0.17  -0.05    -0.01  -0.01   0.01    -0.01   0.08  -0.07
   7   6    -0.06   0.03  -0.08    -0.01   0.01   0.03    -0.03  -0.02  -0.15
   8   6    -0.32   0.10   0.01     0.02   0.09  -0.06    -0.12  -0.22   0.11
   9   6    -0.03   0.04   0.06     0.08   0.11   0.13    -0.10  -0.16  -0.01
  10   6     0.22  -0.07   0.08    -0.06   0.00   0.01     0.26  -0.07  -0.10
  11   6     0.05  -0.01  -0.02    -0.00  -0.05   0.01     0.01   0.19  -0.01
  12   6    -0.19  -0.09   0.03     0.05  -0.04   0.01    -0.20   0.15   0.02
  13   6    -0.08  -0.18   0.04    -0.01   0.01  -0.00     0.04  -0.05  -0.00
  14   6     0.10   0.04   0.06    -0.01   0.01  -0.01     0.03  -0.02   0.01
  15   6     0.03   0.07  -0.10     0.01   0.00  -0.00    -0.01   0.00  -0.00
  16   8     0.00   0.00   0.00     0.00   0.00  -0.00     0.01   0.01  -0.00
  17   8    -0.01   0.00  -0.01    -0.00  -0.00   0.00    -0.01   0.00  -0.00
  18   1    -0.06   0.03   0.04     0.01  -0.00  -0.00     0.01  -0.02   0.00
  19   1     0.02  -0.02   0.01     0.00  -0.00  -0.01     0.02  -0.02   0.02
  20   1    -0.04  -0.02   0.07     0.01  -0.02   0.02    -0.03   0.11  -0.10
  21   1     0.04  -0.05   0.01     0.00  -0.03   0.01    -0.00   0.12  -0.05
  22   1    -0.02  -0.09   0.03    -0.01  -0.03   0.02     0.04   0.10  -0.07
  23   1    -0.09   0.04   0.03    -0.01  -0.02   0.02     0.01   0.07  -0.10
  24   1    -0.09   0.03   0.01     0.00   0.07  -0.07    -0.05  -0.09   0.05
  25   1    -0.13  -0.00   0.02     0.01  -0.04  -0.03    -0.01  -0.03   0.03
  26   1     0.00   0.03   0.00     0.04   0.04   0.04    -0.05  -0.06   0.01
  27   1     0.02  -0.01   0.01    -0.57  -0.06   0.52    -0.21   0.02   0.11
  28   1     0.02  -0.00   0.00    -0.04  -0.02  -0.04     0.05   0.03  -0.02
  29   1     0.06  -0.05   0.05    -0.02   0.00   0.01     0.07  -0.03  -0.07
  30   1     0.02   0.04  -0.08    -0.00  -0.03  -0.00     0.03   0.15   0.02
  31   1    -0.05  -0.03   0.07     0.01  -0.01   0.01    -0.05   0.05  -0.03
  32   1     0.03  -0.06   0.04    -0.03  -0.00  -0.00     0.11   0.01   0.00
  33   1    -0.04  -0.12   0.01     0.00   0.03   0.01    -0.01  -0.11  -0.03
  34   1     0.03   0.02   0.00     0.00   0.00  -0.00     0.00  -0.00  -0.00
  35   1     0.03   0.01   0.02    -0.00   0.00  -0.01     0.01  -0.00   0.01
  36   1    -0.04  -0.02  -0.03     0.00   0.00  -0.00    -0.01  -0.00   0.00
  37   1     0.02   0.04  -0.06     0.00   0.00  -0.00    -0.01  -0.00   0.00
  38   1     0.02   0.04  -0.06     0.00  -0.00  -0.00     0.00   0.01  -0.01
  39   1     0.02   0.01   0.01    -0.01   0.01  -0.00    -0.02  -0.01  -0.01
  40   1     0.00  -0.01   0.01     0.01  -0.00   0.01     0.02   0.01  -0.01
  41   8    -0.01  -0.01   0.00     0.00   0.00   0.00    -0.00  -0.00  -0.01
  42   1    -0.02  -0.02  -0.01    -0.00   0.00   0.00    -0.03  -0.02  -0.00
  43   1    -0.05  -0.06  -0.06     0.00   0.01   0.00     0.01   0.01   0.01
  44   7    -0.02  -0.01   0.04     0.32  -0.03  -0.15     0.12  -0.01  -0.15
  45   6     0.03  -0.02   0.03     0.04  -0.03   0.06    -0.03   0.07   0.01
  46   8     0.10   0.03  -0.05     0.04  -0.02  -0.06    -0.09   0.06   0.00
  47   6    -0.01   0.01  -0.01     0.03   0.09  -0.03     0.03   0.00   0.02
  48   6    -0.01  -0.02  -0.01    -0.20  -0.11   0.15    -0.00   0.03   0.05
  49   8     0.01  -0.05   0.00    -0.07  -0.03  -0.09    -0.05   0.11  -0.03
  50   1    -0.01   0.00  -0.00     0.09   0.04   0.02     0.03   0.00   0.02
  51   1     0.00   0.00   0.00     0.10   0.04   0.01     0.01  -0.00  -0.00
  52   1    -0.01   0.01  -0.01    -0.05   0.07  -0.14     0.00  -0.00  -0.01
  53   7     0.04  -0.02  -0.03    -0.06  -0.03  -0.01     0.12   0.05  -0.05
  54   6     0.04   0.02  -0.01    -0.07  -0.04   0.03     0.16   0.09  -0.06
  55   1     0.00   0.01  -0.00    -0.02  -0.02   0.02     0.03   0.03  -0.01
  56   1     0.01   0.01  -0.00    -0.00  -0.01   0.01     0.04   0.03  -0.01
  57   1     0.02   0.01  -0.01    -0.03  -0.02   0.01     0.06   0.04  -0.02
                     49                     50                     51
                        a                      a                      a 
 Frequencies --   504.9818               518.4923               555.3007
 Red. masses --     9.9537                10.4686                10.3793
 Frc consts  --     0.0000                 0.0000                 0.0000
 IR Inten    --     4.7028                 7.8564                10.3015
 Raman Activ --     0.0000                 0.0000                 0.0000
 Depolar     --     0.0000                 0.0000                 0.0000
 Atom AN      X      Y      Z        X      Y      Z        X      Y      Z
   1   7    -0.18   0.13  -0.27     0.10   0.00  -0.23    -0.02   0.09   0.42
   2   6    -0.18   0.04   0.11     0.09   0.12  -0.04     0.05   0.17  -0.29
   3   6    -0.03  -0.06   0.04    -0.01  -0.09   0.18     0.04  -0.11  -0.18
   4   6     0.01  -0.01  -0.13     0.02   0.11  -0.04     0.06  -0.03   0.12
   5   6     0.17  -0.05  -0.04    -0.03   0.17  -0.11     0.03   0.30  -0.10
   6   6     0.02   0.09   0.03     0.02   0.08  -0.08    -0.04   0.01   0.14
   7   6     0.01   0.07   0.18     0.02  -0.10   0.13    -0.09  -0.08  -0.13
   8   6     0.21  -0.10   0.02    -0.02  -0.32   0.14     0.03  -0.07   0.02
   9   6     0.04  -0.07  -0.04    -0.04  -0.32  -0.07     0.05  -0.11  -0.06
  10   6     0.12   0.23   0.06    -0.13   0.01   0.17     0.02  -0.03  -0.29
  11   6     0.21   0.01  -0.03    -0.09  -0.07  -0.06     0.09  -0.00   0.10
  12   6    -0.30  -0.17   0.04     0.16  -0.01  -0.12    -0.08  -0.04   0.21
  13   6    -0.18  -0.32   0.05     0.06   0.12   0.01    -0.08  -0.11  -0.02
  14   6     0.13   0.04   0.10    -0.05  -0.02   0.01     0.03   0.03  -0.04
  15   6     0.04   0.08  -0.11    -0.03  -0.05   0.05     0.04   0.06  -0.05
  16   8    -0.00  -0.00   0.00    -0.01  -0.00   0.00    -0.00  -0.00  -0.01
  17   8     0.01   0.01  -0.01     0.00   0.00  -0.00    -0.00  -0.01   0.01
  18   1    -0.00   0.05  -0.06    -0.01   0.02  -0.01     0.02  -0.07   0.05
  19   1     0.00  -0.00  -0.02    -0.00   0.00  -0.01    -0.00   0.00   0.01
  20   1     0.05  -0.02   0.04    -0.02  -0.10   0.10    -0.05  -0.14   0.00
  21   1    -0.01   0.02  -0.03     0.02  -0.02   0.01    -0.03  -0.11   0.13
  22   1    -0.05   0.03  -0.02     0.00  -0.02   0.01     0.01  -0.10   0.14
  23   1     0.02   0.02   0.03    -0.03  -0.08   0.09    -0.02  -0.17   0.04
  24   1     0.08  -0.05   0.03    -0.00  -0.18   0.14    -0.01  -0.06   0.05
  25   1     0.05   0.02   0.02    -0.07  -0.01   0.09    -0.03   0.01   0.03
  26   1     0.00  -0.03   0.00    -0.05  -0.13   0.01     0.01  -0.04  -0.00
  27   1    -0.02   0.00   0.00    -0.09   0.02   0.00    -0.00  -0.00  -0.01
  28   1    -0.01   0.01  -0.01     0.04   0.04  -0.02    -0.01   0.01  -0.04
  29   1     0.05   0.15   0.01    -0.04  -0.02   0.12     0.01   0.01  -0.15
  30   1     0.06   0.04  -0.12    -0.04  -0.08  -0.03     0.04   0.04   0.11
  31   1    -0.09  -0.10   0.14     0.05   0.02  -0.04    -0.03  -0.06   0.04
  32   1     0.04  -0.11   0.07    -0.07   0.02  -0.01     0.04  -0.02  -0.01
  33   1    -0.08  -0.20   0.01     0.04   0.11   0.02    -0.03  -0.08  -0.03
  34   1     0.04   0.03   0.00    -0.01  -0.01   0.02     0.01   0.02  -0.03
  35   1     0.04   0.02   0.02    -0.02  -0.01   0.01     0.01   0.02  -0.02
  36   1    -0.07  -0.04  -0.04     0.02   0.00   0.01    -0.00   0.01  -0.02
  37   1     0.02   0.05  -0.08    -0.01  -0.02   0.02     0.01   0.02  -0.02
  38   1     0.03   0.06  -0.09    -0.02  -0.03   0.03     0.02   0.03  -0.03
  39   1    -0.01   0.02   0.00     0.01   0.01   0.01     0.00  -0.02  -0.00
  40   1    -0.01  -0.02   0.02    -0.01  -0.01   0.01     0.01   0.01  -0.02
  41   8     0.01  -0.02   0.02     0.00  -0.00   0.00    -0.02   0.00  -0.03
  42   1     0.00   0.00   0.00     0.01   0.00   0.00     0.00   0.00   0.00
  43   1     0.01   0.03   0.00    -0.01  -0.01  -0.01     0.01   0.00   0.02
  44   7     0.03  -0.02  -0.02     0.06  -0.08  -0.08     0.01  -0.06   0.01
  45   6    -0.02   0.03  -0.04    -0.08   0.10  -0.05    -0.03   0.04  -0.09
  46   8    -0.09  -0.02   0.04    -0.21   0.04   0.07    -0.11  -0.01   0.06
  47   6     0.02   0.01   0.02     0.08   0.02   0.09     0.07   0.01   0.08
  48   6     0.01  -0.00   0.02     0.07  -0.01   0.07     0.05  -0.05   0.04
  49   8    -0.03   0.06  -0.03    -0.12   0.20  -0.10    -0.08   0.09  -0.07
  50   1     0.00   0.00   0.01     0.01   0.02   0.01     0.01   0.02   0.01
  51   1     0.02   0.00   0.01     0.04   0.01   0.05     0.04   0.01   0.05
  52   1     0.00   0.01   0.00     0.02   0.02   0.02     0.01   0.02   0.02
  53   7    -0.02   0.04   0.02     0.08   0.11  -0.02    -0.01   0.07   0.03
  54   6    -0.01  -0.00   0.00     0.13   0.07  -0.05     0.00   0.01  -0.00
  55   1     0.01  -0.01  -0.00     0.04   0.02  -0.02     0.02  -0.01  -0.00
  56   1     0.00  -0.00  -0.00     0.04   0.02  -0.01     0.01  -0.00  -0.00
  57   1    -0.02  -0.01   0.00     0.03   0.02  -0.01    -0.02  -0.01   0.00
                     52                     53                     54
                        a                      a                      a 
 Frequencies --   584.4709               599.6365               609.6781
 Red. masses --     8.4287                10.6456                10.4402
 Frc consts  --     0.0000                 0.0000                 0.0000
 IR Inten    --     3.9325                20.8339                17.1478
 Raman Activ --     0.0000                 0.0000                 0.0000
 Depolar     --     0.0000                 0.0000                 0.0000
 Atom AN      X      Y      Z        X      Y      Z        X      Y      Z
   1   7    -0.01   0.02   0.00    -0.02  -0.13   0.03    -0.09  -0.04   0.21
   2   6    -0.00   0.01  -0.02    -0.01  -0.03   0.11     0.01   0.15  -0.01
   3   6     0.02  -0.03  -0.01    -0.15   0.23   0.06    -0.26   0.18   0.13
   4   6     0.03   0.02  -0.01    -0.24  -0.15  -0.03    -0.33  -0.09  -0.16
   5   6     0.01   0.01   0.00    -0.03  -0.01  -0.07     0.03   0.07  -0.15
   6   6     0.00   0.03  -0.01     0.08  -0.19  -0.06     0.29  -0.15  -0.18
   7   6    -0.01  -0.02   0.01     0.15   0.13   0.03     0.35   0.05   0.18
   8   6     0.01   0.02   0.00     0.02   0.14  -0.10     0.02  -0.14  -0.00
   9   6    -0.06   0.03   0.04     0.15   0.04  -0.11    -0.06  -0.08   0.04
  10   6    -0.02   0.01  -0.01     0.10  -0.08   0.03     0.05  -0.03  -0.08
  11   6     0.00  -0.01   0.00    -0.01   0.05  -0.02     0.04   0.04   0.01
  12   6     0.00  -0.01   0.01    -0.02   0.06  -0.02    -0.04   0.03   0.06
  13   6    -0.01  -0.01   0.00     0.04   0.05  -0.00    -0.00  -0.01  -0.00
  14   6     0.00   0.00  -0.00    -0.01  -0.01  -0.00     0.00  -0.00  -0.02
  15   6     0.00   0.00  -0.00    -0.01  -0.01   0.01     0.01   0.01  -0.01
  16   8    -0.00   0.01  -0.00    -0.00  -0.00  -0.00     0.00  -0.00  -0.01
  17   8    -0.00   0.00   0.00    -0.00  -0.00  -0.00    -0.01  -0.01   0.00
  18   1    -0.00   0.01  -0.01     0.00  -0.02   0.02     0.02  -0.08   0.07
  19   1     0.02  -0.01  -0.01    -0.00   0.00   0.02    -0.02   0.01   0.03
  20   1     0.00  -0.02   0.00    -0.02   0.09   0.01    -0.06  -0.01   0.09
  21   1     0.00   0.00   0.00    -0.04  -0.05  -0.03    -0.09  -0.11  -0.00
  22   1    -0.00  -0.00   0.01    -0.00  -0.05  -0.03     0.04  -0.11  -0.01
  23   1    -0.00  -0.02   0.01     0.02   0.08   0.01     0.07  -0.06   0.12
  24   1     0.00   0.02  -0.02    -0.02   0.06  -0.06    -0.02  -0.04  -0.01
  25   1     0.00  -0.01  -0.00     0.02  -0.00  -0.05     0.01  -0.05  -0.00
  26   1    -0.00   0.01   0.02     0.10   0.04  -0.04    -0.06  -0.06   0.04
  27   1    -0.32  -0.02   0.23     0.02  -0.04   0.01    -0.04   0.02   0.00
  28   1     0.05   0.01   0.14    -0.10  -0.02  -0.24     0.07   0.02   0.18
  29   1    -0.00   0.01  -0.00     0.03  -0.01   0.02     0.02   0.02  -0.02
  30   1     0.00  -0.01   0.00     0.01   0.05  -0.00     0.02   0.05   0.04
  31   1     0.00  -0.01   0.01    -0.00   0.03  -0.03    -0.02  -0.01  -0.02
  32   1    -0.00  -0.00  -0.00     0.03   0.02  -0.00     0.04   0.01  -0.01
  33   1    -0.00  -0.00   0.00     0.01   0.00  -0.01    -0.01  -0.03  -0.01
  34   1    -0.00   0.00  -0.00    -0.00  -0.01   0.01     0.00   0.00  -0.01
  35   1     0.00   0.00  -0.00    -0.00  -0.00   0.00     0.00   0.00  -0.01
  36   1    -0.00   0.00  -0.00     0.00   0.00   0.00     0.00   0.01  -0.00
  37   1     0.00   0.00  -0.00    -0.00  -0.01   0.01    -0.00   0.00  -0.00
  38   1     0.00   0.00  -0.00    -0.00  -0.01   0.01     0.00   0.00  -0.00
  39   1    -0.01  -0.00  -0.00     0.01  -0.00   0.00     0.04  -0.01   0.01
  40   1     0.00   0.00   0.00     0.00   0.00  -0.01    -0.00   0.01  -0.01
  41   8     0.00  -0.00   0.00     0.01   0.01  -0.00    -0.00   0.03  -0.02
  42   1    -0.02  -0.01   0.00    -0.00  -0.00   0.00     0.01   0.01   0.01
  43   1     0.00   0.00  -0.00     0.00  -0.01   0.00     0.01  -0.01   0.02
  44   7    -0.16  -0.04   0.07     0.01  -0.14   0.09    -0.02   0.06  -0.05
  45   6    -0.02  -0.04   0.02    -0.03   0.01  -0.37     0.02   0.01   0.21
  46   8     0.08   0.03  -0.01    -0.09  -0.07   0.14     0.02   0.03  -0.06
  47   6     0.02  -0.01  -0.01     0.20  -0.01   0.21    -0.11   0.01  -0.11
  48   6     0.52   0.07  -0.44     0.17  -0.16   0.03    -0.07   0.09  -0.03
  49   8    -0.24  -0.01   0.20    -0.20   0.11  -0.12     0.09  -0.04   0.06
  50   1    -0.24   0.03  -0.12    -0.02   0.04   0.01     0.00  -0.02  -0.01
  51   1    -0.14  -0.01   0.08     0.10   0.02   0.15    -0.06  -0.01  -0.08
  52   1     0.11  -0.06   0.26     0.05   0.03   0.08    -0.02  -0.02  -0.03
  53   7     0.01  -0.07  -0.03    -0.03   0.13   0.15     0.01  -0.06  -0.10
  54   6     0.01   0.00  -0.01    -0.06  -0.02   0.03     0.04   0.01  -0.02
  55   1    -0.01   0.01  -0.00     0.03  -0.03   0.00    -0.01   0.02  -0.00
  56   1    -0.01   0.00  -0.00    -0.00  -0.01   0.00     0.00   0.00  -0.00
  57   1     0.02   0.01  -0.00    -0.07  -0.04   0.01     0.03   0.02  -0.00
                     55                     56                     57
                        a                      a                      a 
 Frequencies --   641.4287               644.8221               652.9506
 Red. masses --     3.0025                 6.9649                10.1862
 Frc consts  --     0.0000                 0.0000                 0.0000
 IR Inten    --   179.5495               178.8610                49.4995
 Raman Activ --     0.0000                 0.0000                 0.0000
 Depolar     --     0.0000                 0.0000                 0.0000
 Atom AN      X      Y      Z        X      Y      Z        X      Y      Z
   1   7    -0.03  -0.04   0.08     0.01  -0.02   0.05    -0.14  -0.33  -0.15
   2   6    -0.01  -0.04   0.03     0.02   0.02  -0.02    -0.10  -0.10   0.11
   3   6     0.01   0.05  -0.04    -0.03   0.02   0.02     0.08   0.12  -0.14
   4   6    -0.01  -0.05   0.03    -0.03   0.01  -0.01     0.05  -0.14   0.11
   5   6     0.00   0.07  -0.05    -0.01   0.02  -0.01     0.08   0.27  -0.18
   6   6     0.02  -0.06   0.03     0.01  -0.00  -0.02    -0.17  -0.05   0.24
   7   6     0.04   0.06  -0.04     0.01   0.00  -0.00    -0.11   0.23  -0.10
   8   6    -0.01   0.06  -0.04     0.01  -0.16   0.08     0.13  -0.09   0.00
   9   6    -0.04   0.00  -0.07     0.12  -0.06   0.15     0.13  -0.07  -0.03
  10   6     0.02  -0.03   0.00     0.02  -0.03  -0.01     0.21  -0.16   0.13
  11   6    -0.01   0.01  -0.01    -0.01   0.00  -0.00    -0.01   0.09  -0.06
  12   6    -0.00   0.02  -0.01    -0.00   0.01   0.01    -0.05   0.11  -0.09
  13   6     0.01   0.02  -0.00     0.01   0.01  -0.00     0.07   0.10  -0.00
  14   6    -0.00  -0.00  -0.00    -0.00  -0.00  -0.00    -0.01  -0.01   0.01
  15   6    -0.00  -0.00   0.00     0.00  -0.00  -0.00    -0.02  -0.03   0.02
  16   8    -0.03   0.03   0.10    -0.01   0.01   0.05     0.01  -0.01  -0.03
  17   8    -0.00   0.04   0.06    -0.00   0.02   0.03     0.02  -0.00  -0.02
  18   1    -0.10   0.41  -0.42    -0.04   0.18  -0.18     0.00  -0.01   0.03
  19   1     0.20  -0.15  -0.56     0.09  -0.07  -0.26    -0.06   0.04   0.15
  20   1     0.00  -0.00   0.00    -0.02  -0.02   0.02     0.02  -0.03   0.02
  21   1    -0.00  -0.04   0.02    -0.01  -0.03   0.02    -0.01  -0.13   0.10
  22   1     0.01  -0.04   0.03    -0.00  -0.03   0.02    -0.07  -0.09   0.12
  23   1     0.00  -0.01   0.01    -0.01  -0.03   0.03    -0.04   0.02   0.00
  24   1     0.00   0.01  -0.00    -0.01  -0.05   0.02     0.06  -0.07   0.06
  25   1    -0.00   0.03  -0.01    -0.02  -0.07   0.03    -0.03   0.03   0.05
  26   1    -0.04   0.01  -0.03     0.10  -0.05   0.09     0.03  -0.06   0.03
  27   1    -0.00  -0.01  -0.04     0.02   0.02   0.08    -0.03   0.01   0.04
  28   1     0.08   0.03   0.26    -0.15  -0.06  -0.50     0.03   0.04   0.22
  29   1     0.01  -0.00  -0.01     0.00  -0.01  -0.00     0.06  -0.02   0.04
  30   1    -0.00   0.01  -0.00     0.00   0.01   0.01     0.01   0.09  -0.06
  31   1     0.00   0.01  -0.01    -0.00   0.00  -0.01    -0.01   0.07  -0.03
  32   1     0.01   0.01  -0.00     0.00   0.00  -0.00     0.04   0.03  -0.00
  33   1     0.00   0.00  -0.00     0.00   0.00   0.00     0.02   0.01  -0.01
  34   1     0.00  -0.00   0.00    -0.01  -0.00  -0.00    -0.00  -0.01   0.02
  35   1    -0.00  -0.00  -0.00     0.00   0.00   0.00    -0.01  -0.01   0.01
  36   1     0.00   0.00   0.00     0.00   0.00   0.00     0.01   0.00   0.01
  37   1    -0.00  -0.00   0.00    -0.00  -0.00   0.00    -0.01  -0.01   0.02
  38   1    -0.00  -0.00   0.00     0.00   0.00   0.00    -0.01  -0.01   0.01
  39   1    -0.10  -0.03  -0.02    -0.04  -0.02  -0.01    -0.03   0.02  -0.00
  40   1     0.04   0.02   0.02     0.02   0.01   0.00    -0.02  -0.02   0.01
  41   8     0.00  -0.12   0.08    -0.00  -0.05   0.03     0.03   0.02   0.01
  42   1     0.02  -0.02  -0.08     0.02  -0.01  -0.04    -0.00   0.01   0.02
  43   1    -0.00   0.08  -0.03    -0.00   0.03  -0.01     0.00  -0.00  -0.00
  44   7    -0.07  -0.08  -0.04     0.15   0.20   0.09     0.01   0.06   0.03
  45   6     0.01  -0.00   0.11    -0.02   0.01  -0.21     0.07   0.05   0.04
  46   8     0.02   0.01  -0.02    -0.07  -0.04   0.04    -0.07  -0.06   0.03
  47   6     0.08  -0.02   0.09    -0.22   0.04  -0.26    -0.10   0.02  -0.10
  48   6    -0.01  -0.04   0.08    -0.03   0.12  -0.17    -0.03   0.06  -0.05
  49   8    -0.04   0.07  -0.08     0.12  -0.17   0.19     0.05  -0.04   0.05
  50   1     0.04   0.00   0.03    -0.08  -0.00  -0.07    -0.02  -0.01  -0.02
  51   1     0.05   0.00   0.04    -0.12  -0.00  -0.10    -0.04  -0.00  -0.05
  52   1     0.01   0.01   0.00    -0.03  -0.02  -0.02    -0.02  -0.01  -0.02
  53   7    -0.01  -0.04  -0.08     0.02   0.11   0.15    -0.05   0.07  -0.06
  54   6    -0.00  -0.00  -0.00     0.00   0.01   0.01    -0.03  -0.01   0.01
  55   1    -0.01   0.01  -0.00     0.03  -0.02   0.01     0.01  -0.01  -0.01
  56   1    -0.00  -0.01  -0.00     0.01   0.01   0.01     0.02  -0.02  -0.01
  57   1     0.01   0.01   0.00    -0.03  -0.02  -0.01    -0.04  -0.02   0.02
                     58                     59                     60
                        a                      a                      a 
 Frequencies --   673.4036               684.4279               707.9460
 Red. masses --     2.5519                 7.5120                10.2983
 Frc consts  --     0.0000                 0.0000                 0.0000
 IR Inten    --   183.3252                14.0132                 7.7120
 Raman Activ --     0.0000                 0.0000                 0.0000
 Depolar     --     0.0000                 0.0000                 0.0000
 Atom AN      X      Y      Z        X      Y      Z        X      Y      Z
   1   7    -0.01   0.05   0.08     0.16   0.15   0.06    -0.01  -0.30   0.03
   2   6     0.02  -0.03   0.02     0.07  -0.00  -0.02     0.07   0.36  -0.24
   3   6     0.01   0.03  -0.00    -0.08  -0.00   0.08    -0.13  -0.10   0.08
   4   6     0.00  -0.01   0.01    -0.08   0.04  -0.00    -0.08   0.14  -0.18
   5   6    -0.01   0.04  -0.02    -0.06  -0.11   0.08     0.06  -0.32   0.19
   6   6     0.06  -0.05  -0.03    -0.01  -0.01  -0.08    -0.15   0.26  -0.02
   7   6     0.07  -0.00  -0.02    -0.03  -0.10  -0.02    -0.19  -0.02   0.12
   8   6    -0.04   0.00   0.00     0.01  -0.01   0.01     0.17   0.02  -0.00
   9   6    -0.05  -0.00   0.02     0.27  -0.04  -0.06    -0.02   0.09   0.00
  10   6    -0.04   0.03  -0.03    -0.08   0.04  -0.05     0.21  -0.22   0.03
  11   6    -0.01  -0.02   0.00    -0.02  -0.04   0.03     0.01   0.04  -0.05
  12   6     0.01  -0.01   0.01     0.04  -0.05   0.03    -0.05   0.08   0.02
  13   6    -0.01  -0.02   0.00    -0.02  -0.03   0.00     0.05   0.08   0.00
  14   6    -0.00   0.00  -0.00     0.00   0.00  -0.00    -0.01  -0.00  -0.02
  15   6     0.00   0.00  -0.00     0.01   0.01  -0.01    -0.01  -0.01   0.00
  16   8     0.01  -0.05  -0.10     0.00  -0.01  -0.01    -0.00  -0.00  -0.01
  17   8     0.15   0.03  -0.07     0.02   0.00  -0.00     0.03   0.00   0.00
  18   1    -0.11   0.36  -0.31    -0.02   0.04  -0.04    -0.02   0.06  -0.04
  19   1    -0.21   0.15   0.49    -0.02   0.01   0.05    -0.01   0.01   0.01
  20   1     0.00  -0.00   0.01    -0.03   0.07  -0.04    -0.06  -0.14   0.09
  21   1     0.01  -0.02   0.01    -0.01   0.08  -0.05    -0.06  -0.02   0.02
  22   1     0.03  -0.02   0.00     0.01   0.06  -0.06    -0.10  -0.01   0.03
  23   1     0.02  -0.02   0.01    -0.01   0.05  -0.05    -0.09  -0.10   0.13
  24   1    -0.02   0.01  -0.01    -0.02  -0.03   0.02     0.06   0.05  -0.05
  25   1    -0.01  -0.01  -0.00     0.00  -0.01   0.00     0.12   0.00  -0.04
  26   1    -0.02   0.00  -0.00     0.15  -0.03   0.02    -0.00   0.04  -0.02
  27   1    -0.01   0.00  -0.01     0.02  -0.00   0.07     0.03  -0.01  -0.02
  28   1    -0.02  -0.02  -0.10     0.10   0.11   0.57     0.01  -0.00   0.05
  29   1    -0.01   0.01  -0.02    -0.03  -0.02  -0.01     0.06  -0.04   0.06
  30   1    -0.01  -0.02   0.01    -0.01  -0.05   0.02     0.03   0.11   0.02
  31   1     0.00  -0.01   0.01     0.01  -0.02   0.01    -0.01   0.03  -0.07
  32   1    -0.01  -0.01  -0.00    -0.03  -0.01  -0.00     0.06   0.03  -0.01
  33   1    -0.00   0.00   0.00    -0.00   0.01   0.01     0.01  -0.01  -0.02
  34   1     0.00   0.00  -0.01    -0.00   0.01  -0.01     0.00  -0.01   0.01
  35   1     0.00   0.00  -0.00     0.00   0.00  -0.00    -0.00  -0.01  -0.01
  36   1    -0.00  -0.00  -0.00    -0.00  -0.00  -0.00     0.01   0.01   0.00
  37   1     0.00   0.00  -0.00     0.00   0.01  -0.01    -0.00  -0.01   0.01
  38   1     0.00   0.00  -0.00     0.00   0.00  -0.00    -0.00  -0.01   0.01
  39   1    -0.45   0.14  -0.08    -0.08   0.02  -0.02    -0.13   0.00  -0.03
  40   1    -0.15  -0.13   0.12    -0.02  -0.02   0.02    -0.02  -0.01   0.00
  41   8     0.06  -0.12   0.10     0.00  -0.03   0.01     0.03  -0.00   0.02
  42   1     0.02   0.06   0.09     0.00   0.01   0.01     0.01   0.01   0.01
  43   1    -0.04   0.08  -0.14    -0.01   0.01  -0.03    -0.01   0.01  -0.03
  44   7    -0.01  -0.01  -0.02     0.12   0.09   0.11     0.00  -0.01  -0.01
  45   6    -0.02  -0.01   0.04     0.07   0.05  -0.35    -0.02  -0.02  -0.06
  46   8     0.02   0.03  -0.03    -0.11  -0.13   0.19     0.03   0.01   0.02
  47   6     0.01  -0.00   0.02    -0.11   0.02  -0.11     0.03  -0.00   0.03
  48   6     0.01  -0.00   0.00    -0.04   0.00  -0.04    -0.00  -0.02   0.01
  49   8    -0.01   0.01  -0.00     0.05  -0.09   0.02    -0.01   0.01  -0.02
  50   1    -0.00  -0.01   0.01    -0.02   0.01  -0.03     0.01  -0.00   0.01
  51   1     0.01  -0.00   0.00    -0.02   0.01  -0.03     0.01   0.00   0.01
  52   1     0.00  -0.00   0.00    -0.04   0.01  -0.04     0.00   0.00   0.00
  53   7     0.02  -0.03   0.01    -0.09   0.20  -0.05     0.00  -0.03   0.01
  54   6     0.02   0.00  -0.00    -0.07  -0.01   0.02    -0.02  -0.01   0.01
  55   1    -0.01   0.00   0.00     0.04  -0.02  -0.02    -0.01   0.00   0.00
  56   1    -0.01   0.01   0.00     0.04  -0.05  -0.02    -0.01  -0.00   0.00
  57   1     0.02   0.01  -0.01    -0.11  -0.06   0.05     0.00   0.00  -0.00
                     61                     62                     63
                        a                      a                      a 
 Frequencies --   726.4348               761.3138               773.8512
 Red. masses --    10.9549                 2.5612                 9.9376
 Frc consts  --     0.0000                 0.0000                 0.0000
 IR Inten    --     1.9614               302.3474                 3.8308
 Raman Activ --     0.0000                 0.0000                 0.0000
 Depolar     --     0.0000                 0.0000                 0.0000
 Atom AN      X      Y      Z        X      Y      Z        X      Y      Z
   1   7     0.17   0.06   0.03     0.10   0.06  -0.05    -0.42  -0.15  -0.05
   2   6     0.05   0.01  -0.02    -0.01  -0.04   0.03    -0.03   0.10  -0.05
   3   6    -0.11   0.02   0.06    -0.05   0.02  -0.00     0.20  -0.09  -0.02
   4   6    -0.12   0.00  -0.00    -0.06  -0.05  -0.00     0.26   0.08   0.07
   5   6     0.01  -0.05   0.04     0.05   0.09  -0.06    -0.14  -0.12   0.10
   6   6    -0.07   0.02   0.01    -0.02  -0.01   0.06     0.15  -0.05  -0.15
   7   6    -0.09  -0.05  -0.01    -0.03  -0.02   0.01     0.18   0.00   0.07
   8   6     0.12   0.01  -0.08     0.10  -0.03  -0.01    -0.37   0.08   0.02
   9   6     0.19  -0.06  -0.22    -0.03  -0.00   0.03     0.05  -0.02  -0.06
  10   6    -0.00  -0.02  -0.02    -0.01   0.00  -0.01    -0.02   0.02   0.03
  11   6    -0.02  -0.02   0.01    -0.01  -0.01   0.02     0.08   0.02  -0.08
  12   6     0.02  -0.02   0.02     0.01  -0.02   0.00    -0.04   0.05   0.05
  13   6    -0.00  -0.01   0.00    -0.01  -0.01  -0.00    -0.01   0.05   0.01
  14   6    -0.00   0.00  -0.01    -0.00   0.00   0.00    -0.02   0.02  -0.01
  15   6     0.00   0.00  -0.00     0.00   0.00  -0.00     0.00   0.01  -0.00
  16   8    -0.00   0.00   0.00    -0.04  -0.00   0.04    -0.01  -0.00   0.01
  17   8     0.01   0.00   0.01     0.12  -0.01   0.08     0.03  -0.00   0.02
  18   1    -0.01   0.00   0.01     0.00  -0.22   0.34     0.01  -0.06   0.11
  19   1     0.01  -0.00  -0.02     0.06  -0.04  -0.25     0.01  -0.01  -0.08
  20   1    -0.04   0.07  -0.04    -0.00   0.05  -0.03     0.08  -0.08   0.05
  21   1    -0.04   0.06  -0.03    -0.03   0.02  -0.01     0.12  -0.02   0.00
  22   1    -0.02   0.05  -0.04    -0.01   0.03  -0.01     0.07  -0.03  -0.01
  23   1    -0.02   0.06  -0.05    -0.01   0.09  -0.05     0.04  -0.08   0.07
  24   1     0.04  -0.06   0.05     0.03  -0.00  -0.00    -0.12  -0.00   0.03
  25   1     0.03   0.08  -0.00     0.02  -0.01   0.00    -0.12   0.02   0.02
  26   1    -0.01  -0.04  -0.05    -0.02  -0.01   0.01     0.04   0.01  -0.02
  27   1    -0.08   0.01  -0.01     0.01   0.00  -0.01    -0.01   0.00   0.01
  28   1    -0.14  -0.02  -0.21     0.02  -0.01  -0.01    -0.04   0.02   0.02
  29   1    -0.01  -0.04   0.01    -0.01  -0.02   0.02     0.02   0.12   0.05
  30   1    -0.01  -0.02   0.02    -0.01  -0.02   0.00     0.04   0.06   0.05
  31   1     0.00  -0.01  -0.01     0.00  -0.01   0.00    -0.02  -0.03  -0.09
  32   1    -0.01  -0.00  -0.00    -0.01  -0.00   0.00     0.10   0.01   0.03
  33   1     0.00   0.01   0.01    -0.00   0.00   0.00    -0.01  -0.06  -0.06
  34   1    -0.00   0.00  -0.01    -0.00   0.00   0.00     0.06  -0.01   0.04
  35   1     0.00   0.00   0.00    -0.00   0.00   0.00    -0.01  -0.05  -0.06
  36   1     0.00   0.00  -0.00     0.00   0.00  -0.00     0.01   0.00  -0.00
  37   1    -0.00   0.00  -0.00     0.00   0.00  -0.00     0.03   0.01  -0.00
  38   1     0.00   0.00  -0.00     0.00   0.00   0.00    -0.01  -0.03   0.00
  39   1    -0.06  -0.00  -0.02    -0.72  -0.10  -0.21    -0.21  -0.03  -0.06
  40   1    -0.00   0.00  -0.00    -0.03   0.08  -0.11    -0.01   0.03  -0.04
  41   8     0.00  -0.01   0.00     0.09   0.08   0.00     0.04   0.04   0.01
  42   1     0.00  -0.00  -0.00     0.06   0.03  -0.03     0.02   0.01  -0.01
  43   1    -0.01  -0.01  -0.02    -0.06  -0.08  -0.13    -0.01  -0.02  -0.03
  44   7    -0.18  -0.05  -0.01     0.01   0.00  -0.01    -0.02   0.01   0.03
  45   6     0.42   0.12   0.49    -0.09  -0.02  -0.02     0.18   0.03   0.02
  46   8    -0.11  -0.26  -0.13     0.01   0.07   0.00    -0.02  -0.15   0.00
  47   6     0.02  -0.00   0.00    -0.00   0.00  -0.01     0.00  -0.00   0.00
  48   6     0.04   0.03  -0.02    -0.01   0.00   0.00     0.01  -0.01  -0.01
  49   8    -0.02   0.05   0.03     0.00   0.00  -0.00    -0.01  -0.01   0.00
  50   1    -0.00  -0.01   0.00     0.00   0.00  -0.00    -0.00   0.00  -0.00
  51   1    -0.02  -0.01  -0.01    -0.00   0.00  -0.00     0.01   0.00   0.01
  52   1     0.02  -0.01   0.02     0.00  -0.00   0.00    -0.00   0.00   0.00
  53   7    -0.11   0.24  -0.07     0.03  -0.08   0.01    -0.06   0.19  -0.02
  54   6    -0.06   0.01   0.02     0.01  -0.01  -0.00    -0.00   0.03  -0.00
  55   1     0.07  -0.04  -0.01    -0.03   0.01   0.01     0.06  -0.02  -0.01
  56   1     0.06  -0.04  -0.01    -0.02   0.01   0.01     0.06  -0.03  -0.02
  57   1    -0.13  -0.07   0.04     0.04   0.02  -0.01    -0.09  -0.05   0.03
                     64                     65                     66
                        a                      a                      a 
 Frequencies --   781.7254               792.7216               818.1670
 Red. masses --     6.0531                 2.3388                 6.3556
 Frc consts  --     0.0000                 0.0000                 0.0000
 IR Inten    --     1.0928                14.5888                43.0433
 Raman Activ --     0.0000                 0.0000                 0.0000
 Depolar     --     0.0000                 0.0000                 0.0000
 Atom AN      X      Y      Z        X      Y      Z        X      Y      Z
   1   7     0.07   0.03  -0.10    -0.06  -0.02  -0.02    -0.11  -0.15   0.08
   2   6    -0.01  -0.03   0.02    -0.02   0.01  -0.00     0.03   0.29  -0.21
   3   6    -0.01   0.02   0.02     0.03  -0.01  -0.01    -0.01  -0.22   0.00
   4   6    -0.02  -0.05   0.01     0.04   0.01   0.00    -0.00  -0.16   0.03
   5   6     0.02   0.07  -0.06    -0.02  -0.02   0.01     0.02   0.14  -0.11
   6   6    -0.04  -0.01   0.07     0.02   0.00  -0.01     0.01  -0.07   0.18
   7   6    -0.03  -0.01   0.04     0.03   0.01   0.02     0.03  -0.10   0.27
   8   6     0.04  -0.01  -0.02    -0.05   0.01   0.00    -0.10   0.02  -0.06
   9   6    -0.01  -0.01   0.01     0.00  -0.00  -0.01     0.01  -0.07  -0.00
  10   6    -0.03   0.02   0.06     0.04   0.01  -0.00     0.07  -0.12  -0.07
  11   6    -0.01  -0.16  -0.37    -0.02   0.02  -0.07     0.03   0.05   0.09
  12   6     0.01   0.05   0.46    -0.04   0.04   0.12    -0.03   0.02  -0.08
  13   6    -0.04  -0.00   0.05     0.07  -0.13  -0.01     0.03   0.03  -0.01
  14   6    -0.05   0.01  -0.10     0.15  -0.17  -0.07     0.01  -0.01   0.00
  15   6     0.04   0.06  -0.04     0.04  -0.02  -0.02    -0.01  -0.01   0.00
  16   8     0.00   0.00  -0.00    -0.00   0.00   0.00     0.01   0.00  -0.00
  17   8    -0.01   0.00  -0.01     0.01  -0.00   0.00    -0.01   0.00  -0.01
  18   1    -0.00   0.03  -0.04     0.00  -0.01   0.02    -0.01   0.05  -0.05
  19   1    -0.00   0.00   0.02    -0.00   0.00  -0.01    -0.00   0.00   0.03
  20   1     0.02   0.06  -0.03     0.01  -0.02   0.01     0.09   0.23  -0.19
  21   1     0.00   0.04  -0.03     0.01  -0.01   0.00     0.02   0.24  -0.17
  22   1    -0.01   0.08  -0.04     0.00  -0.01   0.00     0.02   0.29  -0.19
  23   1     0.02   0.10  -0.07     0.01  -0.01   0.02     0.12   0.32  -0.22
  24   1     0.03  -0.01   0.01    -0.02   0.00   0.00    -0.00  -0.05   0.05
  25   1    -0.01   0.01   0.01    -0.02   0.00   0.00    -0.10   0.05   0.04
  26   1    -0.01  -0.01   0.01     0.00   0.00  -0.00     0.01  -0.04   0.02
  27   1     0.00   0.00   0.00     0.00  -0.00   0.00    -0.01   0.01   0.02
  28   1     0.01  -0.00  -0.00    -0.00   0.00   0.01     0.02   0.00  -0.01
  29   1    -0.00   0.02   0.20     0.02   0.03   0.03     0.03   0.02   0.06
  30   1     0.04   0.05   0.40     0.01   0.06   0.04     0.01   0.05  -0.09
  31   1    -0.06  -0.18  -0.47    -0.01   0.01  -0.09     0.00   0.04   0.06
  32   1     0.13   0.04  -0.00    -0.25   0.06  -0.23     0.00   0.01  -0.00
  33   1    -0.02  -0.08  -0.07     0.02   0.14   0.29     0.01   0.01   0.01
  34   1     0.03  -0.00  -0.01    -0.45   0.01  -0.23    -0.02  -0.00   0.00
  35   1    -0.01  -0.02  -0.08     0.11   0.35   0.33     0.00   0.01   0.02
  36   1     0.04   0.04  -0.01    -0.06   0.07   0.02    -0.00   0.00   0.00
  37   1     0.02   0.01  -0.00    -0.24  -0.09   0.06    -0.01  -0.01   0.01
  38   1     0.00  -0.00  -0.00     0.09   0.25  -0.02     0.00   0.01   0.00
  39   1     0.06   0.01   0.02    -0.03  -0.00  -0.01     0.04   0.01   0.01
  40   1     0.00  -0.01   0.01    -0.00   0.00  -0.01     0.00  -0.01   0.01
  41   8    -0.01  -0.01   0.00     0.01   0.01   0.00     0.00  -0.01   0.01
  42   1    -0.01  -0.01   0.00     0.01   0.00   0.00    -0.01  -0.01   0.00
  43   1     0.00   0.01   0.01    -0.00  -0.00  -0.00     0.00   0.01   0.00
  44   7     0.01   0.00   0.00    -0.00   0.00   0.00     0.03   0.02   0.04
  45   6    -0.05  -0.01  -0.00     0.02   0.00  -0.00    -0.06   0.00   0.02
  46   8     0.00   0.04  -0.00    -0.00  -0.02   0.00    -0.02   0.06  -0.00
  47   6    -0.00   0.00  -0.01     0.01  -0.00   0.00    -0.01  -0.00  -0.01
  48   6    -0.01   0.00   0.00    -0.01  -0.00   0.00     0.00  -0.01  -0.00
  49   8     0.00  -0.00  -0.00    -0.00  -0.00  -0.01     0.00  -0.01   0.00
  50   1     0.00   0.00  -0.00     0.00  -0.01   0.00    -0.01   0.01  -0.01
  51   1    -0.00   0.00   0.00    -0.00  -0.00   0.00     0.00   0.00   0.00
  52   1     0.00  -0.00   0.00     0.00   0.00   0.01    -0.01   0.01  -0.01
  53   7     0.01  -0.04   0.00    -0.01   0.02  -0.00     0.01  -0.04   0.00
  54   6     0.00  -0.01  -0.00     0.00   0.00  -0.00     0.01  -0.01  -0.00
  55   1    -0.02   0.01   0.00     0.01  -0.00  -0.00    -0.02   0.01   0.00
  56   1    -0.01   0.01   0.00     0.01  -0.00  -0.00    -0.01   0.01   0.00
  57   1     0.02   0.01  -0.01    -0.01  -0.01   0.00     0.03   0.02  -0.01
                     67                     68                     69
                        a                      a                      a 
 Frequencies --   861.3200               868.2977               878.9800
 Red. masses --     3.5640                 9.9350                 8.4152
 Frc consts  --     0.0000                 0.0000                 0.0000
 IR Inten    --     2.4138                 4.8915                11.2152
 Raman Activ --     0.0000                 0.0000                 0.0000
 Depolar     --     0.0000                 0.0000                 0.0000
 Atom AN      X      Y      Z        X      Y      Z        X      Y      Z
   1   7     0.06   0.02   0.02    -0.26  -0.06   0.01    -0.16  -0.05   0.01
   2   6    -0.04  -0.04  -0.01     0.09   0.01  -0.04     0.06   0.03  -0.03
   3   6     0.07   0.18  -0.17    -0.02   0.19   0.28     0.01   0.07   0.17
   4   6    -0.00   0.18  -0.15     0.11   0.20   0.26     0.07   0.06   0.11
   5   6    -0.00  -0.06  -0.01    -0.07  -0.04   0.03    -0.01   0.12  -0.09
   6   6     0.02  -0.07   0.12     0.00  -0.20  -0.20    -0.03  -0.15  -0.12
   7   6    -0.02  -0.16   0.19    -0.11  -0.19  -0.20    -0.12  -0.17  -0.08
   8   6    -0.07   0.01  -0.03     0.24  -0.00  -0.22     0.24  -0.10   0.31
   9   6    -0.03   0.02   0.01     0.12  -0.04  -0.14    -0.07   0.09   0.20
  10   6     0.01   0.01  -0.01    -0.07   0.03  -0.06    -0.04  -0.00  -0.07
  11   6    -0.01  -0.00   0.00     0.06   0.03   0.03     0.04   0.02   0.04
  12   6     0.01  -0.01  -0.01    -0.02   0.01  -0.02    -0.02   0.01  -0.02
  13   6     0.00  -0.01  -0.00    -0.01   0.03   0.00    -0.01   0.04   0.01
  14   6    -0.00   0.00   0.01     0.01  -0.01   0.00     0.01  -0.01  -0.01
  15   6    -0.00   0.00   0.00     0.01  -0.01  -0.00     0.01  -0.01  -0.01
  16   8     0.00   0.00   0.00     0.00   0.00   0.00     0.00   0.00   0.00
  17   8    -0.00   0.00  -0.00    -0.00   0.00  -0.00    -0.00   0.00  -0.00
  18   1    -0.00   0.01  -0.01     0.00   0.00   0.00    -0.00   0.01  -0.01
  19   1     0.01  -0.00   0.00     0.00  -0.00  -0.00     0.00  -0.00   0.00
  20   1    -0.09  -0.41   0.27    -0.09   0.03   0.07    -0.01   0.08  -0.00
  21   1    -0.07  -0.38   0.25     0.07  -0.03   0.09     0.07  -0.03   0.01
  22   1     0.02   0.22  -0.15     0.08   0.03  -0.10     0.02   0.02  -0.08
  23   1     0.11   0.37  -0.28    -0.07   0.03  -0.06    -0.04   0.15  -0.12
  24   1     0.00  -0.01   0.01     0.19  -0.09   0.08    -0.05   0.17  -0.18
  25   1    -0.04   0.03   0.01     0.05   0.20  -0.01     0.15  -0.34  -0.03
  26   1    -0.01  -0.01   0.01     0.04  -0.08   0.04    -0.07   0.13  -0.07
  27   1    -0.00   0.00   0.01     0.02   0.00   0.06    -0.03  -0.02  -0.11
  28   1    -0.01   0.00   0.01     0.04  -0.01  -0.03    -0.03   0.00   0.03
  29   1    -0.00  -0.02  -0.02     0.00   0.11   0.09     0.00   0.07   0.11
  30   1    -0.00  -0.01   0.01     0.01   0.01  -0.03     0.01   0.00  -0.04
  31   1     0.01   0.01   0.03    -0.01  -0.01  -0.00    -0.01  -0.02  -0.01
  32   1    -0.01  -0.01  -0.00     0.04   0.01   0.01     0.05   0.01   0.02
  33   1     0.00   0.01   0.00    -0.01  -0.03  -0.01    -0.01  -0.03  -0.03
  34   1     0.01   0.00  -0.00    -0.03  -0.01   0.01    -0.03  -0.02   0.02
  35   1    -0.00  -0.01   0.00     0.01   0.03   0.00     0.01   0.03  -0.01
  36   1     0.00  -0.01  -0.00    -0.01   0.01   0.00    -0.01   0.02   0.00
  37   1     0.01   0.00  -0.00    -0.03  -0.02   0.01    -0.04  -0.02   0.02
  38   1    -0.00  -0.01   0.00     0.01   0.03  -0.00     0.02   0.04  -0.00
  39   1     0.01  -0.00   0.00     0.01  -0.00   0.00     0.01  -0.00   0.00
  40   1     0.00  -0.00   0.00     0.00   0.00  -0.00     0.00   0.00   0.00
  41   8    -0.00  -0.00   0.00     0.00   0.00   0.00     0.00   0.00   0.00
  42   1    -0.01  -0.01  -0.00    -0.00  -0.00  -0.00    -0.01  -0.00  -0.00
  43   1    -0.00  -0.00  -0.00     0.01   0.01   0.01     0.00   0.00   0.00
  44   7     0.00   0.01   0.01     0.06   0.09   0.14    -0.13  -0.19  -0.25
  45   6     0.03  -0.01  -0.02    -0.12   0.04   0.10     0.09  -0.03  -0.11
  46   8     0.02  -0.03   0.00    -0.07   0.16  -0.02     0.07  -0.13   0.02
  47   6     0.01  -0.01   0.01     0.00  -0.02  -0.01    -0.02   0.06  -0.01
  48   6    -0.00  -0.01  -0.00    -0.00  -0.03  -0.02     0.01   0.07   0.04
  49   8    -0.01  -0.01  -0.01    -0.01  -0.06  -0.01     0.02   0.13   0.03
  50   1    -0.00   0.00  -0.00    -0.02   0.02  -0.02     0.04  -0.04   0.04
  51   1     0.01   0.00   0.01     0.04   0.01   0.04    -0.08  -0.02  -0.10
  52   1     0.00   0.00   0.00    -0.01   0.02  -0.01     0.02  -0.04   0.01
  53   7    -0.01   0.03   0.00     0.05  -0.17  -0.00    -0.03   0.10   0.01
  54   6     0.01   0.01  -0.00    -0.04  -0.06   0.02     0.00   0.04  -0.01
  55   1     0.02  -0.00  -0.00    -0.08   0.02   0.02     0.05  -0.02  -0.01
  56   1     0.02  -0.00  -0.00    -0.08   0.02   0.02     0.05  -0.02  -0.01
  57   1    -0.02  -0.01   0.01     0.09   0.05  -0.03    -0.07  -0.04   0.03
                     70                     71                     72
                        a                      a                      a 
 Frequencies --   892.3363               898.5905               909.2488
 Red. masses --     4.7560                 3.3946                 2.7692
 Frc consts  --     0.0000                 0.0000                 0.0000
 IR Inten    --     0.4621                 8.1955                 1.5075
 Raman Activ --     0.0000                 0.0000                 0.0000
 Depolar     --     0.0000                 0.0000                 0.0000
 Atom AN      X      Y      Z        X      Y      Z        X      Y      Z
   1   7    -0.07  -0.04   0.01    -0.09  -0.02   0.00     0.03   0.01  -0.01
   2   6     0.04   0.10  -0.07     0.01   0.03  -0.02     0.00   0.01  -0.01
   3   6    -0.02   0.00   0.01     0.00   0.01   0.04     0.03   0.14  -0.08
   4   6    -0.01  -0.01   0.06     0.03   0.02   0.05    -0.03  -0.11   0.07
   5   6    -0.01   0.03  -0.00    -0.01   0.01  -0.01    -0.00  -0.00  -0.00
   6   6     0.02  -0.08  -0.04     0.00  -0.05  -0.04    -0.04  -0.21   0.16
   7   6    -0.02  -0.09  -0.03    -0.02  -0.03  -0.02     0.02   0.15  -0.11
   8   6     0.06  -0.00   0.03     0.05  -0.01   0.02     0.03  -0.00   0.04
   9   6     0.03  -0.01  -0.00     0.01   0.00   0.01     0.02  -0.02   0.02
  10   6     0.02   0.09   0.47     0.08   0.03  -0.00    -0.00  -0.00  -0.04
  11   6     0.00  -0.04  -0.23    -0.07   0.05  -0.06    -0.00   0.00   0.02
  12   6    -0.00   0.01   0.00    -0.00   0.06   0.11     0.00  -0.01  -0.01
  13   6    -0.01   0.03  -0.02     0.13  -0.31  -0.09    -0.01   0.01   0.00
  14   6     0.02  -0.00   0.02    -0.05   0.06   0.04     0.00  -0.00   0.00
  15   6     0.00  -0.02   0.01    -0.10   0.11   0.06     0.00  -0.00  -0.00
  16   8    -0.00   0.00   0.00    -0.00   0.00   0.00    -0.00  -0.00  -0.00
  17   8     0.00   0.00   0.00     0.00   0.00   0.00     0.00  -0.00   0.00
  18   1    -0.00  -0.00   0.01     0.00  -0.00   0.01     0.00  -0.01   0.01
  19   1     0.00  -0.00  -0.01     0.01  -0.00  -0.00    -0.00   0.00  -0.01
  20   1    -0.02  -0.01   0.00    -0.01   0.02   0.00    -0.08  -0.33   0.23
  21   1     0.01   0.08  -0.04     0.02   0.02  -0.00     0.04   0.29  -0.20
  22   1     0.04   0.05  -0.06     0.01   0.02  -0.04     0.05   0.48  -0.36
  23   1    -0.00   0.04  -0.05    -0.02   0.01  -0.01    -0.08  -0.33   0.25
  24   1    -0.01   0.01  -0.02     0.01   0.01  -0.02    -0.01   0.02  -0.02
  25   1     0.03  -0.03  -0.01     0.02  -0.03  -0.00     0.01  -0.05  -0.00
  26   1     0.01   0.01  -0.01    -0.00   0.01  -0.01     0.01   0.02  -0.02
  27   1    -0.01   0.00  -0.01    -0.00  -0.00  -0.01    -0.02   0.00  -0.01
  28   1     0.01  -0.00  -0.00     0.00  -0.00  -0.00     0.00   0.00  -0.00
  29   1    -0.03  -0.13  -0.76     0.03   0.04  -0.02     0.00   0.01   0.07
  30   1     0.02   0.04   0.16     0.00   0.10   0.02    -0.00  -0.01  -0.00
  31   1     0.00   0.01   0.06     0.02   0.12  -0.07     0.00   0.00   0.02
  32   1     0.02  -0.00   0.01    -0.32  -0.03  -0.20     0.01  -0.00   0.01
  33   1    -0.01  -0.01  -0.02     0.07   0.19   0.25    -0.00  -0.01  -0.01
  34   1    -0.02  -0.01   0.02     0.19   0.18  -0.19    -0.00  -0.01   0.01
  35   1     0.02   0.03  -0.00    -0.11  -0.23   0.14     0.00   0.01  -0.01
  36   1    -0.02  -0.01   0.01     0.06  -0.15  -0.03    -0.00   0.00   0.00
  37   1    -0.03  -0.01   0.01     0.32   0.18  -0.14    -0.01  -0.00   0.00
  38   1     0.01   0.03  -0.01    -0.13  -0.32   0.03     0.00   0.01  -0.00
  39   1    -0.01  -0.00  -0.00    -0.00  -0.00  -0.00    -0.01  -0.00  -0.00
  40   1    -0.00   0.00  -0.00     0.00   0.00  -0.00    -0.00   0.00  -0.00
  41   8     0.00   0.00   0.00     0.00   0.00   0.00    -0.00   0.00  -0.00
  42   1     0.00  -0.00  -0.00    -0.00  -0.00  -0.01     0.01   0.01   0.00
  43   1    -0.00  -0.00  -0.01     0.00   0.00   0.00     0.00   0.00   0.00
  44   7    -0.01  -0.02  -0.01    -0.01  -0.02  -0.02    -0.01  -0.03  -0.03
  45   6    -0.01   0.01   0.01     0.00   0.00  -0.00    -0.01   0.00  -0.00
  46   8    -0.01   0.02  -0.00     0.00  -0.00   0.00    -0.00   0.00   0.00
  47   6    -0.01   0.01  -0.01    -0.01   0.00  -0.01    -0.01   0.01  -0.01
  48   6     0.00   0.01   0.01     0.00   0.01   0.00     0.01   0.01   0.01
  49   8     0.00   0.01   0.00     0.00   0.01   0.01     0.00   0.02   0.01
  50   1     0.00  -0.00  -0.00     0.00   0.00  -0.00     0.00  -0.00   0.00
  51   1    -0.01  -0.00  -0.01    -0.00  -0.00  -0.00    -0.01  -0.00  -0.02
  52   1     0.00  -0.00   0.00    -0.00  -0.00  -0.00    -0.00  -0.00  -0.00
  53   7     0.01  -0.02  -0.00     0.00  -0.00   0.00     0.00  -0.00   0.00
  54   6    -0.01  -0.01   0.00    -0.00  -0.00   0.00    -0.00  -0.00   0.00
  55   1    -0.01   0.00   0.00    -0.00  -0.00   0.00    -0.00   0.00   0.00
  56   1    -0.01   0.00   0.00    -0.00  -0.00   0.00    -0.00   0.00   0.00
  57   1     0.01   0.01  -0.00    -0.00  -0.00   0.00     0.00   0.00  -0.00
                     73                     74                     75
                        a                      a                      a 
 Frequencies --   921.8346               932.9585               935.2077
 Red. masses --     4.3134                 8.7371                 6.2532
 Frc consts  --     0.0000                 0.0000                 0.0000
 IR Inten    --     0.4256                 1.5188                 2.1395
 Raman Activ --     0.0000                 0.0000                 0.0000
 Depolar     --     0.0000                 0.0000                 0.0000
 Atom AN      X      Y      Z        X      Y      Z        X      Y      Z
   1   7     0.00   0.00  -0.00    -0.02  -0.01   0.01    -0.01   0.03  -0.00
   2   6     0.02  -0.00  -0.00     0.02  -0.00  -0.02    -0.00   0.00  -0.00
   3   6    -0.06  -0.20   0.14    -0.04   0.10   0.05    -0.01   0.02   0.01
   4   6     0.02   0.24  -0.15    -0.02  -0.06   0.14     0.00  -0.00   0.03
   5   6     0.01   0.01  -0.03     0.03   0.03  -0.05     0.00   0.01  -0.01
   6   6    -0.02  -0.18   0.18     0.02   0.05  -0.01     0.01  -0.00  -0.01
   7   6     0.04   0.15  -0.11    -0.01  -0.06  -0.02    -0.00  -0.02  -0.01
   8   6    -0.00  -0.03  -0.06     0.06  -0.15  -0.22     0.01  -0.03  -0.04
   9   6    -0.12   0.04   0.07    -0.43   0.13   0.20    -0.07   0.02   0.03
  10   6    -0.00   0.00   0.04    -0.01   0.00   0.00     0.02   0.03   0.03
  11   6    -0.00  -0.00  -0.01     0.00   0.01  -0.01     0.01  -0.03   0.04
  12   6     0.00   0.00   0.01     0.02   0.02   0.00    -0.12  -0.09  -0.04
  13   6    -0.00   0.00   0.00    -0.03   0.00  -0.07     0.18  -0.02   0.41
  14   6    -0.00  -0.00  -0.00     0.03   0.01   0.05    -0.16  -0.07  -0.26
  15   6     0.00  -0.00  -0.00    -0.01  -0.03   0.05     0.03   0.17  -0.31
  16   8    -0.00  -0.00  -0.00    -0.00  -0.00   0.00     0.00  -0.00  -0.00
  17   8     0.00  -0.00   0.00    -0.00   0.00  -0.00     0.00  -0.00  -0.00
  18   1     0.00  -0.00   0.00    -0.00   0.00   0.00     0.00  -0.00   0.00
  19   1    -0.00   0.00  -0.00     0.00  -0.00  -0.00    -0.00   0.00   0.00
  20   1     0.07   0.36  -0.25    -0.06  -0.06   0.06    -0.01  -0.02   0.01
  21   1    -0.07  -0.41   0.28     0.02   0.20  -0.09     0.00   0.04  -0.01
  22   1     0.05   0.32  -0.23     0.02  -0.05   0.06     0.01  -0.01   0.01
  23   1    -0.04  -0.22   0.16     0.01   0.02  -0.04     0.00   0.00  -0.01
  24   1     0.06  -0.02   0.02     0.24  -0.09   0.08     0.04  -0.01   0.01
  25   1    -0.02   0.06   0.01    -0.07   0.20   0.04    -0.01   0.03   0.01
  26   1    -0.07  -0.02   0.04    -0.20  -0.06   0.13    -0.03  -0.01   0.02
  27   1    -0.00   0.01   0.00     0.02   0.02   0.02     0.00   0.00   0.00
  28   1    -0.03  -0.01   0.01    -0.09  -0.02   0.05    -0.01  -0.00   0.01
  29   1    -0.00  -0.01  -0.06    -0.00   0.01  -0.01     0.01   0.01  -0.07
  30   1    -0.00  -0.00  -0.00     0.00   0.00   0.02    -0.00  -0.00  -0.06
  31   1    -0.00  -0.01  -0.01     0.01   0.01   0.01    -0.03  -0.01   0.04
  32   1     0.00   0.00   0.00    -0.00   0.00  -0.02     0.01  -0.02   0.12
  33   1    -0.00  -0.00  -0.00    -0.00   0.01  -0.03     0.02  -0.03   0.19
  34   1    -0.00  -0.00   0.00     0.01   0.01  -0.00    -0.07  -0.07  -0.00
  35   1     0.00   0.00  -0.00     0.02   0.02  -0.01    -0.10  -0.12   0.07
  36   1    -0.00   0.00   0.00    -0.07  -0.07   0.01     0.41   0.38  -0.05
  37   1    -0.00  -0.00   0.00     0.00   0.02  -0.03     0.00  -0.10   0.16
  38   1     0.00   0.00  -0.00     0.01   0.02  -0.03    -0.09  -0.14   0.19
  39   1    -0.01  -0.00  -0.00    -0.00  -0.00  -0.00    -0.00  -0.00  -0.00
  40   1    -0.00   0.00  -0.00     0.00   0.00  -0.00    -0.00   0.00  -0.00
  41   8    -0.00   0.00  -0.00     0.00   0.00   0.00    -0.00  -0.00  -0.00
  42   1     0.01   0.00   0.00    -0.00  -0.00  -0.00    -0.00   0.00   0.00
  43   1     0.00   0.00   0.00    -0.00  -0.00  -0.00    -0.00  -0.00  -0.00
  44   7     0.00   0.04  -0.01     0.02   0.17  -0.01     0.00   0.03  -0.00
  45   6     0.04  -0.03  -0.05     0.11  -0.10  -0.15     0.02  -0.02  -0.02
  46   8     0.05  -0.07   0.00     0.17  -0.22   0.01     0.03  -0.04   0.00
  47   6     0.03  -0.01   0.03     0.13  -0.03   0.12     0.02  -0.00   0.02
  48   6    -0.02  -0.01  -0.02    -0.09  -0.01  -0.08    -0.02  -0.00  -0.02
  49   8    -0.01  -0.04  -0.02    -0.03  -0.13  -0.07    -0.01  -0.02  -0.01
  50   1     0.00   0.00   0.01     0.02  -0.00   0.03     0.01  -0.00   0.01
  51   1     0.01  -0.00   0.02     0.05  -0.00   0.07     0.01  -0.00   0.01
  52   1     0.01  -0.00   0.01     0.04  -0.01   0.05     0.01  -0.00   0.01
  53   7    -0.02   0.06   0.01    -0.07   0.17   0.02    -0.01   0.03   0.00
  54   6     0.03   0.03  -0.01     0.10   0.11  -0.05     0.02   0.02  -0.01
  55   1     0.04  -0.01  -0.01     0.13  -0.03  -0.03     0.02  -0.01  -0.00
  56   1     0.04  -0.01  -0.01     0.13  -0.03  -0.04     0.02  -0.00  -0.01
  57   1    -0.04  -0.02   0.01    -0.12  -0.07   0.05    -0.02  -0.01   0.01
                     76                     77                     78
                        a                      a                      a 
 Frequencies --   981.0783               997.8271              1006.3817
 Red. masses --    10.9329                 5.5659                 4.0165
 Frc consts  --     0.0000                 0.0000                 0.0000
 IR Inten    --    12.2404                 3.3831                30.3561
 Raman Activ --     0.0000                 0.0000                 0.0000
 Depolar     --     0.0000                 0.0000                 0.0000
 Atom AN      X      Y      Z        X      Y      Z        X      Y      Z
   1   7    -0.00  -0.00  -0.00    -0.02  -0.01  -0.00     0.00   0.00  -0.01
   2   6     0.00   0.01   0.01     0.02   0.01   0.01    -0.02  -0.01  -0.01
   3   6     0.02  -0.02  -0.01     0.03   0.02   0.03    -0.01  -0.02  -0.01
   4   6     0.00  -0.02  -0.03    -0.01  -0.05  -0.07     0.02   0.03   0.04
   5   6     0.00   0.05  -0.01     0.04   0.07  -0.01    -0.02  -0.02  -0.00
   6   6    -0.01  -0.03  -0.01    -0.02  -0.02  -0.01    -0.00  -0.00  -0.02
   7   6    -0.02  -0.01   0.00    -0.06  -0.04  -0.05     0.02   0.03   0.03
   8   6     0.01  -0.16   0.24     0.05   0.09   0.20    -0.00   0.00  -0.06
   9   6     0.10   0.11  -0.14    -0.18  -0.09  -0.15     0.03   0.00   0.04
  10   6     0.00  -0.00  -0.01    -0.01  -0.00  -0.00     0.03  -0.00  -0.05
  11   6    -0.00  -0.00  -0.01     0.01   0.00  -0.00    -0.05  -0.02  -0.12
  12   6    -0.00  -0.00  -0.01    -0.01  -0.00  -0.01     0.02  -0.03  -0.11
  13   6     0.00  -0.00  -0.00     0.00   0.01   0.01    -0.01  -0.04   0.01
  14   6    -0.00   0.00   0.00     0.00  -0.00  -0.01    -0.02   0.01   0.00
  15   6    -0.00  -0.00   0.00    -0.00  -0.00   0.00     0.02  -0.00  -0.02
  16   8    -0.00  -0.00  -0.00     0.00  -0.00  -0.00    -0.00   0.00  -0.00
  17   8    -0.00   0.00  -0.00    -0.00  -0.00  -0.00     0.00   0.00   0.00
  18   1    -0.00   0.00  -0.00    -0.00   0.00  -0.00    -0.00  -0.00  -0.00
  19   1    -0.00   0.00   0.00    -0.00   0.00   0.00     0.00  -0.00   0.00
  20   1     0.02   0.00   0.00     0.06   0.01   0.03    -0.02   0.02  -0.03
  21   1     0.01  -0.01  -0.02     0.03  -0.03  -0.04    -0.01   0.00   0.02
  22   1    -0.01   0.01  -0.03     0.00   0.01  -0.01    -0.02  -0.01  -0.00
  23   1    -0.02   0.02   0.00    -0.03   0.01  -0.02    -0.00   0.00   0.02
  24   1    -0.17  -0.03  -0.01    -0.19   0.05  -0.05     0.07   0.00   0.01
  25   1     0.09  -0.16  -0.01     0.23  -0.04  -0.09    -0.06   0.01   0.02
  26   1     0.12   0.02  -0.01    -0.02  -0.01  -0.04    -0.00   0.01   0.00
  27   1    -0.01   0.07   0.04    -0.07   0.16  -0.05     0.02  -0.04  -0.00
  28   1     0.02  -0.01   0.00    -0.02   0.01   0.01     0.01   0.00   0.01
  29   1     0.00   0.01   0.02     0.00   0.01   0.01     0.02   0.03   0.13
  30   1     0.00   0.01   0.03     0.00  -0.00   0.00     0.03   0.12   0.43
  31   1     0.00   0.01   0.03    -0.00  -0.00   0.01     0.05   0.14   0.37
  32   1    -0.00  -0.00   0.00     0.01   0.01  -0.00    -0.06  -0.06   0.05
  33   1     0.00   0.00  -0.00    -0.00  -0.01   0.01     0.02   0.03  -0.03
  34   1     0.00  -0.00   0.00     0.00   0.00  -0.01    -0.00  -0.02   0.03
  35   1    -0.00  -0.00  -0.00     0.00   0.00   0.01    -0.00  -0.00  -0.02
  36   1    -0.00  -0.00   0.00     0.00  -0.00   0.00     0.01   0.02  -0.00
  37   1     0.00   0.00  -0.00    -0.00  -0.00   0.00    -0.02  -0.01   0.01
  38   1    -0.00  -0.00   0.00    -0.00  -0.00   0.00     0.01   0.02   0.00
  39   1     0.00  -0.00   0.00     0.00   0.00   0.00     0.00   0.00   0.00
  40   1     0.00  -0.00   0.00     0.00  -0.00   0.00    -0.00  -0.00   0.00
  41   8     0.00  -0.00   0.00     0.00  -0.00   0.00     0.00   0.00  -0.00
  42   1    -0.00  -0.00   0.00     0.00   0.00   0.00    -0.01  -0.00   0.00
  43   1     0.00   0.00   0.00     0.00   0.00   0.00     0.00   0.00   0.00
  44   7    -0.06   0.40  -0.03     0.07   0.23   0.09     0.02  -0.10  -0.05
  45   6     0.03   0.05   0.07    -0.03  -0.06   0.06     0.02   0.02  -0.02
  46   8    -0.04   0.05  -0.01     0.03  -0.04  -0.02    -0.01   0.01   0.00
  47   6     0.32   0.03   0.29     0.04  -0.32  -0.17     0.20   0.09  -0.22
  48   6    -0.27   0.07  -0.25    -0.05  -0.06   0.13    -0.22  -0.03   0.23
  49   8    -0.10  -0.35  -0.17     0.08  -0.01   0.05     0.05   0.05  -0.03
  50   1     0.09  -0.06   0.12    -0.31   0.16  -0.30    -0.28  -0.02  -0.17
  51   1     0.01  -0.01   0.05     0.24   0.04   0.37    -0.22  -0.01   0.00
  52   1     0.15  -0.07   0.19    -0.10   0.15  -0.01     0.20  -0.06   0.35
  53   7     0.05  -0.05  -0.02    -0.07   0.05   0.00     0.02  -0.01  -0.01
  54   6    -0.07  -0.04   0.03     0.09   0.06  -0.03    -0.02  -0.02   0.01
  55   1    -0.04   0.01   0.00     0.07  -0.00  -0.02    -0.02   0.00   0.01
  56   1    -0.05   0.00   0.01     0.04  -0.01  -0.02    -0.01   0.00   0.01
  57   1     0.02   0.01  -0.01    -0.03  -0.02   0.01     0.01   0.00  -0.00
                     79                     80                     81
                        a                      a                      a 
 Frequencies --  1010.6870              1015.4842              1032.6182
 Red. masses --     3.3978                 8.4950                 6.4392
 Frc consts  --     0.0000                 0.0000                 0.0000
 IR Inten    --     3.2317                 2.7920                 6.8505
 Raman Activ --     0.0000                 0.0000                 0.0000
 Depolar     --     0.0000                 0.0000                 0.0000
 Atom AN      X      Y      Z        X      Y      Z        X      Y      Z
   1   7    -0.01  -0.01  -0.02    -0.11  -0.03   0.00    -0.04  -0.00   0.00
   2   6    -0.01  -0.01  -0.00     0.12  -0.02  -0.02     0.00   0.02   0.01
   3   6     0.00   0.00   0.02     0.04   0.22   0.32     0.02   0.00   0.01
   4   6     0.01  -0.00  -0.01    -0.09  -0.20  -0.31     0.00  -0.02  -0.04
   5   6     0.00   0.01  -0.01     0.12  -0.04  -0.00     0.03   0.03   0.02
   6   6    -0.01  -0.00  -0.00     0.03   0.23   0.31    -0.01  -0.03  -0.03
   7   6    -0.01  -0.00  -0.01    -0.09  -0.21  -0.30    -0.04  -0.03  -0.03
   8   6     0.01   0.01   0.04    -0.13   0.05  -0.01     0.05   0.24   0.03
   9   6    -0.03  -0.01  -0.03     0.03  -0.03   0.01    -0.06  -0.24  -0.03
  10   6     0.02   0.00  -0.05    -0.07   0.02   0.01     0.12   0.03  -0.02
  11   6    -0.04  -0.03  -0.14     0.05   0.01  -0.02    -0.13   0.03   0.01
  12   6     0.02  -0.03  -0.12    -0.03   0.00  -0.02     0.13   0.05   0.07
  13   6    -0.00  -0.04   0.02     0.01   0.03  -0.01    -0.05  -0.22   0.04
  14   6    -0.01   0.01  -0.00     0.02  -0.01   0.00    -0.13   0.02   0.00
  15   6     0.01  -0.01  -0.02    -0.02   0.01   0.00     0.11  -0.00  -0.04
  16   8     0.00  -0.00   0.01    -0.00   0.00   0.00     0.00   0.00  -0.00
  17   8    -0.00  -0.00   0.00     0.00  -0.00   0.00    -0.00  -0.00  -0.00
  18   1    -0.00  -0.00   0.00     0.00  -0.00   0.01    -0.00  -0.00   0.00
  19   1     0.00  -0.00  -0.01     0.00  -0.00  -0.01    -0.00   0.00   0.00
  20   1     0.02   0.03  -0.00     0.20   0.06   0.17     0.04  -0.00   0.02
  21   1     0.01  -0.02  -0.01     0.13  -0.14  -0.18     0.01  -0.02  -0.01
  22   1    -0.01  -0.00  -0.00     0.18   0.08   0.15    -0.00  -0.00  -0.02
  23   1    -0.01   0.00   0.00     0.14  -0.17  -0.17    -0.03   0.02  -0.01
  24   1    -0.04   0.00  -0.01    -0.05  -0.01   0.01    -0.13   0.03  -0.01
  25   1     0.05  -0.01  -0.02    -0.08   0.00   0.02     0.20   0.10  -0.10
  26   1    -0.00  -0.00  -0.01     0.03  -0.00  -0.00     0.04  -0.10   0.05
  27   1    -0.01   0.03  -0.01     0.01  -0.02   0.01     0.03  -0.03   0.05
  28   1    -0.01  -0.00  -0.01     0.00   0.01  -0.00    -0.06  -0.00   0.02
  29   1     0.01   0.04   0.15    -0.01   0.06  -0.01     0.04   0.04  -0.02
  30   1     0.04   0.14   0.50     0.02   0.01   0.04    -0.03   0.07  -0.09
  31   1     0.05   0.15   0.42    -0.01  -0.02   0.05     0.08   0.19  -0.15
  32   1    -0.07  -0.06   0.05     0.03   0.03  -0.04    -0.19  -0.21   0.18
  33   1     0.02   0.03  -0.02    -0.01  -0.02   0.02     0.06   0.13  -0.10
  34   1    -0.00  -0.01   0.02    -0.00   0.01  -0.02     0.01  -0.07   0.13
  35   1     0.00   0.01  -0.01    -0.00  -0.01   0.04     0.00   0.02  -0.19
  36   1     0.01   0.02  -0.00     0.01  -0.00  -0.00    -0.03   0.04   0.00
  37   1    -0.03  -0.02   0.02     0.02   0.01  -0.00    -0.08  -0.04   0.02
  38   1     0.01   0.02   0.01    -0.02  -0.03   0.01     0.07   0.13  -0.03
  39   1     0.00  -0.00  -0.00    -0.00  -0.00  -0.00     0.00  -0.00   0.00
  40   1     0.00   0.00  -0.00     0.00   0.00  -0.00     0.00   0.00  -0.00
  41   8     0.00   0.00  -0.00     0.00   0.00   0.00     0.00   0.00  -0.00
  42   1     0.01   0.00  -0.01    -0.00  -0.00  -0.00    -0.00  -0.00   0.00
  43   1     0.00   0.00   0.00    -0.00  -0.00  -0.00     0.00   0.00   0.00
  44   7    -0.01   0.05   0.04     0.01  -0.04   0.00     0.09  -0.02   0.10
  45   6    -0.02  -0.02   0.01    -0.02  -0.01   0.01    -0.17  -0.14   0.08
  46   8     0.01  -0.01  -0.00    -0.01   0.01   0.00     0.02  -0.01  -0.01
  47   6    -0.20  -0.08   0.17     0.01   0.06  -0.01     0.01   0.15   0.02
  48   6     0.21   0.02  -0.19    -0.02   0.00   0.01    -0.02  -0.01  -0.02
  49   8    -0.04  -0.02   0.04    -0.01   0.00  -0.01    -0.03  -0.05  -0.05
  50   1     0.25   0.03   0.14     0.01  -0.03   0.02     0.07  -0.07   0.09
  51   1     0.19   0.01  -0.00    -0.06  -0.01  -0.06    -0.13  -0.01  -0.15
  52   1    -0.19   0.06  -0.32     0.04  -0.03   0.04     0.07  -0.07   0.06
  53   7    -0.02   0.01   0.01    -0.01   0.00   0.00    -0.16   0.04   0.04
  54   6     0.03   0.02  -0.01     0.01   0.00  -0.01     0.21   0.12  -0.08
  55   1     0.02  -0.00  -0.01     0.00   0.00   0.00     0.11  -0.01  -0.03
  56   1     0.02  -0.00  -0.01     0.00   0.00  -0.00     0.11  -0.01  -0.04
  57   1    -0.01  -0.00   0.00     0.01   0.00  -0.00    -0.03  -0.02   0.01
                     82                     83                     84
                        a                      a                      a 
 Frequencies --  1033.7990              1077.6241              1089.0973
 Red. masses --     6.1284                 6.8971                 9.0206
 Frc consts  --     0.0000                 0.0000                 0.0000
 IR Inten    --    33.1341                24.4999                 0.3313
 Raman Activ --     0.0000                 0.0000                 0.0000
 Depolar     --     0.0000                 0.0000                 0.0000
 Atom AN      X      Y      Z        X      Y      Z        X      Y      Z
   1   7    -0.05   0.00   0.01    -0.01  -0.01  -0.01    -0.00   0.02  -0.00
   2   6     0.01  -0.00  -0.03     0.01   0.02   0.03    -0.01   0.00   0.00
   3   6    -0.01   0.04   0.06     0.04  -0.02  -0.03     0.00   0.00   0.00
   4   6    -0.01  -0.01  -0.01    -0.02  -0.05  -0.07     0.00  -0.00  -0.00
   5   6    -0.01  -0.03  -0.02     0.01   0.10   0.04    -0.00   0.00   0.00
   6   6     0.02   0.06   0.08    -0.01  -0.05  -0.05     0.00  -0.00  -0.00
   7   6     0.02  -0.03  -0.03    -0.04  -0.02  -0.03    -0.00  -0.00  -0.00
   8   6    -0.06  -0.22  -0.02    -0.01   0.06   0.07     0.00   0.00  -0.00
   9   6     0.05   0.22   0.02    -0.28   0.01  -0.02    -0.00  -0.00   0.00
  10   6     0.12   0.04  -0.01    -0.00  -0.00  -0.00     0.03   0.01  -0.01
  11   6    -0.14   0.04   0.01     0.00  -0.00  -0.00    -0.02  -0.04   0.01
  12   6     0.14   0.05   0.07    -0.00  -0.00  -0.00    -0.06  -0.03   0.09
  13   6    -0.06  -0.24   0.05     0.00   0.00  -0.01     0.09  -0.01   0.02
  14   6    -0.14   0.02  -0.00     0.00  -0.00   0.01     0.37   0.48  -0.19
  15   6     0.11  -0.01  -0.04     0.00   0.00  -0.00    -0.38  -0.40  -0.00
  16   8     0.00  -0.00   0.00     0.00   0.00  -0.00    -0.00   0.00  -0.00
  17   8     0.00  -0.00   0.00    -0.00   0.00  -0.00    -0.00   0.00   0.00
  18   1    -0.00  -0.00   0.01    -0.00   0.00  -0.00    -0.00  -0.00   0.00
  19   1    -0.00   0.00  -0.00     0.00  -0.00   0.00     0.00  -0.00   0.00
  20   1     0.00   0.01   0.02     0.09  -0.01   0.03     0.01   0.00   0.00
  21   1     0.03  -0.01  -0.03    -0.01   0.00  -0.03     0.00  -0.00  -0.00
  22   1     0.05   0.02   0.04     0.00   0.00  -0.03     0.01   0.00   0.00
  23   1     0.06  -0.04  -0.04    -0.06   0.04   0.02     0.00  -0.00  -0.00
  24   1     0.11  -0.03   0.01    -0.28  -0.13   0.08    -0.00  -0.00   0.00
  25   1    -0.19  -0.09   0.09     0.32   0.20  -0.14     0.00   0.00  -0.00
  26   1    -0.04   0.10  -0.05    -0.25  -0.16   0.13    -0.00  -0.00   0.00
  27   1    -0.03   0.03  -0.04     0.05  -0.06   0.07     0.00  -0.00   0.00
  28   1     0.05   0.00  -0.02     0.07   0.01  -0.03     0.00   0.00  -0.00
  29   1     0.04   0.05  -0.04     0.00   0.01   0.01     0.01   0.03  -0.00
  30   1    -0.03   0.06  -0.10     0.00   0.01   0.01    -0.00   0.02  -0.01
  31   1     0.08   0.21  -0.16    -0.00   0.00   0.00    -0.01   0.00  -0.03
  32   1    -0.20  -0.22   0.20    -0.00   0.00  -0.00    -0.07  -0.11   0.14
  33   1     0.06   0.14  -0.10     0.00   0.00  -0.00     0.02   0.02   0.09
  34   1     0.02  -0.07   0.13    -0.00  -0.00   0.00     0.13   0.12  -0.04
  35   1     0.01   0.03  -0.20    -0.00  -0.00   0.00     0.12   0.14  -0.13
  36   1    -0.02   0.05   0.00     0.00   0.00  -0.00     0.02   0.02   0.02
  37   1    -0.09  -0.05   0.03     0.00   0.00   0.00    -0.17  -0.19   0.13
  38   1     0.07   0.14  -0.04    -0.00  -0.00   0.00    -0.13  -0.15   0.12
  39   1    -0.01  -0.00  -0.00     0.00   0.00   0.00     0.00   0.00   0.00
  40   1    -0.00   0.00  -0.00     0.00  -0.00   0.00     0.00   0.00  -0.00
  41   8     0.00   0.00   0.00    -0.00  -0.00  -0.00    -0.00  -0.00  -0.00
  42   1     0.00   0.00   0.00    -0.00  -0.00   0.00    -0.00  -0.00  -0.00
  43   1    -0.00  -0.00   0.00     0.00   0.00   0.00     0.00  -0.00   0.00
  44   7    -0.08   0.03  -0.09     0.11  -0.06   0.13    -0.00  -0.00  -0.00
  45   6     0.16   0.12  -0.07     0.31   0.21  -0.16     0.00   0.00  -0.00
  46   8    -0.02   0.01   0.01    -0.00  -0.05   0.01    -0.00  -0.00   0.00
  47   6    -0.01  -0.14  -0.01    -0.04   0.09  -0.03     0.00   0.00  -0.00
  48   6     0.02   0.00   0.02     0.05  -0.06   0.04    -0.00   0.00   0.00
  49   8     0.03   0.04   0.04    -0.01   0.02  -0.00     0.00  -0.00  -0.00
  50   1    -0.06   0.06  -0.08     0.02  -0.03   0.03    -0.00   0.00  -0.00
  51   1     0.13   0.01   0.14    -0.08  -0.01  -0.10    -0.01  -0.00  -0.00
  52   1    -0.07   0.06  -0.06     0.02  -0.03   0.00     0.00  -0.00   0.01
  53   7     0.15  -0.04  -0.04     0.23   0.01  -0.07     0.00   0.00   0.00
  54   6    -0.20  -0.11   0.07    -0.27  -0.18   0.11    -0.00  -0.00  -0.00
  55   1    -0.10   0.01   0.03    -0.16   0.01   0.03    -0.00   0.00   0.00
  56   1    -0.10   0.01   0.03    -0.16   0.02   0.05    -0.00   0.00   0.00
  57   1     0.03   0.02  -0.01     0.06   0.04  -0.03     0.00   0.00  -0.00
                     85                     86                     87
                        a                      a                      a 
 Frequencies --  1105.0745              1106.5256              1115.9765
 Red. masses --     3.8274                 7.3084                 7.6610
 Frc consts  --     0.0000                 0.0000                 0.0000
 IR Inten    --     0.7715                19.6403                24.2335
 Raman Activ --     0.0000                 0.0000                 0.0000
 Depolar     --     0.0000                 0.0000                 0.0000
 Atom AN      X      Y      Z        X      Y      Z        X      Y      Z
   1   7     0.00   0.00   0.00    -0.01   0.01  -0.01     0.00   0.00   0.00
   2   6    -0.00  -0.00  -0.01    -0.01   0.01  -0.00    -0.00  -0.00  -0.01
   3   6    -0.01   0.00   0.01     0.00   0.00   0.01    -0.01   0.00   0.01
   4   6     0.00   0.00   0.01     0.00  -0.00   0.00     0.00  -0.01  -0.00
   5   6     0.00   0.01  -0.02    -0.00   0.00   0.00     0.01   0.05  -0.02
   6   6    -0.00   0.00   0.01     0.00  -0.00  -0.00    -0.01  -0.01   0.00
   7   6     0.01   0.00   0.00    -0.00  -0.00  -0.00     0.01  -0.01   0.00
   8   6    -0.01  -0.08   0.02     0.00   0.00  -0.00    -0.05  -0.31   0.06
   9   6    -0.06   0.09  -0.08    -0.00  -0.00   0.00    -0.07   0.40  -0.32
  10   6    -0.00  -0.00  -0.00     0.06   0.03   0.01    -0.00   0.00   0.00
  11   6     0.00   0.00  -0.00    -0.05  -0.04   0.03     0.00  -0.00  -0.00
  12   6    -0.00   0.00   0.00     0.02  -0.03  -0.10    -0.00  -0.00  -0.00
  13   6    -0.00   0.00  -0.02     0.08  -0.01   0.50     0.00   0.00   0.00
  14   6     0.01   0.00   0.02    -0.15  -0.03  -0.46     0.00   0.00  -0.00
  15   6    -0.00  -0.00  -0.01     0.03  -0.02   0.24    -0.00  -0.00   0.00
  16   8     0.00   0.00  -0.00    -0.00   0.00   0.00     0.00   0.00  -0.00
  17   8     0.00  -0.00   0.00     0.00  -0.00   0.00    -0.00  -0.00  -0.00
  18   1     0.00  -0.00  -0.00    -0.00  -0.00   0.00     0.00  -0.00  -0.00
  19   1     0.00  -0.00   0.00     0.00  -0.00  -0.00     0.00  -0.00   0.00
  20   1    -0.01   0.00  -0.01     0.01   0.00   0.00    -0.01   0.00  -0.01
  21   1     0.01  -0.00  -0.01     0.01  -0.00  -0.00     0.04  -0.02  -0.03
  22   1    -0.01   0.00  -0.01     0.01   0.00   0.00    -0.05   0.01  -0.03
  23   1     0.01  -0.01  -0.01     0.00  -0.00  -0.00     0.03  -0.01  -0.01
  24   1     0.01  -0.01  -0.00    -0.00  -0.00   0.00    -0.12  -0.17   0.07
  25   1    -0.00  -0.01   0.00     0.00   0.00  -0.00     0.10   0.03  -0.03
  26   1     0.03   0.05  -0.04    -0.00  -0.00   0.00     0.05   0.17  -0.13
  27   1     0.04  -0.04   0.05     0.00  -0.00   0.00     0.14  -0.18   0.19
  28   1    -0.01   0.00  -0.04    -0.00  -0.00  -0.00    -0.05  -0.11   0.02
  29   1    -0.00  -0.00  -0.00     0.02   0.02  -0.02    -0.00  -0.00  -0.00
  30   1     0.00   0.00   0.00    -0.02  -0.03  -0.01     0.00   0.00   0.00
  31   1    -0.00  -0.00  -0.00     0.02   0.05   0.04    -0.00  -0.00   0.00
  32   1    -0.00  -0.00  -0.00     0.11   0.08   0.02     0.00   0.00  -0.00
  33   1    -0.00   0.00  -0.00     0.01  -0.06   0.09    -0.00  -0.00   0.00
  34   1    -0.00  -0.00   0.01     0.02   0.12  -0.30     0.00   0.00  -0.00
  35   1    -0.00  -0.00   0.01     0.03   0.13  -0.25     0.00   0.00  -0.00
  36   1     0.01   0.01  -0.00    -0.24  -0.25   0.03    -0.00  -0.00   0.00
  37   1    -0.00  -0.01   0.01     0.06   0.14  -0.16     0.00   0.00  -0.00
  38   1    -0.00  -0.00   0.01     0.06   0.06  -0.16    -0.00  -0.00   0.00
  39   1    -0.00   0.00  -0.00    -0.00  -0.00  -0.00    -0.00   0.00  -0.00
  40   1    -0.00   0.00  -0.00     0.00   0.00  -0.00     0.00   0.00   0.00
  41   8     0.00   0.00   0.00    -0.00  -0.00  -0.00     0.00   0.00   0.00
  42   1    -0.00   0.00   0.00     0.00  -0.00  -0.00    -0.00  -0.00   0.00
  43   1    -0.00  -0.00  -0.00     0.00  -0.00   0.00    -0.00  -0.00  -0.00
  44   7     0.05  -0.02   0.06    -0.00  -0.00  -0.00     0.12  -0.10   0.17
  45   6    -0.03  -0.02  -0.01     0.00   0.00  -0.00    -0.13  -0.08   0.09
  46   8     0.01  -0.00  -0.01    -0.00   0.00   0.00     0.01   0.08  -0.02
  47   6    -0.02   0.03  -0.02    -0.00   0.00  -0.00    -0.05   0.06  -0.06
  48   6     0.02  -0.02   0.02     0.00   0.00  -0.00     0.06  -0.05   0.07
  49   8     0.00   0.02   0.00    -0.00   0.00   0.00     0.02   0.08   0.03
  50   1     0.00  -0.01   0.01     0.01  -0.00   0.01    -0.02  -0.01  -0.00
  51   1    -0.02  -0.00  -0.03    -0.00  -0.00  -0.00    -0.06  -0.00  -0.06
  52   1     0.00  -0.01  -0.00     0.00  -0.00   0.00     0.00  -0.01  -0.01
  53   7    -0.08  -0.03  -0.20     0.00  -0.00  -0.01     0.12  -0.15   0.02
  54   6     0.13   0.07   0.38     0.00   0.00   0.02    -0.09   0.20  -0.08
  55   1     0.47   0.14  -0.34     0.02   0.01  -0.01     0.09  -0.09   0.04
  56   1    -0.55  -0.19   0.00    -0.02  -0.01   0.00     0.26  -0.04  -0.06
  57   1    -0.06  -0.03  -0.20    -0.00  -0.00  -0.01    -0.27  -0.11   0.13
                     88                     89                     90
                        a                      a                      a 
 Frequencies --  1130.0308              1138.7451              1139.1436
 Red. masses --     7.1251                 5.9567                 6.9029
 Frc consts  --     0.0000                 0.0000                 0.0000
 IR Inten    --    21.4786                 1.1699                 6.1764
 Raman Activ --     0.0000                 0.0000                 0.0000
 Depolar     --     0.0000                 0.0000                 0.0000
 Atom AN      X      Y      Z        X      Y      Z        X      Y      Z
   1   7    -0.01  -0.01  -0.01     0.00  -0.06   0.02    -0.03  -0.10   0.00
   2   6     0.02   0.03   0.05     0.00  -0.07  -0.09     0.09   0.03   0.07
   3   6     0.04  -0.03  -0.04    -0.06   0.05   0.07     0.05  -0.05  -0.07
   4   6    -0.04  -0.01  -0.04     0.09   0.01   0.05    -0.09  -0.02  -0.06
   5   6     0.00   0.00   0.07    -0.03  -0.06  -0.09     0.04   0.05   0.07
   6   6     0.03  -0.03  -0.04    -0.08   0.07   0.06     0.05  -0.04  -0.03
   7   6    -0.04  -0.02  -0.04     0.09   0.05   0.07    -0.07  -0.03  -0.04
   8   6     0.02   0.16  -0.06     0.03   0.11   0.03    -0.02  -0.08  -0.03
   9   6     0.15  -0.14   0.20    -0.04  -0.14   0.03     0.04   0.12  -0.02
  10   6    -0.00  -0.00  -0.00    -0.08  -0.03   0.02    -0.12  -0.04   0.02
  11   6     0.00  -0.00  -0.00     0.06   0.17  -0.04     0.09   0.21  -0.06
  12   6    -0.01  -0.00   0.00     0.29   0.20  -0.06     0.34   0.25  -0.08
  13   6     0.01   0.00  -0.01    -0.27  -0.14   0.08    -0.32  -0.17   0.10
  14   6    -0.00   0.00   0.01     0.08  -0.02  -0.02     0.09  -0.02  -0.03
  15   6     0.00  -0.00  -0.00    -0.06   0.02  -0.03    -0.07   0.02  -0.04
  16   8     0.00  -0.00  -0.00    -0.00   0.00   0.00     0.00  -0.00   0.00
  17   8    -0.00   0.00  -0.00     0.00  -0.00   0.00    -0.00   0.00  -0.00
  18   1    -0.00   0.00  -0.00     0.00  -0.00  -0.00    -0.00   0.00  -0.00
  19   1    -0.00   0.00   0.00     0.00  -0.00  -0.01    -0.00   0.00   0.00
  20   1     0.15  -0.01   0.05    -0.31   0.00  -0.11     0.21  -0.01   0.06
  21   1    -0.13   0.06   0.06     0.25  -0.12  -0.13    -0.23   0.10   0.10
  22   1     0.14   0.00   0.04    -0.30  -0.03  -0.07     0.23   0.02   0.06
  23   1    -0.13   0.07   0.06     0.26  -0.14  -0.11    -0.26   0.16   0.12
  24   1    -0.03  -0.00   0.02    -0.01   0.06  -0.03    -0.01  -0.05   0.03
  25   1    -0.04   0.01   0.01     0.03  -0.00  -0.01    -0.03   0.01   0.01
  26   1    -0.06  -0.16   0.15    -0.03  -0.06   0.02     0.02   0.04  -0.01
  27   1    -0.06   0.06  -0.10    -0.03   0.04  -0.03     0.02  -0.04   0.03
  28   1    -0.08  -0.22   0.03     0.00  -0.05  -0.00    -0.00   0.03   0.00
  29   1     0.00   0.01   0.01    -0.04  -0.11   0.00    -0.05  -0.09   0.04
  30   1     0.00   0.01  -0.00    -0.01  -0.07   0.01     0.00  -0.07   0.02
  31   1    -0.00   0.00   0.00     0.07   0.00  -0.01     0.08   0.02  -0.01
  32   1    -0.00   0.00  -0.00    -0.00  -0.04   0.05    -0.00  -0.05   0.06
  33   1     0.00   0.01  -0.00    -0.14  -0.22   0.10    -0.16  -0.27   0.12
  34   1     0.00  -0.00   0.00    -0.02   0.02  -0.06    -0.03   0.03  -0.07
  35   1    -0.00  -0.00   0.00     0.02   0.02   0.05     0.02   0.03   0.05
  36   1     0.00   0.00   0.00     0.04   0.02  -0.01     0.05   0.02  -0.01
  37   1    -0.00  -0.00   0.00     0.02  -0.00   0.01     0.03  -0.00   0.01
  38   1     0.00   0.00  -0.00    -0.04  -0.06   0.03    -0.05  -0.07   0.04
  39   1     0.01   0.00   0.00    -0.01  -0.00  -0.00     0.01   0.00   0.00
  40   1     0.00  -0.00   0.00    -0.00   0.00  -0.00     0.00  -0.00   0.00
  41   8    -0.00  -0.00  -0.00     0.00   0.00   0.00     0.00  -0.00  -0.00
  42   1    -0.00  -0.00   0.00     0.00   0.00  -0.00    -0.00  -0.00  -0.00
  43   1     0.00   0.00   0.00    -0.00  -0.01  -0.01     0.00   0.01   0.00
  44   7    -0.11   0.00  -0.15     0.01   0.02   0.01    -0.01  -0.03  -0.02
  45   6    -0.04   0.05  -0.03     0.03   0.04  -0.02    -0.02  -0.03   0.01
  46   8    -0.06   0.15   0.01    -0.02   0.03   0.00     0.02  -0.02  -0.00
  47   6     0.03  -0.06   0.03     0.00   0.00   0.01    -0.00  -0.01  -0.01
  48   6    -0.04   0.05  -0.03    -0.01   0.01  -0.01     0.00   0.00   0.01
  49   8     0.00  -0.01  -0.00    -0.01  -0.03  -0.01     0.01   0.02   0.01
  50   1    -0.01   0.02  -0.01     0.01  -0.00   0.01    -0.01   0.00  -0.01
  51   1     0.05   0.00   0.05    -0.00  -0.00  -0.00     0.00   0.00   0.01
  52   1    -0.01   0.02   0.00     0.00  -0.00   0.01    -0.00   0.00  -0.00
  53   7     0.34  -0.24  -0.09     0.15  -0.05  -0.04    -0.11   0.04   0.03
  54   6    -0.22   0.23   0.09    -0.11   0.05   0.03     0.09  -0.04  -0.02
  55   1     0.22  -0.07  -0.04     0.04  -0.02  -0.00    -0.03   0.02  -0.00
  56   1     0.08  -0.12  -0.06     0.02  -0.03  -0.01    -0.02   0.02   0.01
  57   1    -0.38  -0.16   0.11    -0.11  -0.04   0.04     0.08   0.03  -0.03
                     91                     92                     93
                        a                      a                      a 
 Frequencies --  1160.9307              1164.5249              1187.1209
 Red. masses --     6.6115                 8.7906                 3.0038
 Frc consts  --     0.0000                 0.0000                 0.0000
 IR Inten    --     1.2493                18.1852                20.2461
 Raman Activ --     0.0000                 0.0000                 0.0000
 Depolar     --     0.0000                 0.0000                 0.0000
 Atom AN      X      Y      Z        X      Y      Z        X      Y      Z
   1   7    -0.00  -0.00   0.00    -0.05   0.06  -0.00     0.11  -0.00   0.00
   2   6     0.02  -0.01  -0.01    -0.18   0.08  -0.04    -0.24   0.10   0.00
   3   6    -0.01   0.01   0.01    -0.00   0.02   0.04     0.06   0.02   0.05
   4   6     0.03  -0.02  -0.01     0.02   0.02   0.04    -0.02   0.09   0.11
   5   6     0.03   0.01   0.04    -0.03   0.01   0.01    -0.04   0.01  -0.01
   6   6    -0.04  -0.01  -0.02     0.02  -0.04  -0.04    -0.06  -0.07  -0.12
   7   6     0.03  -0.01  -0.01    -0.02  -0.02  -0.02     0.01  -0.04  -0.06
   8   6    -0.01  -0.01  -0.05     0.01  -0.01  -0.01     0.02  -0.00   0.01
   9   6     0.29   0.25   0.21     0.03   0.02   0.02    -0.02  -0.02  -0.02
  10   6    -0.04  -0.01   0.00     0.53   0.12  -0.07    -0.07  -0.09   0.02
  11   6     0.03   0.01  -0.01    -0.47  -0.19   0.08     0.13   0.08  -0.02
  12   6    -0.02  -0.00   0.00     0.17  -0.02  -0.02    -0.01   0.03  -0.00
  13   6     0.02  -0.00  -0.00    -0.16   0.09  -0.03     0.02  -0.04   0.01
  14   6    -0.01   0.00   0.00     0.10  -0.05   0.04    -0.02   0.01  -0.01
  15   6     0.01  -0.00   0.00    -0.05   0.04  -0.02     0.01  -0.01   0.00
  16   8    -0.00  -0.00   0.00     0.00  -0.00  -0.00    -0.00   0.00   0.00
  17   8     0.00  -0.00   0.00    -0.00  -0.00   0.00     0.00   0.00   0.00
  18   1     0.00  -0.00   0.00    -0.00  -0.01   0.01     0.00  -0.00  -0.01
  19   1     0.00  -0.00  -0.00    -0.00   0.00  -0.00     0.00  -0.00  -0.00
  20   1    -0.05  -0.00  -0.01     0.16   0.03   0.07     0.48   0.04   0.21
  21   1     0.07  -0.03  -0.04     0.02   0.00   0.00    -0.27   0.17   0.19
  22   1    -0.20  -0.02  -0.07     0.02  -0.01  -0.01    -0.25  -0.05  -0.11
  23   1     0.07  -0.04  -0.04     0.09  -0.07  -0.06     0.39  -0.27  -0.24
  24   1    -0.32  -0.30   0.19    -0.01  -0.02   0.01     0.04   0.04  -0.03
  25   1     0.13   0.14  -0.06     0.02   0.02  -0.01    -0.01  -0.02   0.01
  26   1    -0.03  -0.15   0.24    -0.00  -0.01   0.02     0.00  -0.00  -0.01
  27   1     0.08  -0.19   0.05     0.01  -0.02   0.00     0.01  -0.00   0.01
  28   1    -0.12  -0.07   0.05    -0.01  -0.01   0.00     0.01   0.01  -0.00
  29   1    -0.01   0.00  -0.00     0.15   0.08  -0.03    -0.05  -0.19   0.04
  30   1     0.01   0.02  -0.01    -0.18  -0.32   0.08     0.04   0.07  -0.02
  31   1    -0.00   0.00  -0.00     0.03  -0.04  -0.00    -0.01  -0.01   0.00
  32   1    -0.01  -0.01   0.00     0.09   0.08  -0.05    -0.03  -0.02   0.02
  33   1     0.01   0.02  -0.00    -0.09  -0.14  -0.01     0.01   0.01   0.02
  34   1     0.01   0.00   0.00    -0.04  -0.00  -0.02     0.01   0.00   0.00
  35   1    -0.00  -0.00  -0.01     0.02   0.01   0.10    -0.01  -0.01  -0.02
  36   1    -0.00   0.00   0.00     0.05   0.02  -0.01    -0.01  -0.00   0.00
  37   1    -0.01  -0.00   0.00     0.04   0.01   0.01    -0.01  -0.00  -0.00
  38   1     0.01   0.01  -0.00    -0.04  -0.07   0.03     0.01   0.02  -0.01
  39   1    -0.00  -0.00  -0.00    -0.00  -0.00  -0.00    -0.01  -0.00  -0.00
  40   1     0.00   0.00  -0.00     0.00   0.00  -0.00    -0.00   0.00  -0.00
  41   8     0.00   0.00   0.00     0.00   0.00  -0.00     0.00   0.01   0.01
  42   1     0.00   0.00  -0.00    -0.00   0.00   0.00     0.00   0.00  -0.00
  43   1    -0.00  -0.00  -0.00     0.00   0.00   0.00    -0.01  -0.01  -0.01
  44   7    -0.20  -0.10  -0.29    -0.02  -0.01  -0.02     0.01   0.01   0.01
  45   6    -0.05  -0.03  -0.03    -0.00  -0.00  -0.00     0.00  -0.00   0.00
  46   8     0.01   0.01   0.01     0.00   0.00   0.00     0.00  -0.01  -0.00
  47   6     0.05  -0.11   0.03     0.00  -0.01   0.00    -0.00   0.00  -0.00
  48   6    -0.07   0.11  -0.04    -0.00   0.01  -0.00     0.00  -0.00  -0.00
  49   8     0.04   0.11   0.06     0.00   0.01   0.01    -0.00  -0.00  -0.00
  50   1    -0.03   0.03  -0.04    -0.00   0.00  -0.00     0.00  -0.00   0.00
  51   1     0.09   0.01   0.11     0.01   0.00   0.01    -0.00   0.00  -0.00
  52   1    -0.02   0.03  -0.01    -0.00   0.00  -0.00     0.00  -0.00   0.00
  53   7    -0.19  -0.03   0.05    -0.02  -0.00   0.00     0.01   0.01  -0.00
  54   6     0.19  -0.03  -0.03     0.02  -0.00  -0.00    -0.01  -0.00   0.00
  55   1     0.01   0.03  -0.02    -0.00   0.00  -0.00    -0.00  -0.00   0.00
  56   1    -0.04   0.01   0.01    -0.00   0.00   0.00    -0.00   0.00   0.00
  57   1     0.10   0.03  -0.05     0.01   0.00  -0.00     0.00   0.00   0.00
                     94                     95                     96
                        a                      a                      a 
 Frequencies --  1204.5193              1212.2996              1216.9580
 Red. masses --     4.9463                 5.4793                 4.6694
 Frc consts  --     0.0000                 0.0000                 0.0000
 IR Inten    --    22.2806                 5.5969                 9.3666
 Raman Activ --     0.0000                 0.0000                 0.0000
 Depolar     --     0.0000                 0.0000                 0.0000
 Atom AN      X      Y      Z        X      Y      Z        X      Y      Z
   1   7    -0.11  -0.02   0.00     0.00   0.00  -0.00    -0.08  -0.03   0.01
   2   6     0.32  -0.12  -0.01    -0.02   0.01  -0.00     0.03  -0.01  -0.04
   3   6     0.04   0.06   0.08     0.00   0.00   0.00    -0.00   0.03   0.04
   4   6    -0.01  -0.01  -0.01     0.01   0.01   0.01     0.01  -0.00   0.01
   5   6     0.37  -0.07  -0.05    -0.01  -0.03  -0.01     0.11  -0.03  -0.02
   6   6    -0.01   0.02   0.03    -0.00   0.00  -0.00     0.03   0.00   0.02
   7   6     0.00  -0.06  -0.08    -0.00   0.01   0.01    -0.02  -0.01  -0.02
   8   6    -0.10   0.09   0.01     0.03   0.02   0.06    -0.02   0.06   0.02
   9   6    -0.05  -0.02  -0.05     0.05   0.10  -0.15    -0.07  -0.04  -0.07
  10   6    -0.01   0.08  -0.01     0.00  -0.00   0.00     0.09   0.05  -0.01
  11   6    -0.08  -0.08   0.02     0.00   0.00  -0.00    -0.02   0.12  -0.03
  12   6     0.00  -0.04   0.00     0.00   0.00  -0.00    -0.01   0.12  -0.03
  13   6    -0.05   0.04   0.01     0.00  -0.00   0.00     0.16  -0.12  -0.04
  14   6     0.05  -0.04   0.00     0.00   0.00  -0.00    -0.26   0.24   0.05
  15   6    -0.03   0.03   0.00    -0.00   0.00   0.00     0.19  -0.17  -0.04
  16   8     0.00   0.00   0.00    -0.00   0.00   0.00    -0.00   0.00  -0.00
  17   8    -0.00  -0.00  -0.00     0.00   0.00   0.00    -0.00   0.00  -0.00
  18   1    -0.00   0.00   0.01     0.00  -0.00  -0.00    -0.00   0.00   0.00
  19   1    -0.00  -0.00  -0.00     0.00  -0.00  -0.00     0.00  -0.00   0.00
  20   1    -0.10   0.00  -0.02    -0.01  -0.00  -0.00    -0.04   0.01  -0.01
  21   1    -0.34   0.19   0.21    -0.00   0.01   0.00    -0.04   0.03   0.03
  22   1    -0.44  -0.06  -0.15     0.03  -0.00   0.01    -0.05  -0.01  -0.02
  23   1    -0.07   0.04   0.02     0.02  -0.01  -0.01    -0.07   0.04   0.03
  24   1    -0.16  -0.02   0.01    -0.02   0.03  -0.02    -0.02   0.04  -0.02
  25   1    -0.22  -0.11   0.09    -0.13  -0.14   0.06    -0.10  -0.08   0.04
  26   1    -0.05  -0.02  -0.01    -0.33  -0.08  -0.00     0.01  -0.06   0.04
  27   1    -0.00   0.01   0.01    -0.11   0.18  -0.10     0.08  -0.12   0.10
  28   1     0.04   0.04  -0.02    -0.44  -0.41   0.17    -0.02  -0.02   0.01
  29   1     0.05   0.29  -0.06    -0.00  -0.01   0.00    -0.01  -0.14   0.03
  30   1    -0.02   0.00   0.00     0.00   0.00  -0.00    -0.08  -0.31   0.09
  31   1     0.02   0.09  -0.03    -0.00  -0.01   0.00    -0.08  -0.31   0.10
  32   1     0.03   0.02  -0.00    -0.00  -0.00   0.00    -0.07   0.06  -0.17
  33   1    -0.01  -0.01  -0.04     0.00   0.00  -0.00    -0.02  -0.08   0.27
  34   1    -0.03  -0.01  -0.01    -0.00  -0.00  -0.00     0.19   0.07   0.06
  35   1     0.02   0.03   0.02     0.00  -0.00   0.00    -0.13  -0.19  -0.07
  36   1     0.02  -0.01  -0.00    -0.00  -0.00   0.00    -0.09   0.06   0.03
  37   1     0.03   0.02  -0.00     0.00   0.00  -0.00    -0.20  -0.11   0.04
  38   1    -0.02  -0.04   0.01    -0.00  -0.00   0.00     0.13   0.22  -0.04
  39   1     0.00   0.00   0.00    -0.00  -0.00  -0.00     0.00   0.00   0.00
  40   1     0.00   0.00  -0.00    -0.00  -0.00   0.00     0.00   0.00  -0.00
  41   8    -0.00  -0.00  -0.00     0.00   0.00   0.00     0.00   0.00  -0.00
  42   1    -0.00  -0.00  -0.00    -0.00  -0.00  -0.00     0.00  -0.00  -0.00
  43   1     0.00   0.01   0.01    -0.00  -0.00  -0.00     0.00   0.00   0.00
  44   7     0.03   0.01   0.04     0.07   0.06   0.13     0.01  -0.03   0.00
  45   6    -0.01  -0.01   0.00     0.20   0.18  -0.11     0.03   0.02  -0.00
  46   8     0.01  -0.01  -0.00    -0.09   0.15   0.01    -0.01   0.00  -0.00
  47   6    -0.01   0.01  -0.00    -0.03   0.07  -0.03     0.01  -0.02   0.01
  48   6     0.01  -0.01   0.01     0.08  -0.13   0.07    -0.04   0.06  -0.04
  49   8    -0.00  -0.01  -0.01    -0.03  -0.04  -0.03     0.02   0.03   0.02
  50   1     0.00  -0.00   0.00     0.01  -0.02   0.01    -0.00   0.00  -0.00
  51   1    -0.01  -0.00  -0.01    -0.06  -0.01  -0.07     0.02   0.00   0.03
  52   1     0.00  -0.00  -0.00     0.01  -0.02   0.00    -0.01   0.01  -0.01
  53   7     0.03   0.02  -0.01    -0.18  -0.22   0.08     0.01  -0.00  -0.00
  54   6    -0.03   0.00   0.01     0.25  -0.04  -0.07    -0.00  -0.01  -0.00
  55   1     0.00  -0.00   0.00    -0.03   0.01   0.01    -0.01  -0.00   0.00
  56   1     0.00  -0.00  -0.00    -0.03   0.01   0.00    -0.00   0.00   0.00
  57   1    -0.01  -0.00   0.00     0.07  -0.00  -0.02     0.01   0.00  -0.00
                     97                     98                     99
                        a                      a                      a 
 Frequencies --  1217.6789              1237.1971              1245.9184
 Red. masses --     4.4921                 4.3086                 4.9789
 Frc consts  --     0.0000                 0.0000                 0.0000
 IR Inten    --     5.3296                 5.4963                32.2911
 Raman Activ --     0.0000                 0.0000                 0.0000
 Depolar     --     0.0000                 0.0000                 0.0000
 Atom AN      X      Y      Z        X      Y      Z        X      Y      Z
   1   7    -0.01  -0.01   0.00     0.01  -0.02  -0.00     0.12   0.05  -0.01
   2   6    -0.02   0.01  -0.00     0.19  -0.05   0.03    -0.30   0.10   0.01
   3   6    -0.02   0.01   0.01     0.06  -0.05  -0.07    -0.08   0.04   0.04
   4   6     0.02  -0.01  -0.00    -0.09  -0.01  -0.04     0.11   0.02   0.05
   5   6     0.07   0.01   0.03    -0.22   0.05   0.01     0.16  -0.06   0.01
   6   6    -0.00  -0.02  -0.03    -0.11   0.04   0.03     0.10  -0.07  -0.07
   7   6    -0.00  -0.02  -0.02     0.10   0.01   0.04    -0.12   0.00  -0.03
   8   6    -0.04  -0.08  -0.09    -0.00  -0.10   0.01     0.09   0.15  -0.02
   9   6     0.21   0.13   0.19     0.02  -0.02   0.06     0.01   0.05  -0.11
  10   6     0.03   0.01  -0.00    -0.08   0.01   0.01    -0.00  -0.07   0.02
  11   6    -0.00   0.04  -0.01    -0.00  -0.14   0.03     0.07  -0.10   0.02
  12   6     0.00   0.04  -0.01     0.05  -0.05  -0.05     0.03  -0.07  -0.03
  13   6     0.04  -0.04  -0.01    -0.12  -0.09   0.08    -0.12  -0.07   0.10
  14   6    -0.07   0.06   0.01    -0.09   0.15   0.14    -0.01   0.06   0.12
  15   6     0.05  -0.04  -0.01     0.06  -0.12  -0.09    -0.00  -0.05  -0.07
  16   8    -0.00   0.00   0.00    -0.00   0.00  -0.00    -0.00  -0.00  -0.00
  17   8    -0.00   0.00   0.00     0.00  -0.00   0.00    -0.00   0.00   0.00
  18   1     0.00   0.00  -0.00    -0.00  -0.00   0.01     0.00  -0.00  -0.01
  19   1     0.00  -0.00   0.00     0.00  -0.00  -0.00     0.00  -0.00   0.01
  20   1    -0.00   0.01   0.00     0.06  -0.02   0.00    -0.06   0.02  -0.00
  21   1     0.01  -0.00  -0.00    -0.06   0.01   0.01     0.12  -0.04  -0.03
  22   1    -0.07  -0.02  -0.03    -0.03   0.02   0.01     0.13  -0.01   0.02
  23   1    -0.01   0.01  -0.00     0.10  -0.04  -0.03    -0.05  -0.00  -0.00
  24   1    -0.18  -0.20   0.12     0.15   0.06  -0.04    -0.19  -0.10   0.06
  25   1     0.07   0.15  -0.04     0.20   0.14  -0.08    -0.27  -0.22   0.12
  26   1    -0.14   0.20  -0.16     0.11   0.06  -0.03    -0.24  -0.11   0.05
  27   1    -0.30   0.42  -0.33    -0.02   0.03  -0.03     0.03  -0.04   0.05
  28   1     0.14   0.14  -0.06    -0.07  -0.06   0.03     0.12   0.12  -0.06
  29   1    -0.01  -0.06   0.01     0.04   0.32  -0.06    -0.02  -0.11   0.02
  30   1    -0.02  -0.08   0.02     0.03   0.10  -0.03     0.06   0.15  -0.04
  31   1    -0.02  -0.09   0.03     0.09   0.30  -0.06     0.09   0.30  -0.07
  32   1    -0.02   0.02  -0.05     0.14   0.27  -0.36     0.12   0.21  -0.27
  33   1    -0.00  -0.02   0.07    -0.06  -0.10   0.07    -0.02  -0.02  -0.05
  34   1     0.05   0.02   0.02     0.14   0.12  -0.04     0.07   0.08  -0.04
  35   1    -0.03  -0.05  -0.02    -0.05  -0.08  -0.05     0.01   0.01  -0.06
  36   1    -0.03   0.02   0.01     0.00   0.10   0.01     0.04   0.07  -0.00
  37   1    -0.05  -0.03   0.01    -0.12  -0.10   0.06    -0.05  -0.05   0.04
  38   1     0.03   0.06  -0.01     0.05   0.10   0.02     0.00   0.03   0.03
  39   1     0.00   0.00   0.00    -0.00  -0.00  -0.00     0.00   0.00  -0.00
  40   1     0.00   0.00  -0.00     0.00   0.00  -0.00    -0.00  -0.00   0.00
  41   8     0.00   0.00   0.00    -0.00  -0.00  -0.00    -0.00   0.00   0.00
  42   1    -0.00  -0.00  -0.00     0.00   0.00  -0.00    -0.00   0.00   0.00
  43   1    -0.00   0.00  -0.00     0.00  -0.00   0.00    -0.00  -0.00  -0.00
  44   7    -0.01   0.09   0.04    -0.02  -0.00  -0.02     0.02   0.01   0.04
  45   6    -0.12  -0.10   0.01     0.04   0.04  -0.01    -0.09  -0.08   0.01
  46   8     0.04  -0.04  -0.00    -0.03   0.03   0.00     0.05  -0.06  -0.01
  47   6    -0.05   0.08  -0.04     0.00   0.00   0.00     0.00   0.00  -0.00
  48   6     0.14  -0.20   0.15     0.00  -0.01   0.00    -0.01   0.01  -0.00
  49   8    -0.06  -0.11  -0.09    -0.00   0.00  -0.00     0.00  -0.00  -0.00
  50   1     0.02  -0.01   0.02    -0.00  -0.00  -0.00    -0.00  -0.00  -0.00
  51   1    -0.09  -0.01  -0.11    -0.01  -0.00  -0.00     0.00   0.00   0.00
  52   1     0.01  -0.02   0.01     0.00   0.00   0.00     0.00  -0.00  -0.00
  53   7    -0.00   0.04  -0.01    -0.01  -0.03   0.01     0.01   0.05  -0.01
  54   6    -0.04   0.04   0.02     0.03  -0.01  -0.01    -0.04   0.01   0.01
  55   1     0.04  -0.00  -0.01    -0.01   0.00   0.00     0.02  -0.00  -0.01
  56   1     0.02  -0.01  -0.01    -0.01   0.00   0.00     0.02  -0.00  -0.00
  57   1    -0.03  -0.00   0.00     0.01  -0.00  -0.00    -0.01   0.01   0.00
                    100                    101                    102
                        a                      a                      a 
 Frequencies --  1262.0000              1266.6052              1271.7800
 Red. masses --     6.1649                 3.1813                 3.4286
 Frc consts  --     0.0000                 0.0000                 0.0000
 IR Inten    --     8.9071                 1.2706                 1.6416
 Raman Activ --     0.0000                 0.0000                 0.0000
 Depolar     --     0.0000                 0.0000                 0.0000
 Atom AN      X      Y      Z        X      Y      Z        X      Y      Z
   1   7     0.03   0.04  -0.00    -0.05  -0.03   0.01     0.01   0.03   0.03
   2   6    -0.21   0.05  -0.04     0.10  -0.07  -0.06    -0.05  -0.18  -0.25
   3   6    -0.07   0.07   0.10     0.03  -0.03  -0.04    -0.08  -0.00  -0.03
   4   6     0.11  -0.00   0.04    -0.08   0.02   0.00    -0.11   0.08   0.09
   5   6     0.35  -0.01  -0.08    -0.15   0.03   0.05    -0.00   0.09   0.14
   6   6     0.14  -0.05  -0.02    -0.04   0.04   0.04     0.12   0.04   0.07
   7   6    -0.13  -0.03  -0.06     0.08   0.01   0.02     0.09  -0.03  -0.03
   8   6    -0.27  -0.08   0.01     0.10   0.02  -0.02     0.03  -0.00  -0.07
   9   6    -0.14  -0.07   0.13     0.05   0.01  -0.03    -0.01  -0.09   0.04
  10   6     0.04  -0.02   0.00    -0.00   0.04  -0.00    -0.02   0.01   0.00
  11   6     0.08  -0.00  -0.00     0.11   0.03  -0.01     0.02  -0.01   0.01
  12   6    -0.04  -0.02  -0.02    -0.11   0.05  -0.03    -0.01  -0.02   0.01
  13   6    -0.01  -0.08   0.05     0.11  -0.16  -0.00    -0.05   0.04   0.02
  14   6     0.01  -0.01   0.06    -0.01  -0.00   0.05     0.01  -0.01   0.01
  15   6    -0.06   0.03  -0.02    -0.14   0.13   0.02     0.03  -0.04  -0.02
  16   8     0.00  -0.00  -0.00     0.00  -0.00  -0.00     0.00  -0.00  -0.00
  17   8    -0.00   0.00  -0.00    -0.00  -0.00  -0.00    -0.00   0.00  -0.00
  18   1     0.00   0.00  -0.01    -0.00   0.00   0.00    -0.00   0.00   0.00
  19   1    -0.00   0.00   0.00    -0.00   0.00  -0.00    -0.00   0.00   0.00
  20   1    -0.08   0.03  -0.01     0.13  -0.00   0.04     0.40   0.03   0.17
  21   1    -0.00   0.03   0.03     0.05  -0.04  -0.05     0.30  -0.17  -0.18
  22   1    -0.05  -0.02  -0.05    -0.09  -0.00  -0.01    -0.39  -0.05  -0.13
  23   1    -0.12   0.05   0.03    -0.03   0.03   0.04    -0.29   0.19   0.18
  24   1     0.02   0.04  -0.03     0.03  -0.00   0.00     0.06  -0.00   0.00
  25   1     0.11   0.19  -0.06    -0.03  -0.05   0.02    -0.06  -0.00   0.03
  26   1     0.45   0.13  -0.02    -0.16  -0.02  -0.02    -0.06   0.11  -0.13
  27   1    -0.02   0.04  -0.07     0.01  -0.02   0.03     0.01  -0.02   0.03
  28   1    -0.15  -0.15   0.07     0.04   0.04  -0.02    -0.03  -0.03   0.01
  29   1    -0.03  -0.23   0.04    -0.01  -0.02   0.00    -0.01  -0.04  -0.02
  30   1     0.01  -0.06   0.01    -0.04  -0.29   0.08     0.01   0.03  -0.02
  31   1     0.02   0.13  -0.03    -0.01   0.08  -0.00     0.01   0.05  -0.02
  32   1     0.03   0.10  -0.16    -0.02   0.12  -0.25     0.01  -0.02   0.05
  33   1     0.02   0.04  -0.04     0.02   0.00   0.12     0.01   0.04  -0.09
  34   1    -0.02  -0.04   0.07    -0.14  -0.26   0.36     0.04   0.09  -0.13
  35   1     0.07   0.12  -0.15     0.17   0.30  -0.39    -0.04  -0.07   0.10
  36   1     0.04   0.02  -0.01     0.05  -0.02  -0.01    -0.00   0.01   0.00
  37   1     0.04   0.01   0.00     0.13   0.08  -0.02    -0.03  -0.03   0.01
  38   1    -0.04  -0.05   0.02    -0.09  -0.13   0.03     0.02   0.03  -0.00
  39   1     0.00   0.00   0.00     0.00  -0.00   0.00     0.01   0.00   0.00
  40   1    -0.00  -0.00   0.00     0.00   0.00  -0.00     0.00  -0.00   0.00
  41   8     0.00  -0.00   0.00    -0.00  -0.00  -0.00    -0.00  -0.01  -0.00
  42   1    -0.00  -0.00   0.00    -0.00  -0.00   0.00    -0.00  -0.00  -0.00
  43   1    -0.00  -0.00  -0.00     0.00   0.00   0.00     0.01   0.01   0.01
  44   7    -0.03  -0.02  -0.07     0.01   0.01   0.03     0.02  -0.00   0.03
  45   6     0.14   0.11  -0.01    -0.04  -0.03  -0.00     0.03   0.02  -0.02
  46   8    -0.07   0.08   0.01     0.02  -0.02  -0.00    -0.01   0.01   0.00
  47   6    -0.01   0.00   0.00     0.01  -0.00   0.01     0.01  -0.01   0.01
  48   6     0.02  -0.03   0.01    -0.02   0.02  -0.01    -0.04   0.04  -0.04
  49   8    -0.00   0.01   0.00     0.00  -0.00   0.00     0.01   0.01   0.01
  50   1    -0.00   0.00  -0.00    -0.01  -0.00  -0.00     0.01  -0.00   0.00
  51   1    -0.00  -0.00  -0.01     0.00   0.00   0.01     0.01   0.00   0.02
  52   1    -0.00  -0.00  -0.00    -0.00   0.00  -0.00     0.00  -0.00   0.01
  53   7     0.00  -0.05  -0.00    -0.00   0.01   0.00    -0.00  -0.01   0.00
  54   6     0.04  -0.02  -0.01    -0.01   0.01   0.00     0.01  -0.00  -0.00
  55   1    -0.03   0.00   0.01     0.01  -0.00  -0.00    -0.00   0.00   0.00
  56   1    -0.03   0.00   0.01     0.01  -0.00  -0.00    -0.01  -0.00   0.00
  57   1     0.01  -0.01  -0.00    -0.00   0.00   0.00     0.00  -0.00  -0.00
                    103                    104                    105
                        a                      a                      a 
 Frequencies --  1281.7536              1289.2991              1292.6552
 Red. masses --     4.8144                 3.5897                 3.5444
 Frc consts  --     0.0000                 0.0000                 0.0000
 IR Inten    --    26.0495                 4.6940                 3.0731
 Raman Activ --     0.0000                 0.0000                 0.0000
 Depolar     --     0.0000                 0.0000                 0.0000
 Atom AN      X      Y      Z        X      Y      Z        X      Y      Z
   1   7    -0.00  -0.00   0.01     0.13   0.02  -0.00     0.05  -0.02   0.01
   2   6     0.03  -0.05  -0.05    -0.14   0.03   0.01    -0.05   0.02  -0.01
   3   6     0.00  -0.02  -0.03    -0.07   0.01  -0.01    -0.00   0.00   0.01
   4   6    -0.05   0.03   0.02     0.04   0.01   0.03     0.01   0.00   0.01
   5   6    -0.10   0.01   0.05     0.10   0.02   0.03     0.01  -0.01  -0.01
   6   6    -0.01   0.02   0.02     0.05  -0.03  -0.03     0.01  -0.01  -0.01
   7   6     0.05   0.01   0.02    -0.04  -0.01  -0.03    -0.02   0.01   0.01
   8   6     0.16   0.04   0.02    -0.02   0.01  -0.03     0.00   0.01  -0.00
   9   6    -0.21   0.23  -0.13    -0.03  -0.05   0.04    -0.01   0.01  -0.00
  10   6    -0.01   0.01   0.00    -0.05  -0.08   0.01    -0.02  -0.01  -0.00
  11   6    -0.02  -0.00   0.00    -0.14  -0.10   0.03     0.25  -0.11   0.01
  12   6     0.02   0.00  -0.00     0.17  -0.04   0.02    -0.23   0.02   0.05
  13   6     0.01  -0.00  -0.00     0.07   0.05  -0.16     0.00   0.16  -0.15
  14   6    -0.00   0.01  -0.01    -0.05   0.11  -0.15    -0.01   0.05  -0.16
  15   6     0.00   0.00   0.00     0.03   0.05   0.09     0.08  -0.00   0.07
  16   8     0.00   0.00  -0.00     0.00  -0.00  -0.00     0.00   0.00  -0.00
  17   8    -0.00  -0.00   0.00    -0.00   0.00  -0.00    -0.00  -0.00   0.00
  18   1    -0.00   0.00   0.00    -0.00  -0.00  -0.00    -0.00  -0.00   0.00
  19   1     0.00  -0.00   0.00    -0.00   0.00   0.00    -0.00   0.00  -0.00
  20   1     0.11  -0.00   0.04     0.04   0.01   0.03    -0.01   0.01  -0.00
  21   1     0.09  -0.05  -0.06     0.08  -0.04  -0.03     0.00  -0.00   0.00
  22   1    -0.06  -0.00  -0.01    -0.02  -0.01  -0.02     0.03   0.00   0.01
  23   1    -0.03   0.03   0.03    -0.04   0.01   0.01     0.01  -0.01  -0.01
  24   1    -0.03  -0.03   0.02    -0.03  -0.03   0.02    -0.02  -0.01   0.01
  25   1    -0.14  -0.16   0.08    -0.04   0.00   0.01    -0.01  -0.01   0.00
  26   1     0.48  -0.30   0.43     0.03   0.07  -0.07     0.03  -0.01   0.02
  27   1    -0.06   0.12  -0.14     0.01  -0.01   0.01    -0.01   0.01  -0.01
  28   1     0.03   0.03  -0.01    -0.03  -0.03   0.01    -0.00  -0.00   0.00
  29   1     0.00   0.04  -0.01     0.04   0.23  -0.05     0.01   0.03  -0.00
  30   1     0.00   0.03  -0.01     0.06   0.42  -0.10    -0.01  -0.40   0.11
  31   1    -0.00  -0.04   0.01     0.02  -0.11   0.04     0.07   0.56  -0.15
  32   1    -0.00   0.00  -0.01     0.01  -0.01  -0.00    -0.02  -0.12   0.21
  33   1    -0.00  -0.01   0.02    -0.14  -0.27   0.43    -0.10  -0.15   0.22
  34   1    -0.01  -0.01   0.02    -0.10  -0.24   0.34    -0.04  -0.07   0.07
  35   1    -0.00   0.00  -0.00    -0.04  -0.03  -0.02    -0.10  -0.16   0.21
  36   1    -0.01  -0.00   0.00    -0.09  -0.08   0.01    -0.09  -0.07   0.01
  37   1    -0.00   0.00  -0.00     0.01   0.05  -0.04    -0.04   0.01  -0.02
  38   1    -0.00  -0.00  -0.00    -0.00  -0.02  -0.03     0.03   0.02  -0.04
  39   1     0.00   0.00   0.00     0.00   0.00  -0.00     0.00   0.00   0.00
  40   1     0.00   0.00  -0.00    -0.00  -0.00   0.00     0.00   0.00  -0.00
  41   8    -0.00  -0.00  -0.00    -0.00  -0.00  -0.00    -0.00  -0.00  -0.00
  42   1    -0.00  -0.00   0.00    -0.00   0.00   0.00    -0.00  -0.00   0.00
  43   1     0.00   0.00   0.00     0.00   0.00   0.00     0.00  -0.00   0.00
  44   7    -0.04   0.07  -0.12     0.01  -0.01   0.01     0.00  -0.00  -0.00
  45   6     0.01  -0.02   0.06     0.03   0.02  -0.01     0.00   0.00   0.00
  46   8     0.01  -0.01  -0.01    -0.01   0.01   0.00    -0.00   0.00  -0.00
  47   6    -0.05   0.05  -0.03     0.00  -0.00   0.00    -0.00   0.00  -0.00
  48   6     0.20  -0.22   0.20    -0.02   0.02  -0.02     0.01  -0.01   0.01
  49   8    -0.05  -0.04  -0.06     0.01   0.01   0.01    -0.00  -0.00  -0.00
  50   1    -0.01   0.00  -0.01     0.00  -0.00   0.00     0.00  -0.01   0.00
  51   1    -0.07  -0.02  -0.10     0.02   0.00   0.01    -0.01  -0.00   0.00
  52   1    -0.01  -0.00  -0.03     0.00  -0.00  -0.00    -0.00   0.00  -0.00
  53   7     0.00   0.02  -0.01     0.00  -0.01  -0.00     0.00  -0.00  -0.00
  54   6    -0.02  -0.00  -0.00     0.01  -0.00  -0.00     0.00  -0.00  -0.00
  55   1    -0.01  -0.00   0.00    -0.01   0.00   0.00    -0.00  -0.00   0.00
  56   1     0.01   0.00   0.00    -0.01   0.00   0.00    -0.00   0.00   0.00
  57   1     0.00   0.00   0.00     0.00  -0.00  -0.00    -0.00  -0.00   0.00
                    106                    107                    108
                        a                      a                      a 
 Frequencies --  1309.8597              1327.8556              1342.3632
 Red. masses --     6.3236                10.4435                 5.0448
 Frc consts  --     0.0000                 0.0000                 0.0000
 IR Inten    --     1.0564                 1.6927                19.0401
 Raman Activ --     0.0000                 0.0000                 0.0000
 Depolar     --     0.0000                 0.0000                 0.0000
 Atom AN      X      Y      Z        X      Y      Z        X      Y      Z
   1   7     0.01   0.03   0.01    -0.00  -0.01  -0.00     0.24  -0.11   0.02
   2   6    -0.07  -0.11  -0.17     0.03   0.23   0.30    -0.18   0.04  -0.01
   3   6     0.08   0.04   0.10    -0.35  -0.01  -0.14    -0.05   0.00  -0.01
   4   6    -0.05   0.05   0.08     0.27  -0.13  -0.15     0.02   0.03   0.05
   5   6     0.09  -0.07  -0.18     0.15   0.23   0.33     0.09  -0.01  -0.01
   6   6     0.16   0.03   0.08    -0.26  -0.05  -0.10     0.06  -0.04  -0.04
   7   6    -0.09   0.05   0.04     0.25  -0.22  -0.19    -0.08   0.03   0.01
   8   6    -0.32  -0.14   0.21    -0.15  -0.08   0.04    -0.05  -0.01   0.01
   9   6     0.26   0.15  -0.15     0.06   0.04  -0.07     0.01   0.01  -0.01
  10   6     0.00  -0.00   0.00     0.02   0.01  -0.01    -0.12  -0.13   0.03
  11   6    -0.01  -0.02   0.01     0.01  -0.00  -0.00     0.04   0.05  -0.02
  12   6     0.02  -0.02   0.00    -0.01   0.00   0.00    -0.05   0.12  -0.01
  13   6    -0.00   0.01  -0.01     0.00   0.00   0.00     0.10   0.09  -0.11
  14   6     0.00   0.02  -0.03    -0.00  -0.00   0.00    -0.13  -0.21   0.26
  15   6     0.01   0.00   0.01     0.00  -0.00  -0.00    -0.03  -0.00  -0.08
  16   8     0.00  -0.00  -0.00     0.00   0.00   0.00    -0.00   0.00  -0.00
  17   8    -0.00   0.00  -0.00    -0.00   0.00  -0.00    -0.00  -0.00   0.00
  18   1    -0.00   0.00  -0.00     0.00   0.00  -0.00    -0.00  -0.00   0.00
  19   1    -0.00   0.00   0.00    -0.00   0.00  -0.00     0.01  -0.00   0.00
  20   1     0.01   0.02   0.02    -0.01  -0.02   0.02     0.03   0.01   0.02
  21   1    -0.01   0.04   0.01     0.07  -0.06  -0.03     0.07  -0.03  -0.03
  22   1    -0.05  -0.01  -0.01    -0.12   0.01  -0.07     0.04  -0.01  -0.00
  23   1    -0.09   0.05   0.05    -0.03   0.03  -0.01     0.00  -0.02  -0.01
  24   1     0.25   0.29  -0.17     0.21   0.16  -0.09     0.01   0.02  -0.01
  25   1     0.21   0.14  -0.09    -0.03   0.03   0.02    -0.00   0.01  -0.00
  26   1    -0.26  -0.31   0.24    -0.08  -0.11   0.09    -0.00  -0.02   0.02
  27   1    -0.01   0.01  -0.02     0.00   0.00  -0.00    -0.00   0.01  -0.01
  28   1     0.08   0.08  -0.04     0.02   0.02  -0.01     0.00   0.00  -0.00
  29   1    -0.01  -0.04  -0.01     0.00  -0.02   0.03     0.08   0.48  -0.10
  30   1     0.02   0.08  -0.02    -0.01  -0.03   0.01    -0.03  -0.16   0.05
  31   1     0.01   0.01  -0.00     0.00   0.01  -0.01    -0.04  -0.07   0.02
  32   1     0.01   0.01  -0.00    -0.00  -0.00   0.00    -0.08  -0.12   0.15
  33   1    -0.02  -0.03   0.04     0.00   0.00  -0.00    -0.03  -0.07   0.13
  34   1    -0.01  -0.03   0.04     0.00   0.00  -0.00     0.11   0.20  -0.28
  35   1    -0.01  -0.02   0.02     0.00   0.00   0.00     0.11   0.20  -0.28
  36   1    -0.01  -0.01   0.00     0.00   0.00  -0.00     0.08   0.08  -0.01
  37   1    -0.00   0.00  -0.00    -0.00  -0.00  -0.00     0.04  -0.01   0.01
  38   1     0.00  -0.00  -0.00     0.00   0.00   0.00    -0.00   0.04   0.03
  39   1     0.00  -0.00   0.00     0.00   0.00   0.00     0.00   0.00   0.00
  40   1    -0.00  -0.00   0.00     0.00   0.00  -0.00     0.00   0.00  -0.00
  41   8     0.00  -0.00  -0.00    -0.00   0.00   0.00     0.00  -0.00  -0.00
  42   1    -0.00  -0.00   0.00    -0.00  -0.00  -0.00     0.00   0.00  -0.00
  43   1     0.00   0.00   0.00    -0.00  -0.00  -0.00     0.00   0.00   0.00
  44   7    -0.05   0.02  -0.03    -0.01   0.01  -0.01    -0.00  -0.01   0.00
  45   6    -0.11  -0.07   0.01    -0.03  -0.02   0.00    -0.00  -0.00   0.00
  46   8     0.04  -0.03  -0.00     0.01  -0.01  -0.00     0.00  -0.00  -0.00
  47   6    -0.01   0.01  -0.01    -0.00   0.00  -0.00    -0.01   0.00  -0.01
  48   6     0.05  -0.04   0.06     0.02  -0.01   0.02     0.00  -0.00   0.00
  49   8    -0.01  -0.01  -0.02    -0.01  -0.01  -0.01    -0.00   0.00  -0.00
  50   1    -0.01   0.00  -0.00    -0.00   0.00  -0.00     0.02  -0.00   0.01
  51   1    -0.01  -0.00  -0.02    -0.01  -0.00  -0.01     0.00   0.00   0.01
  52   1    -0.00   0.00  -0.01    -0.00   0.00  -0.00     0.00   0.00   0.02
  53   7    -0.00   0.02   0.00     0.00   0.01   0.00     0.00   0.00  -0.00
  54   6    -0.02   0.02   0.00    -0.01   0.00   0.00    -0.00  -0.00   0.00
  55   1     0.02  -0.00  -0.01     0.01  -0.00  -0.00     0.00   0.00  -0.00
  56   1     0.02  -0.00  -0.00     0.01  -0.00  -0.00     0.00   0.00   0.00
  57   1    -0.00   0.01  -0.00     0.00   0.00   0.00     0.00   0.00  -0.00
                    109                    110                    111
                        a                      a                      a 
 Frequencies --  1356.6814              1382.2723              1393.0454
 Red. masses --     5.2213                 3.1900                 2.6253
 Frc consts  --     0.0000                 0.0000                 0.0000
 IR Inten    --     8.0884                32.3947                 2.4377
 Raman Activ --     0.0000                 0.0000                 0.0000
 Depolar     --     0.0000                 0.0000                 0.0000
 Atom AN      X      Y      Z        X      Y      Z        X      Y      Z
   1   7    -0.22   0.14  -0.02     0.00  -0.00   0.00     0.00  -0.00  -0.00
   2   6     0.15  -0.04  -0.00    -0.00   0.00   0.00    -0.00   0.00   0.00
   3   6     0.05   0.00   0.01    -0.00   0.00   0.00     0.00  -0.00  -0.00
   4   6    -0.01  -0.02  -0.04     0.00   0.00   0.00    -0.00   0.00  -0.00
   5   6    -0.08   0.00   0.01     0.00  -0.00  -0.00    -0.00  -0.00   0.00
   6   6    -0.04   0.03   0.03     0.00  -0.00  -0.00     0.00  -0.00  -0.00
   7   6     0.07  -0.02  -0.01    -0.00   0.00  -0.00    -0.00   0.00  -0.00
   8   6     0.04   0.00  -0.01    -0.00   0.00  -0.00    -0.00   0.00   0.00
   9   6    -0.01   0.00  -0.00     0.01  -0.02   0.01     0.01  -0.00   0.00
  10   6     0.12   0.11  -0.03    -0.00  -0.00   0.00    -0.00  -0.00   0.00
  11   6    -0.04  -0.13   0.03    -0.00  -0.00  -0.00     0.00   0.00  -0.00
  12   6     0.02  -0.16   0.05     0.00   0.00   0.00    -0.00   0.00  -0.00
  13   6     0.08   0.21  -0.20     0.01   0.01  -0.00     0.00   0.00   0.00
  14   6    -0.13  -0.16   0.20    -0.00  -0.01   0.01    -0.00  -0.00   0.00
  15   6    -0.01   0.00  -0.06     0.01   0.01  -0.00     0.00   0.00  -0.00
  16   8    -0.00   0.00   0.00     0.00  -0.00   0.01    -0.00   0.00  -0.00
  17   8    -0.00   0.00  -0.00    -0.00   0.00   0.00     0.00  -0.00   0.00
  18   1     0.00  -0.00  -0.00    -0.00   0.00   0.00     0.00  -0.00   0.00
  19   1     0.00  -0.00  -0.00    -0.00   0.00  -0.01     0.00  -0.00   0.00
  20   1    -0.03  -0.01  -0.01     0.00   0.00   0.00    -0.00  -0.00  -0.00
  21   1    -0.06   0.02   0.02     0.00  -0.00   0.00    -0.00  -0.00  -0.00
  22   1    -0.04   0.01   0.00     0.00  -0.00  -0.00     0.00   0.00  -0.00
  23   1    -0.01   0.02   0.01     0.00  -0.00  -0.00     0.00  -0.00  -0.00
  24   1    -0.00  -0.01   0.00     0.00  -0.00   0.00     0.00   0.00  -0.00
  25   1     0.00  -0.01  -0.00     0.00   0.00  -0.00     0.00  -0.00  -0.00
  26   1     0.00   0.00  -0.00    -0.02   0.02  -0.02    -0.01  -0.01   0.00
  27   1    -0.01   0.01  -0.00     0.01  -0.02   0.02     0.01  -0.02   0.02
  28   1     0.00   0.00  -0.00    -0.00  -0.00   0.00     0.06   0.05  -0.03
  29   1    -0.06  -0.43   0.09     0.00   0.01  -0.00     0.00   0.00  -0.00
  30   1     0.05   0.21  -0.04     0.00   0.00   0.01    -0.00  -0.00   0.00
  31   1     0.05   0.14  -0.03    -0.00  -0.00   0.00    -0.00  -0.00   0.00
  32   1     0.03  -0.07   0.14    -0.01  -0.01   0.01    -0.00  -0.00  -0.00
  33   1    -0.11  -0.19   0.33    -0.01  -0.01   0.01    -0.00  -0.00  -0.00
  34   1     0.09   0.15  -0.20    -0.00   0.01  -0.02     0.00   0.00  -0.00
  35   1     0.08   0.16  -0.24     0.00  -0.00  -0.02     0.00   0.00   0.00
  36   1     0.04   0.06  -0.01    -0.01  -0.00  -0.00    -0.00  -0.00  -0.00
  37   1     0.03  -0.00   0.01    -0.01  -0.00   0.00    -0.00  -0.00   0.00
  38   1     0.00   0.03   0.03    -0.00  -0.01   0.01    -0.00  -0.00   0.00
  39   1    -0.00  -0.00   0.00    -0.00  -0.00  -0.00    -0.00   0.00   0.00
  40   1     0.00  -0.00   0.00    -0.00  -0.00   0.00     0.00   0.00  -0.00
  41   8    -0.00   0.00   0.00    -0.00  -0.00   0.00     0.00   0.00   0.00
  42   1     0.00  -0.00  -0.00     0.00  -0.00  -0.01     0.00   0.00   0.00
  43   1    -0.00  -0.00  -0.00    -0.00   0.00  -0.00    -0.00  -0.00  -0.00
  44   7     0.01  -0.01   0.00    -0.01   0.02  -0.00    -0.02   0.03  -0.02
  45   6     0.00   0.00  -0.00    -0.00   0.00  -0.00    -0.05   0.01   0.01
  46   8    -0.00   0.00  -0.00    -0.00   0.00   0.00     0.04  -0.06  -0.00
  47   6    -0.00   0.00  -0.01     0.30   0.01   0.32    -0.00   0.00   0.00
  48   6    -0.00   0.00   0.00    -0.02   0.03  -0.02     0.02  -0.01   0.02
  49   8     0.00   0.00  -0.00    -0.01  -0.02  -0.01    -0.00  -0.01  -0.01
  50   1     0.01  -0.01   0.01    -0.49   0.03  -0.19    -0.00  -0.00  -0.00
  51   1     0.00   0.00   0.01    -0.31  -0.12  -0.30    -0.00  -0.00  -0.00
  52   1     0.00  -0.00   0.01    -0.16   0.06  -0.54    -0.00  -0.00  -0.01
  53   7    -0.00  -0.00   0.00     0.00   0.00  -0.00     0.04   0.03  -0.01
  54   6     0.00   0.00  -0.00    -0.00  -0.00   0.00     0.34   0.04  -0.11
  55   1     0.00  -0.00   0.00     0.00  -0.00  -0.00    -0.43   0.12   0.20
  56   1     0.00  -0.00  -0.00     0.00  -0.00  -0.00    -0.48   0.09   0.04
  57   1    -0.00  -0.00   0.00     0.01   0.00  -0.00    -0.48  -0.32   0.19
                    112                    113                    114
                        a                      a                      a 
 Frequencies --  1413.1695              1416.3064              1420.3916
 Red. masses --     9.9005                 3.2619                 9.7440
 Frc consts  --     0.0000                 0.0000                 0.0000
 IR Inten    --    18.1871                 5.8328               194.8702
 Raman Activ --     0.0000                 0.0000                 0.0000
 Depolar     --     0.0000                 0.0000                 0.0000
 Atom AN      X      Y      Z        X      Y      Z        X      Y      Z
   1   7     0.05   0.01   0.04     0.01  -0.00   0.00     0.01  -0.00   0.01
   2   6    -0.09  -0.19  -0.28    -0.01  -0.01  -0.02    -0.03  -0.03  -0.04
   3   6    -0.31   0.14   0.11    -0.02   0.01   0.01    -0.05   0.03   0.03
   4   6     0.37  -0.04   0.04     0.03  -0.00   0.00     0.08  -0.02  -0.01
   5   6    -0.05  -0.18  -0.26    -0.00  -0.01  -0.02    -0.01  -0.03  -0.05
   6   6    -0.35   0.11   0.07    -0.02   0.01   0.01    -0.05   0.02   0.02
   7   6     0.36  -0.01   0.07     0.02  -0.00   0.00     0.06  -0.01   0.00
   8   6     0.02   0.05   0.05    -0.00   0.01   0.00    -0.01   0.05   0.01
   9   6    -0.02   0.03  -0.01     0.01  -0.02   0.01     0.05  -0.16   0.10
  10   6    -0.02   0.00   0.00    -0.00  -0.00   0.00    -0.01   0.01   0.00
  11   6    -0.00   0.00   0.01    -0.00   0.01  -0.00     0.00  -0.01   0.00
  12   6     0.00  -0.00   0.00    -0.00  -0.00  -0.00    -0.00   0.01   0.00
  13   6    -0.00  -0.00   0.00     0.01   0.00   0.01     0.01   0.01  -0.00
  14   6     0.00   0.00  -0.00    -0.01  -0.03   0.06    -0.00  -0.00  -0.01
  15   6    -0.01  -0.01   0.01     0.27   0.30  -0.15    -0.04  -0.04   0.02
  16   8     0.00   0.00  -0.00    -0.00   0.00  -0.00    -0.00   0.00  -0.00
  17   8    -0.00   0.00  -0.00     0.00  -0.00   0.00     0.00  -0.00   0.00
  18   1    -0.01   0.01   0.01    -0.00   0.00   0.00    -0.00   0.00   0.00
  19   1    -0.00   0.00   0.00     0.00  -0.00   0.00     0.01  -0.00   0.01
  20   1     0.13   0.06   0.13     0.01   0.00   0.01     0.01   0.01   0.02
  21   1    -0.10   0.11   0.14    -0.01   0.01   0.01    -0.04   0.03   0.03
  22   1     0.18   0.07   0.12     0.01   0.00   0.01     0.03   0.01   0.02
  23   1    -0.08   0.11   0.13    -0.01   0.01   0.01    -0.02   0.02   0.03
  24   1    -0.11  -0.04   0.03    -0.00  -0.01   0.01     0.03  -0.03   0.05
  25   1     0.06  -0.00  -0.03     0.01  -0.01  -0.01     0.05  -0.06  -0.04
  26   1     0.03  -0.01   0.02    -0.01   0.01  -0.02    -0.09   0.09  -0.14
  27   1    -0.04   0.04  -0.05     0.03  -0.04   0.04     0.22  -0.26   0.27
  28   1    -0.01  -0.01   0.00     0.01   0.00  -0.00     0.04   0.03  -0.02
  29   1     0.00   0.03  -0.04     0.00   0.01  -0.00    -0.00   0.01  -0.01
  30   1     0.00   0.01  -0.01    -0.00  -0.00  -0.00     0.00  -0.00   0.00
  31   1    -0.00  -0.01  -0.00    -0.00  -0.01   0.00    -0.00   0.00  -0.00
  32   1     0.00  -0.00   0.00     0.01   0.00   0.00    -0.02  -0.00  -0.00
  33   1     0.00   0.00  -0.00     0.01   0.02  -0.00    -0.01  -0.02  -0.00
  34   1    -0.00  -0.00   0.00    -0.04   0.04  -0.07     0.02  -0.00   0.01
  35   1    -0.00  -0.00   0.00     0.01  -0.01  -0.09     0.00   0.02   0.02
  36   1     0.02   0.01   0.00    -0.38  -0.33  -0.05     0.05   0.05   0.01
  37   1     0.02   0.01  -0.01    -0.35  -0.22   0.28     0.04   0.03  -0.04
  38   1     0.01   0.02  -0.01    -0.16  -0.43   0.23     0.02   0.06  -0.03
  39   1     0.00  -0.00  -0.00     0.00   0.00   0.00     0.00   0.00   0.00
  40   1    -0.00  -0.00   0.00     0.00   0.00  -0.00     0.00   0.00  -0.00
  41   8    -0.00  -0.01  -0.01     0.00  -0.00  -0.00     0.00  -0.00  -0.00
  42   1    -0.00  -0.00   0.00     0.00   0.00  -0.00     0.00   0.00   0.00
  43   1     0.01   0.01   0.01     0.00   0.00   0.00     0.00   0.00   0.00
  44   7     0.05  -0.10   0.05    -0.03   0.06  -0.03    -0.25   0.49  -0.24
  45   6    -0.01  -0.01   0.00     0.01   0.01  -0.00     0.06   0.04  -0.02
  46   8     0.00  -0.00  -0.00    -0.00   0.00   0.00    -0.02   0.02   0.00
  47   6     0.02  -0.01   0.01    -0.02  -0.00  -0.01    -0.07   0.05  -0.06
  48   6    -0.06   0.06  -0.06     0.03  -0.04   0.04     0.29  -0.31   0.28
  49   8     0.01   0.01   0.01    -0.01  -0.01  -0.01    -0.06  -0.05  -0.07
  50   1     0.00   0.00   0.00     0.02   0.02  -0.00    -0.02  -0.02   0.00
  51   1    -0.00  -0.00   0.01     0.01  -0.00  -0.02     0.00   0.00  -0.05
  52   1    -0.01   0.01   0.00     0.01   0.00   0.03     0.02  -0.06  -0.02
  53   7     0.01   0.02  -0.01    -0.01  -0.01   0.00    -0.04  -0.07   0.02
  54   6     0.00  -0.01   0.00    -0.00   0.01  -0.00    -0.00   0.03  -0.00
  55   1    -0.01   0.01  -0.00     0.01  -0.01   0.00     0.04  -0.03   0.01
  56   1    -0.01   0.01   0.00     0.01  -0.01  -0.00     0.03  -0.04  -0.02
  57   1    -0.00  -0.00   0.00     0.00   0.00  -0.00     0.01   0.01  -0.00
                    115                    116                    117
                        a                      a                      a 
 Frequencies --  1435.4561              1458.3249              1462.9268
 Red. masses --     8.4891                 1.6882                 1.5690
 Frc consts  --     0.0000                 0.0000                 0.0000
 IR Inten    --   203.4403                10.4528                10.9673
 Raman Activ --     0.0000                 0.0000                 0.0000
 Depolar     --     0.0000                 0.0000                 0.0000
 Atom AN      X      Y      Z        X      Y      Z        X      Y      Z
   1   7     0.00   0.00   0.00     0.00  -0.00   0.00     0.00  -0.00   0.00
   2   6     0.00  -0.00  -0.00     0.00  -0.00  -0.00    -0.00   0.00   0.00
   3   6    -0.01  -0.00  -0.00    -0.00   0.00  -0.00     0.00  -0.00  -0.00
   4   6     0.00   0.00   0.00    -0.00   0.00   0.00    -0.00  -0.00  -0.00
   5   6     0.01  -0.00  -0.00     0.00  -0.00  -0.00    -0.00   0.00   0.00
   6   6    -0.00  -0.00  -0.00    -0.00  -0.00  -0.00     0.00   0.00   0.00
   7   6    -0.00   0.00   0.00     0.00   0.00   0.00     0.00  -0.00  -0.00
   8   6    -0.01  -0.01   0.01     0.00  -0.01   0.00    -0.00   0.00   0.00
   9   6    -0.04   0.01   0.00    -0.00   0.02  -0.00    -0.00   0.00  -0.00
  10   6    -0.00  -0.00   0.00    -0.00   0.00  -0.00    -0.00   0.00  -0.00
  11   6    -0.00   0.00  -0.00     0.00  -0.00  -0.00     0.00  -0.00   0.00
  12   6     0.00  -0.00   0.00    -0.00   0.00   0.00    -0.00   0.00   0.00
  13   6    -0.00  -0.00   0.00     0.01   0.01   0.01     0.01   0.00   0.00
  14   6     0.00   0.00  -0.00    -0.01  -0.01  -0.01    -0.00  -0.00  -0.00
  15   6    -0.00  -0.00   0.00     0.01   0.01  -0.01     0.00  -0.00  -0.00
  16   8    -0.00  -0.00   0.00    -0.00   0.00   0.00    -0.00   0.00  -0.00
  17   8     0.00  -0.00   0.00    -0.00   0.00   0.00    -0.00  -0.00   0.00
  18   1     0.00  -0.00   0.00    -0.00   0.00   0.00    -0.00   0.00   0.00
  19   1     0.00  -0.00  -0.00     0.01  -0.01   0.00     0.00  -0.00   0.00
  20   1     0.01   0.00   0.00     0.00  -0.00   0.00    -0.00  -0.00  -0.00
  21   1     0.00  -0.00  -0.00     0.00  -0.00  -0.00    -0.00   0.00   0.00
  22   1     0.00  -0.00   0.00    -0.00   0.00  -0.00    -0.00  -0.00  -0.00
  23   1     0.00  -0.00  -0.00     0.00  -0.00  -0.00    -0.00   0.00  -0.00
  24   1    -0.01   0.01  -0.01    -0.01   0.00  -0.01     0.00  -0.00   0.00
  25   1    -0.01   0.02   0.01    -0.01   0.01   0.01     0.00  -0.00  -0.00
  26   1     0.01  -0.03   0.03     0.01  -0.01   0.02     0.00  -0.00   0.00
  27   1    -0.03   0.03  -0.04    -0.03   0.04  -0.04    -0.00   0.00  -0.00
  28   1     0.36   0.30  -0.15     0.01   0.01  -0.00     0.00   0.00  -0.00
  29   1     0.00   0.00  -0.00    -0.00   0.00  -0.00    -0.00  -0.00   0.00
  30   1    -0.00   0.00  -0.00    -0.00  -0.00   0.01     0.00   0.00  -0.00
  31   1     0.00  -0.00  -0.00    -0.00  -0.00   0.00    -0.00   0.00  -0.00
  32   1    -0.00   0.00  -0.00    -0.03   0.00  -0.01    -0.02   0.00  -0.01
  33   1     0.00   0.00  -0.00    -0.00  -0.02  -0.03    -0.00  -0.01  -0.01
  34   1    -0.00  -0.00   0.00     0.03   0.00   0.01     0.01  -0.00   0.00
  35   1    -0.00  -0.00   0.00     0.00   0.03   0.02     0.00   0.01   0.01
  36   1     0.00   0.00   0.00    -0.02  -0.03  -0.00    -0.00   0.00   0.00
  37   1     0.00   0.00  -0.00     0.00  -0.02   0.03    -0.00   0.00  -0.00
  38   1     0.00   0.00  -0.00    -0.01  -0.01   0.02    -0.00  -0.00   0.00
  39   1    -0.00  -0.00  -0.00     0.00  -0.00   0.00     0.00   0.00   0.00
  40   1    -0.00   0.00  -0.00     0.00   0.00  -0.00     0.00   0.00  -0.00
  41   8    -0.00   0.00   0.00    -0.00  -0.00  -0.00    -0.00  -0.00  -0.00
  42   1     0.00   0.00  -0.00     0.00   0.00  -0.00     0.00   0.00  -0.00
  43   1    -0.00  -0.00  -0.00     0.00   0.00   0.00     0.00   0.00   0.00
  44   7     0.03  -0.07   0.03     0.01  -0.01   0.01     0.00  -0.00   0.00
  45   6     0.34   0.17  -0.11    -0.00  -0.00   0.00     0.00   0.00   0.00
  46   8    -0.11   0.10   0.02     0.00  -0.00  -0.00     0.00   0.00   0.00
  47   6     0.02  -0.01   0.02    -0.04   0.22  -0.06    -0.02   0.00   0.02
  48   6    -0.05   0.06  -0.05    -0.01  -0.02  -0.03    -0.00   0.00   0.00
  49   8     0.01   0.00   0.01     0.02   0.04   0.03     0.00   0.00   0.00
  50   1     0.01   0.00   0.00    -0.30  -0.52   0.15    -0.02   0.03  -0.02
  51   1    -0.00  -0.00   0.01     0.23   0.12   0.32     0.06   0.00  -0.05
  52   1    -0.01   0.02  -0.00     0.16  -0.49  -0.31     0.02  -0.05   0.01
  53   7    -0.36  -0.44   0.16    -0.00  -0.00  -0.00     0.00   0.00   0.03
  54   6     0.10   0.23  -0.07    -0.00   0.00  -0.00     0.06   0.03   0.21
  55   1     0.09  -0.19   0.16     0.01  -0.01   0.00    -0.35   0.28  -0.02
  56   1     0.00  -0.23  -0.12    -0.01  -0.00  -0.00     0.31  -0.31  -0.13
  57   1    -0.05   0.00   0.02     0.00   0.00   0.01    -0.20  -0.10  -0.69
                    118                    119                    120
                        a                      a                      a 
 Frequencies --  1464.1292              1474.0458              1476.1719
 Red. masses --     1.6467                 2.1186                 2.3027
 Frc consts  --     0.0000                 0.0000                 0.0000
 IR Inten    --     9.8621                 5.4339                 1.0704
 Raman Activ --     0.0000                 0.0000                 0.0000
 Depolar     --     0.0000                 0.0000                 0.0000
 Atom AN      X      Y      Z        X      Y      Z        X      Y      Z
   1   7    -0.00  -0.00   0.00     0.00  -0.02   0.00     0.02  -0.00   0.00
   2   6     0.00  -0.00  -0.00     0.02  -0.01  -0.00    -0.07   0.03   0.01
   3   6     0.00   0.00   0.00    -0.02  -0.00  -0.01     0.05   0.01   0.04
   4   6    -0.00  -0.00  -0.00    -0.01   0.01   0.02     0.02  -0.03  -0.04
   5   6    -0.00  -0.00   0.00     0.03  -0.00  -0.00    -0.04   0.03   0.00
   6   6    -0.00   0.00   0.00    -0.01  -0.01  -0.01     0.06   0.02   0.04
   7   6     0.00  -0.00  -0.00    -0.02   0.02   0.02     0.02  -0.04  -0.05
   8   6     0.01  -0.01   0.00    -0.01  -0.00   0.00    -0.20   0.20  -0.04
   9   6    -0.00   0.01  -0.01     0.00  -0.00   0.00    -0.02   0.03  -0.02
  10   6    -0.00   0.01  -0.00    -0.00  -0.00   0.00     0.00  -0.01   0.00
  11   6     0.01  -0.02   0.00    -0.01   0.05  -0.01     0.00   0.00   0.00
  12   6    -0.01   0.00   0.01     0.02  -0.01  -0.02     0.00   0.01  -0.00
  13   6     0.05   0.04   0.03    -0.21  -0.17  -0.13    -0.00  -0.00  -0.00
  14   6    -0.04  -0.03  -0.03    -0.02  -0.02  -0.01    -0.00  -0.00  -0.00
  15   6     0.01  -0.01  -0.00     0.01   0.00   0.01     0.00   0.00  -0.00
  16   8    -0.01   0.00  -0.00    -0.00   0.00  -0.00    -0.00  -0.00  -0.00
  17   8    -0.00  -0.00   0.00    -0.00  -0.00   0.00    -0.00   0.00  -0.00
  18   1    -0.00   0.00   0.00    -0.00   0.00   0.00     0.00  -0.00  -0.00
  19   1     0.01  -0.01   0.00     0.01  -0.00   0.00    -0.00   0.00   0.00
  20   1    -0.00  -0.00  -0.00     0.02  -0.00   0.01    -0.05   0.00  -0.02
  21   1    -0.00   0.00   0.00     0.02  -0.01  -0.01    -0.05   0.02   0.02
  22   1    -0.00   0.00   0.00     0.02   0.00   0.00    -0.08  -0.01  -0.02
  23   1    -0.00   0.00   0.00     0.01  -0.01  -0.01    -0.04   0.02   0.01
  24   1    -0.01   0.01  -0.02    -0.01   0.00  -0.00     0.42  -0.26   0.45
  25   1    -0.01   0.02   0.01    -0.00   0.01   0.00     0.27  -0.52  -0.28
  26   1     0.00  -0.00   0.01    -0.00  -0.00   0.00     0.01  -0.01   0.01
  27   1    -0.01   0.01  -0.01     0.00  -0.00   0.00    -0.03   0.04  -0.04
  28   1     0.00   0.00  -0.00     0.00   0.00  -0.00     0.00   0.00  -0.00
  29   1    -0.00  -0.01   0.00     0.00   0.02  -0.00     0.00   0.01  -0.00
  30   1     0.00   0.00  -0.00    -0.02  -0.04   0.02     0.00  -0.00   0.00
  31   1    -0.00   0.01  -0.01     0.00  -0.02   0.02    -0.00  -0.00   0.00
  32   1    -0.15   0.00  -0.05     0.61  -0.01   0.19     0.01  -0.00   0.00
  33   1    -0.02  -0.13  -0.09     0.09   0.53   0.37     0.00   0.01   0.00
  34   1     0.13  -0.00   0.04     0.05   0.00   0.01     0.00  -0.00   0.00
  35   1     0.02   0.11   0.09     0.01   0.04   0.02     0.00   0.00   0.00
  36   1    -0.02   0.03   0.01     0.02   0.03   0.00    -0.00   0.00   0.00
  37   1    -0.01   0.01  -0.02    -0.04   0.02  -0.04    -0.00   0.00  -0.00
  38   1    -0.00  -0.01   0.02    -0.00  -0.03  -0.04    -0.00  -0.00   0.00
  39   1     0.00   0.00   0.00     0.00   0.00   0.00     0.00  -0.00  -0.00
  40   1     0.00   0.00  -0.00     0.00   0.00  -0.00    -0.00  -0.00   0.00
  41   8    -0.00  -0.00  -0.00     0.00  -0.00  -0.00     0.00   0.00   0.00
  42   1     0.00   0.00  -0.00     0.00   0.00   0.00    -0.00  -0.00  -0.00
  43   1     0.00   0.00   0.00     0.00   0.00   0.00    -0.00  -0.00  -0.00
  44   7     0.02  -0.03   0.01    -0.00   0.01  -0.00     0.03  -0.05   0.03
  45   6     0.00  -0.00   0.00     0.00   0.00   0.00    -0.00   0.01   0.00
  46   8    -0.00   0.00  -0.00    -0.00  -0.00  -0.00     0.01  -0.01  -0.00
  47   6    -0.13   0.00   0.16    -0.03   0.02   0.04     0.00   0.00   0.01
  48   6    -0.05   0.03  -0.00     0.00  -0.00   0.01    -0.03   0.03  -0.03
  49   8     0.00   0.00   0.01    -0.00  -0.00  -0.00     0.01   0.01   0.01
  50   1    -0.12   0.36  -0.22    -0.05   0.06  -0.05    -0.01   0.01  -0.00
  51   1     0.50  -0.00  -0.46     0.13   0.00  -0.10     0.02   0.00  -0.01
  52   1     0.20  -0.38   0.09     0.05  -0.12  -0.00     0.01  -0.02   0.00
  53   7    -0.00  -0.00  -0.00    -0.00  -0.00  -0.00     0.00   0.00  -0.00
  54   6    -0.01  -0.00  -0.02     0.00   0.00  -0.00     0.00   0.01  -0.00
  55   1     0.04  -0.03   0.00    -0.00  -0.00   0.00     0.00  -0.02   0.02
  56   1    -0.04   0.03   0.01    -0.00  -0.01  -0.00    -0.01  -0.02  -0.01
  57   1     0.02   0.01   0.08     0.00   0.00   0.00     0.01   0.00   0.00
                    121                    122                    123
                        a                      a                      a 
 Frequencies --  1483.8088              1485.2386              1495.1420
 Red. masses --     9.4026                 2.4978                 1.8447
 Frc consts  --     0.0000                 0.0000                 0.0000
 IR Inten    --    42.9192                24.0883                 0.9236
 Raman Activ --     0.0000                 0.0000                 0.0000
 Depolar     --     0.0000                 0.0000                 0.0000
 Atom AN      X      Y      Z        X      Y      Z        X      Y      Z
   1   7    -0.09   0.02  -0.01    -0.00  -0.00  -0.00     0.00   0.00   0.00
   2   6     0.40  -0.12   0.02     0.00  -0.00  -0.00    -0.00   0.00  -0.00
   3   6    -0.30  -0.06  -0.20     0.00  -0.00  -0.00     0.00   0.00   0.00
   4   6    -0.10   0.15   0.21    -0.00   0.00   0.00     0.00  -0.00  -0.00
   5   6     0.39  -0.06  -0.06    -0.00  -0.00   0.00    -0.00   0.00   0.00
   6   6    -0.18  -0.10  -0.16    -0.00  -0.00  -0.00     0.00   0.00   0.00
   7   6    -0.20   0.19   0.19    -0.00   0.00   0.00     0.00  -0.00  -0.00
   8   6    -0.16   0.05   0.01     0.01  -0.01  -0.00     0.00  -0.00   0.00
   9   6    -0.00  -0.01   0.00     0.01   0.00  -0.01     0.00  -0.00   0.00
  10   6    -0.00   0.05  -0.00    -0.00   0.00  -0.00     0.00  -0.00  -0.00
  11   6    -0.01   0.00  -0.00     0.00  -0.00   0.00    -0.00  -0.00  -0.00
  12   6    -0.00  -0.03   0.01    -0.00   0.00   0.00    -0.00  -0.00   0.00
  13   6     0.02   0.02   0.01     0.00   0.00   0.00     0.01   0.01  -0.00
  14   6     0.00   0.00   0.00     0.00   0.00   0.00     0.19   0.13   0.14
  15   6    -0.00  -0.00  -0.00    -0.00   0.00  -0.00    -0.03  -0.03  -0.00
  16   8    -0.00   0.00   0.00     0.00   0.00   0.00    -0.00   0.00  -0.00
  17   8     0.00  -0.00   0.00    -0.00   0.00  -0.00    -0.00   0.00  -0.00
  18   1    -0.00   0.00   0.01    -0.00   0.00   0.00    -0.00   0.00  -0.00
  19   1     0.00  -0.00  -0.00    -0.00   0.00  -0.00     0.00  -0.00   0.00
  20   1     0.23  -0.01   0.08     0.00  -0.00   0.00    -0.00   0.00  -0.00
  21   1     0.19  -0.08  -0.07     0.00  -0.00  -0.00    -0.00   0.00   0.00
  22   1     0.21   0.01   0.04     0.00   0.00   0.00    -0.00  -0.00  -0.00
  23   1     0.19  -0.10  -0.08     0.00  -0.00  -0.00    -0.00   0.00   0.00
  24   1     0.06  -0.04   0.09    -0.02   0.01  -0.02    -0.00   0.00  -0.00
  25   1     0.03  -0.10  -0.06    -0.01   0.02   0.01    -0.00   0.00   0.00
  26   1    -0.00  -0.00   0.00     0.00   0.00  -0.00    -0.00  -0.00   0.00
  27   1     0.00  -0.00   0.00     0.00  -0.00   0.00     0.00  -0.00   0.00
  28   1    -0.00  -0.00   0.00    -0.14  -0.10   0.06     0.00   0.00  -0.00
  29   1    -0.01  -0.04   0.01    -0.00  -0.00   0.00     0.00   0.00  -0.00
  30   1    -0.00   0.00   0.00     0.00   0.00  -0.00    -0.00  -0.00   0.00
  31   1     0.01   0.01  -0.00    -0.00   0.00  -0.00    -0.00  -0.00   0.00
  32   1    -0.04   0.00  -0.02    -0.00  -0.00  -0.00     0.02  -0.00   0.02
  33   1    -0.01  -0.04  -0.02    -0.00  -0.00  -0.00     0.00   0.01   0.03
  34   1    -0.01  -0.00  -0.00    -0.01   0.00  -0.00    -0.62   0.03  -0.21
  35   1    -0.00  -0.01  -0.01    -0.00  -0.01  -0.01    -0.09  -0.50  -0.40
  36   1    -0.00  -0.00   0.00    -0.00  -0.00  -0.00    -0.01  -0.01   0.00
  37   1     0.01  -0.00   0.00     0.00  -0.00   0.00     0.12   0.01   0.02
  38   1     0.00   0.00   0.01     0.00   0.00   0.00     0.02   0.10   0.06
  39   1    -0.00   0.01   0.00     0.00  -0.00  -0.00     0.00  -0.00  -0.00
  40   1     0.00   0.01  -0.01     0.00  -0.00   0.00    -0.00  -0.00   0.00
  41   8    -0.00  -0.00  -0.00     0.00  -0.00  -0.00     0.00  -0.00  -0.00
  42   1     0.00   0.00  -0.00    -0.00  -0.00  -0.00     0.00   0.00   0.00
  43   1     0.00   0.00   0.00     0.00   0.00   0.00     0.00   0.00   0.00
  44   7    -0.00   0.01  -0.00     0.00   0.00   0.00    -0.00   0.00  -0.00
  45   6    -0.00  -0.00  -0.00    -0.14  -0.05   0.04     0.00   0.00  -0.00
  46   8     0.00   0.00  -0.00     0.05  -0.06  -0.01    -0.00   0.00   0.00
  47   6    -0.00   0.00  -0.00    -0.00  -0.00  -0.00    -0.04   0.01   0.03
  48   6     0.01  -0.00   0.01     0.00  -0.00   0.01    -0.00  -0.01   0.01
  49   8    -0.00  -0.00  -0.00    -0.00   0.00  -0.00     0.00   0.00   0.00
  50   1     0.00   0.00   0.00     0.00   0.00  -0.00    -0.04   0.05  -0.04
  51   1    -0.00   0.00   0.00    -0.00  -0.00  -0.00     0.14   0.01  -0.09
  52   1    -0.00   0.00   0.00    -0.00   0.00   0.00     0.06  -0.12   0.01
  53   7     0.01   0.00  -0.00     0.14   0.21  -0.07    -0.00  -0.00   0.00
  54   6    -0.00  -0.00   0.00    -0.01   0.15  -0.02     0.00  -0.00  -0.00
  55   1     0.00  -0.00  -0.00    -0.07  -0.42   0.46     0.00   0.00  -0.00
  56   1    -0.00   0.00   0.00    -0.27  -0.52  -0.23     0.00   0.01   0.00
  57   1     0.00   0.00   0.00     0.20   0.14  -0.08    -0.00  -0.00   0.00
                    124                    125                    126
                        a                      a                      a 
 Frequencies --  1500.8456              1505.5125              1529.7528
 Red. masses --     1.5264                 1.6124                 2.0511
 Frc consts  --     0.0000                 0.0000                 0.0000
 IR Inten    --     2.7086                 2.0101                92.4734
 Raman Activ --     0.0000                 0.0000                 0.0000
 Depolar     --     0.0000                 0.0000                 0.0000
 Atom AN      X      Y      Z        X      Y      Z        X      Y      Z
   1   7     0.00   0.00  -0.00    -0.00   0.00  -0.00    -0.01  -0.01   0.01
   2   6    -0.00   0.00  -0.00     0.00  -0.00   0.00     0.00  -0.01  -0.01
   3   6     0.00   0.00   0.00    -0.00  -0.00  -0.00    -0.01  -0.00  -0.00
   4   6     0.00  -0.00  -0.00     0.00   0.00   0.00    -0.00   0.01   0.01
   5   6    -0.00   0.00   0.00     0.00  -0.00  -0.00     0.00  -0.01  -0.01
   6   6     0.00   0.00   0.00    -0.00   0.00   0.00    -0.01   0.01   0.01
   7   6    -0.00  -0.00  -0.00    -0.00   0.00   0.00     0.01  -0.00  -0.00
   8   6     0.00  -0.00  -0.00    -0.00   0.00   0.00    -0.00   0.00   0.00
   9   6     0.00  -0.00   0.00    -0.00   0.00  -0.00    -0.00  -0.00   0.00
  10   6    -0.00  -0.00   0.00     0.00  -0.00  -0.00     0.00   0.01  -0.00
  11   6    -0.00   0.01  -0.00     0.00  -0.00   0.00    -0.00  -0.01   0.00
  12   6    -0.00  -0.00   0.00     0.00  -0.00   0.00    -0.00   0.01  -0.00
  13   6    -0.00   0.00   0.00     0.02   0.02  -0.00    -0.00  -0.00   0.00
  14   6     0.03  -0.03  -0.01     0.04   0.01   0.08    -0.00  -0.00   0.00
  15   6     0.13  -0.15  -0.05     0.09   0.02   0.19     0.00   0.00   0.00
  16   8     0.00  -0.00  -0.00    -0.00   0.00  -0.00     0.01   0.00   0.00
  17   8     0.00   0.00  -0.00    -0.00  -0.00   0.00    -0.01  -0.07   0.01
  18   1     0.00  -0.00  -0.00    -0.00   0.00   0.00     0.50  -0.25  -0.43
  19   1    -0.00   0.00  -0.00     0.00  -0.00   0.00    -0.02   0.01  -0.01
  20   1    -0.00   0.00  -0.00     0.00  -0.00   0.00     0.01   0.00   0.00
  21   1    -0.00   0.00   0.00     0.00  -0.00  -0.00     0.00  -0.00   0.00
  22   1    -0.00  -0.00  -0.00    -0.00   0.00  -0.00     0.00   0.00   0.00
  23   1    -0.00   0.00   0.00     0.00  -0.00  -0.00    -0.02   0.01   0.01
  24   1    -0.00   0.00  -0.00     0.00  -0.00   0.00    -0.00  -0.00   0.00
  25   1    -0.00   0.00   0.00     0.00  -0.00  -0.00     0.00   0.00  -0.00
  26   1    -0.00   0.00  -0.00     0.00  -0.00   0.00     0.00  -0.00   0.00
  27   1     0.00  -0.00   0.00    -0.00   0.00  -0.00    -0.00   0.00   0.00
  28   1    -0.00  -0.00   0.00    -0.00  -0.00  -0.00    -0.00  -0.00   0.00
  29   1     0.00   0.00  -0.00     0.00  -0.00   0.00     0.00   0.02  -0.00
  30   1    -0.00  -0.00   0.00     0.00   0.00  -0.00    -0.00  -0.00   0.00
  31   1    -0.00  -0.00  -0.00     0.00   0.00  -0.00    -0.00  -0.00  -0.00
  32   1    -0.00  -0.01   0.01    -0.05  -0.00  -0.02    -0.00  -0.00   0.00
  33   1     0.01   0.01  -0.02    -0.01  -0.05  -0.03     0.00   0.00  -0.00
  34   1    -0.02  -0.02   0.00    -0.09   0.03  -0.05     0.00  -0.00  -0.00
  35   1     0.02   0.02   0.00     0.00  -0.06  -0.09     0.00   0.00  -0.00
  36   1    -0.48   0.50   0.16     0.22   0.23   0.04    -0.00  -0.00  -0.00
  37   1     0.02   0.24  -0.40    -0.53   0.12  -0.34    -0.00   0.00  -0.00
  38   1    -0.10  -0.11   0.45    -0.04  -0.41  -0.48    -0.00  -0.00  -0.00
  39   1     0.00  -0.00  -0.00     0.00   0.00   0.00    -0.01   0.20   0.08
  40   1    -0.00  -0.00   0.00     0.00   0.00  -0.00     0.04   0.11  -0.14
  41   8     0.00   0.00   0.00     0.00  -0.00  -0.00    -0.05   0.16   0.19
  42   1    -0.00  -0.00   0.00     0.00   0.00  -0.00    -0.02  -0.01  -0.00
  43   1    -0.00  -0.00  -0.00     0.00   0.00   0.00    -0.26  -0.40  -0.35
  44   7    -0.00   0.00  -0.00     0.00  -0.00   0.00     0.00  -0.00   0.00
  45   6    -0.00  -0.00   0.00    -0.00  -0.00   0.00    -0.00  -0.00   0.00
  46   8     0.00  -0.00  -0.00     0.00  -0.00  -0.00     0.00   0.00   0.00
  47   6     0.01  -0.00  -0.01    -0.00   0.01  -0.00    -0.00   0.00   0.00
  48   6    -0.00  -0.00  -0.00    -0.00   0.00  -0.00     0.00   0.00   0.00
  49   8     0.00   0.00   0.00     0.00   0.00   0.00    -0.00  -0.00  -0.00
  50   1     0.01  -0.02   0.01    -0.01  -0.02   0.01    -0.00  -0.00  -0.00
  51   1    -0.02   0.00   0.03     0.01   0.01   0.01     0.00   0.00  -0.00
  52   1    -0.01   0.02  -0.00     0.01  -0.02  -0.00     0.00  -0.00  -0.00
  53   7     0.00   0.00  -0.00     0.00   0.00  -0.00     0.00   0.00  -0.00
  54   6    -0.00  -0.00   0.00    -0.00   0.00  -0.00    -0.00  -0.00   0.00
  55   1    -0.00   0.00  -0.00     0.00  -0.00   0.00    -0.00  -0.00   0.00
  56   1     0.00  -0.00  -0.00    -0.00  -0.00  -0.00    -0.00  -0.00  -0.00
  57   1     0.00   0.00  -0.00     0.00   0.00   0.00     0.00   0.00  -0.00
                    127                    128                    129
                        a                      a                      a 
 Frequencies --  1545.3859              1567.6088              1568.6874
 Red. masses --     2.1132                 4.3021                 9.4001
 Frc consts  --     0.0000                 0.0000                 0.0000
 IR Inten    --   173.7763               129.9548                43.3289
 Raman Activ --     0.0000                 0.0000                 0.0000
 Depolar     --     0.0000                 0.0000                 0.0000
 Atom AN      X      Y      Z        X      Y      Z        X      Y      Z
   1   7    -0.01  -0.00   0.00     0.00   0.00   0.01    -0.01  -0.01  -0.02
   2   6     0.01  -0.01  -0.00    -0.03  -0.13  -0.19     0.06   0.25   0.34
   3   6     0.01  -0.00   0.00     0.09   0.05   0.11    -0.16  -0.10  -0.19
   4   6    -0.01   0.00   0.00     0.03  -0.08  -0.12    -0.07   0.16   0.22
   5   6     0.01   0.00   0.00     0.06   0.14   0.21    -0.09  -0.26  -0.39
   6   6    -0.01  -0.00  -0.01    -0.10  -0.07  -0.12     0.17   0.13   0.21
   7   6     0.00   0.00   0.00    -0.04   0.09   0.11     0.09  -0.18  -0.21
   8   6    -0.00   0.00  -0.00    -0.01  -0.01  -0.02     0.02   0.02   0.03
   9   6    -0.00  -0.00   0.00    -0.00   0.00  -0.00     0.00   0.00   0.00
  10   6     0.00   0.00  -0.00    -0.00   0.00   0.00     0.01   0.00  -0.00
  11   6    -0.00  -0.00   0.00    -0.00  -0.00   0.00     0.00  -0.01  -0.00
  12   6    -0.00   0.00  -0.00     0.00   0.00  -0.00    -0.00   0.01  -0.00
  13   6     0.00  -0.00   0.00    -0.00   0.00   0.00    -0.00  -0.00   0.00
  14   6    -0.00  -0.00   0.00     0.00  -0.00  -0.00     0.00  -0.00  -0.00
  15   6     0.00  -0.00  -0.00    -0.00   0.00   0.00    -0.00   0.00   0.00
  16   8     0.03  -0.01   0.01    -0.22  -0.00  -0.08    -0.12  -0.00  -0.04
  17   8     0.02   0.24  -0.07    -0.01   0.03  -0.01    -0.00   0.02  -0.01
  18   1     0.15  -0.10  -0.10     0.04  -0.02  -0.03     0.01  -0.01  -0.01
  19   1    -0.07   0.06  -0.05     0.45  -0.36   0.25     0.25  -0.20   0.14
  20   1     0.00  -0.00   0.00    -0.04   0.01  -0.00     0.07  -0.02   0.00
  21   1     0.00  -0.00  -0.00    -0.04  -0.00  -0.00     0.07  -0.00   0.00
  22   1     0.00   0.00   0.00     0.04  -0.01  -0.01    -0.07   0.01   0.02
  23   1    -0.00  -0.00   0.01     0.04  -0.00  -0.00    -0.08   0.02   0.00
  24   1     0.00   0.00   0.00     0.04   0.01   0.00    -0.07  -0.02  -0.00
  25   1    -0.00  -0.00   0.00    -0.02  -0.01   0.01     0.04   0.01  -0.02
  26   1     0.00   0.00  -0.00    -0.00   0.00  -0.00     0.00  -0.00   0.00
  27   1     0.00  -0.00   0.00    -0.00   0.00  -0.00    -0.00  -0.00   0.00
  28   1     0.00   0.00  -0.00    -0.00  -0.00   0.00    -0.00  -0.00   0.00
  29   1     0.00   0.01  -0.00     0.00   0.00  -0.01     0.00  -0.00   0.02
  30   1    -0.00  -0.00   0.00     0.00   0.00  -0.00    -0.00  -0.01   0.01
  31   1    -0.00   0.00   0.00     0.00   0.00  -0.00    -0.00   0.00   0.00
  32   1    -0.00   0.00   0.00    -0.00  -0.00  -0.00    -0.00  -0.00   0.00
  33   1     0.00   0.00   0.00    -0.00  -0.00  -0.00     0.00  -0.00  -0.00
  34   1     0.00   0.00  -0.00    -0.00  -0.01   0.01    -0.00  -0.00   0.00
  35   1     0.00   0.00  -0.00     0.00   0.00   0.00     0.00   0.00   0.00
  36   1     0.00  -0.00  -0.00    -0.00  -0.00   0.00    -0.00   0.00   0.00
  37   1    -0.00  -0.00   0.00     0.00   0.00  -0.00     0.00   0.00  -0.00
  38   1     0.00  -0.00  -0.00    -0.00  -0.00   0.00    -0.00  -0.00   0.00
  39   1     0.07  -0.66  -0.22     0.03  -0.07  -0.02     0.02  -0.05  -0.02
  40   1    -0.11  -0.34   0.46    -0.00  -0.04   0.05    -0.00  -0.03   0.04
  41   8    -0.02   0.07   0.06    -0.00   0.01   0.01    -0.00   0.01   0.00
  42   1    -0.07  -0.05  -0.01     0.44   0.33   0.07     0.24   0.18   0.04
  43   1    -0.08  -0.13  -0.10    -0.02  -0.03  -0.02    -0.01  -0.01  -0.01
  44   7    -0.00   0.00  -0.00     0.00  -0.00   0.00     0.00  -0.00  -0.00
  45   6    -0.00   0.00  -0.00    -0.00  -0.00   0.00     0.00  -0.00   0.00
  46   8     0.00  -0.00  -0.00     0.00  -0.00  -0.00    -0.00   0.00   0.00
  47   6    -0.00   0.00  -0.00     0.01  -0.00  -0.00     0.00  -0.00  -0.00
  48   6     0.00  -0.00   0.00    -0.00   0.01   0.00    -0.00   0.00   0.00
  49   8    -0.00   0.00  -0.00    -0.00  -0.00  -0.00    -0.00  -0.00  -0.00
  50   1    -0.00   0.00  -0.00     0.00  -0.00   0.00     0.00  -0.00   0.00
  51   1     0.00   0.00  -0.00    -0.01  -0.00   0.00    -0.01  -0.00   0.00
  52   1     0.00  -0.00   0.00    -0.01   0.01   0.00    -0.00   0.01   0.00
  53   7    -0.00  -0.00   0.00     0.00   0.00  -0.00     0.00   0.00  -0.00
  54   6     0.00   0.00  -0.00    -0.00  -0.00   0.00    -0.00  -0.00   0.00
  55   1     0.00   0.00  -0.00    -0.00   0.00  -0.00    -0.00  -0.00   0.00
  56   1     0.00   0.00  -0.00    -0.00  -0.00   0.00    -0.00  -0.00   0.00
  57   1    -0.00  -0.00   0.00     0.00   0.00  -0.00     0.00   0.00   0.00
                    130                    131                    132
                        a                      a                      a 
 Frequencies --  1600.2438              1645.8764              1676.6816
 Red. masses --    11.5473                12.0783                12.0149
 Frc consts  --     0.0000                 0.0000                 0.0000
 IR Inten    --    28.7891               277.1353                 2.6697
 Raman Activ --     0.0000                 0.0000                 0.0000
 Depolar     --     0.0000                 0.0000                 0.0000
 Atom AN      X      Y      Z        X      Y      Z        X      Y      Z
   1   7    -0.05   0.12  -0.02     0.17  -0.45   0.07     0.14  -0.38   0.06
   2   6     0.20  -0.07  -0.00     0.00  -0.00  -0.01    -0.05   0.02  -0.00
   3   6    -0.41   0.05  -0.06    -0.10   0.01  -0.01    -0.02  -0.00   0.00
   4   6     0.42  -0.17  -0.15     0.09  -0.04  -0.03     0.02  -0.01  -0.00
   5   6    -0.30   0.04   0.03    -0.06   0.01   0.01    -0.01   0.00  -0.00
   6   6     0.45   0.00   0.09     0.11  -0.01   0.02     0.03  -0.00   0.01
   7   6    -0.36   0.14   0.10    -0.11   0.05   0.03    -0.03   0.01   0.00
   8   6     0.05  -0.01  -0.01     0.01  -0.00  -0.00     0.00   0.00  -0.00
   9   6     0.01   0.01  -0.00     0.00   0.00  -0.00     0.00   0.00  -0.00
  10   6     0.01  -0.15   0.03    -0.08   0.60  -0.11    -0.08   0.36  -0.06
  11   6    -0.00   0.07  -0.02     0.03  -0.41   0.10    -0.11   0.51  -0.11
  12   6     0.01  -0.05   0.01    -0.06   0.32  -0.08     0.08  -0.58   0.14
  13   6     0.00   0.00   0.00    -0.01  -0.03  -0.00     0.03   0.08  -0.02
  14   6    -0.00   0.00  -0.00    -0.00  -0.01   0.01     0.00   0.01  -0.01
  15   6    -0.00  -0.00   0.00     0.00   0.00  -0.00    -0.00  -0.00   0.00
  16   8    -0.00   0.00  -0.00     0.00  -0.00   0.00    -0.00  -0.00  -0.00
  17   8    -0.00   0.00  -0.00     0.00   0.00  -0.00    -0.00   0.00  -0.00
  18   1     0.01  -0.01  -0.01     0.00   0.01   0.02     0.00   0.00   0.00
  19   1     0.01  -0.01   0.00    -0.00   0.00  -0.01     0.00  -0.00   0.00
  20   1     0.06   0.01   0.06     0.02   0.01   0.01     0.00   0.01   0.00
  21   1    -0.08   0.05   0.08    -0.01   0.01   0.01    -0.00   0.00   0.00
  22   1    -0.10  -0.03  -0.05    -0.02  -0.01  -0.01    -0.00  -0.00  -0.00
  23   1     0.04  -0.05  -0.05     0.02  -0.02  -0.02     0.00  -0.00  -0.00
  24   1     0.00   0.00  -0.01     0.00   0.00  -0.00    -0.00  -0.00  -0.00
  25   1     0.01   0.01  -0.00     0.00   0.00   0.00     0.00   0.00  -0.00
  26   1    -0.00   0.00   0.00    -0.00  -0.00   0.00    -0.00   0.00   0.00
  27   1    -0.00   0.00   0.00    -0.00   0.00  -0.00     0.00  -0.00   0.00
  28   1    -0.00  -0.00   0.00     0.00   0.00  -0.00    -0.00  -0.00   0.00
  29   1     0.01   0.02  -0.00    -0.07  -0.09   0.02    -0.04   0.01   0.00
  30   1    -0.01  -0.03   0.01     0.06   0.10  -0.03    -0.08  -0.04   0.01
  31   1     0.01   0.01  -0.00    -0.05  -0.05   0.02     0.09   0.07  -0.03
  32   1     0.00   0.00  -0.01    -0.01  -0.02   0.03     0.02   0.03  -0.03
  33   1    -0.00  -0.01  -0.00     0.01   0.03  -0.00    -0.02  -0.05   0.01
  34   1     0.00  -0.00   0.00    -0.00   0.00  -0.01    -0.00  -0.00   0.01
  35   1    -0.00   0.00   0.00     0.00   0.00  -0.00    -0.00  -0.00   0.00
  36   1    -0.00  -0.00  -0.00     0.00   0.01   0.00    -0.00  -0.00   0.00
  37   1     0.00  -0.00   0.00     0.00   0.00  -0.00     0.00  -0.00   0.00
  38   1     0.00   0.00  -0.00    -0.00  -0.00   0.00     0.00   0.00  -0.00
  39   1     0.00  -0.01  -0.00    -0.01  -0.01  -0.00    -0.00  -0.00   0.00
  40   1    -0.00  -0.01   0.01    -0.00  -0.00   0.00    -0.00  -0.00   0.00
  41   8    -0.00   0.00   0.00    -0.00  -0.00  -0.00     0.00   0.00   0.00
  42   1     0.01   0.01   0.00     0.00   0.00   0.00     0.00   0.00   0.00
  43   1    -0.01  -0.01  -0.01     0.00   0.00   0.00    -0.00  -0.00  -0.00
  44   7     0.00  -0.00   0.00     0.00  -0.00   0.00     0.00  -0.00  -0.00
  45   6    -0.00   0.00   0.00     0.00  -0.00  -0.00     0.00  -0.00  -0.00
  46   8     0.00  -0.00  -0.00    -0.00   0.00   0.00    -0.00   0.00   0.00
  47   6    -0.00   0.00   0.00     0.00  -0.00   0.00    -0.00  -0.00  -0.00
  48   6     0.00   0.00   0.00    -0.02  -0.02  -0.02     0.01   0.01   0.01
  49   8    -0.00  -0.00  -0.00     0.01   0.02   0.01    -0.00  -0.01  -0.01
  50   1    -0.00  -0.00  -0.00     0.00   0.00   0.00    -0.00   0.00  -0.00
  51   1     0.00   0.00  -0.00    -0.01  -0.00   0.00     0.00   0.00   0.00
  52   1     0.00  -0.00  -0.00    -0.00   0.01   0.00    -0.00   0.00   0.00
  53   7    -0.00  -0.00   0.00    -0.00  -0.00   0.00     0.00   0.00  -0.00
  54   6     0.00  -0.00  -0.00     0.00   0.00  -0.00    -0.00  -0.00   0.00
  55   1     0.00  -0.00   0.00    -0.00   0.00   0.00    -0.00  -0.00   0.00
  56   1    -0.00  -0.00  -0.00    -0.00   0.00  -0.00    -0.00  -0.00   0.00
  57   1     0.00   0.00  -0.00    -0.00  -0.00   0.00     0.00   0.00  -0.00
                    133                    134                    135
                        a                      a                      a 
 Frequencies --  1711.5199              1760.8574              2907.2820
 Red. masses --    13.1299                13.2018                 1.7416
 Frc consts  --     0.0000                 0.0000                 0.0000
 IR Inten    --   300.4965               557.6648                13.5424
 Raman Activ --     0.0000                 0.0000                 0.0000
 Depolar     --     0.0000                 0.0000                 0.0000
 Atom AN      X      Y      Z        X      Y      Z        X      Y      Z
   1   7     0.01  -0.01   0.00     0.00  -0.00   0.00     0.00   0.00   0.00
   2   6    -0.00   0.00  -0.00     0.00   0.00   0.00    -0.00   0.00   0.00
   3   6     0.00  -0.00   0.00     0.00  -0.00  -0.00    -0.00  -0.00  -0.00
   4   6     0.00  -0.00  -0.00    -0.00   0.00   0.00     0.00   0.00   0.00
   5   6    -0.00   0.00   0.00     0.00  -0.01  -0.00     0.00   0.00   0.00
   6   6     0.00  -0.00  -0.00     0.00   0.00   0.00    -0.00   0.00   0.00
   7   6    -0.00   0.00  -0.00    -0.00   0.00  -0.00     0.00   0.00   0.00
   8   6    -0.00  -0.00  -0.01    -0.01  -0.00   0.00     0.00   0.00   0.01
   9   6    -0.01   0.01   0.00     0.02  -0.02  -0.01     0.04  -0.18  -0.18
  10   6    -0.00   0.02  -0.00    -0.00   0.01  -0.00     0.00  -0.00   0.00
  11   6     0.00  -0.03   0.01     0.00  -0.00   0.00    -0.00   0.00   0.00
  12   6    -0.00   0.02  -0.01    -0.00   0.00  -0.00     0.00  -0.00   0.00
  13   6     0.00  -0.00   0.00     0.00  -0.00   0.00    -0.00  -0.00  -0.00
  14   6     0.00   0.00   0.00    -0.00   0.00   0.00    -0.00   0.00   0.00
  15   6     0.00  -0.00  -0.00     0.00   0.00  -0.00    -0.00   0.00   0.00
  16   8     0.00  -0.00   0.00    -0.00  -0.00  -0.00    -0.00   0.00   0.00
  17   8     0.00  -0.00   0.00    -0.00  -0.00   0.00     0.00   0.00  -0.00
  18   1    -0.00   0.00   0.00    -0.00   0.00  -0.00     0.00   0.00   0.00
  19   1    -0.00   0.00  -0.00     0.00  -0.00   0.00    -0.00  -0.00  -0.00
  20   1     0.00   0.00   0.00     0.00   0.00   0.00    -0.00   0.00   0.00
  21   1    -0.00   0.00   0.00     0.00   0.00   0.00    -0.00  -0.00  -0.00
  22   1    -0.00  -0.00   0.00    -0.00  -0.00   0.00     0.00  -0.00  -0.00
  23   1     0.00  -0.00  -0.00     0.00  -0.00  -0.00    -0.00  -0.00  -0.00
  24   1     0.00  -0.01   0.01    -0.01  -0.00   0.00     0.01  -0.03  -0.03
  25   1     0.01   0.01  -0.00    -0.01   0.00   0.00    -0.01   0.01  -0.02
  26   1    -0.01   0.02  -0.01     0.05   0.02  -0.01    -0.13   0.67   0.68
  27   1     0.02  -0.04   0.02     0.00   0.00  -0.00     0.00  -0.01  -0.01
  28   1    -0.02  -0.03  -0.00    -0.01  -0.03   0.00     0.01  -0.00  -0.00
  29   1    -0.00  -0.00   0.00    -0.00  -0.00   0.00    -0.00   0.00  -0.00
  30   1     0.00   0.01  -0.00     0.00   0.00  -0.00     0.00  -0.00  -0.00
  31   1    -0.00  -0.00   0.00    -0.00  -0.00   0.00    -0.00   0.00  -0.00
  32   1    -0.00  -0.00   0.00    -0.00  -0.00  -0.00    -0.00   0.00   0.00
  33   1     0.00   0.00  -0.00     0.00   0.00  -0.00     0.00  -0.00   0.00
  34   1    -0.00   0.00  -0.00     0.00  -0.00   0.00     0.00  -0.00  -0.00
  35   1     0.00  -0.00  -0.00     0.00  -0.00   0.00    -0.00   0.00  -0.00
  36   1    -0.00   0.00   0.00    -0.00   0.00   0.00    -0.00   0.00  -0.00
  37   1    -0.00   0.00  -0.00    -0.00  -0.00  -0.00     0.00  -0.00  -0.00
  38   1    -0.00  -0.00   0.00    -0.00  -0.00   0.00     0.00  -0.00   0.00
  39   1    -0.00   0.00  -0.00    -0.00   0.00   0.00    -0.00  -0.00   0.00
  40   1    -0.00  -0.00  -0.00     0.00   0.00  -0.00     0.00   0.00  -0.00
  41   8     0.00  -0.00  -0.00     0.00  -0.00   0.00    -0.00  -0.00  -0.00
  42   1    -0.00  -0.00   0.00     0.00   0.00   0.00     0.00   0.00  -0.00
  43   1     0.00   0.00   0.00     0.00   0.00   0.00     0.00  -0.00  -0.00
  44   7     0.01  -0.12   0.01     0.01  -0.02   0.00    -0.00   0.00  -0.01
  45   6     0.06  -0.07  -0.01    -0.37   0.71   0.03     0.01  -0.01  -0.01
  46   8    -0.04   0.05   0.01     0.32  -0.45  -0.04    -0.00   0.00   0.00
  47   6    -0.04  -0.03  -0.05    -0.01  -0.00  -0.01     0.00   0.00   0.00
  48   6     0.27   0.65   0.39     0.03   0.07   0.04    -0.00  -0.00  -0.00
  49   8    -0.20  -0.43  -0.29    -0.03  -0.05  -0.03     0.00   0.00   0.00
  50   1    -0.05  -0.01  -0.02    -0.00   0.00  -0.00     0.00  -0.00  -0.00
  51   1     0.05   0.02   0.06     0.00   0.00   0.00     0.00  -0.00   0.00
  52   1    -0.01  -0.01  -0.04    -0.00  -0.00  -0.00    -0.00  -0.00   0.00
  53   7    -0.01   0.02  -0.00    -0.05  -0.17   0.04    -0.00   0.00   0.00
  54   6     0.00  -0.01   0.00    -0.00   0.02  -0.00    -0.00  -0.00   0.00
  55   1    -0.01   0.00   0.00     0.04  -0.00  -0.03    -0.00  -0.00   0.00
  56   1    -0.01   0.00   0.00     0.05  -0.00   0.00    -0.00   0.00  -0.01
  57   1     0.01   0.00  -0.00     0.01   0.01  -0.00     0.00  -0.00   0.00
                    136                    137                    138
                        a                      a                      a 
 Frequencies --  2956.8439              2968.6615              2970.3306
 Red. masses --     1.7894                 1.8226                 1.9347
 Frc consts  --     0.0000                 0.0000                 0.0000
 IR Inten    --    17.3590                43.2228                29.6732
 Raman Activ --     0.0000                 0.0000                 0.0000
 Depolar     --     0.0000                 0.0000                 0.0000
 Atom AN      X      Y      Z        X      Y      Z        X      Y      Z
   1   7     0.00   0.00   0.00    -0.00  -0.00  -0.00    -0.00  -0.00  -0.00
   2   6     0.00  -0.00  -0.00     0.00   0.00   0.00     0.00  -0.00   0.00
   3   6     0.00  -0.00  -0.00    -0.00   0.00   0.00    -0.00  -0.00  -0.00
   4   6    -0.00  -0.00  -0.00     0.00   0.00   0.00    -0.00  -0.00  -0.00
   5   6     0.00  -0.00  -0.00     0.00   0.00   0.00     0.00  -0.00  -0.00
   6   6    -0.00   0.00   0.00    -0.00  -0.00  -0.00     0.00  -0.00  -0.00
   7   6    -0.00  -0.00  -0.00    -0.00  -0.00  -0.00    -0.00  -0.00  -0.00
   8   6    -0.00   0.00  -0.00     0.00  -0.00   0.00    -0.00  -0.00  -0.00
   9   6    -0.00  -0.00  -0.00     0.00   0.00  -0.00    -0.00   0.00   0.00
  10   6     0.00  -0.00  -0.00    -0.00   0.00   0.00    -0.00  -0.00   0.00
  11   6     0.00  -0.00   0.00    -0.00   0.00  -0.00     0.00   0.00  -0.00
  12   6     0.01   0.01   0.00    -0.01  -0.00  -0.00     0.00   0.00   0.00
  13   6    -0.07   0.20   0.12    -0.01  -0.06  -0.05     0.00   0.00   0.00
  14   6     0.07  -0.07  -0.02     0.22  -0.13  -0.01    -0.00   0.00  -0.00
  15   6    -0.01   0.00  -0.01    -0.02   0.02   0.00     0.00  -0.00  -0.00
  16   8    -0.00   0.00   0.00     0.00   0.00   0.00    -0.00  -0.00  -0.00
  17   8     0.00   0.00  -0.00    -0.00  -0.00   0.00    -0.00  -0.00   0.00
  18   1     0.00   0.00   0.00    -0.00  -0.00  -0.00    -0.00  -0.00  -0.00
  19   1     0.00   0.00  -0.00    -0.00  -0.00   0.00     0.00   0.00   0.00
  20   1    -0.00   0.00   0.00     0.00  -0.00  -0.00     0.00  -0.00   0.00
  21   1     0.00   0.00   0.00    -0.00  -0.00  -0.00     0.00   0.00   0.00
  22   1     0.00  -0.00  -0.00    -0.00   0.00   0.00    -0.00   0.00   0.00
  23   1     0.00   0.00   0.00     0.00   0.00   0.00     0.00   0.00   0.00
  24   1    -0.00   0.00   0.00    -0.00   0.00   0.00    -0.00   0.00   0.00
  25   1     0.00  -0.00   0.00    -0.00   0.00  -0.00     0.00  -0.00   0.01
  26   1    -0.00   0.00   0.00    -0.00  -0.00  -0.00     0.00  -0.00  -0.00
  27   1     0.00   0.00   0.00    -0.00  -0.00  -0.00    -0.00   0.00   0.00
  28   1     0.00   0.00   0.00     0.00  -0.00  -0.00    -0.00   0.00  -0.00
  29   1    -0.00   0.00   0.00     0.01  -0.00  -0.00     0.00  -0.00  -0.00
  30   1    -0.00   0.00   0.00     0.00   0.00  -0.00    -0.00  -0.00   0.00
  31   1    -0.03   0.01  -0.00     0.02  -0.01   0.00    -0.00   0.00   0.00
  32   1     0.17  -0.73  -0.49    -0.07   0.27   0.17     0.00  -0.00  -0.00
  33   1     0.09  -0.00   0.03     0.14  -0.05   0.02    -0.00   0.00  -0.00
  34   1    -0.03   0.20   0.13    -0.01   0.20   0.14    -0.00  -0.00  -0.00
  35   1    -0.23   0.07  -0.04    -0.80   0.27  -0.13     0.01  -0.00   0.00
  36   1     0.00  -0.00   0.01    -0.00   0.00   0.01     0.00  -0.00   0.00
  37   1    -0.00  -0.00  -0.00     0.01  -0.05  -0.03    -0.00   0.00   0.00
  38   1     0.03  -0.01   0.00     0.07  -0.02   0.01    -0.00   0.00  -0.00
  39   1    -0.00  -0.00   0.00     0.00   0.00  -0.00     0.00   0.00  -0.00
  40   1    -0.00   0.00  -0.00     0.00  -0.00   0.00    -0.00  -0.00   0.00
  41   8    -0.00  -0.00  -0.00     0.00   0.00   0.00     0.00   0.00   0.00
  42   1    -0.00  -0.00  -0.00     0.00   0.00  -0.00    -0.00  -0.00   0.00
  43   1    -0.00  -0.00  -0.00     0.00   0.00   0.00    -0.00   0.00   0.00
  44   7    -0.00  -0.00  -0.00     0.00  -0.00   0.00    -0.00  -0.00  -0.00
  45   6     0.00   0.00  -0.00    -0.00   0.00   0.00     0.00   0.00   0.00
  46   8    -0.00  -0.00   0.00     0.00  -0.00  -0.00     0.00  -0.00  -0.00
  47   6    -0.00   0.00  -0.00     0.00  -0.00  -0.00     0.00  -0.00  -0.00
  48   6     0.00   0.00   0.00    -0.00   0.00  -0.00    -0.00  -0.00   0.00
  49   8    -0.00  -0.00  -0.00     0.00  -0.00  -0.00    -0.00   0.00  -0.00
  50   1    -0.00   0.00   0.00    -0.00   0.00   0.00    -0.00   0.00   0.00
  51   1     0.00  -0.00   0.00    -0.00   0.00  -0.00     0.00  -0.00  -0.00
  52   1     0.00   0.00  -0.00    -0.01  -0.00   0.00    -0.00  -0.00   0.00
  53   7    -0.00  -0.00   0.00    -0.00   0.00   0.00    -0.00  -0.00   0.00
  54   6    -0.00  -0.00  -0.00     0.00   0.00   0.00     0.07   0.00   0.28
  55   1     0.00   0.00   0.00    -0.00  -0.01  -0.00    -0.22  -0.35  -0.31
  56   1    -0.00   0.00  -0.00    -0.00   0.00  -0.01    -0.02   0.35  -0.72
  57   1     0.00  -0.00  -0.00    -0.00   0.00   0.00     0.01  -0.00   0.04
                    139                    140                    141
                        a                      a                      a 
 Frequencies --  2986.9320              2988.6702              2996.4902
 Red. masses --     1.5960                 1.4586                 1.7084
 Frc consts  --     0.0000                 0.0000                 0.0000
 IR Inten    --    30.1589                47.7109                18.9191
 Raman Activ --     0.0000                 0.0000                 0.0000
 Depolar     --     0.0000                 0.0000                 0.0000
 Atom AN      X      Y      Z        X      Y      Z        X      Y      Z
   1   7    -0.00  -0.00  -0.00     0.00  -0.00   0.00    -0.00  -0.00   0.00
   2   6    -0.00  -0.00   0.00    -0.00   0.00  -0.00     0.00  -0.00  -0.00
   3   6    -0.00   0.00   0.00     0.00  -0.00  -0.00     0.00  -0.00  -0.00
   4   6    -0.00  -0.00  -0.00    -0.00   0.00  -0.00    -0.00  -0.00  -0.00
   5   6    -0.00  -0.00  -0.00    -0.00   0.00   0.00     0.00  -0.00   0.00
   6   6     0.00  -0.00  -0.00     0.00   0.00   0.00     0.00  -0.00  -0.00
   7   6    -0.00  -0.00  -0.00     0.00   0.00   0.00     0.00   0.00   0.00
   8   6    -0.00  -0.00  -0.00     0.00   0.00   0.00     0.00  -0.00   0.00
   9   6    -0.00   0.00   0.00     0.00  -0.00  -0.00     0.00  -0.00   0.00
  10   6    -0.00   0.00  -0.00     0.00  -0.00  -0.00    -0.00   0.00  -0.00
  11   6     0.00  -0.00   0.00     0.00  -0.00   0.00    -0.01  -0.00   0.00
  12   6    -0.00   0.00   0.00     0.00   0.00  -0.00    -0.02   0.01   0.00
  13   6    -0.03   0.04   0.02     0.00   0.00   0.00     0.23  -0.06   0.04
  14   6     0.03   0.17   0.14     0.00   0.00   0.00     0.05  -0.01   0.01
  15   6     0.00  -0.02  -0.03     0.00  -0.00  -0.00    -0.02   0.01  -0.02
  16   8    -0.00  -0.00   0.00    -0.00  -0.00   0.00    -0.00  -0.00   0.00
  17   8    -0.00  -0.00   0.00     0.00   0.00  -0.00    -0.00  -0.00   0.00
  18   1    -0.00  -0.00  -0.00     0.00   0.00   0.00    -0.00  -0.00  -0.00
  19   1     0.00   0.00   0.00     0.00   0.00  -0.00     0.00   0.00   0.00
  20   1     0.00  -0.00  -0.00    -0.00   0.00   0.00    -0.00   0.00   0.00
  21   1     0.00   0.00   0.00     0.00   0.00   0.00     0.00   0.00   0.00
  22   1    -0.00   0.00   0.00     0.00  -0.00  -0.00    -0.00   0.00   0.00
  23   1     0.00   0.00   0.00    -0.00  -0.00  -0.00    -0.00  -0.00  -0.00
  24   1    -0.00   0.00   0.00    -0.00  -0.00  -0.00    -0.00   0.00   0.00
  25   1     0.00  -0.00   0.00     0.00  -0.00   0.00    -0.00   0.00  -0.01
  26   1     0.00  -0.00  -0.00    -0.00   0.00   0.00    -0.00   0.00   0.00
  27   1     0.00  -0.00   0.00    -0.00   0.00   0.00    -0.00   0.00  -0.00
  28   1    -0.00   0.00   0.00     0.01  -0.01  -0.00     0.00  -0.00  -0.00
  29   1     0.01  -0.00  -0.00    -0.00   0.00   0.00     0.00  -0.00   0.00
  30   1    -0.00   0.00   0.00     0.00   0.00   0.00     0.02  -0.00  -0.00
  31   1    -0.00   0.00   0.00    -0.00   0.00   0.00     0.11  -0.03  -0.00
  32   1     0.02  -0.12  -0.08     0.00  -0.00  -0.00     0.04  -0.07  -0.03
  33   1     0.09  -0.02   0.02    -0.00   0.00  -0.00    -0.88   0.28  -0.13
  34   1     0.16  -0.74  -0.48     0.00  -0.01  -0.01     0.01  -0.02  -0.01
  35   1    -0.29   0.13  -0.03    -0.00   0.00  -0.00    -0.17   0.06  -0.02
  36   1     0.01  -0.02   0.06     0.00  -0.00   0.00     0.00  -0.01   0.04
  37   1    -0.02   0.10   0.06    -0.00   0.00   0.00    -0.00   0.01   0.00
  38   1     0.01  -0.00  -0.00    -0.00   0.00  -0.00     0.07  -0.02   0.01
  39   1     0.00   0.00  -0.00    -0.00  -0.00   0.00     0.00   0.00  -0.00
  40   1     0.00  -0.00   0.00    -0.00   0.00  -0.00     0.00  -0.00   0.00
  41   8     0.00   0.00   0.00    -0.00  -0.00  -0.00     0.00   0.00   0.00
  42   1    -0.00   0.00  -0.00    -0.00  -0.00  -0.00    -0.00   0.00  -0.00
  43   1     0.00   0.00   0.00    -0.00  -0.00  -0.00    -0.00  -0.00   0.00
  44   7    -0.00   0.00  -0.00     0.00  -0.00  -0.00     0.00  -0.00   0.00
  45   6     0.00   0.00  -0.00    -0.00  -0.01   0.00    -0.00   0.00   0.00
  46   8    -0.00  -0.00  -0.00    -0.00   0.00   0.00     0.00  -0.00  -0.00
  47   6     0.00   0.00   0.00    -0.00  -0.00   0.00     0.00   0.00  -0.00
  48   6     0.00   0.00   0.00    -0.00   0.00  -0.00     0.00   0.00  -0.00
  49   8    -0.00  -0.00  -0.00     0.00  -0.00  -0.00    -0.00  -0.00  -0.00
  50   1     0.01  -0.01  -0.01     0.00  -0.00  -0.00    -0.00   0.00   0.01
  51   1    -0.00   0.01  -0.00    -0.00   0.00  -0.00     0.00  -0.00  -0.00
  52   1    -0.01  -0.01   0.00     0.00   0.00  -0.00    -0.01  -0.01   0.00
  53   7    -0.00  -0.00   0.00     0.01   0.01  -0.01    -0.00  -0.00   0.00
  54   6    -0.00  -0.00   0.00     0.08   0.18   0.01    -0.00  -0.00  -0.00
  55   1     0.00   0.01   0.01    -0.35  -0.50  -0.54     0.00   0.00   0.00
  56   1    -0.00   0.00  -0.01     0.02  -0.20   0.51    -0.00   0.00  -0.00
  57   1     0.00  -0.00   0.00    -0.00   0.04   0.00    -0.00   0.00   0.00
                    142                    143                    144
                        a                      a                      a 
 Frequencies --  2996.8477              3003.5675              3005.3899
 Red. masses --     1.9870                 1.7700                 1.4991
 Frc consts  --     0.0000                 0.0000                 0.0000
 IR Inten    --    16.4107                41.1360                17.3272
 Raman Activ --     0.0000                 0.0000                 0.0000
 Depolar     --     0.0000                 0.0000                 0.0000
 Atom AN      X      Y      Z        X      Y      Z        X      Y      Z
   1   7    -0.00   0.00   0.00    -0.01   0.00  -0.00     0.00  -0.00  -0.00
   2   6     0.00   0.00   0.00     0.00  -0.00   0.00     0.00  -0.00  -0.00
   3   6    -0.00  -0.00  -0.00    -0.00   0.00   0.00     0.00  -0.00  -0.00
   4   6     0.01   0.00   0.01    -0.00  -0.00  -0.00     0.00   0.00   0.00
   5   6    -0.00  -0.00  -0.01    -0.00   0.00   0.00    -0.00   0.00   0.00
   6   6    -0.00   0.01   0.01     0.00   0.00   0.00     0.00  -0.00  -0.00
   7   6     0.00  -0.00  -0.00    -0.00   0.00  -0.00     0.00   0.00   0.00
   8   6    -0.06  -0.08  -0.28    -0.01   0.01  -0.00    -0.13   0.17  -0.00
   9   6    -0.00  -0.01  -0.02    -0.00   0.00   0.00    -0.00   0.01   0.00
  10   6    -0.00   0.00  -0.00    -0.26   0.05   0.00     0.02  -0.00  -0.00
  11   6    -0.00   0.00   0.00     0.01   0.00  -0.00    -0.00   0.00   0.00
  12   6    -0.00  -0.00   0.00     0.01  -0.00  -0.00    -0.00   0.00   0.00
  13   6     0.00  -0.00  -0.00     0.00  -0.00   0.00     0.00  -0.00   0.00
  14   6     0.00  -0.00  -0.00    -0.00  -0.00  -0.00     0.00  -0.00   0.00
  15   6    -0.00   0.00   0.00     0.00  -0.00   0.00    -0.00   0.00  -0.00
  16   8     0.00   0.00   0.00     0.00  -0.00  -0.00    -0.00   0.00  -0.00
  17   8    -0.00   0.00  -0.00     0.00   0.00  -0.00    -0.00  -0.00   0.00
  18   1     0.00   0.00  -0.00     0.02   0.02   0.02    -0.00  -0.00  -0.00
  19   1    -0.00  -0.00  -0.00    -0.00   0.00   0.00    -0.00  -0.00   0.00
  20   1    -0.00   0.00   0.00     0.00  -0.00  -0.00    -0.00   0.00   0.00
  21   1    -0.02  -0.01  -0.01     0.00   0.00   0.00    -0.00  -0.00  -0.00
  22   1     0.01  -0.01  -0.02     0.00  -0.00  -0.00    -0.01   0.01   0.01
  23   1     0.00   0.00   0.00     0.00   0.00   0.00    -0.00  -0.00  -0.00
  24   1    -0.15   0.43   0.38     0.01  -0.04  -0.04     0.16  -0.53  -0.52
  25   1     0.38  -0.14   0.62     0.02  -0.01   0.04     0.30  -0.08   0.53
  26   1    -0.01   0.03   0.03     0.00  -0.00  -0.00     0.00  -0.01  -0.02
  27   1     0.00  -0.00  -0.00     0.00   0.00  -0.00    -0.00   0.00  -0.00
  28   1     0.00  -0.00  -0.00    -0.00   0.00   0.00    -0.00  -0.00   0.00
  29   1     0.00  -0.00  -0.00     0.94  -0.20  -0.00    -0.07   0.01   0.00
  30   1     0.00  -0.00  -0.00    -0.07   0.01   0.00     0.01  -0.00  -0.00
  31   1     0.00  -0.00  -0.00    -0.05   0.01   0.00     0.00  -0.00  -0.00
  32   1    -0.00   0.00   0.00     0.00   0.00   0.00     0.00   0.00   0.00
  33   1    -0.00   0.00  -0.00    -0.01   0.00  -0.00    -0.01   0.00  -0.00
  34   1    -0.00   0.00   0.00    -0.00   0.01   0.01     0.00   0.00   0.00
  35   1    -0.00   0.00  -0.00     0.01  -0.00   0.00    -0.00   0.00  -0.00
  36   1    -0.00   0.00  -0.00    -0.00   0.00  -0.01     0.00  -0.00   0.00
  37   1     0.00  -0.00  -0.00    -0.00   0.00   0.00     0.00  -0.00  -0.00
  38   1     0.00  -0.00   0.00     0.00  -0.00   0.00     0.00  -0.00   0.00
  39   1    -0.00  -0.00   0.00    -0.00  -0.00   0.01     0.00   0.00  -0.00
  40   1     0.00  -0.00  -0.00    -0.00   0.00   0.00     0.00  -0.00   0.00
  41   8    -0.00  -0.00   0.00    -0.01  -0.01  -0.00     0.00   0.00   0.00
  42   1     0.00  -0.00   0.00    -0.00   0.00   0.00     0.00   0.00   0.00
  43   1     0.00   0.00  -0.00    -0.00   0.00  -0.00     0.00   0.00   0.00
  44   7     0.00   0.00   0.00     0.00  -0.00   0.00     0.00  -0.00   0.00
  45   6     0.00  -0.00  -0.00     0.00   0.00  -0.00    -0.00   0.00  -0.00
  46   8    -0.00   0.00   0.00    -0.00  -0.00   0.00     0.00  -0.00   0.00
  47   6     0.00   0.00   0.00    -0.01  -0.00   0.00     0.00  -0.00  -0.00
  48   6    -0.00  -0.00  -0.00    -0.00   0.00  -0.00     0.00   0.00   0.00
  49   8     0.00   0.00   0.00    -0.00   0.00   0.00    -0.00  -0.00  -0.00
  50   1     0.00  -0.00  -0.01     0.00  -0.00  -0.00    -0.00   0.00   0.00
  51   1     0.00  -0.00   0.00    -0.00  -0.00   0.00    -0.00   0.00  -0.00
  52   1    -0.01  -0.00   0.00     0.02   0.01  -0.01    -0.00  -0.00   0.00
  53   7    -0.00   0.00   0.00     0.00  -0.00  -0.00     0.00  -0.00   0.00
  54   6    -0.00   0.00  -0.00     0.00   0.00  -0.00     0.00  -0.00  -0.00
  55   1     0.00   0.00   0.00    -0.00  -0.00  -0.00     0.00   0.00   0.00
  56   1     0.00  -0.00   0.01     0.00  -0.00   0.00     0.00  -0.00   0.00
  57   1     0.00  -0.00  -0.00     0.00  -0.00  -0.00    -0.00   0.01   0.00
                    145                    146                    147
                        a                      a                      a 
 Frequencies --  3015.1725              3029.1950              3032.8523
 Red. masses --     1.7900                 1.6211                 1.7253
 Frc consts  --     0.0000                 0.0000                 0.0000
 IR Inten    --    14.2648                12.4129                 8.0652
 Raman Activ --     0.0000                 0.0000                 0.0000
 Depolar     --     0.0000                 0.0000                 0.0000
 Atom AN      X      Y      Z        X      Y      Z        X      Y      Z
   1   7    -0.00   0.00   0.00     0.00   0.00  -0.00    -0.00  -0.00  -0.00
   2   6    -0.00   0.00  -0.00    -0.00  -0.00   0.00     0.00  -0.00   0.00
   3   6    -0.00   0.00   0.00    -0.00   0.00   0.00    -0.00   0.00   0.00
   4   6     0.00   0.00   0.00     0.00   0.00   0.00     0.00   0.00   0.00
   5   6     0.00  -0.00   0.00    -0.00  -0.00  -0.00     0.00   0.00  -0.00
   6   6     0.00  -0.00  -0.00    -0.00   0.00   0.00     0.00  -0.00  -0.00
   7   6     0.00   0.00   0.00    -0.00  -0.00  -0.00    -0.00  -0.00  -0.00
   8   6     0.00   0.00   0.00    -0.00  -0.00  -0.00    -0.00   0.00   0.00
   9   6     0.00   0.00   0.00     0.00  -0.00  -0.00    -0.00   0.00   0.00
  10   6    -0.01   0.00  -0.00     0.00  -0.00   0.00     0.00  -0.00  -0.00
  11   6    -0.00   0.00  -0.00     0.00  -0.00  -0.00     0.00  -0.00   0.00
  12   6     0.00  -0.00   0.00     0.00  -0.00  -0.00    -0.00   0.00   0.00
  13   6    -0.00   0.00  -0.00    -0.00   0.00  -0.00    -0.00   0.00   0.00
  14   6    -0.00  -0.00  -0.00     0.00   0.00   0.00    -0.00   0.00   0.00
  15   6     0.00  -0.00   0.00     0.01  -0.00   0.00    -0.00   0.01   0.00
  16   8     0.00   0.00   0.00    -0.00  -0.00   0.00     0.00   0.00  -0.00
  17   8     0.00   0.00  -0.00     0.00   0.00   0.00    -0.00  -0.00   0.00
  18   1     0.01   0.01   0.00     0.00   0.00   0.00    -0.00  -0.00  -0.00
  19   1    -0.01  -0.01  -0.00     0.00   0.00  -0.00    -0.00  -0.00   0.00
  20   1     0.00  -0.00  -0.00     0.00  -0.00  -0.00     0.00  -0.00  -0.00
  21   1    -0.00  -0.00  -0.00    -0.00  -0.00  -0.00    -0.00  -0.00  -0.00
  22   1    -0.00   0.00   0.00     0.00  -0.01  -0.01    -0.00   0.00   0.00
  23   1    -0.00  -0.00  -0.00     0.00   0.00   0.00     0.00   0.00   0.00
  24   1     0.00  -0.00  -0.00    -0.00   0.01   0.00     0.00  -0.00  -0.00
  25   1    -0.00   0.00  -0.01     0.00  -0.00   0.00     0.00  -0.00   0.00
  26   1     0.00  -0.00  -0.00     0.00   0.00   0.00     0.00  -0.00  -0.00
  27   1     0.00   0.00   0.00    -0.00  -0.00  -0.00     0.00  -0.00   0.00
  28   1    -0.00   0.00   0.00    -0.00   0.00  -0.00    -0.02   0.02   0.00
  29   1     0.02  -0.01  -0.00    -0.00   0.00  -0.00    -0.00   0.00  -0.00
  30   1     0.01  -0.00  -0.00    -0.01   0.00   0.00    -0.00   0.00  -0.00
  31   1    -0.02   0.00   0.00    -0.01   0.00   0.00     0.01  -0.00  -0.00
  32   1     0.00  -0.00  -0.00    -0.00   0.00   0.00     0.00  -0.00  -0.00
  33   1     0.01  -0.00   0.00     0.01  -0.00   0.00     0.00  -0.00   0.00
  34   1    -0.00   0.01   0.01     0.00  -0.01  -0.01     0.00  -0.00  -0.00
  35   1     0.01  -0.00   0.00    -0.00   0.00  -0.00     0.00  -0.00   0.00
  36   1     0.00   0.00  -0.01    -0.00   0.00  -0.01    -0.00   0.00   0.00
  37   1    -0.00   0.01   0.00     0.00  -0.00  -0.00     0.00  -0.02  -0.01
  38   1    -0.02   0.01  -0.00    -0.02   0.01  -0.00     0.01  -0.00   0.00
  39   1    -0.00  -0.00   0.01    -0.00  -0.00   0.00     0.00   0.00  -0.00
  40   1     0.00  -0.00  -0.00     0.00   0.00  -0.00     0.00  -0.00   0.00
  41   8    -0.00  -0.00  -0.00    -0.00  -0.00  -0.00     0.00   0.00   0.00
  42   1    -0.00  -0.00  -0.00     0.00  -0.00  -0.00     0.00   0.00   0.00
  43   1    -0.00  -0.00  -0.00    -0.00  -0.00  -0.00     0.00   0.00   0.00
  44   7    -0.00   0.00  -0.00     0.00   0.00   0.00     0.00  -0.00   0.00
  45   6     0.00  -0.00  -0.00     0.00  -0.00  -0.00    -0.00  -0.00   0.00
  46   8    -0.00   0.00   0.00    -0.00   0.00   0.00     0.00   0.00  -0.00
  47   6     0.23   0.08  -0.10     0.05  -0.12  -0.20    -0.00   0.00   0.00
  48   6     0.01   0.00   0.00    -0.00  -0.01  -0.01     0.00   0.00   0.00
  49   8    -0.00  -0.00  -0.00     0.00   0.00   0.00    -0.00  -0.00  -0.00
  50   1    -0.03   0.09   0.12    -0.34   0.42   0.78     0.01  -0.01  -0.01
  51   1     0.02   0.03  -0.02     0.02  -0.05  -0.02    -0.00   0.00  -0.00
  52   1    -0.82  -0.42   0.24     0.15   0.06  -0.07    -0.00   0.00   0.00
  53   7     0.00  -0.00  -0.00     0.00  -0.00   0.00    -0.00  -0.00   0.00
  54   6    -0.00   0.00  -0.00    -0.00   0.00  -0.00    -0.13   0.22   0.01
  55   1    -0.00  -0.00  -0.00    -0.00   0.00  -0.00    -0.02   0.02  -0.01
  56   1    -0.00  -0.00   0.00    -0.00  -0.00   0.00    -0.01   0.03   0.01
  57   1     0.00  -0.00  -0.00     0.01  -0.01  -0.00     0.51  -0.82  -0.03
                    148                    149                    150
                        a                      a                      a 
 Frequencies --  3033.8119              3035.7524              3040.2960
 Red. masses --     1.9535                 1.9293                 1.2795
 Frc consts  --     0.0000                 0.0000                 0.0000
 IR Inten    --    46.6207                41.1143                18.0059
 Raman Activ --     0.0000                 0.0000                 0.0000
 Depolar     --     0.0000                 0.0000                 0.0000
 Atom AN      X      Y      Z        X      Y      Z        X      Y      Z
   1   7     0.00  -0.00  -0.00    -0.00  -0.00   0.00    -0.00   0.00  -0.00
   2   6    -0.00  -0.00   0.00     0.00  -0.00  -0.00     0.00  -0.00  -0.00
   3   6     0.00  -0.00  -0.00     0.00  -0.00  -0.00     0.00  -0.00  -0.00
   4   6    -0.00  -0.00  -0.00     0.00   0.00   0.00    -0.00  -0.00  -0.00
   5   6    -0.00  -0.00   0.00     0.00  -0.00  -0.00    -0.00   0.00   0.00
   6   6     0.00  -0.00  -0.00     0.00  -0.00  -0.00    -0.00   0.00   0.00
   7   6    -0.00  -0.00  -0.00    -0.00  -0.00  -0.00     0.00   0.00   0.00
   8   6     0.00  -0.00   0.00    -0.00   0.00  -0.00     0.00  -0.00   0.00
   9   6    -0.00   0.00   0.00    -0.00   0.00  -0.00    -0.00  -0.00   0.00
  10   6     0.00   0.00  -0.00    -0.00   0.00  -0.00    -0.00  -0.00   0.00
  11   6     0.00  -0.00  -0.00     0.00  -0.00   0.00     0.00  -0.00   0.00
  12   6     0.01  -0.00   0.00    -0.04   0.01   0.00    -0.04   0.01   0.00
  13   6    -0.00   0.01   0.01     0.01  -0.00   0.00     0.00   0.00   0.00
  14   6    -0.01   0.04   0.02     0.03  -0.01   0.01     0.01   0.01   0.00
  15   6    -0.10   0.18   0.20     0.17  -0.12   0.19     0.13   0.08  -0.03
  16   8    -0.00  -0.00  -0.00    -0.00  -0.00  -0.00    -0.00  -0.00   0.00
  17   8    -0.00  -0.00   0.00    -0.00  -0.00   0.00     0.00   0.00  -0.00
  18   1    -0.00  -0.00  -0.00    -0.00  -0.00  -0.00     0.00   0.00   0.00
  19   1     0.00   0.00   0.00     0.00   0.00   0.00     0.00   0.00  -0.00
  20   1    -0.00   0.00   0.00    -0.00   0.00   0.00    -0.00   0.00   0.00
  21   1     0.00   0.00   0.00    -0.00  -0.00  -0.00     0.00   0.00   0.00
  22   1    -0.00   0.00   0.00    -0.00   0.00   0.00     0.00  -0.00  -0.00
  23   1     0.00   0.00   0.00     0.00   0.00   0.00    -0.00  -0.00  -0.00
  24   1     0.00  -0.00  -0.00     0.00  -0.00  -0.00    -0.00   0.00   0.00
  25   1    -0.00   0.00  -0.00     0.00  -0.00   0.00    -0.00   0.00  -0.00
  26   1     0.00  -0.00  -0.00    -0.00   0.00   0.00     0.00   0.00   0.00
  27   1     0.00   0.00   0.00    -0.00  -0.00  -0.00     0.00   0.00   0.00
  28   1     0.00  -0.00   0.00     0.00  -0.00   0.00     0.00   0.00   0.00
  29   1    -0.00   0.00   0.00     0.00  -0.00  -0.00     0.01  -0.00  -0.00
  30   1    -0.00   0.00   0.00    -0.01   0.00   0.00    -0.02   0.00   0.00
  31   1    -0.02   0.00   0.00     0.13  -0.03  -0.00     0.14  -0.03  -0.00
  32   1     0.01  -0.03  -0.02     0.01  -0.01  -0.01     0.00  -0.01  -0.01
  33   1    -0.01   0.00   0.00    -0.04   0.01  -0.01    -0.01   0.00  -0.00
  34   1     0.02  -0.11  -0.07     0.00  -0.01  -0.01     0.01  -0.02  -0.01
  35   1     0.02  -0.01   0.01    -0.08   0.03  -0.01    -0.03   0.01  -0.00
  36   1    -0.07   0.11  -0.38    -0.07   0.13  -0.71     0.07  -0.09   0.47
  37   1     0.13  -0.67  -0.41     0.00   0.11   0.11     0.10  -0.41  -0.27
  38   1     0.28  -0.07   0.08    -0.55   0.18  -0.07    -0.63   0.22  -0.11
  39   1     0.00   0.00  -0.00     0.00   0.00  -0.00    -0.00  -0.00   0.00
  40   1    -0.00  -0.00   0.00     0.00  -0.00   0.00    -0.00   0.00  -0.00
  41   8     0.00   0.00   0.00     0.00   0.00   0.00    -0.00  -0.00  -0.00
  42   1    -0.00  -0.00  -0.00    -0.00   0.00   0.00    -0.00   0.00  -0.00
  43   1     0.00   0.00   0.00     0.00   0.00   0.00    -0.00  -0.00  -0.00
  44   7    -0.00   0.00  -0.00     0.00  -0.00   0.00    -0.00  -0.00  -0.00
  45   6     0.00  -0.00   0.00    -0.00   0.00   0.00     0.00   0.00  -0.00
  46   8    -0.00   0.00  -0.00     0.00  -0.00  -0.00    -0.00  -0.00   0.00
  47   6     0.00  -0.00  -0.00    -0.00   0.00   0.00    -0.00   0.01   0.00
  48   6     0.00  -0.00   0.00    -0.00   0.00   0.00     0.00   0.00   0.00
  49   8    -0.00  -0.00  -0.00     0.00  -0.00  -0.00    -0.00  -0.00  -0.00
  50   1    -0.00   0.00   0.00     0.01  -0.01  -0.02     0.00  -0.00  -0.01
  51   1    -0.00   0.02  -0.00    -0.00   0.00   0.00     0.00  -0.03   0.01
  52   1    -0.01  -0.01   0.00     0.01   0.00  -0.00    -0.00   0.00   0.00
  53   7     0.00  -0.00  -0.00    -0.00   0.00   0.00    -0.00  -0.00   0.00
  54   6     0.00  -0.00   0.00    -0.00   0.00   0.00     0.00  -0.00  -0.00
  55   1    -0.00  -0.00  -0.00     0.00   0.00   0.00    -0.00  -0.00  -0.00
  56   1     0.00  -0.00  -0.00    -0.00   0.00  -0.00     0.00  -0.00   0.00
  57   1    -0.01   0.02   0.00     0.01  -0.01  -0.00    -0.00   0.00   0.00
                    151                    152                    153
                        a                      a                      a 
 Frequencies --  3042.5055              3064.4246              3065.4724
 Red. masses --     1.8124                 1.7605                 1.8098
 Frc consts  --     0.0000                 0.0000                 0.0000
 IR Inten    --    58.4452                 5.1083                36.8929
 Raman Activ --     0.0000                 0.0000                 0.0000
 Depolar     --     0.0000                 0.0000                 0.0000
 Atom AN      X      Y      Z        X      Y      Z        X      Y      Z
   1   7     0.00  -0.00  -0.00    -0.00   0.00   0.00     0.00  -0.00  -0.00
   2   6    -0.00   0.00   0.00    -0.00  -0.00  -0.00     0.00   0.00   0.00
   3   6     0.00  -0.00  -0.00     0.00  -0.00  -0.00    -0.00   0.01   0.01
   4   6    -0.00  -0.00  -0.00     0.01   0.00   0.01    -0.02  -0.01  -0.02
   5   6    -0.00   0.00   0.00    -0.00   0.00   0.00     0.01  -0.00  -0.00
   6   6    -0.00  -0.00  -0.00    -0.03   0.05   0.06     0.08  -0.15  -0.19
   7   6    -0.00  -0.00  -0.00    -0.00  -0.00  -0.00     0.02   0.01   0.01
   8   6    -0.00   0.00   0.00    -0.00   0.00   0.00     0.00  -0.00  -0.01
   9   6    -0.00   0.00   0.00     0.00   0.00   0.00    -0.00  -0.00  -0.00
  10   6     0.01   0.00  -0.00     0.00  -0.00   0.00    -0.00   0.00  -0.00
  11   6    -0.03   0.02  -0.00     0.00  -0.00  -0.00     0.00  -0.00  -0.00
  12   6     0.25  -0.07  -0.00    -0.00   0.00   0.00    -0.00   0.00  -0.00
  13   6     0.04  -0.02   0.00    -0.00   0.00   0.00    -0.00   0.00   0.00
  14   6     0.01  -0.00   0.00     0.00  -0.00  -0.00     0.00  -0.00  -0.00
  15   6     0.04  -0.01   0.02     0.01  -0.00  -0.01     0.00  -0.00  -0.00
  16   8    -0.00  -0.00   0.00     0.00   0.00  -0.00     0.00   0.00   0.00
  17   8    -0.00  -0.00   0.00    -0.00  -0.00   0.00     0.00   0.00  -0.00
  18   1    -0.01  -0.01  -0.01    -0.01  -0.00  -0.00     0.02   0.02   0.01
  19   1     0.00   0.00  -0.00    -0.00  -0.00   0.00    -0.00  -0.00  -0.00
  20   1    -0.00   0.00   0.00    -0.00   0.00   0.00     0.02  -0.03  -0.03
  21   1     0.00   0.00   0.00    -0.02  -0.01  -0.02     0.06   0.03   0.06
  22   1    -0.00   0.00   0.00     0.10  -0.18  -0.22    -0.30   0.53   0.66
  23   1     0.00   0.00   0.00     0.02   0.01   0.02    -0.07  -0.04  -0.07
  24   1     0.00  -0.00  -0.00     0.00  -0.01  -0.01    -0.01   0.02   0.02
  25   1     0.00  -0.00   0.00    -0.00   0.00  -0.00     0.00  -0.00   0.01
  26   1    -0.00  -0.00  -0.00     0.00  -0.00  -0.00    -0.00   0.00   0.00
  27   1    -0.00  -0.00  -0.00    -0.00  -0.00  -0.00     0.00   0.00   0.00
  28   1     0.00  -0.00  -0.00    -0.00   0.00   0.00    -0.00   0.00  -0.00
  29   1    -0.04   0.00   0.00    -0.00   0.00  -0.00     0.00  -0.00   0.00
  30   1     0.14  -0.03  -0.00    -0.01   0.00   0.00    -0.00   0.00   0.00
  31   1    -0.90   0.22   0.02     0.01  -0.00  -0.00     0.00  -0.00  -0.00
  32   1    -0.00   0.02   0.01     0.00  -0.00  -0.00     0.00  -0.00  -0.00
  33   1    -0.11   0.04  -0.02    -0.00   0.00   0.00    -0.00   0.00   0.00
  34   1     0.00  -0.00  -0.00    -0.00   0.01   0.00    -0.00   0.00   0.00
  35   1    -0.05   0.02  -0.01     0.00  -0.00   0.00     0.00  -0.00   0.00
  36   1     0.00   0.00  -0.02     0.00  -0.01   0.02     0.00  -0.00   0.01
  37   1     0.01  -0.03  -0.02     0.00  -0.00  -0.00     0.00  -0.00  -0.00
  38   1    -0.17   0.06  -0.03    -0.02   0.01  -0.01    -0.01   0.00  -0.00
  39   1     0.00   0.00  -0.00     0.00   0.00  -0.00    -0.00  -0.00   0.01
  40   1     0.00  -0.00   0.00    -0.00  -0.00   0.00     0.00   0.00  -0.00
  41   8     0.00   0.00   0.00     0.00   0.00   0.00    -0.01  -0.00  -0.00
  42   1     0.00   0.00  -0.00     0.00  -0.00   0.00     0.00  -0.00  -0.00
  43   1     0.00   0.00   0.00     0.00   0.00   0.00    -0.00  -0.00  -0.00
  44   7     0.00  -0.00   0.00     0.00   0.00   0.00    -0.00   0.00  -0.00
  45   6    -0.00   0.00   0.00    -0.00  -0.00   0.00     0.00  -0.00  -0.00
  46   8     0.00  -0.00  -0.00     0.00   0.00  -0.00    -0.00   0.00   0.00
  47   6    -0.00  -0.00   0.00     0.03  -0.24   0.04     0.01  -0.08   0.01
  48   6    -0.00   0.00   0.00     0.00  -0.01   0.00     0.00  -0.00  -0.00
  49   8     0.00  -0.00  -0.00     0.00   0.00   0.00     0.00   0.00   0.00
  50   1     0.00  -0.01  -0.01    -0.01  -0.02   0.03    -0.01  -0.00   0.02
  51   1    -0.00   0.00   0.00    -0.14   0.89  -0.16    -0.05   0.30  -0.05
  52   1     0.01   0.01  -0.00     0.03  -0.02  -0.00     0.01  -0.00  -0.00
  53   7    -0.00   0.00   0.00     0.00  -0.00  -0.00     0.00  -0.00   0.00
  54   6    -0.00   0.00   0.00     0.00  -0.00   0.00     0.00  -0.00  -0.00
  55   1     0.00   0.00   0.00     0.00   0.00   0.00     0.00   0.00   0.00
  56   1    -0.00   0.00  -0.00     0.00   0.00  -0.00     0.00  -0.00   0.00
  57   1     0.00  -0.01  -0.00    -0.00   0.00   0.00    -0.00   0.00   0.00
                    154                    155                    156
                        a                      a                      a 
 Frequencies --  3071.7316              3083.6815              3085.4369
 Red. masses --     1.7765                 1.8756                 1.8293
 Frc consts  --     0.0000                 0.0000                 0.0000
 IR Inten    --    30.6840                47.2591                21.0412
 Raman Activ --     0.0000                 0.0000                 0.0000
 Depolar     --     0.0000                 0.0000                 0.0000
 Atom AN      X      Y      Z        X      Y      Z        X      Y      Z
   1   7     0.00   0.00   0.00    -0.00  -0.00  -0.00    -0.00   0.00  -0.00
   2   6     0.01  -0.00  -0.00     0.01  -0.00   0.00     0.00  -0.00   0.00
   3   6     0.06  -0.10  -0.13     0.07  -0.11  -0.14     0.02  -0.04  -0.05
   4   6     0.12   0.07   0.13    -0.12  -0.07  -0.13    -0.03  -0.02  -0.03
   5   6     0.01   0.00   0.00    -0.01   0.00   0.00    -0.00   0.00   0.00
   6   6     0.01  -0.02  -0.02    -0.00   0.01   0.01    -0.00   0.00   0.00
   7   6    -0.00   0.00   0.00    -0.00  -0.00  -0.00    -0.00  -0.00  -0.00
   8   6     0.00  -0.00   0.00    -0.00  -0.00  -0.00    -0.00  -0.00  -0.00
   9   6    -0.00   0.00   0.00     0.00  -0.00  -0.00    -0.00  -0.00  -0.00
  10   6     0.00   0.00  -0.00     0.01  -0.00  -0.00    -0.03   0.01  -0.00
  11   6     0.02  -0.00  -0.00     0.07  -0.02  -0.00    -0.25   0.06   0.01
  12   6     0.00   0.00  -0.00     0.01  -0.00  -0.00    -0.04   0.00   0.00
  13   6     0.00  -0.00   0.00     0.00  -0.00  -0.00    -0.01   0.00   0.00
  14   6     0.00  -0.00   0.00     0.00  -0.00  -0.00    -0.00   0.00  -0.00
  15   6     0.00  -0.00  -0.00     0.00  -0.00  -0.00    -0.00   0.00  -0.00
  16   8     0.00   0.00   0.00    -0.00  -0.00  -0.00     0.00   0.00   0.00
  17   8     0.00   0.00  -0.00    -0.00  -0.00   0.00     0.00   0.00  -0.00
  18   1     0.02   0.02   0.01    -0.02  -0.02  -0.01     0.02   0.02   0.01
  19   1    -0.00  -0.00  -0.00     0.00   0.00   0.00    -0.00  -0.00  -0.00
  20   1    -0.23   0.38   0.48    -0.23   0.39   0.49    -0.08   0.14   0.18
  21   1    -0.44  -0.26  -0.48     0.40   0.23   0.44     0.09   0.06   0.10
  22   1    -0.03   0.06   0.08     0.01  -0.02  -0.02     0.00  -0.00  -0.00
  23   1    -0.00  -0.00  -0.00     0.01   0.00   0.01     0.01   0.00   0.01
  24   1     0.00  -0.00  -0.00    -0.00   0.00   0.00    -0.00   0.00   0.00
  25   1    -0.01   0.00  -0.01     0.01  -0.00   0.01     0.00  -0.00   0.00
  26   1    -0.00  -0.00  -0.00     0.00   0.00   0.00     0.00   0.00  -0.00
  27   1     0.00   0.00   0.00    -0.00  -0.00   0.00    -0.00  -0.00  -0.00
  28   1    -0.00   0.00   0.00    -0.00   0.00  -0.00    -0.00   0.00   0.00
  29   1    -0.00   0.00  -0.00    -0.02   0.00  -0.00     0.07  -0.01   0.00
  30   1    -0.05   0.01   0.00    -0.27   0.06   0.01     0.88  -0.21  -0.03
  31   1    -0.01   0.00   0.00    -0.03   0.01   0.00     0.12  -0.03  -0.00
  32   1    -0.00   0.00   0.00    -0.00   0.00   0.00     0.00  -0.01  -0.00
  33   1    -0.00   0.00  -0.00    -0.01   0.00  -0.00     0.03  -0.01   0.00
  34   1     0.00   0.00   0.00    -0.00   0.00   0.00     0.00  -0.00  -0.00
  35   1    -0.00   0.00  -0.00    -0.00   0.00  -0.00     0.01  -0.00   0.00
  36   1     0.00  -0.00   0.00     0.00   0.00  -0.00     0.00  -0.00   0.00
  37   1     0.00   0.00   0.00    -0.00   0.00   0.00    -0.00  -0.00  -0.00
  38   1    -0.00   0.00  -0.00    -0.00   0.00  -0.00     0.01  -0.00   0.00
  39   1    -0.00  -0.00   0.01     0.00   0.00  -0.01    -0.00  -0.00   0.01
  40   1     0.00   0.00  -0.00     0.00  -0.00   0.00    -0.00   0.00  -0.00
  41   8    -0.01  -0.00  -0.00     0.01   0.00   0.00    -0.01  -0.00  -0.00
  42   1     0.00   0.00  -0.00     0.00   0.00   0.00    -0.00  -0.00   0.00
  43   1    -0.00  -0.00  -0.00     0.00   0.00   0.00    -0.00  -0.00  -0.00
  44   7    -0.00   0.00  -0.00     0.00   0.00   0.00    -0.00   0.00  -0.00
  45   6    -0.00  -0.00   0.00    -0.00  -0.00   0.00     0.00  -0.00  -0.00
  46   8     0.00   0.00  -0.00     0.00   0.00   0.00    -0.00   0.00   0.00
  47   6    -0.00  -0.00   0.00     0.00  -0.00  -0.00    -0.00  -0.00  -0.00
  48   6     0.00  -0.00   0.00    -0.00  -0.00  -0.00     0.00  -0.00   0.00
  49   8    -0.00   0.00  -0.00     0.00   0.00   0.00    -0.00   0.00   0.00
  50   1    -0.00   0.00   0.00    -0.00   0.00   0.00    -0.00   0.00   0.01
  51   1    -0.00   0.01  -0.00    -0.00   0.00  -0.00    -0.00   0.01  -0.00
  52   1     0.00   0.00  -0.00    -0.00  -0.00   0.00     0.01   0.00  -0.00
  53   7     0.00  -0.00  -0.00     0.00   0.00   0.00     0.00  -0.00  -0.00
  54   6    -0.00  -0.00   0.00    -0.00  -0.00  -0.00     0.00  -0.00  -0.00
  55   1     0.00   0.00   0.00     0.00   0.00   0.00    -0.00  -0.00  -0.00
  56   1     0.00   0.00  -0.00    -0.00   0.00  -0.00     0.00  -0.00   0.00
  57   1     0.00  -0.00   0.00     0.00  -0.00  -0.00    -0.00   0.00   0.00
                    157                    158                    159
                        a                      a                      a 
 Frequencies --  3101.4756              3113.3482              3240.1038
 Red. masses --     1.9025                 1.8472                 1.8627
 Frc consts  --     0.0000                 0.0000                 0.0000
 IR Inten    --  1054.7021                19.7934               891.6253
 Raman Activ --     0.0000                 0.0000                 0.0000
 Depolar     --     0.0000                 0.0000                 0.0000
 Atom AN      X      Y      Z        X      Y      Z        X      Y      Z
   1   7    -0.00  -0.01  -0.00    -0.00  -0.00  -0.00     0.00   0.00   0.00
   2   6     0.01  -0.00   0.00     0.01  -0.00   0.00    -0.00  -0.00  -0.00
   3   6    -0.00  -0.00  -0.00    -0.00  -0.00  -0.00    -0.00   0.00   0.00
   4   6     0.01   0.00   0.01    -0.00  -0.00  -0.00     0.00   0.00   0.00
   5   6     0.00   0.00   0.00    -0.00  -0.00  -0.00     0.00   0.00   0.00
   6   6     0.00  -0.01  -0.01    -0.01   0.02   0.03    -0.00  -0.00  -0.00
   7   6     0.00   0.00   0.00     0.17   0.10   0.18    -0.00  -0.00  -0.00
   8   6     0.00  -0.00   0.00     0.00   0.00   0.00     0.00  -0.00   0.00
   9   6    -0.00  -0.00  -0.00     0.00   0.00   0.00    -0.00   0.00   0.00
  10   6    -0.01   0.01  -0.00    -0.00   0.00   0.00    -0.00   0.00   0.00
  11   6    -0.01  -0.00   0.00    -0.00   0.00   0.00    -0.00  -0.00   0.00
  12   6    -0.01   0.00  -0.00     0.00  -0.00   0.00    -0.00   0.00  -0.00
  13   6    -0.00   0.00   0.00    -0.00   0.00  -0.00    -0.00   0.00   0.00
  14   6    -0.00  -0.00  -0.00     0.00   0.00   0.00    -0.00   0.00   0.00
  15   6    -0.00   0.00  -0.00    -0.00  -0.00   0.00     0.00   0.00   0.00
  16   8    -0.01  -0.01   0.00    -0.00  -0.00   0.00     0.03   0.04  -0.00
  17   8    -0.02  -0.02   0.07     0.00   0.00  -0.00     0.05   0.07  -0.20
  18   1    -0.63  -0.53  -0.39     0.01   0.01   0.01    -0.22  -0.18  -0.13
  19   1     0.04   0.06  -0.00     0.00   0.00  -0.00    -0.12  -0.16  -0.00
  20   1    -0.00   0.00   0.01    -0.00   0.01   0.01     0.00  -0.00  -0.00
  21   1    -0.02  -0.01  -0.02     0.00   0.00   0.00    -0.00  -0.00  -0.00
  22   1    -0.01   0.02   0.02     0.04  -0.07  -0.08     0.00  -0.00  -0.00
  23   1    -0.02  -0.01  -0.01    -0.61  -0.35  -0.65     0.01   0.00   0.01
  24   1    -0.00   0.00   0.00     0.00  -0.00  -0.00     0.00   0.00   0.00
  25   1    -0.00   0.00  -0.00    -0.00   0.00  -0.00    -0.00   0.00  -0.00
  26   1     0.00   0.00   0.00     0.00  -0.00  -0.00     0.00  -0.00  -0.00
  27   1     0.00   0.00  -0.00    -0.00  -0.00  -0.00     0.00  -0.00   0.00
  28   1     0.00   0.00  -0.00    -0.00   0.00   0.00    -0.00   0.00   0.00
  29   1     0.04  -0.01  -0.00     0.00  -0.00  -0.00     0.01  -0.00  -0.00
  30   1     0.03  -0.01  -0.00     0.01  -0.00   0.00     0.00  -0.00  -0.00
  31   1     0.02  -0.00  -0.00    -0.00   0.00   0.00     0.00  -0.00   0.00
  32   1    -0.00  -0.00  -0.00     0.00  -0.00  -0.00     0.00  -0.00  -0.00
  33   1     0.00  -0.00   0.00     0.00  -0.00   0.00    -0.00   0.00   0.00
  34   1    -0.00   0.00   0.00     0.00  -0.00  -0.00     0.00  -0.00  -0.00
  35   1     0.00  -0.00   0.00    -0.00   0.00  -0.00     0.00   0.00   0.00
  36   1     0.00  -0.00   0.01    -0.00   0.00  -0.00     0.00  -0.00   0.00
  37   1     0.00  -0.00  -0.00     0.00  -0.00  -0.00     0.00  -0.00  -0.00
  38   1     0.00   0.00  -0.00     0.00  -0.00   0.00    -0.00   0.00   0.00
  39   1     0.07   0.10  -0.28    -0.00  -0.01   0.02    -0.21  -0.28   0.82
  40   1    -0.00  -0.01   0.01     0.00  -0.00  -0.00     0.00   0.02  -0.02
  41   8     0.16   0.14   0.09    -0.00  -0.00  -0.00     0.06   0.04   0.03
  42   1    -0.00  -0.00  -0.00    -0.00   0.00  -0.00     0.01   0.00   0.00
  43   1     0.01   0.02   0.01    -0.00   0.00   0.00    -0.01   0.01   0.02
  44   7    -0.00  -0.00   0.00     0.00   0.00   0.00    -0.00   0.00  -0.00
  45   6     0.00  -0.00  -0.00    -0.00  -0.00   0.00     0.00  -0.00  -0.00
  46   8    -0.00   0.00   0.00     0.00  -0.00  -0.00    -0.00   0.00  -0.00
  47   6     0.00  -0.00  -0.00    -0.00   0.00   0.00    -0.00  -0.00   0.00
  48   6     0.00   0.00  -0.00     0.00  -0.00   0.00     0.00   0.00   0.00
  49   8    -0.00  -0.00   0.00    -0.00  -0.00  -0.00    -0.00  -0.00  -0.00
  50   1    -0.00   0.00   0.00     0.00  -0.00  -0.00    -0.00   0.00   0.00
  51   1     0.00   0.00  -0.00     0.00  -0.00   0.00     0.00  -0.00   0.00
  52   1    -0.01  -0.00   0.00     0.00   0.00  -0.00     0.01   0.00  -0.00
  53   7    -0.00  -0.00   0.00     0.00  -0.00  -0.00     0.00  -0.00  -0.00
  54   6     0.00   0.00  -0.00    -0.00  -0.00   0.00     0.00   0.00   0.00
  55   1    -0.00  -0.00  -0.00     0.00   0.00   0.00    -0.00  -0.00  -0.00
  56   1     0.00  -0.00   0.00    -0.00   0.00  -0.00    -0.00  -0.00   0.00
  57   1    -0.00   0.00  -0.00     0.00  -0.00   0.00    -0.00   0.00   0.00
                    160                    161                    162
                        a                      a                      a 
 Frequencies --  3342.8173              3352.6286              3460.7026
 Red. masses --     1.8803                 1.8651                 1.8445
 Frc consts  --     0.0000                 0.0000                 0.0000
 IR Inten    --    93.5300               431.0051                12.8665
 Raman Activ --     0.0000                 0.0000                 0.0000
 Depolar     --     0.0000                 0.0000                 0.0000
 Atom AN      X      Y      Z        X      Y      Z        X      Y      Z
   1   7     0.00  -0.00   0.00    -0.00  -0.00  -0.00     0.00  -0.00   0.00
   2   6    -0.00   0.00  -0.00    -0.00   0.00  -0.00    -0.00  -0.00  -0.00
   3   6    -0.00   0.00   0.00     0.00  -0.00  -0.00     0.00  -0.00   0.00
   4   6     0.00  -0.00  -0.00    -0.00  -0.00  -0.00    -0.00  -0.00  -0.00
   5   6    -0.00   0.00  -0.00    -0.00   0.00  -0.00     0.00  -0.00  -0.00
   6   6     0.00  -0.00   0.00    -0.00   0.00   0.00    -0.00   0.00   0.00
   7   6     0.00  -0.00   0.00    -0.00  -0.00  -0.00    -0.00   0.00   0.00
   8   6     0.00  -0.00  -0.00    -0.00   0.00  -0.00    -0.00  -0.00   0.00
   9   6     0.00  -0.00  -0.00    -0.00  -0.00  -0.00    -0.00  -0.00  -0.00
  10   6     0.00   0.00  -0.00     0.00   0.00  -0.00     0.00   0.00  -0.00
  11   6     0.00  -0.00   0.00     0.00  -0.00   0.00    -0.00  -0.00   0.00
  12   6     0.00   0.00  -0.00     0.00  -0.00   0.00     0.00   0.00  -0.00
  13   6     0.00  -0.00   0.00    -0.00  -0.00  -0.00     0.00  -0.00   0.00
  14   6     0.00  -0.00  -0.00     0.00  -0.00  -0.00     0.00  -0.00  -0.00
  15   6     0.00  -0.00   0.00    -0.00  -0.00  -0.00     0.00  -0.00  -0.00
  16   8     0.00   0.01  -0.00    -0.14  -0.19   0.00    -0.00  -0.00  -0.00
  17   8    -0.00  -0.00   0.00     0.01   0.01  -0.05     0.00  -0.00  -0.00
  18   1     0.00   0.00   0.00    -0.00  -0.00   0.00     0.00   0.00   0.00
  19   1    -0.02  -0.03  -0.00     0.58   0.75   0.00     0.00   0.00   0.00
  20   1     0.00  -0.00  -0.00    -0.00   0.00   0.00    -0.00   0.00   0.00
  21   1     0.00   0.00   0.00     0.00   0.00   0.00     0.00   0.00   0.00
  22   1    -0.00   0.00   0.00     0.00  -0.00  -0.00     0.00  -0.00  -0.00
  23   1     0.00   0.00  -0.00     0.00   0.00   0.00    -0.00  -0.00  -0.00
  24   1    -0.00   0.00   0.00     0.00  -0.00  -0.00     0.00   0.00   0.00
  25   1     0.00  -0.00   0.00     0.00  -0.00   0.00     0.00  -0.00   0.00
  26   1    -0.00   0.01   0.00    -0.00   0.00   0.00    -0.00   0.00   0.01
  27   1    -0.00  -0.01  -0.00    -0.00  -0.00  -0.00     0.38   0.73   0.51
  28   1    -0.63   0.73   0.07    -0.02   0.03   0.00    -0.01   0.01   0.00
  29   1    -0.00  -0.00   0.00    -0.00   0.00  -0.00    -0.00  -0.00   0.00
  30   1    -0.00   0.00  -0.00    -0.00  -0.00  -0.00     0.00  -0.00  -0.00
  31   1    -0.00   0.00   0.00    -0.00   0.00  -0.00    -0.00   0.00  -0.00
  32   1    -0.00   0.00   0.00    -0.00   0.00   0.00    -0.00   0.00   0.00
  33   1    -0.00   0.00  -0.00     0.00  -0.00   0.00    -0.00  -0.00  -0.00
  34   1     0.00   0.00   0.00    -0.00   0.00   0.00     0.00   0.00   0.00
  35   1    -0.00   0.00  -0.00    -0.00  -0.00  -0.00    -0.00   0.00  -0.00
  36   1    -0.00   0.00  -0.00    -0.00   0.00  -0.00     0.00  -0.00  -0.00
  37   1    -0.00   0.00   0.00    -0.00   0.00   0.00    -0.00   0.00   0.00
  38   1    -0.00  -0.00   0.00     0.00  -0.00   0.00    -0.00  -0.00  -0.00
  39   1     0.00   0.00  -0.01    -0.05  -0.06   0.20    -0.00  -0.00   0.00
  40   1    -0.00  -0.00  -0.00     0.00   0.02   0.00    -0.00   0.00   0.00
  41   8    -0.00  -0.00   0.00     0.00   0.00  -0.00    -0.00  -0.00  -0.00
  42   1     0.00   0.00   0.00    -0.03  -0.00  -0.01    -0.00   0.00  -0.00
  43   1     0.00  -0.00  -0.00    -0.00   0.00   0.00    -0.00   0.00  -0.00
  44   7     0.00  -0.00   0.00     0.00  -0.00   0.00    -0.10  -0.19  -0.13
  45   6     0.01  -0.01  -0.00    -0.00  -0.00   0.00     0.00  -0.00  -0.00
  46   8    -0.00   0.01   0.00     0.00   0.00  -0.00     0.00   0.00  -0.00
  47   6    -0.00  -0.00  -0.00     0.00   0.00  -0.00    -0.00  -0.00  -0.00
  48   6     0.00   0.01   0.00    -0.00   0.00  -0.00    -0.01  -0.01  -0.01
  49   8    -0.01  -0.01  -0.00     0.00  -0.00   0.00     0.00   0.00   0.00
  50   1     0.00  -0.00  -0.00     0.00  -0.00  -0.00    -0.00   0.00   0.00
  51   1     0.00  -0.00   0.00    -0.00   0.00  -0.00    -0.00   0.00  -0.00
  52   1     0.00   0.00  -0.00    -0.01  -0.01   0.00     0.00   0.00  -0.00
  53   7     0.17  -0.19  -0.02     0.01  -0.01  -0.00     0.00  -0.00  -0.00
  54   6     0.00  -0.00  -0.00     0.00  -0.00  -0.00    -0.00  -0.00  -0.00
  55   1    -0.00  -0.01  -0.00    -0.00  -0.00  -0.00     0.00   0.00   0.00
  56   1    -0.00  -0.00   0.01    -0.00  -0.00   0.00    -0.00  -0.00   0.00
  57   1    -0.01   0.02   0.00    -0.00   0.00   0.00    -0.00   0.00  -0.00
                    163                    164                    165
                        a                      a                      a 
 Frequencies --  3659.1695              3667.7274              3669.5237
 Red. masses --     1.8343                 1.8442                 1.8321
 Frc consts  --     0.0000                 0.0000                 0.0000
 IR Inten    --     4.6132                 6.8098                18.2004
 Raman Activ --     0.0000                 0.0000                 0.0000
 Depolar     --     0.0000                 0.0000                 0.0000
 Atom AN      X      Y      Z        X      Y      Z        X      Y      Z
   1   7     0.00  -0.00  -0.00    -0.00  -0.00  -0.00    -0.00  -0.00  -0.00
   2   6     0.00  -0.00  -0.00     0.00  -0.00   0.00     0.00  -0.00   0.00
   3   6    -0.00   0.00  -0.00    -0.00   0.00  -0.00    -0.00   0.00  -0.00
   4   6     0.00  -0.00  -0.00     0.00  -0.00  -0.00     0.00  -0.00  -0.00
   5   6     0.00   0.00  -0.00     0.00   0.00   0.00     0.00   0.00   0.00
   6   6    -0.00  -0.00  -0.00    -0.00   0.00   0.00     0.00   0.00   0.00
   7   6    -0.00  -0.00  -0.00    -0.00  -0.00  -0.00     0.00  -0.00   0.00
   8   6     0.00  -0.00  -0.00     0.00  -0.00   0.00     0.00   0.00   0.00
   9   6    -0.00   0.00  -0.00    -0.00  -0.00  -0.00    -0.00  -0.00  -0.00
  10   6     0.00  -0.00   0.00     0.00   0.00  -0.00     0.00  -0.00  -0.00
  11   6    -0.00   0.00   0.00     0.00  -0.00   0.00     0.00   0.00  -0.00
  12   6    -0.00   0.00  -0.00     0.00   0.00  -0.00     0.00  -0.00   0.00
  13   6    -0.00   0.00   0.00    -0.00  -0.00   0.00     0.00   0.00   0.00
  14   6    -0.00  -0.00  -0.00    -0.00   0.00   0.00     0.00  -0.00  -0.00
  15   6    -0.00   0.00  -0.00    -0.00  -0.00   0.00    -0.00  -0.00  -0.00
  16   8     0.12  -0.18   0.09    -0.00   0.00  -0.00     0.01  -0.01   0.01
  17   8    -0.00   0.01   0.01    -0.02   0.07   0.06     0.04  -0.17  -0.12
  18   1    -0.00  -0.00  -0.00     0.03   0.00  -0.00     0.01   0.00  -0.00
  19   1    -0.00  -0.04   0.01     0.00   0.01   0.00    -0.01  -0.02  -0.00
  20   1     0.00   0.00   0.00     0.00   0.00   0.00     0.00   0.00   0.00
  21   1    -0.00   0.00   0.00    -0.00  -0.00  -0.00     0.00   0.00   0.00
  22   1    -0.00   0.00   0.00     0.00   0.00   0.00    -0.00   0.00   0.00
  23   1     0.00   0.00   0.00     0.00   0.00   0.00    -0.00  -0.00  -0.00
  24   1    -0.00   0.00   0.00    -0.00   0.00  -0.00    -0.00   0.00   0.00
  25   1     0.00   0.00   0.00     0.00   0.00   0.00     0.00   0.00   0.00
  26   1     0.00  -0.00   0.00    -0.00   0.00   0.00     0.00   0.00   0.00
  27   1    -0.00  -0.00  -0.00     0.00   0.00   0.00    -0.00  -0.00  -0.00
  28   1     0.00  -0.00   0.00    -0.00   0.00   0.00    -0.00   0.00   0.00
  29   1    -0.00   0.00   0.00    -0.00   0.00   0.00    -0.00   0.00   0.00
  30   1     0.00  -0.00  -0.00    -0.00  -0.00   0.00    -0.00  -0.00   0.00
  31   1     0.00  -0.00  -0.00    -0.00  -0.00   0.00    -0.00   0.00  -0.00
  32   1    -0.00  -0.00  -0.00    -0.00  -0.00  -0.00    -0.00  -0.00  -0.00
  33   1     0.00  -0.00   0.00     0.00  -0.00   0.00    -0.00  -0.00   0.00
  34   1    -0.00   0.00   0.00     0.00  -0.00  -0.00    -0.00   0.00  -0.00
  35   1     0.00  -0.00  -0.00    -0.00   0.00   0.00     0.00  -0.00  -0.00
  36   1    -0.00  -0.00   0.00    -0.00   0.00  -0.00    -0.00  -0.00   0.00
  37   1    -0.00  -0.00   0.00    -0.00   0.00   0.00    -0.00  -0.00  -0.00
  38   1     0.00  -0.00   0.00     0.00  -0.00   0.00    -0.00  -0.00  -0.00
  39   1    -0.00   0.00   0.00     0.00   0.01  -0.00     0.01  -0.01  -0.04
  40   1     0.01  -0.05  -0.04     0.07  -0.30  -0.22    -0.16   0.71   0.52
  41   8    -0.00   0.00   0.00     0.19  -0.04  -0.09     0.08  -0.02  -0.04
  42   1    -0.48   0.76  -0.36     0.01  -0.01   0.01    -0.03   0.05  -0.03
  43   1     0.01  -0.00  -0.01    -0.80   0.15   0.37    -0.34   0.06   0.16
  44   7    -0.00   0.00  -0.00    -0.00   0.00  -0.00     0.00   0.00   0.00
  45   6     0.00  -0.00   0.00     0.00  -0.00  -0.00    -0.00   0.00   0.00
  46   8    -0.00   0.00   0.00    -0.00   0.00   0.00     0.00  -0.00  -0.00
  47   6    -0.00  -0.00  -0.00    -0.00   0.00  -0.00    -0.00  -0.00  -0.00
  48   6     0.00  -0.00   0.00    -0.00  -0.00  -0.00    -0.00  -0.00  -0.00
  49   8    -0.00   0.00  -0.00     0.00   0.00   0.00     0.00   0.00   0.00
  50   1    -0.00  -0.00   0.00     0.00   0.00  -0.00    -0.00   0.00   0.00
  51   1     0.00   0.00  -0.00     0.00  -0.00   0.00     0.00   0.00  -0.00
  52   1     0.00  -0.00   0.00    -0.00   0.00   0.00     0.00  -0.00  -0.00
  53   7    -0.00   0.00  -0.00     0.00  -0.00   0.00     0.00  -0.00  -0.00
  54   6     0.00   0.00   0.00     0.00  -0.00  -0.00    -0.00  -0.00  -0.00
  55   1     0.00   0.00   0.00     0.00   0.00   0.00     0.00   0.00   0.00
  56   1     0.00   0.00  -0.00     0.00   0.00   0.00     0.00   0.00  -0.00
  57   1    -0.00   0.00   0.00    -0.00   0.00   0.00    -0.00   0.00   0.00
