      -----------------------------------------------------------      
     |                   =====================                   |     
     |                           x T B                           |     
     |                   =====================                   |     
     |                         S. Grimme                         |     
     |          Mulliken Center for Theoretical Chemistry        |     
     |                    University of Bonn                     |     
      -----------------------------------------------------------      

   * xtb version 6.7.1pre (5071a88) compiled by 'Marcel@Raven' on 2024-07-23

   xtb is free software: you can redistribute it and/or modify it under
   the terms of the GNU Lesser General Public License as published by
   the Free Software Foundation, either version 3 of the License, or
   (at your option) any later version.
   
   xtb is distributed in the hope that it will be useful,
   but WITHOUT ANY WARRANTY; without even the implied warranty of
   MERCHANTABILITY or FITNESS FOR A PARTICULAR PURPOSE.  See the
   GNU Lesser General Public License for more details.
   
   Cite this work as:
   * C. Bannwarth, E. Caldeweyher, S. Ehlert, A. Hansen, P. Pracht,
     J. Seibert, S. Spicher, S. Grimme, WIREs Comput. Mol. Sci., 2020, 11,
     e01493. DOI: 10.1002/wcms.1493
   
   for GFN2-xTB:
   * C. Bannwarth, S. Ehlert and S. Grimme., J. Chem. Theory Comput., 2019,
     15, 1652-1671. DOI: 10.1021/acs.jctc.8b01176
   for GFN1-xTB:
   * S. Grimme, C. Bannwarth, P. Shushkov, J. Chem. Theory Comput., 2017,
     13, 1989-2009. DOI: 10.1021/acs.jctc.7b00118
   for GFN0-xTB:
   * P. Pracht, E. Caldeweyher, S. Ehlert, S. Grimme, ChemRxiv, 2019, preprint.
     DOI: 10.26434/chemrxiv.8326202.v1
   for GFN-FF:
   * S. Spicher and S. Grimme, Angew. Chem. Int. Ed., 2020, 59, 15665-15673.
     DOI: 10.1002/anie.202004239
   
   for ALPB and GBSA implicit solvation:
   * S. Ehlert, M. Stahn, S. Spicher, S. Grimme, J. Chem. Theory Comput.,
     2021, 17, 4250-4261. DOI: 10.1021/acs.jctc.1c00471
   
   for ddCOSMO and CPCM-X implicit solvation:
   * M. Stahn, S. Ehlert, S. Grimme, J. Phys. Chem. A,
     2023, XX, XXXX-XXXX. DOI: 10.1021/acs.jpca.3c04382
   
   for DFT-D4:
   * E. Caldeweyher, C. Bannwarth and S. Grimme, J. Chem. Phys., 2017,
     147, 034112. DOI: 10.1063/1.4993215
   * E. Caldeweyher, S. Ehlert, A. Hansen, H. Neugebauer, S. Spicher,
     C. Bannwarth and S. Grimme, J. Chem. Phys., 2019, 150, 154122.
     DOI: 10.1063/1.5090222
   * E. Caldeweyher, J.-M. Mewes, S. Ehlert and S. Grimme, Phys. Chem. Chem. Phys.
     2020, 22, 8499-8512. DOI: 10.1039/D0CP00502A
   
   for sTDA-xTB:
   * S. Grimme and C. Bannwarth, J. Chem. Phys., 2016, 145, 054103.
     DOI: 10.1063/1.4959605
   
   in the mass-spec context:
   * V. Asgeirsson, C. Bauer and S. Grimme, Chem. Sci., 2017, 8, 4879.
     DOI: 10.1039/c7sc00601b
   * J. Koopman and S. Grimme, ACS Omega 2019, 4, 12, 15120-15133.
     DOI: 10.1021/acsomega.9b02011
   
   for metadynamics refer to:
   * S. Grimme, J. Chem. Theory Comput., 2019, 155, 2847-2862
     DOI: 10.1021/acs.jctc.9b00143
   
   for SPH calculations refer to:
   * S. Spicher and S. Grimme, J. Chem. Theory Comput., 2021, 17, 1701-1714
     DOI: 10.1021/acs.jctc.0c01306
   
   for ONIOM refer to:
   * C. Plett, A. Katbashev, S. Ehlert, S. Grimme, M. Bursch,
     Phys. Chem. Chem. Phys., 2023, 25, 17860-17868. DOI: 10.1039/D3CP02178E
   
   for DIPRO refer to:
   * J. Kohn, N. Gildemeister, S. Grimme, D. Fazzi, A. Hansen,
     J. Chem. Phys., 2023, just accepted.
   
   for PTB refer to:
   * S. Grimme, M. Mueller, A. Hansen, J. Chem. Phys., 2023, 158, 124111.
     DOI: 10.1063/5.0137838
   
   with help from (in alphabetical order)
   P. Atkinson, C. Bannwarth, F. Bohle, G. Brandenburg, E. Caldeweyher
   M. Checinski, S. Dohm, S. Ehlert, S. Ehrlich, I. Gerasimov, C. Hölzer
   A. Katbashev, J. Kohn, J. Koopman, C. Lavigne, S. Lehtola, F. März, M. Müller,
   F. Musil, H. Neugebauer, J. Pisarek, C. Plett, P. Pracht, F. Pultar,
   J. Seibert, P. Shushkov, S. Spicher, M. Stahn, M. Steiner, T. Strunk,
   J. Stückrath, T. Rose, and J. Unsleber
   
 * started run on 2026/08/31 at 13:17:04.652     
   ID    Z sym.   atoms
    1    7 N      1, 44, 53
    2    6 C      2-15, 45, 47, 48, 54
    3    8 O      16, 17, 41, 46, 49
    4    1 H      18-40, 42, 43, 50-52, 55-57

           -------------------------------------------------
          |                Calculation Setup                |
           -------------------------------------------------

          program call               : C:\Users\Nayanika\Downloads\xtb-6.7.1pre-windows-x86_64\xtb-6.7.1\bin\xtb.exe D:\PhD_Thesis\LmrR_EVB\charges\fast_lmrr_5QM\xtb_preparation\stage2_five_xtb_protocols\GFN2_etemp500\RS1_2b_to_PS1_3\RS1_2b_to_PS1_3_PS_xtbopt.xyz --gfn 2 --chrg 0 --uhf 0 --etemp 500
          coordinate file            : D:\PhD_Thesis\LmrR_EVB\charges\fast_lmrr_5QM\xtb_preparation\stage2_five_xtb_protocols\GFN2_etemp500\RS1_2b_to_PS1_3\RS1_2b_to_PS1_3_PS_xtbopt.xyz
          omp threads                :                     1


molecular fragmentation (1/2 indicates fragments):
111111111111111222211111111111111111112222211111111111111
# atoms in fragment 1/2:    48     9
 fragment masses (1/2) :      315.41       54.05
CMA distance (Bohr)    :   9.675
constraining FC (au)   :  0.0500

           -------------------------------------------------
          |                 G F N 2 - x T B                 |
           -------------------------------------------------

        Reference                      10.1021/acs.jctc.8b01176
      * Hamiltonian:
        H0-scaling (s, p, d)           1.850000    2.230000    2.230000
        zeta-weighting                 0.500000
      * Dispersion:
        s8                             2.700000
        a1                             0.520000
        a2                             5.000000
        s9                             5.000000
      * Repulsion:
        kExp                           1.500000    1.000000
        rExp                           1.000000
      * Coulomb:
        alpha                          2.000000
        third order                    shell-resolved
        anisotropic                    true
        a3                             3.000000
        a5                             4.000000
        cn-shift                       1.200000
        cn-exp                         4.000000
        max-rad                        5.000000

q/qsh data taken from xtbrestart
CAMM data taken from xtbrestart

          ...................................................
          :                      SETUP                      :
          :.................................................:
          :  # basis functions                 135          :
          :  # atomic orbitals                 135          :
          :  # shells                           83          :
          :  # electrons                       148          :
          :  max. iterations                   250          :
          :  Hamiltonian                  GFN2-xTB          :
          :  restarted?                       true          :
          :  GBSA solvation                  false          :
          :  PC potential                    false          :
          :  electronic temp.          500.0000000     K    :
          :  accuracy                    1.0000000          :
          :  -> integral cutoff          0.2500000E+02      :
          :  -> integral neglect         0.1000000E-07      :
          :  -> SCF convergence          0.1000000E-05 Eh   :
          :  -> wf. convergence          0.1000000E-03 e    :
          :  Broyden damping             0.4000000          :
          :  net charge                          0          :
          :  unpaired electrons                  0          :
          ...................................................

 iter      E             dE          RMSdq      gap      omega  full diag
   1    -84.5414089 -0.845414E+02  0.199E+00    2.27       0.0  T
   2    -84.5457260 -0.431711E-02  0.119E+00    2.45       1.0  T
   3    -84.5325206  0.132054E-01  0.597E-01    2.14       1.0  T
   4    -84.5485560 -0.160354E-01  0.121E-01    2.37       1.0  T
   5    -84.5488308 -0.274880E-03  0.663E-02    2.36       1.0  T
   6    -84.5488985 -0.676660E-04  0.286E-02    2.35       1.0  T
   7    -84.5489132 -0.147124E-04  0.833E-03    2.35       1.6  T
   8    -84.5489137 -0.509223E-06  0.385E-03    2.35       3.4  T
   9    -84.5489143 -0.521681E-06  0.136E-03    2.35       9.7  T
  10    -84.5489143 -0.284539E-07  0.624E-04    2.35      21.2  T
  11    -84.5489143 -0.816384E-08  0.184E-04    2.35      71.8  T

   *** convergence criteria satisfied after 11 iterations ***

         #    Occupation            Energy/Eh            Energy/eV
      -------------------------------------------------------------
         1        2.0000           -0.6974823             -18.9795
       ...           ...                  ...                  ...
        68        2.0000           -0.4137691             -11.2592
        69        2.0000           -0.4043696             -11.0035
        70        2.0000           -0.4003996             -10.8954
        71        2.0000           -0.3967432             -10.7959
        72        2.0000           -0.3940428             -10.7225
        73        2.0000           -0.3797139             -10.3325
        74        2.0000           -0.3684298             -10.0255 (HOMO)
        75                         -0.2819564              -7.6724 (LUMO)
        76                         -0.2223365              -6.0501
        77                         -0.2163308              -5.8867
        78                         -0.2084973              -5.6735
        79                         -0.2010546              -5.4710
       ...                                ...                  ...
       135                          0.6671529              18.1542
      -------------------------------------------------------------
                  HL-Gap            0.0864734 Eh            2.3531 eV
             Fermi-level           -0.3251931 Eh           -8.8490 eV

 SCC (total)                   0 d,  0 h,  0 min,  0.175 sec
 SCC setup                      ...        0 min,  0.001 sec (  0.572%)
 Dispersion                     ...        0 min,  0.001 sec (  0.571%)
 classical contributions        ...        0 min,  0.000 sec (  0.000%)
 integral evaluation            ...        0 min,  0.017 sec (  9.714%)
 iterations                     ...        0 min,  0.104 sec ( 59.429%)
 molecular gradient             ...        0 min,  0.052 sec ( 29.714%)
 printout                       ...        0 min,  0.000 sec (  0.000%)

         :::::::::::::::::::::::::::::::::::::::::::::::::::::
         ::                     SUMMARY                     ::
         :::::::::::::::::::::::::::::::::::::::::::::::::::::
         :: total energy             -83.442252808560 Eh    ::
         :: gradient norm              0.001506097138 Eh/a0 ::
         :: HOMO-LUMO gap              2.353060396262 eV    ::
         ::.................................................::
         :: SCC energy               -84.547057089856 Eh    ::
         :: -> isotropic ES            0.184778345267 Eh    ::
         :: -> anisotropic ES         -0.007457665059 Eh    ::
         :: -> anisotropic XC          0.034409882740 Eh    ::
         :: -> dispersion             -0.055978987796 Eh    ::
         :: repulsion energy           1.104804281296 Eh    ::
         :: add. restraining           0.000000000000 Eh    ::
         :: total charge              -0.000000000000 e     ::
         :::::::::::::::::::::::::::::::::::::::::::::::::::::

           -------------------------------------------------
          |                Property Printout                |
           -------------------------------------------------

    * Orbital Energies and Occupations

         #    Occupation            Energy/Eh            Energy/eV
      -------------------------------------------------------------
         1        2.0000           -0.6974823             -18.9795
       ...           ...                  ...                  ...
        62        2.0000           -0.4380652             -11.9204
        63        2.0000           -0.4362532             -11.8711
        64        2.0000           -0.4320690             -11.7572
        65        2.0000           -0.4265308             -11.6065
        66        2.0000           -0.4227399             -11.5033
        67        2.0000           -0.4211728             -11.4607
        68        2.0000           -0.4137691             -11.2592
        69        2.0000           -0.4043696             -11.0035
        70        2.0000           -0.4003996             -10.8954
        71        2.0000           -0.3967432             -10.7959
        72        2.0000           -0.3940428             -10.7225
        73        2.0000           -0.3797139             -10.3325
        74        2.0000           -0.3684298             -10.0255 (HOMO)
        75                         -0.2819564              -7.6724 (LUMO)
        76                         -0.2223365              -6.0501
        77                         -0.2163308              -5.8867
        78                         -0.2084973              -5.6735
        79                         -0.2010546              -5.4710
        80                         -0.1647713              -4.4837
        81                         -0.0948804              -2.5818
        82                          0.0107955               0.2938
        83                          0.0140683               0.3828
        84                          0.0400828               1.0907
        85                          0.0815314               2.2186
       ...                                ...                  ...
       135                          0.6671529              18.1542
      -------------------------------------------------------------
                  HL-Gap            0.0864734 Eh            2.3531 eV
             Fermi-level           -0.3251931 Eh           -8.8490 eV

     #   Z          covCN         q      C6AA      α(0)
     1   7 N        1.835    -0.232    26.924     7.689
     2   6 C        2.947     0.082    26.175     8.391
     3   6 C        2.921    -0.046    29.143     8.853
     4   6 C        2.925    -0.039    28.965     8.826
     5   6 C        2.976     0.004    27.923     8.668
     6   6 C        2.925    -0.041    29.012     8.833
     7   6 C        2.922    -0.045    29.126     8.850
     8   6 C        3.811    -0.068    21.795     6.645
     9   6 C        3.803     0.020    20.229     6.403
    10   6 C        2.866     0.082    26.160     8.384
    11   6 C        2.895    -0.049    29.219     8.863
    12   6 C        2.896    -0.017    28.444     8.744
    13   6 C        3.808    -0.062    21.692     6.630
    14   6 C        3.803    -0.049    21.442     6.592
    15   6 C        3.752    -0.105    22.568     6.774
    16   8 O        1.609    -0.611    25.442     6.808
    17   8 O        1.608    -0.611    25.459     6.810
    18   1 H        0.803     0.315     0.677     1.293
    19   1 H        0.804     0.315     0.678     1.293
    20   1 H        0.926     0.030     2.589     2.516
    21   1 H        0.926     0.033     2.549     2.497
    22   1 H        0.925     0.031     2.579     2.511
    23   1 H        0.926     0.053     2.280     2.361
    24   1 H        0.924     0.059     2.209     2.324
    25   1 H        0.924     0.058     2.226     2.333
    26   1 H        0.923     0.063     2.160     2.298
    27   1 H        0.860     0.182     1.204     1.719
    28   1 H        0.860     0.202     1.097     1.641
    29   1 H        0.925     0.039     2.460     2.453
    30   1 H        0.926     0.056     2.246     2.344
    31   1 H        0.925     0.039     2.465     2.455
    32   1 H        0.924     0.047     2.357     2.401
    33   1 H        0.924     0.055     2.259     2.350
    34   1 H        0.924     0.037     2.491     2.468
    35   1 H        0.924     0.030     2.584     2.514
    36   1 H        0.925     0.036     2.505     2.475
    37   1 H        0.925     0.036     2.501     2.473
    38   1 H        0.925     0.044     2.401     2.423
    39   1 H        0.803     0.323     0.657     1.273
    40   1 H        0.806     0.278     0.792     1.398
    41   8 O        1.608    -0.600    25.193     6.774
    42   1 H        0.805     0.268     0.825     1.427
    43   1 H        0.806     0.278     0.790     1.396
    44   7 N        2.692    -0.188    25.076     7.437
    45   6 C        2.752     0.264    22.543     7.775
    46   8 O        0.858    -0.435    22.383     6.343
    47   6 C        3.757    -0.153    23.509     6.913
    48   6 C        2.749     0.278    22.302     7.733
    49   8 O        0.859    -0.468    23.086     6.442
    50   1 H        0.925     0.054     2.269     2.356
    51   1 H        0.925     0.068     2.103     2.268
    52   1 H        0.924     0.094     1.837     2.119
    53   7 N        2.687    -0.175    24.794     7.395
    54   6 C        3.690    -0.042    21.524     6.640
    55   1 H        0.924     0.051     2.303     2.373
    56   1 H        0.924     0.049     2.330     2.387
    57   1 H        0.925     0.082     1.954     2.186

 Mol. C6AA /au·bohr⁶  :      29500.415967
 Mol. C8AA /au·bohr⁸  :     658255.007317
 Mol. α(0) /au        :        262.541323


Wiberg/Mayer (AO) data.
largest (>0.10) Wiberg bond orders for each atom

 ---------------------------------------------------------------------------
     #   Z sym  total        # sym  WBO       # sym  WBO       # sym  WBO
 ---------------------------------------------------------------------------
     1   7 N    3.190 --    10 C    1.751     2 C    1.090    12 C    0.116
     2   6 C    3.977 --     7 C    1.364     3 C    1.352     1 N    1.090
     3   6 C    3.989 --     4 C    1.464     2 C    1.352    20 H    0.969
                             6 C    0.102
     4   6 C    3.991 --     3 C    1.464     5 C    1.397    21 H    0.967
                             7 C    0.105
     5   6 C    3.983 --     6 C    1.405     4 C    1.397     8 C    1.011
     6   6 C    3.990 --     7 C    1.454     5 C    1.405    22 H    0.967
                             3 C    0.102
     7   6 C    3.988 --     6 C    1.454     2 C    1.364    23 H    0.966
                             4 C    0.105
     8   6 C    3.991 --     5 C    1.011     9 C    0.977    24 H    0.971
                            25 H    0.967
     9   6 C    3.965 --     8 C    0.977    44 N    0.976    26 H    0.950
                            45 C    0.917
    10   6 C    3.969 --     1 N    1.751    11 C    1.132    29 H    0.955
    11   6 C    3.989 --    12 C    1.798    10 C    1.132    30 H    0.955
    12   6 C    3.980 --    11 C    1.798    13 C    1.042    31 H    0.965
                             1 N    0.116
    13   6 C    3.995 --    12 C    1.042    14 C    0.978    33 H    0.973
                            32 H    0.959
    14   6 C    3.989 --    15 C    1.018    35 H    0.979    13 C    0.978
                            34 H    0.977
    15   6 C    3.995 --    14 C    1.018    37 H    0.988    38 H    0.986
                            36 H    0.986
    16   8 O    1.817 --    42 H    0.925    19 H    0.852
    17   8 O    1.851 --    40 H    0.920    39 H    0.834
    18   1 H    0.901 --    41 O    0.829
    19   1 H    0.901 --    16 O    0.852
    20   1 H    0.999 --     3 C    0.969
    21   1 H    0.998 --     4 C    0.967
    22   1 H    0.998 --     6 C    0.967
    23   1 H    0.997 --     7 C    0.966
    24   1 H    0.996 --     8 C    0.971
    25   1 H    0.995 --     8 C    0.967
    26   1 H    0.996 --     9 C    0.950
    27   1 H    0.967 --    44 N    0.933
    28   1 H    0.959 --    53 N    0.914
    29   1 H    0.997 --    10 C    0.955
    30   1 H    0.997 --    11 C    0.955
    31   1 H    0.998 --    12 C    0.965
    32   1 H    0.993 --    13 C    0.959
    33   1 H    0.997 --    13 C    0.973
    34   1 H    0.999 --    14 C    0.977
    35   1 H    0.999 --    14 C    0.979
    36   1 H    0.997 --    15 C    0.986
    37   1 H    0.999 --    15 C    0.988
    38   1 H    0.998 --    15 C    0.986
    39   1 H    0.896 --    17 O    0.834
    40   1 H    0.923 --    17 O    0.920
    41   8 O    1.872 --    43 H    0.919    18 H    0.829
    42   1 H    0.928 --    16 O    0.925
    43   1 H    0.923 --    41 O    0.919
    44   7 N    3.443 --    48 C    1.262     9 C    0.976    27 H    0.933
                            49 O    0.188
    45   6 C    3.955 --    46 O    1.681    53 N    1.285     9 C    0.917
    46   8 O    2.010 --    45 C    1.681    53 N    0.211
    47   6 C    3.990 --    48 C    0.992    51 H    0.982    50 H    0.970
                            52 H    0.952
    48   6 C    3.947 --    49 O    1.642    44 N    1.262    47 C    0.992
    49   8 O    1.976 --    48 C    1.642    44 N    0.188
    50   1 H    0.997 --    47 C    0.970
    51   1 H    0.995 --    47 C    0.982
    52   1 H    0.991 --    47 C    0.952
    53   7 N    3.464 --    45 C    1.285    54 C    1.006    28 H    0.914
                            46 O    0.211
    54   6 C    3.966 --    53 N    1.006    55 H    0.977    57 H    0.977
                            56 H    0.977
    55   1 H    0.997 --    54 C    0.977
    56   1 H    0.997 --    54 C    0.977
    57   1 H    0.993 --    54 C    0.977
 ---------------------------------------------------------------------------

Topologies differ in total number of bonds
Writing topology from bond orders to xtbtopo.mol

molecular dipole:
                 x           y           z       tot (Debye)
 q only:       -1.219       0.787      -0.168
   full:       -1.743       1.039      -0.232       5.191
molecular quadrupole (traceless):
                xx          xy          yy          xz          yz          zz
 q only:      -15.943       8.644       8.292      -3.207      -3.316       7.651
  q+dip:      -23.211       7.145      10.754      -2.129       0.435      12.457
   full:      -24.729       8.310      10.347      -2.703      -1.388      14.382


           -------------------------------------------------
          | TOTAL ENERGY              -83.442252808560 Eh   |
          | GRADIENT NORM               0.001506097138 Eh/α |
          | HOMO-LUMO GAP               2.353060396262 eV   |
           -------------------------------------------------

------------------------------------------------------------------------
 * finished run on 2026/08/31 at 13:17:04.921     
------------------------------------------------------------------------
 total:
 * wall-time:     0 d,  0 h,  0 min,  0.266 sec
 *  cpu-time:     0 d,  0 h,  0 min,  0.219 sec
 * ratio c/w:     0.822 speedup
 SCF:
 * wall-time:     0 d,  0 h,  0 min,  0.176 sec
 *  cpu-time:     0 d,  0 h,  0 min,  0.141 sec
 * ratio c/w:     0.799 speedup



===== STDERR =====

normal termination of xtb
