57
 energy: -83.439198046643 gnorm: 0.000180699679 xtb: 6.7.1pre (5071a88)
N           -0.02183695899298        0.59442775130982        0.66869816849027
C            1.32458331540278        0.33073336421887        0.47528849850333
C            2.31494315659832        1.06943727902618        1.12714725170598
C            3.64163412846321        0.71752625421257        0.99383997075576
C            4.02183147133454       -0.36500709441742        0.20804320316810
C            3.03045287089976       -1.10488949474520       -0.42566635111756
C            1.69651651037200       -0.77690184929914       -0.28500223098235
C            5.47496423230639       -0.68256143735910        0.00409870293243
C            6.10540180073890        0.30978405050554       -0.97639319095598
C           -0.56139627761163        1.73890813739835        0.51345978370367
C            0.03629270391479        2.92695448271646       -0.03976338853586
C           -0.59096718418802        4.10535778957507       -0.02397781674766
C           -0.02843087766854        5.37537109093153       -0.55410291934945
C           -0.97069594754936        6.02818336477457       -1.57212558567631
C           -0.41087254706524        7.34889908227469       -2.08407717470035
O           -0.07730112156420        2.48535857745452        3.31390241098381
O           -2.68023932828497        1.46406912291031        3.19603728144609
H           -0.92130939914624       -0.44124107138159        1.77453457873874
H           -1.03172526169151        2.31469422091686        3.23911321083838
H            2.02017034143014        1.90182515904263        1.74925913136465
H            4.39803297001379        1.29506594785303        1.50554801936083
H            3.30262468840913       -1.96445351426623       -1.02379496276865
H            0.93224982975978       -1.35662423385314       -0.78130578646147
H            5.60562925346616       -1.69150195871886       -0.39125530283760
H            6.02187245708815       -0.62168974374039        0.94591084032221
H            6.09803582694257        1.32445474537837       -0.55900018539729
H            4.76422402989942       -0.45844964711406       -2.40985340031710
H            7.70877609741089        1.74687748441502       -2.18738990378262
H           -1.60447464109359        1.81309100804207        0.80460515452486
H            1.03229248866095        2.83687292149711       -0.45401510212639
H           -1.57878006006190        4.17291311091607        0.41413348724568
H            0.11307647019491        6.06791274155752        0.28148563115938
H            0.94599517555774        5.19610233054611       -1.01278574658635
H           -1.11958778219929        5.34417471647126       -2.41075286931870
H           -1.94293250569264        6.19995967836623       -1.10545507623631
H           -1.08714235618466        7.79357990938609       -2.81036216939539
H           -0.27784439144938        8.05100640397862       -1.26388391410097
H            0.55382555862675        7.19544627655768       -2.56273603230214
H           -3.08001554916566        1.37331722216385        4.06229839428507
H           -2.34270932571292        0.57709194321027        2.95309460121712
O           -1.55756232589279       -0.87990658854273        2.38402384120724
H            0.29753703599362        1.68496009285904        3.68773260634187
H           -2.06908422244552       -1.48623843281311        1.84602636946514
N            5.33109943685188        0.34916905538294       -2.20533158180119
C            7.56836979314488       -0.07317794011325       -1.29315612944558
O            8.04651586781229       -1.14990522964254       -1.00165456184846
C            4.29188120132671        1.30595325204622       -4.14487805165708
C            5.27193986663520        1.43249796809474       -3.00144999556358
O            5.96082000423870        2.42035718191505       -2.80997438990802
H            3.29166531136992        1.12077307408864       -3.75887412820652
H            4.57742200868520        0.47761266416084       -4.78981226026588
H            4.29185672397214        2.22553040393454       -4.72250857602773
N            8.22498592030605        0.91376845133900       -1.92116745730726
C            9.58697052534190        0.77675209740002       -2.37448313916020
H           10.20715769154836        1.56979869670192       -1.95382878381042
H            9.63971457157837        0.82463700446950       -3.46405925828410
H            9.95554672746243       -0.19065787422395       -2.03640371482636
