57
 energy: -83.460581776412 gnorm: 0.000203756187 xtb: 6.7.1pre (5071a88)
N           -0.50537382619320       -0.02642729634959       -0.98749814773157
C            0.85148955545127       -0.13189075032118       -0.73297501406198
C            1.47239692688999        0.57415980123814        0.29917169597108
C            2.81829929445432        0.40339120311906        0.55003612597751
C            3.59058215672597       -0.47281891753566       -0.20292294917357
C            2.96609902288641       -1.18796511227362       -1.21733735094853
C            1.62021209363350       -1.02555665264242       -1.47984623757223
C            5.07120376111347       -0.58127953734090        0.02519087068475
C            5.78275153130938        0.68717137784060       -0.45504457962525
C           -1.28574834113140        1.15264253660178       -0.66033302765571
C           -0.60561794541570        2.41791832802447       -1.12182918165545
C           -0.33633479643043        3.46743185467916       -0.36556072161176
C            0.35385186764823        4.70172273316863       -0.84192939818153
C           -0.49315369593577        5.95171770275754       -0.58728665982732
C            0.21477314477472        7.21465531489158       -1.06066884660869
O           -1.57548676361271        1.19622762697753        0.70978562979775
O           -0.55353759969272        1.40928266878270        3.31018405219983
H           -0.80714454678538       -0.52561257597672       -1.80930587527558
H           -0.85433332262462        1.65627827515181        2.42170308435790
H            0.90386768228837        1.26126228269417        0.90149957333485
H            3.27618572214271        0.96247409738985        1.35268310796608
H            3.53874376039398       -1.88798443013602       -1.81097339441843
H            1.15317182188700       -1.59219562126059       -2.27396259528056
H            5.48675958240706       -1.43517316095982       -0.51299256148085
H            5.29422710289844       -0.71627037439722        1.08464658714074
H            5.55700929159659        1.53421567653321        0.20466124269426
H            4.87102840084994        0.31136446731468       -2.31641337369109
H            7.42472995433363        2.49624396302577       -0.80480766839434
H           -2.23572001297473        1.04785165424211       -1.21957772274184
H           -0.32405521071608        2.39710761912362       -2.16676533904744
H           -0.63574039348346        3.46784526656486        0.67314286021812
H            1.30268401332910        4.80415395046854       -0.30682369948865
H            0.57626478507403        4.61759211073577       -1.90750016948436
H           -1.44755704873073        5.84853062231994       -1.10847578186123
H           -0.70498658206969        6.03143687194164        0.48107977559243
H           -0.39808540625035        8.09185679346052       -0.86685192765343
H            1.16384463126308        7.33686793972181       -0.54320345774916
H            0.41278528557080        7.16392627823706       -2.12918087900274
H           -0.67977337985599       -0.39381251307313        2.75929654334608
H           -1.24718133683820        1.67681258853274        3.91542395159535
O           -0.94202813326993       -1.06712677346955        2.10698073931309
H           -1.58003725076694        0.27110674119660        1.04564226821554
H           -0.12774634903297       -1.38977079155418        1.71462500385460
N            5.31134578482640        1.04458916335606       -1.78295565136642
C            7.31500747811643        0.49295566410795       -0.48215975797276
O            7.84609946932632       -0.59279576408730       -0.37129411728286
C            4.56272378388839        2.48414289904245       -3.55008290309086
C            5.27912621083593        2.31274964530550       -2.23053820850488
O            5.79421136631545        3.23381609851085       -1.61895000290849
H            3.51772204128955        2.20250745154768       -3.43634354792767
H            5.01610864884802        1.85153379034245       -4.30978024385755
H            4.62352029540262        3.52264801365591       -3.86148641610489
N            7.96841388630654        1.65315729817894       -0.64523471300131
C            9.40334610182774        1.72812974642871       -0.76359157078117
H            9.80938359746965        2.41112954799820       -0.01589411384510
H            9.69338141547870        2.07604012501969       -1.75721704193863
H            9.80429047302471        0.72903248119543       -0.59915826331569
