      -----------------------------------------------------------      
     |                   =====================                   |     
     |                           x T B                           |     
     |                   =====================                   |     
     |                         S. Grimme                         |     
     |          Mulliken Center for Theoretical Chemistry        |     
     |                    University of Bonn                     |     
      -----------------------------------------------------------      

   * xtb version 6.7.1pre (5071a88) compiled by 'Marcel@Raven' on 2024-07-23

   xtb is free software: you can redistribute it and/or modify it under
   the terms of the GNU Lesser General Public License as published by
   the Free Software Foundation, either version 3 of the License, or
   (at your option) any later version.
   
   xtb is distributed in the hope that it will be useful,
   but WITHOUT ANY WARRANTY; without even the implied warranty of
   MERCHANTABILITY or FITNESS FOR A PARTICULAR PURPOSE.  See the
   GNU Lesser General Public License for more details.
   
   Cite this work as:
   * C. Bannwarth, E. Caldeweyher, S. Ehlert, A. Hansen, P. Pracht,
     J. Seibert, S. Spicher, S. Grimme, WIREs Comput. Mol. Sci., 2020, 11,
     e01493. DOI: 10.1002/wcms.1493
   
   for GFN2-xTB:
   * C. Bannwarth, S. Ehlert and S. Grimme., J. Chem. Theory Comput., 2019,
     15, 1652-1671. DOI: 10.1021/acs.jctc.8b01176
   for GFN1-xTB:
   * S. Grimme, C. Bannwarth, P. Shushkov, J. Chem. Theory Comput., 2017,
     13, 1989-2009. DOI: 10.1021/acs.jctc.7b00118
   for GFN0-xTB:
   * P. Pracht, E. Caldeweyher, S. Ehlert, S. Grimme, ChemRxiv, 2019, preprint.
     DOI: 10.26434/chemrxiv.8326202.v1
   for GFN-FF:
   * S. Spicher and S. Grimme, Angew. Chem. Int. Ed., 2020, 59, 15665-15673.
     DOI: 10.1002/anie.202004239
   
   for ALPB and GBSA implicit solvation:
   * S. Ehlert, M. Stahn, S. Spicher, S. Grimme, J. Chem. Theory Comput.,
     2021, 17, 4250-4261. DOI: 10.1021/acs.jctc.1c00471
   
   for ddCOSMO and CPCM-X implicit solvation:
   * M. Stahn, S. Ehlert, S. Grimme, J. Phys. Chem. A,
     2023, XX, XXXX-XXXX. DOI: 10.1021/acs.jpca.3c04382
   
   for DFT-D4:
   * E. Caldeweyher, C. Bannwarth and S. Grimme, J. Chem. Phys., 2017,
     147, 034112. DOI: 10.1063/1.4993215
   * E. Caldeweyher, S. Ehlert, A. Hansen, H. Neugebauer, S. Spicher,
     C. Bannwarth and S. Grimme, J. Chem. Phys., 2019, 150, 154122.
     DOI: 10.1063/1.5090222
   * E. Caldeweyher, J.-M. Mewes, S. Ehlert and S. Grimme, Phys. Chem. Chem. Phys.
     2020, 22, 8499-8512. DOI: 10.1039/D0CP00502A
   
   for sTDA-xTB:
   * S. Grimme and C. Bannwarth, J. Chem. Phys., 2016, 145, 054103.
     DOI: 10.1063/1.4959605
   
   in the mass-spec context:
   * V. Asgeirsson, C. Bauer and S. Grimme, Chem. Sci., 2017, 8, 4879.
     DOI: 10.1039/c7sc00601b
   * J. Koopman and S. Grimme, ACS Omega 2019, 4, 12, 15120-15133.
     DOI: 10.1021/acsomega.9b02011
   
   for metadynamics refer to:
   * S. Grimme, J. Chem. Theory Comput., 2019, 155, 2847-2862
     DOI: 10.1021/acs.jctc.9b00143
   
   for SPH calculations refer to:
   * S. Spicher and S. Grimme, J. Chem. Theory Comput., 2021, 17, 1701-1714
     DOI: 10.1021/acs.jctc.0c01306
   
   for ONIOM refer to:
   * C. Plett, A. Katbashev, S. Ehlert, S. Grimme, M. Bursch,
     Phys. Chem. Chem. Phys., 2023, 25, 17860-17868. DOI: 10.1039/D3CP02178E
   
   for DIPRO refer to:
   * J. Kohn, N. Gildemeister, S. Grimme, D. Fazzi, A. Hansen,
     J. Chem. Phys., 2023, just accepted.
   
   for PTB refer to:
   * S. Grimme, M. Mueller, A. Hansen, J. Chem. Phys., 2023, 158, 124111.
     DOI: 10.1063/5.0137838
   
   with help from (in alphabetical order)
   P. Atkinson, C. Bannwarth, F. Bohle, G. Brandenburg, E. Caldeweyher
   M. Checinski, S. Dohm, S. Ehlert, S. Ehrlich, I. Gerasimov, C. Hölzer
   A. Katbashev, J. Kohn, J. Koopman, C. Lavigne, S. Lehtola, F. März, M. Müller,
   F. Musil, H. Neugebauer, J. Pisarek, C. Plett, P. Pracht, F. Pultar,
   J. Seibert, P. Shushkov, S. Spicher, M. Stahn, M. Steiner, T. Strunk,
   J. Stückrath, T. Rose, and J. Unsleber
   
 * started run on 2026/08/20 at 20:36:04.901     
   ID    Z sym.   atoms
    1    7 N      1, 44, 53
    2    6 C      2-15, 45, 47, 48, 54
    3    8 O      16, 17, 41, 46, 49
    4    1 H      18-40, 42, 43, 50-52, 55-57

           -------------------------------------------------
          |                Calculation Setup                |
           -------------------------------------------------

          program call               : C:\Users\Nayanika\Downloads\xtb-6.7.1pre-windows-x86_64\xtb-6.7.1\bin\xtb.exe D:\PhD_Thesis\LmrR_EVB\charges\fast_lmrr_5QM\xtb_preparation\stage2_five_xtb_protocols\GFN2_etemp500\RS1_2b_to_PS1_3\RS1_2b_to_PS1_3_TS_xtbopt.xyz --gfn 2 --chrg 0 --uhf 0 --hess --etemp 500
          coordinate file            : D:\PhD_Thesis\LmrR_EVB\charges\fast_lmrr_5QM\xtb_preparation\stage2_five_xtb_protocols\GFN2_etemp500\RS1_2b_to_PS1_3\RS1_2b_to_PS1_3_TS_xtbopt.xyz
          omp threads                :                     8


molecular fragmentation (1/2 indicates fragments):
111111111111111222211111111111111111112222211111111111111
# atoms in fragment 1/2:    48     9
 fragment masses (1/2) :      315.41       54.05
CMA distance (Bohr)    :  12.028
constraining FC (au)   :  0.0500

           -------------------------------------------------
          |                 G F N 2 - x T B                 |
           -------------------------------------------------

        Reference                      10.1021/acs.jctc.8b01176
      * Hamiltonian:
        H0-scaling (s, p, d)           1.850000    2.230000    2.230000
        zeta-weighting                 0.500000
      * Dispersion:
        s8                             2.700000
        a1                             0.520000
        a2                             5.000000
        s9                             5.000000
      * Repulsion:
        kExp                           1.500000    1.000000
        rExp                           1.000000
      * Coulomb:
        alpha                          2.000000
        third order                    shell-resolved
        anisotropic                    true
        a3                             3.000000
        a5                             4.000000
        cn-shift                       1.200000
        cn-exp                         4.000000
        max-rad                        5.000000

q/qsh data taken from xtbrestart
CAMM data taken from xtbrestart

          ...................................................
          :                      SETUP                      :
          :.................................................:
          :  # basis functions                 135          :
          :  # atomic orbitals                 135          :
          :  # shells                           83          :
          :  # electrons                       148          :
          :  max. iterations                   250          :
          :  Hamiltonian                  GFN2-xTB          :
          :  restarted?                       true          :
          :  GBSA solvation                  false          :
          :  PC potential                    false          :
          :  electronic temp.          500.0000000     K    :
          :  accuracy                    1.0000000          :
          :  -> integral cutoff          0.2500000E+02      :
          :  -> integral neglect         0.1000000E-07      :
          :  -> SCF convergence          0.1000000E-05 Eh   :
          :  -> wf. convergence          0.1000000E-03 e    :
          :  Broyden damping             0.4000000          :
          :  net charge                          0          :
          :  unpaired electrons                  0          :
          ...................................................

 iter      E             dE          RMSdq      gap      omega  full diag
   1    -84.5445369 -0.845445E+02  0.282E-06    2.45       0.0  T
   2    -84.5445369  0.184741E-12  0.266E-06    2.45    4978.9  T
   3    -84.5445369 -0.468958E-12  0.758E-07    2.45   17463.0  T

   *** convergence criteria satisfied after 3 iterations ***

         #    Occupation            Energy/Eh            Energy/eV
      -------------------------------------------------------------
         1        2.0000           -0.7069335             -19.2366
       ...           ...                  ...                  ...
        68        2.0000           -0.4146459             -11.2831
        69        2.0000           -0.4078337             -11.0977
        70        2.0000           -0.4053639             -11.0305
        71        2.0000           -0.3969926             -10.8027
        72        2.0000           -0.3965531             -10.7908
        73        2.0000           -0.3839004             -10.4465
        74        2.0000           -0.3687802             -10.0350 (HOMO)
        75                         -0.2787514              -7.5852 (LUMO)
        76                         -0.2251805              -6.1275
        77                         -0.2173886              -5.9154
        78                         -0.2165601              -5.8929
        79                         -0.2052079              -5.5840
       ...                                ...                  ...
       135                          0.6721215              18.2894
      -------------------------------------------------------------
                  HL-Gap            0.0900288 Eh            2.4498 eV
             Fermi-level           -0.3237658 Eh           -8.8101 eV

 SCC (total)                   0 d,  0 h,  0 min,  0.040 sec
 SCC setup                      ...        0 min,  0.000 sec (  0.000%)
 Dispersion                     ...        0 min,  0.000 sec (  0.000%)
 classical contributions        ...        0 min,  0.001 sec (  2.500%)
 integral evaluation            ...        0 min,  0.003 sec (  7.500%)
 iterations                     ...        0 min,  0.021 sec ( 52.500%)
 molecular gradient             ...        0 min,  0.015 sec ( 37.500%)
 printout                       ...        0 min,  0.000 sec (  0.000%)

         :::::::::::::::::::::::::::::::::::::::::::::::::::::
         ::                     SUMMARY                     ::
         :::::::::::::::::::::::::::::::::::::::::::::::::::::
         :: total energy             -83.439198046679 Eh    ::
         :: gradient norm              0.000181063773 Eh/a0 ::
         :: HOMO-LUMO gap              2.449808070620 eV    ::
         ::.................................................::
         :: SCC energy               -84.543880651438 Eh    ::
         :: -> isotropic ES            0.184920105420 Eh    ::
         :: -> anisotropic ES         -0.005958446814 Eh    ::
         :: -> anisotropic XC          0.033880646152 Eh    ::
         :: -> dispersion             -0.051171642561 Eh    ::
         :: repulsion energy           1.104682604758 Eh    ::
         :: add. restraining           0.000000000000 Eh    ::
         :: total charge              -0.000000000000 e     ::
         :::::::::::::::::::::::::::::::::::::::::::::::::::::

           ------------------------------------------------- 
          |                Numerical Hessian                |
           ------------------------------------------------- 
step length          :   0.00500
SCC accuracy         :   0.30000
Hessian scale factor :   1.00000
frozen atoms in %    :   0.00000    0
RMS gradient         :   0.00018
estimated CPU  time      4.40 min
estimated wall time      0.63 min

writing file <hessian>.

 projected vibrational frequencies (cm⁻¹)
eigval :       -0.00    -0.00    -0.00    -0.00     0.00     0.00
eigval :       10.01    13.88    18.68    22.07    24.89    29.34
eigval :       33.30    39.36    43.48    51.36    54.85    61.73
eigval :       67.93    68.44    81.85    88.11    89.09    98.58
eigval :      119.27   126.56   151.75   159.60   165.93   169.69
eigval :      177.56   188.35   197.56   206.34   210.53   233.20
eigval :      240.20   250.84   256.11   277.20   291.89   292.44
eigval :      313.47   332.05   352.88   357.10   378.16   391.19
eigval :      405.26   416.46   419.81   438.97   439.94   465.09
eigval :      507.80   515.32   553.21   579.00   600.69   609.81
eigval :      626.45   645.76   660.24   689.07   698.49   707.56
eigval :      726.97   733.29   770.59   779.38   789.63   819.46
eigval :      866.55   875.42   876.16   893.89   901.34   915.61
eigval :      927.53   934.40   937.17   975.05   992.45  1004.01
eigval :     1008.18  1015.68  1036.53  1038.32  1077.48  1089.29
eigval :     1104.86  1109.10  1118.67  1130.66  1138.99  1139.70
eigval :     1160.34  1164.73  1189.13  1208.74  1210.66  1212.36
eigval :     1221.58  1232.04  1246.17  1259.03  1264.91  1273.20
eigval :     1282.06  1286.46  1294.63  1313.20  1328.69  1347.49
eigval :     1364.89  1372.86  1393.02  1413.46  1416.63  1421.46
eigval :     1434.78  1457.69  1462.74  1467.66  1468.37  1477.83
eigval :     1483.58  1484.68  1494.85  1502.47  1504.73  1532.94
eigval :     1545.43  1564.84  1567.52  1598.65  1649.69  1679.02
eigval :     1718.25  1758.85  2914.44  2944.26  2970.30  2971.29
eigval :     2982.90  2989.12  2989.92  2991.26  3001.57  3022.02
eigval :     3025.69  3028.82  3031.10  3033.10  3035.35  3040.44
eigval :     3054.40  3056.41  3067.14  3067.40  3076.37  3085.86
eigval :     3094.93  3108.95  3262.50  3316.28  3394.85  3456.57
eigval :     3647.37  3661.80  3664.69
           -------------------------------------------------
          |                Property Printout                |
           -------------------------------------------------

    * Orbital Energies and Occupations

         #    Occupation            Energy/Eh            Energy/eV
      -------------------------------------------------------------
         1        2.0000           -0.7069335             -19.2366
       ...           ...                  ...                  ...
        62        2.0000           -0.4393755             -11.9560
        63        2.0000           -0.4338496             -11.8056
        64        2.0000           -0.4333990             -11.7934
        65        2.0000           -0.4285318             -11.6609
        66        2.0000           -0.4265279             -11.6064
        67        2.0000           -0.4161380             -11.3237
        68        2.0000           -0.4146459             -11.2831
        69        2.0000           -0.4078337             -11.0977
        70        2.0000           -0.4053639             -11.0305
        71        2.0000           -0.3969926             -10.8027
        72        2.0000           -0.3965531             -10.7908
        73        2.0000           -0.3839004             -10.4465
        74        2.0000           -0.3687802             -10.0350 (HOMO)
        75                         -0.2787514              -7.5852 (LUMO)
        76                         -0.2251805              -6.1275
        77                         -0.2173886              -5.9154
        78                         -0.2165602              -5.8929
        79                         -0.2052079              -5.5840
        80                         -0.1606921              -4.3727
        81                         -0.0930618              -2.5323
        82                          0.0020236               0.0551
        83                          0.0105739               0.2877
        84                          0.0423924               1.1536
        85                          0.0756285               2.0580
       ...                                ...                  ...
       135                          0.6721215              18.2894
      -------------------------------------------------------------
                  HL-Gap            0.0900288 Eh            2.4498 eV
             Fermi-level           -0.3237658 Eh           -8.8101 eV

     #   Z          covCN         q      C6AA      α(0)
     1   7 N        1.835    -0.237    27.045     7.707
     2   6 C        2.931     0.078    26.251     8.403
     3   6 C        2.920    -0.050    29.241     8.868
     4   6 C        2.924    -0.039    28.960     8.825
     5   6 C        2.970     0.003    27.962     8.674
     6   6 C        2.924    -0.043    29.079     8.843
     7   6 C        2.922    -0.051    29.257     8.870
     8   6 C        3.812    -0.069    21.819     6.649
     9   6 C        3.797     0.020    20.237     6.405
    10   6 C        2.856     0.081    26.180     8.386
    11   6 C        2.893    -0.050    29.234     8.865
    12   6 C        2.899    -0.014    28.373     8.734
    13   6 C        3.807    -0.061    21.670     6.627
    14   6 C        3.802    -0.050    21.472     6.597
    15   6 C        3.752    -0.104    22.556     6.773
    16   8 O        1.609    -0.607    25.344     6.795
    17   8 O        1.608    -0.609    25.412     6.804
    18   1 H        0.803     0.315     0.678     1.294
    19   1 H        0.804     0.309     0.694     1.308
    20   1 H        0.926     0.053     2.277     2.360
    21   1 H        0.926     0.034     2.532     2.488
    22   1 H        0.925     0.025     2.665     2.553
    23   1 H        0.926     0.032     2.554     2.499
    24   1 H        0.924     0.061     2.188     2.313
    25   1 H        0.924     0.060     2.198     2.319
    26   1 H        0.924     0.061     2.182     2.310
    27   1 H        0.860     0.181     1.209     1.723
    28   1 H        0.860     0.207     1.073     1.623
    29   1 H        0.925     0.064     2.156     2.296
    30   1 H        0.925     0.044     2.397     2.421
    31   1 H        0.925     0.052     2.289     2.366
    32   1 H        0.924     0.058     2.224     2.332
    33   1 H        0.924     0.044     2.398     2.422
    34   1 H        0.924     0.031     2.567     2.505
    35   1 H        0.924     0.036     2.507     2.476
    36   1 H        0.925     0.037     2.491     2.468
    37   1 H        0.925     0.038     2.482     2.464
    38   1 H        0.925     0.037     2.485     2.465
    39   1 H        0.806     0.276     0.799     1.404
    40   1 H        0.803     0.321     0.661     1.277
    41   8 O        1.608    -0.603    25.248     6.782
    42   1 H        0.805     0.272     0.810     1.414
    43   1 H        0.806     0.278     0.790     1.396
    44   7 N        2.692    -0.183    24.973     7.422
    45   6 C        2.753     0.264    22.554     7.777
    46   8 O        0.858    -0.436    22.407     6.347
    47   6 C        3.757    -0.143    23.308     6.883
    48   6 C        2.749     0.277    22.311     7.734
    49   8 O        0.859    -0.455    22.809     6.403
    50   1 H        0.925     0.057     2.229     2.335
    51   1 H        0.925     0.059     2.215     2.328
    52   1 H        0.925     0.073     2.052     2.240
    53   7 N        2.686    -0.177    24.824     7.400
    54   6 C        3.690    -0.042    21.523     6.639
    55   1 H        0.924     0.053     2.287     2.365
    56   1 H        0.924     0.049     2.329     2.386
    57   1 H        0.925     0.082     1.957     2.188

 Mol. C6AA /au·bohr⁶  :      29499.093732
 Mol. C8AA /au·bohr⁸  :     658243.868152
 Mol. α(0) /au        :        262.546719


Wiberg/Mayer (AO) data.
largest (>0.10) Wiberg bond orders for each atom

 ---------------------------------------------------------------------------
     #   Z sym  total        # sym  WBO       # sym  WBO       # sym  WBO
 ---------------------------------------------------------------------------
     1   7 N    3.200 --    10 C    1.740     2 C    1.110    12 C    0.111
     2   6 C    3.977 --     7 C    1.358     3 C    1.343     1 N    1.110
     3   6 C    3.988 --     4 C    1.466     2 C    1.343    20 H    0.965
                             6 C    0.102
     4   6 C    3.991 --     3 C    1.466     5 C    1.398    21 H    0.968
                             7 C    0.104
     5   6 C    3.982 --     6 C    1.404     4 C    1.398     8 C    1.011
     6   6 C    3.990 --     7 C    1.457     5 C    1.404    22 H    0.967
                             3 C    0.102
     7   6 C    3.981 --     6 C    1.457     2 C    1.358    23 H    0.970
                             4 C    0.104
     8   6 C    3.991 --     5 C    1.011     9 C    0.980    24 H    0.970
                            25 H    0.965
     9   6 C    3.962 --     8 C    0.980    44 N    0.974    26 H    0.952
                            45 C    0.914
    10   6 C    3.963 --     1 N    1.740    11 C    1.132    29 H    0.950
    11   6 C    3.990 --    12 C    1.796    10 C    1.132    30 H    0.959
    12   6 C    3.969 --    11 C    1.796    13 C    1.043    31 H    0.962
                             1 N    0.111
    13   6 C    3.996 --    12 C    1.043    14 C    0.986    33 H    0.974
                            32 H    0.949
    14   6 C    3.991 --    15 C    1.019    13 C    0.986    34 H    0.980
                            35 H    0.978
    15   6 C    3.995 --    14 C    1.019    38 H    0.988    37 H    0.988
                            36 H    0.986
    16   8 O    1.820 --    42 H    0.924    19 H    0.864
    17   8 O    1.850 --    39 H    0.922    40 H    0.840
    18   1 H    0.901 --    41 O    0.831
    19   1 H    0.904 --    16 O    0.864
    20   1 H    0.997 --     3 C    0.965
    21   1 H    0.998 --     4 C    0.968
    22   1 H    0.998 --     6 C    0.967
    23   1 H    0.999 --     7 C    0.970
    24   1 H    0.996 --     8 C    0.970
    25   1 H    0.995 --     8 C    0.965
    26   1 H    0.996 --     9 C    0.952
    27   1 H    0.967 --    44 N    0.934
    28   1 H    0.957 --    53 N    0.905
    29   1 H    0.995 --    10 C    0.950
    30   1 H    0.998 --    11 C    0.959
    31   1 H    0.997 --    12 C    0.962
    32   1 H    0.990 --    13 C    0.949
    33   1 H    0.998 --    13 C    0.974
    34   1 H    0.999 --    14 C    0.980
    35   1 H    0.999 --    14 C    0.978
    36   1 H    0.998 --    15 C    0.986
    37   1 H    0.999 --    15 C    0.988
    38   1 H    0.999 --    15 C    0.988
    39   1 H    0.924 --    17 O    0.922
    40   1 H    0.897 --    17 O    0.840
    41   8 O    1.867 --    43 H    0.919    18 H    0.831
    42   1 H    0.926 --    16 O    0.924
    43   1 H    0.922 --    41 O    0.919
    44   7 N    3.451 --    48 C    1.271     9 C    0.974    27 H    0.934
                            49 O    0.192
    45   6 C    3.956 --    46 O    1.679    53 N    1.292     9 C    0.914
    46   8 O    2.010 --    45 C    1.679    53 N    0.212
    47   6 C    3.993 --    52 H    0.983    48 C    0.983    50 H    0.971
                            51 H    0.970
    48   6 C    3.950 --    49 O    1.649    44 N    1.271    47 C    0.983
    49   8 O    1.993 --    48 C    1.649    44 N    0.192
    50   1 H    0.997 --    47 C    0.971
    51   1 H    0.996 --    47 C    0.970
    52   1 H    0.994 --    47 C    0.983
    53   7 N    3.466 --    45 C    1.292    54 C    1.006    28 H    0.905
                            46 O    0.212
    54   6 C    3.965 --    53 N    1.006    55 H    0.977    57 H    0.977
                            56 H    0.976
    55   1 H    0.997 --    54 C    0.977
    56   1 H    0.997 --    54 C    0.976
    57   1 H    0.993 --    54 C    0.977
 ---------------------------------------------------------------------------

Topologies differ in total number of bonds
Writing topology from bond orders to xtbtopo.mol

molecular dipole:
                 x           y           z       tot (Debye)
 q only:       -1.095       0.097      -0.963
   full:       -1.443      -0.066      -1.198       4.770
molecular quadrupole (traceless):
                xx          xy          yy          xz          yz          zz
 q only:      -10.533       7.303       1.887      -6.613      -4.738       8.646
  q+dip:      -16.554       9.071       2.787      -9.640      -1.791      13.767
   full:      -17.816       9.493       1.442      -9.236      -3.332      16.374

           -------------------------------------------------
          |               Frequency Printout                |
           -------------------------------------------------
 projected vibrational frequencies (cm⁻¹)
eigval :       -0.00    -0.00    -0.00    -0.00     0.00     0.00
eigval :       10.01    13.88    18.68    22.07    24.89    29.34
eigval :       33.30    39.36    43.48    51.36    54.85    61.73
eigval :       67.93    68.44    81.85    88.11    89.09    98.58
eigval :      119.27   126.56   151.75   159.60   165.93   169.69
eigval :      177.56   188.35   197.56   206.34   210.53   233.20
eigval :      240.20   250.84   256.11   277.20   291.89   292.44
eigval :      313.47   332.05   352.88   357.10   378.16   391.19
eigval :      405.26   416.46   419.81   438.97   439.94   465.09
eigval :      507.80   515.32   553.21   579.00   600.69   609.81
eigval :      626.45   645.76   660.24   689.07   698.49   707.56
eigval :      726.97   733.29   770.59   779.38   789.63   819.46
eigval :      866.55   875.42   876.16   893.89   901.34   915.61
eigval :      927.53   934.40   937.17   975.05   992.45  1004.01
eigval :     1008.18  1015.68  1036.53  1038.32  1077.48  1089.29
eigval :     1104.86  1109.10  1118.67  1130.66  1138.99  1139.70
eigval :     1160.34  1164.73  1189.13  1208.74  1210.66  1212.36
eigval :     1221.58  1232.04  1246.17  1259.03  1264.91  1273.20
eigval :     1282.06  1286.46  1294.63  1313.20  1328.69  1347.49
eigval :     1364.89  1372.86  1393.02  1413.46  1416.63  1421.46
eigval :     1434.78  1457.69  1462.74  1467.66  1468.37  1477.83
eigval :     1483.58  1484.68  1494.85  1502.47  1504.73  1532.94
eigval :     1545.43  1564.84  1567.52  1598.65  1649.69  1679.02
eigval :     1718.25  1758.85  2914.44  2944.26  2970.30  2971.29
eigval :     2982.90  2989.12  2989.92  2991.26  3001.57  3022.02
eigval :     3025.69  3028.82  3031.10  3033.10  3035.35  3040.44
eigval :     3054.40  3056.41  3067.14  3067.40  3076.37  3085.86
eigval :     3094.93  3108.95  3262.50  3316.28  3394.85  3456.57
eigval :     3647.37  3661.80  3664.69
 reduced masses (amu)
   1: 12.45   2: 11.41   3: 12.81   4: 12.19   5: 11.61   6: 12.04   7: 11.34   8: 11.62
   9: 11.83  10: 11.94  11: 13.43  12: 13.72  13: 12.94  14: 11.27  15:  9.22  16: 13.65
  17: 12.02  18: 10.03  19:  8.82  20:  8.74  21: 12.38  22:  9.25  23:  6.29  24: 10.76
  25: 10.83  26:  1.74  27: 10.92  28:  9.57  29:  8.80  30:  6.20  31: 11.49  32: 11.26
  33:  9.36  34:  4.23  35:  9.27  36:  2.77  37: 12.28  38:  8.32  39:  8.58  40: 10.89
  41: 11.55  42: 10.19  43: 11.00  44:  9.71  45:  8.56  46:  2.35  47:  8.89  48:  3.25
  49:  9.43  50:  8.92  51:  2.63  52: 10.64  53:  4.85  54:  9.79  55:  9.93  56: 10.98
  57: 10.40  58:  8.36  59: 10.73  60: 10.74  61:  1.73  62:  9.12  63: 10.37  64:  5.88
  65:  7.14  66:  5.96  67: 11.05  68:  1.84  69:  4.76  70: 10.62  71:  3.41  72:  5.94
  73:  9.54  74:  3.81  75:  8.42  76:  3.76  77:  4.37  78:  2.98  79:  8.97  80:  3.69
  81:  6.11  82: 10.81  83:  5.71  84:  5.42  85:  1.94  86:  8.62  87:  8.33  88:  4.69
  89:  6.93  90:  8.87  91:  3.82  92:  7.36  93:  7.91  94:  6.89  95:  4.19  96:  8.71
  97:  8.43  98:  6.26  99:  2.94 100:  5.46 101:  4.98 102:  4.83 103:  4.63 104:  3.59
 105:  5.63 106:  7.16 107:  2.73 108:  3.61 109:  4.72 110:  3.09 111:  3.87 112:  7.55
 113:  9.25 114:  4.86 115:  5.36 116:  3.28 117:  2.63 118:  9.88 119:  3.15 120:  9.99
 121:  8.58 122:  1.67 123:  1.57 124:  1.87 125:  1.73 126:  2.39 127:  9.26 128:  2.51
 129:  1.86 130:  1.53 131:  1.63 132:  2.10 133:  2.05 134: 11.49 135:  2.20 136: 11.54
 137: 11.92 138: 12.22 139: 13.14 140: 13.19 141:  1.74 142:  1.78 143:  1.91 144:  1.93
 145:  1.55 146:  1.65 147:  1.48 148:  1.97 149:  1.51 150:  1.78 151:  1.96 152:  1.46
 153:  1.73 154:  1.96 155:  1.90 156:  1.30 157:  1.80 158:  1.80 159:  1.75 160:  1.84
 161:  1.80 162:  1.85 163:  1.87 164:  1.90 165:  1.86 166:  1.88 167:  1.87 168:  1.85
 169:  1.83 170:  1.84 171:  1.84
 IR intensities (km·mol⁻¹)
   1:  0.15   2:  0.17   3:  0.06   4:  0.00   5:  0.01   6:  0.10   7:  0.22   8:  0.25
   9:  0.31  10:  2.06  11:  0.46  12:  3.76  13:  0.54  14:  2.00  15:  1.98  16:  2.72
  17:  3.48  18:  1.12  19:  3.39  20: 16.31  21:  2.53  22:  1.14  23:  0.50  24:  6.43
  25: 11.71  26:  0.53  27:  7.52  28: 18.09  29: 39.03  30: 38.46  31: 21.20  32:  6.04
  33:  9.73  34: 67.35  35:  7.06  36:  0.90  37:  0.96  38: 89.81  39: 22.64  40: 91.13
  41:  4.88  42:  3.37  43:  4.25  44:  7.79  45:  3.03  46: 15.32  47:  4.87  48: 37.01
  49: 46.69  50:  7.75  51:101.25  52: 23.02  53:110.30  54:  0.52  55:  8.09  56: 13.87
  57: 13.50  58:  4.06  59: 25.63  60:  5.02  61:299.21  62: 42.76  63: 33.71  64: 96.88
  65: 55.64  66:126.44  67:  2.65  68:244.53  69:  4.78  70: 26.03  71: 12.40  72: 33.02
  73:  2.23  74:  3.02  75: 10.26  76: 14.26  77:  2.94  78:  0.63  79:  1.00  80:  2.38
  81:  4.32  82: 18.23  83:  2.67  84: 23.40  85: 14.89  86:  2.07  87: 23.16  88: 22.12
  89: 26.32  90:  0.29  91:  0.44  92: 21.16  93: 27.09  94: 20.79  95:  5.09  96:  5.20
  97: 22.52  98:  1.78  99: 18.04 100: 13.36 101: 13.64 102:  9.62 103:  9.29 104:  0.89
 105: 35.25 106:  6.99 107:  0.30 108:  2.31 109: 21.25 110:  0.62 111:  6.37 112:  2.24
 113:  1.35 114: 12.19 115:  8.50 116: 19.69 117:  2.71 118: 14.60 119:  1.66 120:224.13
 121:228.37 122:  5.94 123:  9.86 124:  1.90 125: 10.63 126:  0.88 127: 51.31 128: 29.13
 129:  0.55 130:  3.55 131:  1.79 132:111.40 133:105.06 134:  5.82 135:224.27 136: 27.57
 137:362.84 138:  1.55 139:307.91 140:595.52 141: 13.77 142: 11.00 143: 30.17 144: 33.78
 145: 15.89 146: 45.48 147: 44.61 148: 13.84 149: 18.46 150:  6.94 151: 16.85 152:  7.67
 153:  8.72 154: 50.93 155: 45.81 156: 37.76 157:  5.19 158: 48.05 159:  9.29 160: 45.18
 161: 29.63 162: 34.94 163: 11.01 164:****** 165:568.57 166:136.91 167:361.17 168: 18.18
 169:  8.53 170: 11.52 171:  8.05
 Raman intensities (Ä⁴*amu⁻¹)
   1:  0.00   2:  0.00   3:  0.00   4:  0.00   5:  0.00   6:  0.00   7:  0.00   8:  0.00
   9:  0.00  10:  0.00  11:  0.00  12:  0.00  13:  0.00  14:  0.00  15:  0.00  16:  0.00
  17:  0.00  18:  0.00  19:  0.00  20:  0.00  21:  0.00  22:  0.00  23:  0.00  24:  0.00
  25:  0.00  26:  0.00  27:  0.00  28:  0.00  29:  0.00  30:  0.00  31:  0.00  32:  0.00
  33:  0.00  34:  0.00  35:  0.00  36:  0.00  37:  0.00  38:  0.00  39:  0.00  40:  0.00
  41:  0.00  42:  0.00  43:  0.00  44:  0.00  45:  0.00  46:  0.00  47:  0.00  48:  0.00
  49:  0.00  50:  0.00  51:  0.00  52:  0.00  53:  0.00  54:  0.00  55:  0.00  56:  0.00
  57:  0.00  58:  0.00  59:  0.00  60:  0.00  61:  0.00  62:  0.00  63:  0.00  64:  0.00
  65:  0.00  66:  0.00  67:  0.00  68:  0.00  69:  0.00  70:  0.00  71:  0.00  72:  0.00
  73:  0.00  74:  0.00  75:  0.00  76:  0.00  77:  0.00  78:  0.00  79:  0.00  80:  0.00
  81:  0.00  82:  0.00  83:  0.00  84:  0.00  85:  0.00  86:  0.00  87:  0.00  88:  0.00
  89:  0.00  90:  0.00  91:  0.00  92:  0.00  93:  0.00  94:  0.00  95:  0.00  96:  0.00
  97:  0.00  98:  0.00  99:  0.00 100:  0.00 101:  0.00 102:  0.00 103:  0.00 104:  0.00
 105:  0.00 106:  0.00 107:  0.00 108:  0.00 109:  0.00 110:  0.00 111:  0.00 112:  0.00
 113:  0.00 114:  0.00 115:  0.00 116:  0.00 117:  0.00 118:  0.00 119:  0.00 120:  0.00
 121:  0.00 122:  0.00 123:  0.00 124:  0.00 125:  0.00 126:  0.00 127:  0.00 128:  0.00
 129:  0.00 130:  0.00 131:  0.00 132:  0.00 133:  0.00 134:  0.00 135:  0.00 136:  0.00
 137:  0.00 138:  0.00 139:  0.00 140:  0.00 141:  0.00 142:  0.00 143:  0.00 144:  0.00
 145:  0.00 146:  0.00 147:  0.00 148:  0.00 149:  0.00 150:  0.00 151:  0.00 152:  0.00
 153:  0.00 154:  0.00 155:  0.00 156:  0.00 157:  0.00 158:  0.00 159:  0.00 160:  0.00
 161:  0.00 162:  0.00 163:  0.00 164:  0.00 165:  0.00 166:  0.00 167:  0.00 168:  0.00
 169:  0.00 170:  0.00 171:  0.00
 output can be read by thermo (or use thermo option).
 writing <g98.out> molden fake output.
 recommended (thermochemical) frequency scaling factor: 1.0
           -------------------------------------------------
          |             Thermodynamic Functions             |
           -------------------------------------------------

Refinement of some symmetry elements was terminated before convergence was reached.
Some symmetry elements may remain unidentified.
Molecule has no symmetry elements
It seems to be the C1 point group
c1  symmetry found (for desy threshold:  0.10E+00) used in thermo

          ...................................................
          :                      SETUP                      :
          :.................................................:
          :  # frequencies                         165      :
          :  # imaginary freq.                       0      :
          :  linear?                             false      :
          :  only rotor calc.                    false      :
          :  symmetry                               c1      :
          :  rotational number                       1      :
          :  scaling factor                  1.0000000      :
          :  rotor cutoff                   50.0000000 cm⁻¹ :
          :  imag. cutoff                  -20.0000000 cm⁻¹ :
          :.................................................:

    mode    ω/cm⁻¹     T·S(HO)/kcal·mol⁻¹    T·S(FR)/kcal·mol⁻¹   T·S(vib)
   ------------------------------------------------------------------------
       1     10.01    -2.38805 (  0.16%)    -1.53302 ( 99.84%)    -1.53439
       2     13.88    -2.19439 (  0.59%)    -1.43619 ( 99.41%)    -1.44066
       3     18.68    -2.01836 (  1.91%)    -1.34814 ( 98.09%)    -1.36096
       4     22.07    -1.91979 (  3.65%)    -1.29883 ( 96.35%)    -1.32152
       5     24.89    -1.84851 (  5.79%)    -1.26315 ( 94.21%)    -1.29702
       6     29.34    -1.75125 ( 10.60%)    -1.21446 ( 89.40%)    -1.27134
       7     33.30    -1.67635 ( 16.44%)    -1.17694 ( 83.56%)    -1.25904
       8     39.36    -1.57752 ( 27.75%)    -1.12741 ( 72.25%)    -1.25230
       9     43.48    -1.51870 ( 36.39%)    -1.09790 ( 63.61%)    -1.25101
      10     51.36    -1.42042 ( 52.69%)    -1.04855 ( 47.31%)    -1.24449
      11     54.85    -1.38173 ( 59.16%)    -1.02910 ( 40.84%)    -1.23770
      12     61.73    -1.31220 ( 69.91%)    -0.99411 ( 30.09%)    -1.21648
      13     67.93    -1.25595 ( 77.31%)    -0.96576 ( 22.69%)    -1.19010
      14     68.44    -1.25154 ( 77.83%)    -0.96353 ( 22.17%)    -1.18769
      15     81.85    -1.14671 ( 87.77%)    -0.91054 ( 12.23%)    -1.11784
      16     88.11    -1.10361 ( 90.61%)    -0.88869 (  9.39%)    -1.08342
      17     89.09    -1.09716 ( 90.98%)    -0.88541 (  9.02%)    -1.07805
      18     98.58    -1.03823 ( 93.79%)    -0.85545 (  6.21%)    -1.02688
      19    119.27    -0.92792 ( 97.00%)    -0.79901 (  3.00%)    -0.92405
      20    126.56    -0.89375 ( 97.62%)    -0.78142 (  2.38%)    -0.89108
      21    151.75    -0.79015 ( 98.84%)    -0.72766 (  1.16%)    -0.78943
      22    159.60    -0.76163 ( 99.05%)    -0.71271 (  0.95%)    -0.76116
      23    165.93    -0.73974 ( 99.18%)    -0.70119 (  0.82%)    -0.73943
      24    169.69    -0.72716 ( 99.25%)    -0.69455 (  0.75%)    -0.72692
      25    177.56    -0.70182 ( 99.38%)    -0.68112 (  0.62%)    -0.70169
      26    188.35    -0.66904 ( 99.51%)    -0.66364 (  0.49%)    -0.66901
      27    197.56    -0.64272 ( 99.59%)    -0.64950 (  0.41%)    -0.64275
      28    206.34    -0.61890 ( 99.66%)    -0.63662 (  0.34%)    -0.61896
      29    210.53    -0.60795 ( 99.68%)    -0.63066 (  0.32%)    -0.60802
      30    233.20    -0.55283 ( 99.79%)    -0.60038 (  0.21%)    -0.55293
      31    240.20    -0.53708 ( 99.81%)    -0.59161 (  0.19%)    -0.53718
      32    250.84    -0.51420 ( 99.84%)    -0.57877 (  0.16%)    -0.51430
      33    256.11    -0.50331 ( 99.85%)    -0.57261 (  0.15%)    -0.50341
      34    277.20    -0.46239 ( 99.89%)    -0.54917 (  0.11%)    -0.46248
      35    291.89    -0.43618 ( 99.91%)    -0.53387 (  0.09%)    -0.43627
      36    292.44    -0.43524 ( 99.91%)    -0.53331 (  0.09%)    -0.43532
   ------------------------------------------------------------------------

   temp. (K)  partition function   enthalpy   heat capacity  entropy
                                   cal/mol     cal/K/mol   cal/K/mol   J/K/mol
 298.15  VIB  0.526E+19            20443.308    106.821    135.663
         ROT  0.236E+08              888.752      2.981     36.722
         INT  0.124E+27            21332.060    109.802    172.385
         TR   0.687E+28             1481.254      4.968     43.594
         TOT                       22813.3144   114.7705   215.9786   903.6543

       T/K    H(0)-H(T)+PV         H(T)/Eh          T*S/Eh         G(T)/Eh
   ------------------------------------------------------------------------
    298.15    0.363553E-01    0.501469E+00    0.102618E+00    0.398851E+00
   ------------------------------------------------------------------------

         :::::::::::::::::::::::::::::::::::::::::::::::::::::
         ::                  THERMODYNAMIC                  ::
         :::::::::::::::::::::::::::::::::::::::::::::::::::::
         :: total free energy         -83.040347002492 Eh   ::
         ::.................................................::
         :: total energy              -83.439198046679 Eh   ::
         :: zero point energy           0.465114100898 Eh   ::
         :: G(RRHO) w/o ZPVE           -0.066263056711 Eh   ::
         :: G(RRHO) contrib.            0.398851044187 Eh   ::
         :::::::::::::::::::::::::::::::::::::::::::::::::::::

           -------------------------------------------------
          | TOTAL ENERGY              -83.439198046679 Eh   |
          | TOTAL ENTHALPY            -82.937728615164 Eh   |
          | TOTAL FREE ENERGY         -83.040347002492 Eh   |
          | GRADIENT NORM               0.000181066044 Eh/α |
          | HOMO-LUMO GAP               2.449808310579 eV   |
           -------------------------------------------------

------------------------------------------------------------------------
 * finished run on 2026/08/20 at 20:36:09.837     
------------------------------------------------------------------------
 total:
 * wall-time:     0 d,  0 h,  0 min,  4.935 sec
 *  cpu-time:     0 d,  0 h,  0 min, 33.000 sec
 * ratio c/w:     6.687 speedup
 SCF:
 * wall-time:     0 d,  0 h,  0 min,  0.041 sec
 *  cpu-time:     0 d,  0 h,  0 min,  0.047 sec
 * ratio c/w:     1.143 speedup
 analytical hessian:
 * wall-time:     0 d,  0 h,  0 min,  4.851 sec
 *  cpu-time:     0 d,  0 h,  0 min, 32.906 sec
 * ratio c/w:     6.783 speedup



===== STDERR =====

normal termination of xtb
