      -----------------------------------------------------------      
     |                   =====================                   |     
     |                           x T B                           |     
     |                   =====================                   |     
     |                         S. Grimme                         |     
     |          Mulliken Center for Theoretical Chemistry        |     
     |                    University of Bonn                     |     
      -----------------------------------------------------------      

   * xtb version 6.7.1pre (5071a88) compiled by 'Marcel@Raven' on 2024-07-23

   xtb is free software: you can redistribute it and/or modify it under
   the terms of the GNU Lesser General Public License as published by
   the Free Software Foundation, either version 3 of the License, or
   (at your option) any later version.
   
   xtb is distributed in the hope that it will be useful,
   but WITHOUT ANY WARRANTY; without even the implied warranty of
   MERCHANTABILITY or FITNESS FOR A PARTICULAR PURPOSE.  See the
   GNU Lesser General Public License for more details.
   
   Cite this work as:
   * C. Bannwarth, E. Caldeweyher, S. Ehlert, A. Hansen, P. Pracht,
     J. Seibert, S. Spicher, S. Grimme, WIREs Comput. Mol. Sci., 2020, 11,
     e01493. DOI: 10.1002/wcms.1493
   
   for GFN2-xTB:
   * C. Bannwarth, S. Ehlert and S. Grimme., J. Chem. Theory Comput., 2019,
     15, 1652-1671. DOI: 10.1021/acs.jctc.8b01176
   for GFN1-xTB:
   * S. Grimme, C. Bannwarth, P. Shushkov, J. Chem. Theory Comput., 2017,
     13, 1989-2009. DOI: 10.1021/acs.jctc.7b00118
   for GFN0-xTB:
   * P. Pracht, E. Caldeweyher, S. Ehlert, S. Grimme, ChemRxiv, 2019, preprint.
     DOI: 10.26434/chemrxiv.8326202.v1
   for GFN-FF:
   * S. Spicher and S. Grimme, Angew. Chem. Int. Ed., 2020, 59, 15665-15673.
     DOI: 10.1002/anie.202004239
   
   for ALPB and GBSA implicit solvation:
   * S. Ehlert, M. Stahn, S. Spicher, S. Grimme, J. Chem. Theory Comput.,
     2021, 17, 4250-4261. DOI: 10.1021/acs.jctc.1c00471
   
   for ddCOSMO and CPCM-X implicit solvation:
   * M. Stahn, S. Ehlert, S. Grimme, J. Phys. Chem. A,
     2023, XX, XXXX-XXXX. DOI: 10.1021/acs.jpca.3c04382
   
   for DFT-D4:
   * E. Caldeweyher, C. Bannwarth and S. Grimme, J. Chem. Phys., 2017,
     147, 034112. DOI: 10.1063/1.4993215
   * E. Caldeweyher, S. Ehlert, A. Hansen, H. Neugebauer, S. Spicher,
     C. Bannwarth and S. Grimme, J. Chem. Phys., 2019, 150, 154122.
     DOI: 10.1063/1.5090222
   * E. Caldeweyher, J.-M. Mewes, S. Ehlert and S. Grimme, Phys. Chem. Chem. Phys.
     2020, 22, 8499-8512. DOI: 10.1039/D0CP00502A
   
   for sTDA-xTB:
   * S. Grimme and C. Bannwarth, J. Chem. Phys., 2016, 145, 054103.
     DOI: 10.1063/1.4959605
   
   in the mass-spec context:
   * V. Asgeirsson, C. Bauer and S. Grimme, Chem. Sci., 2017, 8, 4879.
     DOI: 10.1039/c7sc00601b
   * J. Koopman and S. Grimme, ACS Omega 2019, 4, 12, 15120-15133.
     DOI: 10.1021/acsomega.9b02011
   
   for metadynamics refer to:
   * S. Grimme, J. Chem. Theory Comput., 2019, 155, 2847-2862
     DOI: 10.1021/acs.jctc.9b00143
   
   for SPH calculations refer to:
   * S. Spicher and S. Grimme, J. Chem. Theory Comput., 2021, 17, 1701-1714
     DOI: 10.1021/acs.jctc.0c01306
   
   for ONIOM refer to:
   * C. Plett, A. Katbashev, S. Ehlert, S. Grimme, M. Bursch,
     Phys. Chem. Chem. Phys., 2023, 25, 17860-17868. DOI: 10.1039/D3CP02178E
   
   for DIPRO refer to:
   * J. Kohn, N. Gildemeister, S. Grimme, D. Fazzi, A. Hansen,
     J. Chem. Phys., 2023, just accepted.
   
   for PTB refer to:
   * S. Grimme, M. Mueller, A. Hansen, J. Chem. Phys., 2023, 158, 124111.
     DOI: 10.1063/5.0137838
   
   with help from (in alphabetical order)
   P. Atkinson, C. Bannwarth, F. Bohle, G. Brandenburg, E. Caldeweyher
   M. Checinski, S. Dohm, S. Ehlert, S. Ehrlich, I. Gerasimov, C. Hölzer
   A. Katbashev, J. Kohn, J. Koopman, C. Lavigne, S. Lehtola, F. März, M. Müller,
   F. Musil, H. Neugebauer, J. Pisarek, C. Plett, P. Pracht, F. Pultar,
   J. Seibert, P. Shushkov, S. Spicher, M. Stahn, M. Steiner, T. Strunk,
   J. Stückrath, T. Rose, and J. Unsleber
   
 * started run on 2026/08/20 at 20:36:32.389     
   ID    Z sym.   atoms
    1    7 N      1, 44, 53
    2    6 C      2-15, 45, 47, 48, 54
    3    8 O      16, 17, 41, 46, 49
    4    1 H      18-40, 42, 43, 50-52, 55-57

           -------------------------------------------------
          |                Calculation Setup                |
           -------------------------------------------------

          program call               : C:\Users\Nayanika\Downloads\xtb-6.7.1pre-windows-x86_64\xtb-6.7.1\bin\xtb.exe D:\PhD_Thesis\LmrR_EVB\charges\fast_lmrr_5QM\xtb_preparation\stage2_five_xtb_protocols\GFN2_etemp500\RS1_2b_to_PS1_3\RS1_2b_to_PS1_3_PS_xtbopt.xyz --gfn 2 --chrg 0 --uhf 0 --hess --etemp 500
          coordinate file            : D:\PhD_Thesis\LmrR_EVB\charges\fast_lmrr_5QM\xtb_preparation\stage2_five_xtb_protocols\GFN2_etemp500\RS1_2b_to_PS1_3\RS1_2b_to_PS1_3_PS_xtbopt.xyz
          omp threads                :                     8


molecular fragmentation (1/2 indicates fragments):
111111111111111222211111111111111111112222211111111111111
# atoms in fragment 1/2:    48     9
 fragment masses (1/2) :      315.41       54.05
CMA distance (Bohr)    :   9.675
constraining FC (au)   :  0.0500

           -------------------------------------------------
          |                 G F N 2 - x T B                 |
           -------------------------------------------------

        Reference                      10.1021/acs.jctc.8b01176
      * Hamiltonian:
        H0-scaling (s, p, d)           1.850000    2.230000    2.230000
        zeta-weighting                 0.500000
      * Dispersion:
        s8                             2.700000
        a1                             0.520000
        a2                             5.000000
        s9                             5.000000
      * Repulsion:
        kExp                           1.500000    1.000000
        rExp                           1.000000
      * Coulomb:
        alpha                          2.000000
        third order                    shell-resolved
        anisotropic                    true
        a3                             3.000000
        a5                             4.000000
        cn-shift                       1.200000
        cn-exp                         4.000000
        max-rad                        5.000000

q/qsh data taken from xtbrestart
CAMM data taken from xtbrestart

          ...................................................
          :                      SETUP                      :
          :.................................................:
          :  # basis functions                 135          :
          :  # atomic orbitals                 135          :
          :  # shells                           83          :
          :  # electrons                       148          :
          :  max. iterations                   250          :
          :  Hamiltonian                  GFN2-xTB          :
          :  restarted?                       true          :
          :  GBSA solvation                  false          :
          :  PC potential                    false          :
          :  electronic temp.          500.0000000     K    :
          :  accuracy                    1.0000000          :
          :  -> integral cutoff          0.2500000E+02      :
          :  -> integral neglect         0.1000000E-07      :
          :  -> SCF convergence          0.1000000E-05 Eh   :
          :  -> wf. convergence          0.1000000E-03 e    :
          :  Broyden damping             0.4000000          :
          :  net charge                          0          :
          :  unpaired electrons                  0          :
          ...................................................

 iter      E             dE          RMSdq      gap      omega  full diag
   1    -84.5489143 -0.845489E+02  0.191E-05    2.35       0.0  T
   2    -84.5489143 -0.150635E-11  0.169E-05    2.35     782.5  T
   3    -84.5489143 -0.130598E-10  0.517E-06    2.35    2560.5  T

   *** convergence criteria satisfied after 3 iterations ***

         #    Occupation            Energy/Eh            Energy/eV
      -------------------------------------------------------------
         1        2.0000           -0.6974807             -18.9794
       ...           ...                  ...                  ...
        68        2.0000           -0.4137704             -11.2593
        69        2.0000           -0.4043708             -11.0035
        70        2.0000           -0.4004009             -10.8955
        71        2.0000           -0.3967422             -10.7959
        72        2.0000           -0.3940415             -10.7224
        73        2.0000           -0.3797134             -10.3325
        74        2.0000           -0.3684314             -10.0255 (HOMO)
        75                         -0.2819578              -7.6725 (LUMO)
        76                         -0.2223377              -6.0501
        77                         -0.2163322              -5.8867
        78                         -0.2084957              -5.6735
        79                         -0.2010529              -5.4709
       ...                                ...                  ...
       135                          0.6671517              18.1541
      -------------------------------------------------------------
                  HL-Gap            0.0864736 Eh            2.3531 eV
             Fermi-level           -0.3251946 Eh           -8.8490 eV

 SCC (total)                   0 d,  0 h,  0 min,  0.042 sec
 SCC setup                      ...        0 min,  0.001 sec (  2.381%)
 Dispersion                     ...        0 min,  0.000 sec (  0.000%)
 classical contributions        ...        0 min,  0.000 sec (  0.000%)
 integral evaluation            ...        0 min,  0.005 sec ( 11.905%)
 iterations                     ...        0 min,  0.022 sec ( 52.381%)
 molecular gradient             ...        0 min,  0.013 sec ( 30.953%)
 printout                       ...        0 min,  0.001 sec (  2.381%)

         :::::::::::::::::::::::::::::::::::::::::::::::::::::
         ::                     SUMMARY                     ::
         :::::::::::::::::::::::::::::::::::::::::::::::::::::
         :: total energy             -83.442252809001 Eh    ::
         :: gradient norm              0.001505989597 Eh/a0 ::
         :: HOMO-LUMO gap              2.353065941369 eV    ::
         ::.................................................::
         :: SCC energy               -84.547057090296 Eh    ::
         :: -> isotropic ES            0.184781565168 Eh    ::
         :: -> anisotropic ES         -0.007457328008 Eh    ::
         :: -> anisotropic XC          0.034409891658 Eh    ::
         :: -> dispersion             -0.055978976066 Eh    ::
         :: repulsion energy           1.104804281296 Eh    ::
         :: add. restraining           0.000000000000 Eh    ::
         :: total charge               0.000000000000 e     ::
         :::::::::::::::::::::::::::::::::::::::::::::::::::::

           ------------------------------------------------- 
          |                Numerical Hessian                |
           ------------------------------------------------- 
step length          :   0.00500
SCC accuracy         :   0.30000
Hessian scale factor :   1.00000
frozen atoms in %    :   0.00000    0
RMS gradient         :   0.00151
estimated CPU  time      4.73 min
estimated wall time      0.67 min

writing file <hessian>.

 projected vibrational frequencies (cm⁻¹)
eigval :       -0.00    -0.00    -0.00     0.00     0.00     0.00
eigval :        9.87    18.18    23.20    27.29    32.72    36.33
eigval :       42.24    46.16    50.72    56.52    57.32    60.39
eigval :       69.09    76.58    80.49    92.42   103.88   119.54
eigval :      123.96   136.29   146.66   154.92   167.06   175.06
eigval :      182.47   189.69   196.43   201.30   221.31   227.88
eigval :      239.07   242.87   246.99   289.56   294.73   297.80
eigval :      315.71   341.61   352.93   377.47   386.42   401.05
eigval :      406.80   411.36   419.06   451.02   458.72   469.92
eigval :      504.98   518.49   555.30   584.47   599.64   609.68
eigval :      641.43   644.82   652.95   673.40   684.43   707.95
eigval :      726.43   761.31   773.85   781.73   792.72   818.17
eigval :      861.32   868.30   878.98   892.34   898.59   909.25
eigval :      921.83   932.96   935.21   981.08   997.83  1006.38
eigval :     1010.69  1015.48  1032.62  1033.80  1077.62  1089.10
eigval :     1105.07  1106.53  1115.98  1130.03  1138.75  1139.14
eigval :     1160.93  1164.52  1187.12  1204.52  1212.30  1216.96
eigval :     1217.68  1237.20  1245.92  1262.00  1266.61  1271.78
eigval :     1281.75  1289.30  1292.66  1309.86  1327.86  1342.36
eigval :     1356.68  1382.27  1393.05  1413.17  1416.31  1420.39
eigval :     1435.46  1458.32  1462.93  1464.13  1474.05  1476.17
eigval :     1483.81  1485.24  1495.14  1500.85  1505.51  1529.75
eigval :     1545.39  1567.61  1568.69  1600.24  1645.88  1676.68
eigval :     1711.52  1760.86  2907.28  2956.84  2968.66  2970.33
eigval :     2986.93  2988.67  2996.49  2996.85  3003.57  3005.39
eigval :     3015.17  3029.20  3032.85  3033.81  3035.75  3040.30
eigval :     3042.51  3064.42  3065.47  3071.73  3083.68  3085.44
eigval :     3101.48  3113.35  3240.10  3342.82  3352.63  3460.70
eigval :     3659.17  3667.73  3669.52
           -------------------------------------------------
          |                Property Printout                |
           -------------------------------------------------

    * Orbital Energies and Occupations

         #    Occupation            Energy/Eh            Energy/eV
      -------------------------------------------------------------
         1        2.0000           -0.6974807             -18.9794
       ...           ...                  ...                  ...
        62        2.0000           -0.4380663             -11.9204
        63        2.0000           -0.4362549             -11.8711
        64        2.0000           -0.4320689             -11.7572
        65        2.0000           -0.4265328             -11.6065
        66        2.0000           -0.4227414             -11.5034
        67        2.0000           -0.4211723             -11.4607
        68        2.0000           -0.4137704             -11.2593
        69        2.0000           -0.4043708             -11.0035
        70        2.0000           -0.4004009             -10.8955
        71        2.0000           -0.3967422             -10.7959
        72        2.0000           -0.3940415             -10.7224
        73        2.0000           -0.3797134             -10.3325
        74        2.0000           -0.3684313             -10.0255 (HOMO)
        75                         -0.2819578              -7.6725 (LUMO)
        76                         -0.2223377              -6.0501
        77                         -0.2163322              -5.8867
        78                         -0.2084957              -5.6735
        79                         -0.2010530              -5.4709
        80                         -0.1647725              -4.4837
        81                         -0.0948818              -2.5819
        82                          0.0107961               0.2938
        83                          0.0140693               0.3828
        84                          0.0400811               1.0907
        85                          0.0815310               2.2186
       ...                                ...                  ...
       135                          0.6671517              18.1541
      -------------------------------------------------------------
                  HL-Gap            0.0864736 Eh            2.3531 eV
             Fermi-level           -0.3251946 Eh           -8.8490 eV

     #   Z          covCN         q      C6AA      α(0)
     1   7 N        1.835    -0.232    26.924     7.689
     2   6 C        2.947     0.082    26.175     8.391
     3   6 C        2.921    -0.046    29.143     8.853
     4   6 C        2.925    -0.039    28.964     8.826
     5   6 C        2.976     0.004    27.923     8.668
     6   6 C        2.925    -0.041    29.012     8.833
     7   6 C        2.922    -0.045    29.126     8.850
     8   6 C        3.811    -0.068    21.795     6.645
     9   6 C        3.803     0.020    20.229     6.403
    10   6 C        2.866     0.082    26.160     8.384
    11   6 C        2.895    -0.049    29.219     8.863
    12   6 C        2.896    -0.017    28.444     8.744
    13   6 C        3.808    -0.062    21.692     6.630
    14   6 C        3.803    -0.048    21.442     6.592
    15   6 C        3.752    -0.105    22.568     6.774
    16   8 O        1.609    -0.611    25.442     6.808
    17   8 O        1.608    -0.611    25.460     6.810
    18   1 H        0.803     0.315     0.677     1.293
    19   1 H        0.804     0.315     0.678     1.293
    20   1 H        0.926     0.030     2.589     2.516
    21   1 H        0.926     0.033     2.549     2.497
    22   1 H        0.925     0.031     2.579     2.511
    23   1 H        0.926     0.053     2.280     2.361
    24   1 H        0.924     0.059     2.209     2.324
    25   1 H        0.924     0.058     2.226     2.333
    26   1 H        0.923     0.063     2.160     2.298
    27   1 H        0.860     0.182     1.204     1.719
    28   1 H        0.860     0.202     1.097     1.641
    29   1 H        0.925     0.039     2.460     2.453
    30   1 H        0.926     0.056     2.246     2.344
    31   1 H        0.925     0.039     2.465     2.455
    32   1 H        0.924     0.047     2.357     2.401
    33   1 H        0.924     0.055     2.259     2.350
    34   1 H        0.924     0.037     2.491     2.468
    35   1 H        0.924     0.030     2.584     2.514
    36   1 H        0.925     0.036     2.505     2.475
    37   1 H        0.925     0.036     2.501     2.473
    38   1 H        0.925     0.044     2.401     2.423
    39   1 H        0.803     0.323     0.657     1.273
    40   1 H        0.806     0.278     0.792     1.398
    41   8 O        1.608    -0.600    25.193     6.774
    42   1 H        0.805     0.268     0.825     1.427
    43   1 H        0.806     0.278     0.790     1.396
    44   7 N        2.692    -0.188    25.076     7.437
    45   6 C        2.752     0.264    22.543     7.775
    46   8 O        0.858    -0.435    22.383     6.343
    47   6 C        3.757    -0.153    23.509     6.913
    48   6 C        2.749     0.278    22.302     7.733
    49   8 O        0.859    -0.468    23.086     6.442
    50   1 H        0.925     0.054     2.269     2.355
    51   1 H        0.925     0.068     2.103     2.268
    52   1 H        0.924     0.094     1.837     2.119
    53   7 N        2.687    -0.175    24.794     7.395
    54   6 C        3.690    -0.042    21.524     6.640
    55   1 H        0.924     0.051     2.303     2.373
    56   1 H        0.924     0.049     2.330     2.387
    57   1 H        0.925     0.082     1.954     2.186

 Mol. C6AA /au·bohr⁶  :      29500.428101
 Mol. C8AA /au·bohr⁸  :     658255.145248
 Mol. α(0) /au        :        262.541377


Wiberg/Mayer (AO) data.
largest (>0.10) Wiberg bond orders for each atom

 ---------------------------------------------------------------------------
     #   Z sym  total        # sym  WBO       # sym  WBO       # sym  WBO
 ---------------------------------------------------------------------------
     1   7 N    3.190 --    10 C    1.751     2 C    1.090    12 C    0.116
     2   6 C    3.977 --     7 C    1.364     3 C    1.352     1 N    1.090
     3   6 C    3.989 --     4 C    1.464     2 C    1.352    20 H    0.969
                             6 C    0.102
     4   6 C    3.991 --     3 C    1.464     5 C    1.397    21 H    0.967
                             7 C    0.105
     5   6 C    3.983 --     6 C    1.405     4 C    1.397     8 C    1.011
     6   6 C    3.990 --     7 C    1.454     5 C    1.405    22 H    0.967
                             3 C    0.102
     7   6 C    3.988 --     6 C    1.454     2 C    1.364    23 H    0.966
                             4 C    0.105
     8   6 C    3.991 --     5 C    1.011     9 C    0.977    24 H    0.971
                            25 H    0.967
     9   6 C    3.965 --     8 C    0.977    44 N    0.976    26 H    0.950
                            45 C    0.917
    10   6 C    3.969 --     1 N    1.751    11 C    1.132    29 H    0.955
    11   6 C    3.989 --    12 C    1.798    10 C    1.132    30 H    0.955
    12   6 C    3.980 --    11 C    1.798    13 C    1.042    31 H    0.965
                             1 N    0.116
    13   6 C    3.995 --    12 C    1.042    14 C    0.978    33 H    0.973
                            32 H    0.959
    14   6 C    3.989 --    15 C    1.018    35 H    0.979    13 C    0.978
                            34 H    0.977
    15   6 C    3.995 --    14 C    1.018    37 H    0.988    38 H    0.986
                            36 H    0.986
    16   8 O    1.817 --    42 H    0.925    19 H    0.852
    17   8 O    1.851 --    40 H    0.920    39 H    0.834
    18   1 H    0.901 --    41 O    0.829
    19   1 H    0.901 --    16 O    0.852
    20   1 H    0.999 --     3 C    0.969
    21   1 H    0.998 --     4 C    0.967
    22   1 H    0.998 --     6 C    0.967
    23   1 H    0.997 --     7 C    0.966
    24   1 H    0.996 --     8 C    0.971
    25   1 H    0.995 --     8 C    0.967
    26   1 H    0.996 --     9 C    0.950
    27   1 H    0.967 --    44 N    0.933
    28   1 H    0.959 --    53 N    0.914
    29   1 H    0.997 --    10 C    0.955
    30   1 H    0.997 --    11 C    0.955
    31   1 H    0.998 --    12 C    0.965
    32   1 H    0.993 --    13 C    0.959
    33   1 H    0.997 --    13 C    0.973
    34   1 H    0.999 --    14 C    0.977
    35   1 H    0.999 --    14 C    0.979
    36   1 H    0.997 --    15 C    0.986
    37   1 H    0.999 --    15 C    0.988
    38   1 H    0.998 --    15 C    0.986
    39   1 H    0.896 --    17 O    0.834
    40   1 H    0.923 --    17 O    0.920
    41   8 O    1.872 --    43 H    0.919    18 H    0.829
    42   1 H    0.928 --    16 O    0.925
    43   1 H    0.923 --    41 O    0.919
    44   7 N    3.443 --    48 C    1.262     9 C    0.976    27 H    0.933
                            49 O    0.188
    45   6 C    3.955 --    46 O    1.681    53 N    1.285     9 C    0.917
    46   8 O    2.010 --    45 C    1.681    53 N    0.211
    47   6 C    3.990 --    48 C    0.992    51 H    0.982    50 H    0.970
                            52 H    0.952
    48   6 C    3.947 --    49 O    1.642    44 N    1.262    47 C    0.992
    49   8 O    1.976 --    48 C    1.642    44 N    0.188
    50   1 H    0.997 --    47 C    0.970
    51   1 H    0.995 --    47 C    0.982
    52   1 H    0.991 --    47 C    0.952
    53   7 N    3.464 --    45 C    1.285    54 C    1.006    28 H    0.914
                            46 O    0.211
    54   6 C    3.966 --    53 N    1.006    55 H    0.977    57 H    0.977
                            56 H    0.977
    55   1 H    0.997 --    54 C    0.977
    56   1 H    0.997 --    54 C    0.977
    57   1 H    0.993 --    54 C    0.977
 ---------------------------------------------------------------------------

Topologies differ in total number of bonds
Writing topology from bond orders to xtbtopo.mol

molecular dipole:
                 x           y           z       tot (Debye)
 q only:       -1.219       0.787      -0.168
   full:       -1.743       1.039      -0.232       5.191
molecular quadrupole (traceless):
                xx          xy          yy          xz          yz          zz
 q only:      -15.943       8.644       8.292      -3.207      -3.315       7.651
  q+dip:      -23.212       7.145      10.754      -2.129       0.435      12.457
   full:      -24.729       8.311      10.347      -2.703      -1.388      14.382

           -------------------------------------------------
          |               Frequency Printout                |
           -------------------------------------------------
 projected vibrational frequencies (cm⁻¹)
eigval :       -0.00    -0.00    -0.00     0.00     0.00     0.00
eigval :        9.87    18.18    23.20    27.29    32.72    36.33
eigval :       42.24    46.16    50.72    56.52    57.32    60.39
eigval :       69.09    76.58    80.49    92.42   103.88   119.54
eigval :      123.96   136.29   146.66   154.92   167.06   175.06
eigval :      182.47   189.69   196.43   201.30   221.31   227.88
eigval :      239.07   242.87   246.99   289.56   294.73   297.80
eigval :      315.71   341.61   352.93   377.47   386.42   401.05
eigval :      406.80   411.36   419.06   451.02   458.72   469.92
eigval :      504.98   518.49   555.30   584.47   599.64   609.68
eigval :      641.43   644.82   652.95   673.40   684.43   707.95
eigval :      726.43   761.31   773.85   781.73   792.72   818.17
eigval :      861.32   868.30   878.98   892.34   898.59   909.25
eigval :      921.83   932.96   935.21   981.08   997.83  1006.38
eigval :     1010.69  1015.48  1032.62  1033.80  1077.62  1089.10
eigval :     1105.07  1106.53  1115.98  1130.03  1138.75  1139.14
eigval :     1160.93  1164.52  1187.12  1204.52  1212.30  1216.96
eigval :     1217.68  1237.20  1245.92  1262.00  1266.61  1271.78
eigval :     1281.75  1289.30  1292.66  1309.86  1327.86  1342.36
eigval :     1356.68  1382.27  1393.05  1413.17  1416.31  1420.39
eigval :     1435.46  1458.32  1462.93  1464.13  1474.05  1476.17
eigval :     1483.81  1485.24  1495.14  1500.85  1505.51  1529.75
eigval :     1545.39  1567.61  1568.69  1600.24  1645.88  1676.68
eigval :     1711.52  1760.86  2907.28  2956.84  2968.66  2970.33
eigval :     2986.93  2988.67  2996.49  2996.85  3003.57  3005.39
eigval :     3015.17  3029.20  3032.85  3033.81  3035.75  3040.30
eigval :     3042.51  3064.42  3065.47  3071.73  3083.68  3085.44
eigval :     3101.48  3113.35  3240.10  3342.82  3352.63  3460.70
eigval :     3659.17  3667.73  3669.52
 reduced masses (amu)
   1: 11.86   2: 12.22   3: 12.29   4: 11.64   5: 12.07   6: 12.39   7: 11.58   8: 13.17
   9: 11.28  10: 11.24  11: 11.99  12: 12.23  13: 12.94  14: 12.56  15: 12.67  16: 12.70
  17: 13.59  18: 12.90  19: 10.03  20: 11.36  21:  9.98  22:  7.43  23:  9.48  24: 10.01
  25:  2.06  26:  5.03  27:  9.95  28: 10.30  29: 10.70  30:  3.09  31:  8.98  32:  8.66
  33:  5.88  34:  7.60  35:  9.91  36:  8.90  37:  4.84  38:  8.97  39: 10.41  40: 13.06
  41: 11.96  42: 10.22  43: 11.04  44:  9.56  45:  9.31  46:  8.63  47:  3.11  48:  5.74
  49:  6.74  50:  2.36  51:  7.97  52: 10.82  53:  4.82  54:  9.77  55:  9.95  56: 10.47
  57: 10.38  58:  8.43  59: 10.65  60: 10.44  61:  3.00  62:  6.96  63: 10.19  64:  2.55
  65:  7.51  66: 10.30  67: 10.95  68:  2.56  69:  9.94  70:  6.05  71:  2.34  72:  6.36
  73:  3.56  74:  9.93  75:  8.42  76:  4.76  77:  3.39  78:  2.77  79:  4.31  80:  8.74
  81:  6.25  82: 10.93  83:  5.57  84:  4.02  85:  3.40  86:  8.49  87:  6.44  88:  6.13
  89:  6.90  90:  9.02  91:  3.83  92:  7.31  93:  7.66  94:  7.13  95:  5.96  96:  6.90
  97:  6.61  98:  8.79  99:  3.00 100:  4.95 101:  5.48 102:  4.67 103:  4.49 104:  4.31
 105:  4.98 106:  6.16 107:  3.18 108:  3.43 109:  4.81 110:  3.59 111:  3.54 112:  6.32
 113: 10.44 114:  5.04 115:  5.22 116:  3.19 117:  2.63 118:  9.90 119:  3.26 120:  9.74
 121:  8.49 122:  1.69 123:  1.57 124:  1.65 125:  2.12 126:  2.30 127:  9.40 128:  2.50
 129:  1.84 130:  1.53 131:  1.61 132:  2.05 133:  2.11 134:  4.30 135:  9.40 136: 11.55
 137: 12.08 138: 12.01 139: 13.13 140: 13.20 141:  1.74 142:  1.79 143:  1.82 144:  1.93
 145:  1.60 146:  1.46 147:  1.71 148:  1.99 149:  1.77 150:  1.50 151:  1.79 152:  1.62
 153:  1.73 154:  1.95 155:  1.93 156:  1.28 157:  1.81 158:  1.76 159:  1.81 160:  1.78
 161:  1.88 162:  1.83 163:  1.90 164:  1.85 165:  1.86 166:  1.88 167:  1.87 168:  1.84
 169:  1.83 170:  1.84 171:  1.83
 IR intensities (km·mol⁻¹)
   1:  0.09   2:  0.15   3:  0.00   4:  0.15   5:  0.00   6:  0.21   7:  0.87   8:  0.02
   9:  0.92  10:  0.34  11:  0.54  12:  0.44  13:  1.11  14:  1.93  15:  1.99  16:  1.29
  17:  6.33  18:  0.39  19:  1.32  20:  5.49  21:  5.62  22:  3.91  23:  0.72  24:  6.10
  25:  0.65  26: 73.94  27: 10.74  28:  0.61  29:  2.71  30: 92.60  31: 38.49  32: 12.87
  33: 37.05  34:  4.36  35:  0.83  36:  0.16  37:  1.31  38: 10.36  39: 98.07  40: 44.28
  41:  9.15  42:  1.89  43: 10.08  44:  2.39  45:  2.60  46: 12.65  47: 47.22  48: 16.58
  49: 24.65  50: 31.92  51: 11.91  52: 17.07  53:115.15  54:  4.27  55:  4.70  56:  7.86
  57: 10.30  58:  3.93  59: 20.83  60: 17.15  61:179.55  62:178.86  63: 49.50  64:183.33
  65: 14.01  66:  7.71  67:  1.96  68:302.35  69:  3.83  70:  1.09  71: 14.59  72: 43.04
  73:  2.41  74:  4.89  75: 11.22  76:  0.46  77:  8.20  78:  1.51  79:  0.43  80:  1.52
  81:  2.14  82: 12.24  83:  3.38  84: 30.36  85:  3.23  86:  2.79  87:  6.85  88: 33.13
  89: 24.50  90:  0.33  91:  0.77  92: 19.64  93: 24.23  94: 21.48  95:  1.17  96:  6.18
  97:  1.25  98: 18.19  99: 20.25 100: 22.28 101:  5.60 102:  9.37 103:  5.33 104:  5.50
 105: 32.29 106:  8.91 107:  1.27 108:  1.64 109: 26.05 110:  4.69 111:  3.07 112:  1.06
 113:  1.69 114: 19.04 115:  8.09 116: 32.39 117:  2.44 118: 18.19 119:  5.83 120:194.87
 121:203.44 122: 10.45 123: 10.97 124:  9.86 125:  5.43 126:  1.07 127: 42.92 128: 24.09
 129:  0.92 130:  2.71 131:  2.01 132: 92.47 133:173.78 134:129.95 135: 43.33 136: 28.79
 137:277.14 138:  2.67 139:300.50 140:557.66 141: 13.54 142: 17.36 143: 43.22 144: 29.67
 145: 30.16 146: 47.71 147: 18.92 148: 16.41 149: 41.14 150: 17.33 151: 14.26 152: 12.41
 153:  8.07 154: 46.62 155: 41.11 156: 18.01 157: 58.45 158:  5.11 159: 36.89 160: 30.68
 161: 47.26 162: 21.04 163:****** 164: 19.79 165:891.63 166: 93.53 167:431.01 168: 12.87
 169:  4.61 170:  6.81 171: 18.20
 Raman intensities (Ä⁴*amu⁻¹)
   1:  0.00   2:  0.00   3:  0.00   4:  0.00   5:  0.00   6:  0.00   7:  0.00   8:  0.00
   9:  0.00  10:  0.00  11:  0.00  12:  0.00  13:  0.00  14:  0.00  15:  0.00  16:  0.00
  17:  0.00  18:  0.00  19:  0.00  20:  0.00  21:  0.00  22:  0.00  23:  0.00  24:  0.00
  25:  0.00  26:  0.00  27:  0.00  28:  0.00  29:  0.00  30:  0.00  31:  0.00  32:  0.00
  33:  0.00  34:  0.00  35:  0.00  36:  0.00  37:  0.00  38:  0.00  39:  0.00  40:  0.00
  41:  0.00  42:  0.00  43:  0.00  44:  0.00  45:  0.00  46:  0.00  47:  0.00  48:  0.00
  49:  0.00  50:  0.00  51:  0.00  52:  0.00  53:  0.00  54:  0.00  55:  0.00  56:  0.00
  57:  0.00  58:  0.00  59:  0.00  60:  0.00  61:  0.00  62:  0.00  63:  0.00  64:  0.00
  65:  0.00  66:  0.00  67:  0.00  68:  0.00  69:  0.00  70:  0.00  71:  0.00  72:  0.00
  73:  0.00  74:  0.00  75:  0.00  76:  0.00  77:  0.00  78:  0.00  79:  0.00  80:  0.00
  81:  0.00  82:  0.00  83:  0.00  84:  0.00  85:  0.00  86:  0.00  87:  0.00  88:  0.00
  89:  0.00  90:  0.00  91:  0.00  92:  0.00  93:  0.00  94:  0.00  95:  0.00  96:  0.00
  97:  0.00  98:  0.00  99:  0.00 100:  0.00 101:  0.00 102:  0.00 103:  0.00 104:  0.00
 105:  0.00 106:  0.00 107:  0.00 108:  0.00 109:  0.00 110:  0.00 111:  0.00 112:  0.00
 113:  0.00 114:  0.00 115:  0.00 116:  0.00 117:  0.00 118:  0.00 119:  0.00 120:  0.00
 121:  0.00 122:  0.00 123:  0.00 124:  0.00 125:  0.00 126:  0.00 127:  0.00 128:  0.00
 129:  0.00 130:  0.00 131:  0.00 132:  0.00 133:  0.00 134:  0.00 135:  0.00 136:  0.00
 137:  0.00 138:  0.00 139:  0.00 140:  0.00 141:  0.00 142:  0.00 143:  0.00 144:  0.00
 145:  0.00 146:  0.00 147:  0.00 148:  0.00 149:  0.00 150:  0.00 151:  0.00 152:  0.00
 153:  0.00 154:  0.00 155:  0.00 156:  0.00 157:  0.00 158:  0.00 159:  0.00 160:  0.00
 161:  0.00 162:  0.00 163:  0.00 164:  0.00 165:  0.00 166:  0.00 167:  0.00 168:  0.00
 169:  0.00 170:  0.00 171:  0.00
 output can be read by thermo (or use thermo option).
 writing <g98.out> molden fake output.
 recommended (thermochemical) frequency scaling factor: 1.0
           -------------------------------------------------
          |             Thermodynamic Functions             |
           -------------------------------------------------

Refinement of some symmetry elements was terminated before convergence was reached.
Some symmetry elements may remain unidentified.
Molecule has no symmetry elements
It seems to be the C1 point group
c1  symmetry found (for desy threshold:  0.10E+00) used in thermo

          ...................................................
          :                      SETUP                      :
          :.................................................:
          :  # frequencies                         165      :
          :  # imaginary freq.                       0      :
          :  linear?                             false      :
          :  only rotor calc.                    false      :
          :  symmetry                               c1      :
          :  rotational number                       1      :
          :  scaling factor                  1.0000000      :
          :  rotor cutoff                   50.0000000 cm⁻¹ :
          :  imag. cutoff                  -20.0000000 cm⁻¹ :
          :.................................................:

    mode    ω/cm⁻¹     T·S(HO)/kcal·mol⁻¹    T·S(FR)/kcal·mol⁻¹   T·S(vib)
   ------------------------------------------------------------------------
       1      9.87    -2.39650 (  0.15%)    -1.53721 ( 99.85%)    -1.53851
       2     18.18    -2.03446 (  1.72%)    -1.35618 ( 98.28%)    -1.36783
       3     23.20    -1.89021 (  4.43%)    -1.28401 ( 95.57%)    -1.31085
       4     27.29    -1.79395 (  8.16%)    -1.23583 ( 91.84%)    -1.28135
       5     32.72    -1.68680 ( 15.49%)    -1.18217 ( 84.51%)    -1.26033
       6     36.33    -1.62484 ( 21.80%)    -1.15112 ( 78.20%)    -1.25439
       7     42.24    -1.53586 ( 33.74%)    -1.10650 ( 66.26%)    -1.25137
       8     46.16    -1.48342 ( 42.08%)    -1.08019 ( 57.92%)    -1.24986
       9     50.72    -1.42789 ( 51.43%)    -1.05230 ( 48.57%)    -1.24545
      10     56.52    -1.36410 ( 62.01%)    -1.02023 ( 37.99%)    -1.23348
      11     57.32    -1.35585 ( 63.33%)    -1.01608 ( 36.67%)    -1.23124
      12     60.39    -1.32514 ( 68.03%)    -1.00062 ( 31.97%)    -1.22137
      13     69.09    -1.24603 ( 78.47%)    -0.96075 ( 21.53%)    -1.18461
      14     76.58    -1.18562 ( 84.62%)    -0.93023 ( 15.38%)    -1.14635
      15     80.49    -1.15647 ( 87.04%)    -0.91548 ( 12.96%)    -1.12524
      16     92.42    -1.07579 ( 92.11%)    -0.87456 (  7.89%)    -1.05991
      17    103.88    -1.00779 ( 94.91%)    -0.83992 (  5.09%)    -0.99924
      18    119.54    -0.92660 ( 97.03%)    -0.79833 (  2.97%)    -0.92279
      19    123.96    -0.90570 ( 97.42%)    -0.78758 (  2.58%)    -0.90266
      20    136.29    -0.85130 ( 98.22%)    -0.75947 (  1.78%)    -0.84966
      21    146.66    -0.80952 ( 98.67%)    -0.73776 (  1.33%)    -0.80856
      22    154.92    -0.77843 ( 98.93%)    -0.72152 (  1.07%)    -0.77782
      23    167.06    -0.73594 ( 99.20%)    -0.69918 (  0.80%)    -0.73564
      24    175.06    -0.70973 ( 99.34%)    -0.68532 (  0.66%)    -0.70957
      25    182.47    -0.68663 ( 99.44%)    -0.67304 (  0.56%)    -0.68655
      26    189.69    -0.66512 ( 99.52%)    -0.66154 (  0.48%)    -0.66511
      27    196.43    -0.64588 ( 99.58%)    -0.65120 (  0.42%)    -0.64590
      28    201.30    -0.63244 ( 99.62%)    -0.64395 (  0.38%)    -0.63248
      29    221.31    -0.58089 ( 99.74%)    -0.61587 (  0.26%)    -0.58098
      30    227.88    -0.56516 ( 99.77%)    -0.60720 (  0.23%)    -0.56525
      31    239.07    -0.53958 ( 99.81%)    -0.59300 (  0.19%)    -0.53969
      32    242.87    -0.53123 ( 99.82%)    -0.58833 (  0.18%)    -0.53133
      33    246.99    -0.52235 ( 99.83%)    -0.58335 (  0.17%)    -0.52246
      34    289.56    -0.44022 ( 99.91%)    -0.53624 (  0.09%)    -0.44031
      35    294.73    -0.43132 ( 99.92%)    -0.53100 (  0.08%)    -0.43140
      36    297.80    -0.42612 ( 99.92%)    -0.52793 (  0.08%)    -0.42620
   ------------------------------------------------------------------------

   temp. (K)  partition function   enthalpy   heat capacity  entropy
                                   cal/mol     cal/K/mol   cal/K/mol   J/K/mol
 298.15  VIB  0.553E+18            20237.298    107.613    133.508
         ROT  0.166E+08              888.752      2.981     36.013
         INT  0.916E+25            21126.051    110.594    169.521
         TR   0.687E+28             1481.254      4.968     43.594
         TOT                       22607.3047   115.5624   213.1145   891.6712

       T/K    H(0)-H(T)+PV         H(T)/Eh          T*S/Eh         G(T)/Eh
   ------------------------------------------------------------------------
    298.15    0.360270E-01    0.501570E+00    0.101258E+00    0.400313E+00
   ------------------------------------------------------------------------

         :::::::::::::::::::::::::::::::::::::::::::::::::::::
         ::                  THERMODYNAMIC                  ::
         :::::::::::::::::::::::::::::::::::::::::::::::::::::
         :: total free energy         -83.041939997435 Eh   ::
         ::.................................................::
         :: total energy              -83.442252809000 Eh   ::
         :: zero point energy           0.465543374734 Eh   ::
         :: G(RRHO) w/o ZPVE           -0.065230563169 Eh   ::
         :: G(RRHO) contrib.            0.400312811565 Eh   ::
         :::::::::::::::::::::::::::::::::::::::::::::::::::::

           -------------------------------------------------
          | TOTAL ENERGY              -83.442252809000 Eh   |
          | TOTAL ENTHALPY            -82.940682400963 Eh   |
          | TOTAL FREE ENERGY         -83.041939997435 Eh   |
          | GRADIENT NORM               0.001506037927 Eh/α |
          | HOMO-LUMO GAP               2.353065067303 eV   |
           -------------------------------------------------

------------------------------------------------------------------------
 * finished run on 2026/08/20 at 20:36:37.590     
------------------------------------------------------------------------
 total:
 * wall-time:     0 d,  0 h,  0 min,  5.201 sec
 *  cpu-time:     0 d,  0 h,  0 min, 35.125 sec
 * ratio c/w:     6.754 speedup
 SCF:
 * wall-time:     0 d,  0 h,  0 min,  0.042 sec
 *  cpu-time:     0 d,  0 h,  0 min,  0.062 sec
 * ratio c/w:     1.488 speedup
 analytical hessian:
 * wall-time:     0 d,  0 h,  0 min,  5.092 sec
 *  cpu-time:     0 d,  0 h,  0 min, 35.031 sec
 * ratio c/w:     6.880 speedup



===== STDERR =====

normal termination of xtb
