      -----------------------------------------------------------      
     |                   =====================                   |     
     |                           x T B                           |     
     |                   =====================                   |     
     |                         S. Grimme                         |     
     |          Mulliken Center for Theoretical Chemistry        |     
     |                    University of Bonn                     |     
      -----------------------------------------------------------      

   * xtb version 6.7.1pre (5071a88) compiled by 'Marcel@Raven' on 2024-07-23

   xtb is free software: you can redistribute it and/or modify it under
   the terms of the GNU Lesser General Public License as published by
   the Free Software Foundation, either version 3 of the License, or
   (at your option) any later version.
   
   xtb is distributed in the hope that it will be useful,
   but WITHOUT ANY WARRANTY; without even the implied warranty of
   MERCHANTABILITY or FITNESS FOR A PARTICULAR PURPOSE.  See the
   GNU Lesser General Public License for more details.
   
   Cite this work as:
   * C. Bannwarth, E. Caldeweyher, S. Ehlert, A. Hansen, P. Pracht,
     J. Seibert, S. Spicher, S. Grimme, WIREs Comput. Mol. Sci., 2020, 11,
     e01493. DOI: 10.1002/wcms.1493
   
   for GFN2-xTB:
   * C. Bannwarth, S. Ehlert and S. Grimme., J. Chem. Theory Comput., 2019,
     15, 1652-1671. DOI: 10.1021/acs.jctc.8b01176
   for GFN1-xTB:
   * S. Grimme, C. Bannwarth, P. Shushkov, J. Chem. Theory Comput., 2017,
     13, 1989-2009. DOI: 10.1021/acs.jctc.7b00118
   for GFN0-xTB:
   * P. Pracht, E. Caldeweyher, S. Ehlert, S. Grimme, ChemRxiv, 2019, preprint.
     DOI: 10.26434/chemrxiv.8326202.v1
   for GFN-FF:
   * S. Spicher and S. Grimme, Angew. Chem. Int. Ed., 2020, 59, 15665-15673.
     DOI: 10.1002/anie.202004239
   
   for ALPB and GBSA implicit solvation:
   * S. Ehlert, M. Stahn, S. Spicher, S. Grimme, J. Chem. Theory Comput.,
     2021, 17, 4250-4261. DOI: 10.1021/acs.jctc.1c00471
   
   for ddCOSMO and CPCM-X implicit solvation:
   * M. Stahn, S. Ehlert, S. Grimme, J. Phys. Chem. A,
     2023, XX, XXXX-XXXX. DOI: 10.1021/acs.jpca.3c04382
   
   for DFT-D4:
   * E. Caldeweyher, C. Bannwarth and S. Grimme, J. Chem. Phys., 2017,
     147, 034112. DOI: 10.1063/1.4993215
   * E. Caldeweyher, S. Ehlert, A. Hansen, H. Neugebauer, S. Spicher,
     C. Bannwarth and S. Grimme, J. Chem. Phys., 2019, 150, 154122.
     DOI: 10.1063/1.5090222
   * E. Caldeweyher, J.-M. Mewes, S. Ehlert and S. Grimme, Phys. Chem. Chem. Phys.
     2020, 22, 8499-8512. DOI: 10.1039/D0CP00502A
   
   for sTDA-xTB:
   * S. Grimme and C. Bannwarth, J. Chem. Phys., 2016, 145, 054103.
     DOI: 10.1063/1.4959605
   
   in the mass-spec context:
   * V. Asgeirsson, C. Bauer and S. Grimme, Chem. Sci., 2017, 8, 4879.
     DOI: 10.1039/c7sc00601b
   * J. Koopman and S. Grimme, ACS Omega 2019, 4, 12, 15120-15133.
     DOI: 10.1021/acsomega.9b02011
   
   for metadynamics refer to:
   * S. Grimme, J. Chem. Theory Comput., 2019, 155, 2847-2862
     DOI: 10.1021/acs.jctc.9b00143
   
   for SPH calculations refer to:
   * S. Spicher and S. Grimme, J. Chem. Theory Comput., 2021, 17, 1701-1714
     DOI: 10.1021/acs.jctc.0c01306
   
   for ONIOM refer to:
   * C. Plett, A. Katbashev, S. Ehlert, S. Grimme, M. Bursch,
     Phys. Chem. Chem. Phys., 2023, 25, 17860-17868. DOI: 10.1039/D3CP02178E
   
   for DIPRO refer to:
   * J. Kohn, N. Gildemeister, S. Grimme, D. Fazzi, A. Hansen,
     J. Chem. Phys., 2023, just accepted.
   
   for PTB refer to:
   * S. Grimme, M. Mueller, A. Hansen, J. Chem. Phys., 2023, 158, 124111.
     DOI: 10.1063/5.0137838
   
   with help from (in alphabetical order)
   P. Atkinson, C. Bannwarth, F. Bohle, G. Brandenburg, E. Caldeweyher
   M. Checinski, S. Dohm, S. Ehlert, S. Ehrlich, I. Gerasimov, C. Hölzer
   A. Katbashev, J. Kohn, J. Koopman, C. Lavigne, S. Lehtola, F. März, M. Müller,
   F. Musil, H. Neugebauer, J. Pisarek, C. Plett, P. Pracht, F. Pultar,
   J. Seibert, P. Shushkov, S. Spicher, M. Stahn, M. Steiner, T. Strunk,
   J. Stückrath, T. Rose, and J. Unsleber
   
 * started run on 2026/08/20 at 20:35:38.255     
   ID    Z sym.   atoms
    1    7 N      1, 44, 53
    2    6 C      2-15, 45, 47, 48, 54
    3    8 O      16, 17, 41, 46, 49
    4    1 H      18-40, 42, 43, 50-52, 55-57

           -------------------------------------------------
          |                Calculation Setup                |
           -------------------------------------------------

          program call               : C:\Users\Nayanika\Downloads\xtb-6.7.1pre-windows-x86_64\xtb-6.7.1\bin\xtb.exe D:\PhD_Thesis\LmrR_EVB\charges\fast_lmrr_5QM\xtb_preparation\stage2_five_xtb_protocols\GFN2_etemp500\RS1_2b_to_PS1_3\RS1_2b_to_PS1_3_RS_xtbopt.xyz --gfn 2 --chrg 0 --uhf 0 --hess --etemp 500
          coordinate file            : D:\PhD_Thesis\LmrR_EVB\charges\fast_lmrr_5QM\xtb_preparation\stage2_five_xtb_protocols\GFN2_etemp500\RS1_2b_to_PS1_3\RS1_2b_to_PS1_3_RS_xtbopt.xyz
          omp threads                :                     8


molecular fragmentation (1/2 indicates fragments):
111111111111111121211111111111111111112221211111111111111
# atoms in fragment 1/2:    51     6
 fragment masses (1/2) :      333.43       36.03
CMA distance (Bohr)    :  10.200
constraining FC (au)   :  0.0500

           -------------------------------------------------
          |                 G F N 2 - x T B                 |
           -------------------------------------------------

        Reference                      10.1021/acs.jctc.8b01176
      * Hamiltonian:
        H0-scaling (s, p, d)           1.850000    2.230000    2.230000
        zeta-weighting                 0.500000
      * Dispersion:
        s8                             2.700000
        a1                             0.520000
        a2                             5.000000
        s9                             5.000000
      * Repulsion:
        kExp                           1.500000    1.000000
        rExp                           1.000000
      * Coulomb:
        alpha                          2.000000
        third order                    shell-resolved
        anisotropic                    true
        a3                             3.000000
        a5                             4.000000
        cn-shift                       1.200000
        cn-exp                         4.000000
        max-rad                        5.000000

q/qsh data taken from xtbrestart
CAMM data taken from xtbrestart

          ...................................................
          :                      SETUP                      :
          :.................................................:
          :  # basis functions                 135          :
          :  # atomic orbitals                 135          :
          :  # shells                           83          :
          :  # electrons                       148          :
          :  max. iterations                   250          :
          :  Hamiltonian                  GFN2-xTB          :
          :  restarted?                       true          :
          :  GBSA solvation                  false          :
          :  PC potential                    false          :
          :  electronic temp.          500.0000000     K    :
          :  accuracy                    1.0000000          :
          :  -> integral cutoff          0.2500000E+02      :
          :  -> integral neglect         0.1000000E-07      :
          :  -> SCF convergence          0.1000000E-05 Eh   :
          :  -> wf. convergence          0.1000000E-03 e    :
          :  Broyden damping             0.4000000          :
          :  net charge                          0          :
          :  unpaired electrons                  0          :
          ...................................................

 iter      E             dE          RMSdq      gap      omega  full diag
   1    -84.5403165 -0.845403E+02  0.822E-07    3.80       0.0  T
   2    -84.5403165 -0.170530E-12  0.667E-07    3.80   19857.2  T
   3    -84.5403165  0.142109E-13  0.261E-07    3.80   50837.5  T

   *** convergence criteria satisfied after 3 iterations ***

         #    Occupation            Energy/Eh            Energy/eV
      -------------------------------------------------------------
         1        2.0000           -0.7044948             -19.1703
       ...           ...                  ...                  ...
        68        2.0000           -0.4149640             -11.2917
        69        2.0000           -0.4050738             -11.0226
        70        2.0000           -0.4032421             -10.9728
        71        2.0000           -0.3969527             -10.8016
        72        2.0000           -0.3943733             -10.7314
        73        2.0000           -0.3814920             -10.3809
        74        2.0000           -0.3620609              -9.8522 (HOMO)
        75                         -0.2224104              -6.0521 (LUMO)
        76                         -0.2151243              -5.8538
        77                         -0.2134919              -5.8094
        78                         -0.2081571              -5.6642
        79                         -0.2029100              -5.5215
       ...                                ...                  ...
       135                          0.6611883              17.9918
      -------------------------------------------------------------
                  HL-Gap            0.1396505 Eh            3.8001 eV
             Fermi-level           -0.2922357 Eh           -7.9521 eV

 SCC (total)                   0 d,  0 h,  0 min,  0.044 sec
 SCC setup                      ...        0 min,  0.000 sec (  0.000%)
 Dispersion                     ...        0 min,  0.001 sec (  2.273%)
 classical contributions        ...        0 min,  0.000 sec (  0.000%)
 integral evaluation            ...        0 min,  0.000 sec (  0.000%)
 iterations                     ...        0 min,  0.034 sec ( 77.272%)
 molecular gradient             ...        0 min,  0.009 sec ( 20.455%)
 printout                       ...        0 min,  0.000 sec (  0.000%)

         :::::::::::::::::::::::::::::::::::::::::::::::::::::
         ::                     SUMMARY                     ::
         :::::::::::::::::::::::::::::::::::::::::::::::::::::
         :: total energy             -83.460581776415 Eh    ::
         :: gradient norm              0.000203822226 Eh/a0 ::
         :: HOMO-LUMO gap              3.800083010130 eV    ::
         ::.................................................::
         :: SCC energy               -84.539095644451 Eh    ::
         :: -> isotropic ES            0.172806851325 Eh    ::
         :: -> anisotropic ES          0.000508559617 Eh    ::
         :: -> anisotropic XC          0.027148080692 Eh    ::
         :: -> dispersion             -0.053322076194 Eh    ::
         :: repulsion energy           1.078513868036 Eh    ::
         :: add. restraining           0.000000000000 Eh    ::
         :: total charge               0.000000000000 e     ::
         :::::::::::::::::::::::::::::::::::::::::::::::::::::

           ------------------------------------------------- 
          |                Numerical Hessian                |
           ------------------------------------------------- 
step length          :   0.00500
SCC accuracy         :   0.30000
Hessian scale factor :   1.00000
frozen atoms in %    :   0.00000    0
RMS gradient         :   0.00020
estimated CPU  time      4.75 min
estimated wall time      0.70 min

writing file <hessian>.

 projected vibrational frequencies (cm⁻¹)
eigval :       -0.00    -0.00    -0.00    -0.00     0.00     0.00
eigval :       -9.63    11.29    17.53    21.55    26.59    32.08
eigval :       38.19    43.57    51.31    58.79    67.14    72.31
eigval :       79.35    85.51    90.60    95.64   111.16   125.29
eigval :      130.68   149.19   159.49   169.27   173.97   184.67
eigval :      194.45   211.82   227.46   231.53   237.37   270.16
eigval :      284.83   291.56   294.82   304.46   306.27   321.46
eigval :      359.41   367.87   379.86   391.23   410.21   416.06
eigval :      440.47   449.56   468.58   490.49   498.77   524.86
eigval :      534.87   566.39   579.00   593.10   603.14   624.24
eigval :      648.48   672.25   680.74   695.12   726.63   758.20
eigval :      771.74   781.68   803.63   805.91   860.62   863.61
eigval :      870.93   892.24   907.45   922.25   932.60   938.35
eigval :      945.10   975.60   992.77  1004.68  1010.43  1013.55
eigval :     1036.35  1044.86  1077.80  1080.28  1090.24  1104.90
eigval :     1114.62  1120.15  1125.55  1132.14  1146.85  1149.39
eigval :     1165.73  1201.34  1211.90  1215.00  1221.04  1222.60
eigval :     1234.38  1252.00  1254.35  1266.16  1270.83  1283.15
eigval :     1285.33  1295.20  1300.34  1310.69  1327.20  1343.10
eigval :     1347.09  1359.69  1371.78  1381.87  1392.85  1416.52
eigval :     1421.57  1435.26  1437.86  1457.34  1463.02  1467.85
eigval :     1476.03  1477.63  1485.03  1496.17  1503.03  1505.89
eigval :     1508.08  1527.28  1549.42  1576.91  1616.60  1717.77
eigval :     1733.75  1758.62  2785.08  2913.13  2947.51  2969.33
eigval :     2971.00  2981.97  2987.38  2988.51  2990.15  2998.82
eigval :     3024.52  3030.86  3031.10  3031.59  3034.20  3039.25
eigval :     3052.96  3055.09  3067.19  3068.33  3078.44  3084.13
eigval :     3139.11  3151.29  3311.86  3373.80  3448.62  3450.99
eigval :     3456.79  3641.91  3660.48
           -------------------------------------------------
          |                Property Printout                |
           -------------------------------------------------

    * Orbital Energies and Occupations

         #    Occupation            Energy/Eh            Energy/eV
      -------------------------------------------------------------
         1        2.0000           -0.7044948             -19.1703
       ...           ...                  ...                  ...
        62        2.0000           -0.4395211             -11.9600
        63        2.0000           -0.4360317             -11.8650
        64        2.0000           -0.4345420             -11.8245
        65        2.0000           -0.4292217             -11.6797
        66        2.0000           -0.4253905             -11.5755
        67        2.0000           -0.4205343             -11.4433
        68        2.0000           -0.4149640             -11.2917
        69        2.0000           -0.4050738             -11.0226
        70        2.0000           -0.4032421             -10.9728
        71        2.0000           -0.3969527             -10.8016
        72        2.0000           -0.3943733             -10.7314
        73        2.0000           -0.3814920             -10.3809
        74        2.0000           -0.3620609              -9.8522 (HOMO)
        75                         -0.2224104              -6.0521 (LUMO)
        76                         -0.2151243              -5.8538
        77                         -0.2134919              -5.8094
        78                         -0.2081571              -5.6642
        79                         -0.2029100              -5.5215
        80                         -0.0916296              -2.4934
        81                          0.0055868               0.1520
        82                          0.0111974               0.3047
        83                          0.0145400               0.3957
        84                          0.0180660               0.4916
        85                          0.0660462               1.7972
       ...                                ...                  ...
       135                          0.6611883              17.9918
      -------------------------------------------------------------
                  HL-Gap            0.1396505 Eh            3.8001 eV
             Fermi-level           -0.2922357 Eh           -7.9521 eV

     #   Z          covCN         q      C6AA      α(0)
     1   7 N        2.690    -0.223    25.860     7.553
     2   6 C        2.903     0.070    26.444     8.432
     3   6 C        2.921    -0.065    29.612     8.924
     4   6 C        2.925    -0.041    29.015     8.834
     5   6 C        2.969    -0.007    28.184     8.708
     6   6 C        2.924    -0.045    29.110     8.848
     7   6 C        2.924    -0.067    29.675     8.933
     8   6 C        3.811    -0.070    21.833     6.651
     9   6 C        3.797     0.020    20.248     6.407
    10   6 C        3.664     0.187    17.859     6.062
    11   6 C        2.890    -0.065    29.613     8.922
    12   6 C        2.890    -0.029    28.721     8.786
    13   6 C        3.807    -0.061    21.664     6.626
    14   6 C        3.802    -0.051    21.481     6.599
    15   6 C        3.752    -0.104    22.543     6.771
    16   8 O        1.654    -0.483    22.529     6.407
    17   8 O        1.610    -0.593    25.014     6.750
    18   1 H        0.860     0.152     1.390     1.847
    19   1 H        0.804     0.318     0.670     1.286
    20   1 H        0.926     0.055     2.261     2.351
    21   1 H        0.926     0.034     2.533     2.489
    22   1 H        0.925     0.024     2.675     2.557
    23   1 H        0.925     0.019     2.748     2.592
    24   1 H        0.924     0.062     2.175     2.306
    25   1 H        0.924     0.056     2.241     2.341
    26   1 H        0.924     0.060     2.197     2.318
    27   1 H        0.860     0.181     1.208     1.722
    28   1 H        0.860     0.207     1.072     1.622
    29   1 H        0.922     0.018     2.763     2.599
    30   1 H        0.925     0.027     2.627     2.535
    31   1 H        0.926     0.050     2.317     2.380
    32   1 H        0.924     0.049     2.336     2.390
    33   1 H        0.924     0.036     2.503     2.474
    34   1 H        0.924     0.031     2.577     2.510
    35   1 H        0.924     0.034     2.531     2.488
    36   1 H        0.925     0.035     2.516     2.480
    37   1 H        0.925     0.037     2.486     2.466
    38   1 H        0.925     0.035     2.521     2.483
    39   1 H        0.804     0.319     0.666     1.282
    40   1 H        0.805     0.282     0.777     1.384
    41   8 O        1.609    -0.596    25.084     6.760
    42   1 H        0.802     0.341     0.610     1.227
    43   1 H        0.805     0.285     0.768     1.377
    44   7 N        2.692    -0.183    24.968     7.421
    45   6 C        2.753     0.264    22.547     7.775
    46   8 O        0.858    -0.437    22.425     6.349
    47   6 C        3.757    -0.143    23.308     6.883
    48   6 C        2.749     0.277    22.309     7.734
    49   8 O        0.859    -0.455    22.817     6.404
    50   1 H        0.925     0.058     2.221     2.331
    51   1 H        0.925     0.057     2.234     2.337
    52   1 H        0.925     0.073     2.055     2.242
    53   7 N        2.686    -0.177    24.836     7.402
    54   6 C        3.690    -0.042    21.519     6.638
    55   1 H        0.924     0.052     2.294     2.369
    56   1 H        0.924     0.049     2.335     2.390
    57   1 H        0.925     0.082     1.961     2.190

 Mol. C6AA /au·bohr⁶  :      29328.929082
 Mol. C8AA /au·bohr⁸  :     652515.066197
 Mol. α(0) /au        :        260.945327


Wiberg/Mayer (AO) data.
largest (>0.10) Wiberg bond orders for each atom

 ---------------------------------------------------------------------------
     #   Z sym  total        # sym  WBO       # sym  WBO       # sym  WBO
 ---------------------------------------------------------------------------
     1   7 N    3.299 --     2 C    1.131    10 C    0.976    18 H    0.949
     2   6 C    3.970 --     7 C    1.350     3 C    1.346     1 N    1.131
     3   6 C    3.987 --     4 C    1.467     2 C    1.346    20 H    0.963
                             6 C    0.101
     4   6 C    3.992 --     3 C    1.467     5 C    1.398    21 H    0.969
                             7 C    0.103
     5   6 C    3.986 --     6 C    1.402     4 C    1.398     8 C    1.009
     6   6 C    3.990 --     7 C    1.458     5 C    1.402    22 H    0.968
                             3 C    0.101
     7   6 C    3.986 --     6 C    1.458     2 C    1.350    23 H    0.968
                             4 C    0.103
     8   6 C    3.990 --     5 C    1.009     9 C    0.981    24 H    0.970
                            25 H    0.965
     9   6 C    3.962 --     8 C    0.981    44 N    0.973    26 H    0.952
                            45 C    0.915
    10   6 C    3.953 --    16 O    0.992    11 C    0.988     1 N    0.976
                            29 H    0.944
    11   6 C    3.986 --    12 C    1.927    10 C    0.988    30 H    0.964
    12   6 C    3.989 --    11 C    1.927    13 C    1.028    31 H    0.961
    13   6 C    3.997 --    12 C    1.028    14 C    0.992    33 H    0.975
                            32 H    0.958
    14   6 C    3.997 --    15 C    1.019    13 C    0.992    34 H    0.980
                            35 H    0.979
    15   6 C    3.996 --    14 C    1.019    38 H    0.988    37 H    0.988
                            36 H    0.987
    16   8 O    1.958 --    10 C    0.992    42 H    0.815
    17   8 O    1.859 --    40 H    0.919    19 H    0.868
    18   1 H    0.976 --     1 N    0.949
    19   1 H    0.899 --    17 O    0.868
    20   1 H    0.997 --     3 C    0.963
    21   1 H    0.998 --     4 C    0.969
    22   1 H    0.999 --     6 C    0.968
    23   1 H    0.999 --     7 C    0.968
    24   1 H    0.996 --     8 C    0.970
    25   1 H    0.995 --     8 C    0.965
    26   1 H    0.996 --     9 C    0.952
    27   1 H    0.967 --    44 N    0.933
    28   1 H    0.957 --    53 N    0.904
    29   1 H    0.999 --    10 C    0.944
    30   1 H    0.999 --    11 C    0.964
    31   1 H    0.997 --    12 C    0.961
    32   1 H    0.998 --    13 C    0.958
    33   1 H    0.999 --    13 C    0.975
    34   1 H    0.999 --    14 C    0.980
    35   1 H    0.999 --    14 C    0.979
    36   1 H    0.998 --    15 C    0.987
    37   1 H    0.999 --    15 C    0.988
    38   1 H    0.999 --    15 C    0.988
    39   1 H    0.898 --    41 O    0.861
    40   1 H    0.920 --    17 O    0.919
    41   8 O    1.871 --    43 H    0.915    39 H    0.861
    42   1 H    0.884 --    16 O    0.815
    43   1 H    0.919 --    41 O    0.915
    44   7 N    3.451 --    48 C    1.273     9 C    0.973    27 H    0.933
                            49 O    0.192
    45   6 C    3.956 --    46 O    1.678    53 N    1.292     9 C    0.915
    46   8 O    2.009 --    45 C    1.678    53 N    0.212
    47   6 C    3.993 --    52 H    0.983    48 C    0.982    51 H    0.972
                            50 H    0.970
    48   6 C    3.951 --    49 O    1.647    44 N    1.273    47 C    0.982
    49   8 O    1.993 --    48 C    1.647    44 N    0.192
    50   1 H    0.996 --    47 C    0.970
    51   1 H    0.997 --    47 C    0.972
    52   1 H    0.994 --    47 C    0.983
    53   7 N    3.466 --    45 C    1.292    54 C    1.006    28 H    0.904
                            46 O    0.212
    54   6 C    3.966 --    53 N    1.006    55 H    0.977    57 H    0.977
                            56 H    0.976
    55   1 H    0.997 --    54 C    0.977
    56   1 H    0.998 --    54 C    0.976
    57   1 H    0.993 --    54 C    0.977
 ---------------------------------------------------------------------------

Topologies differ in total number of bonds
Writing topology from bond orders to xtbtopo.mol

molecular dipole:
                 x           y           z       tot (Debye)
 q only:       -0.938       0.549      -0.658
   full:       -1.255       0.598      -1.225       4.709
molecular quadrupole (traceless):
                xx          xy          yy          xz          yz          zz
 q only:      -14.450       6.146      -0.111      -5.899       2.197      14.561
  q+dip:      -23.538       5.802      -0.142      -7.889       6.909      23.680
   full:      -23.423       5.740      -0.374      -8.752       4.685      23.797

           -------------------------------------------------
          |               Frequency Printout                |
           -------------------------------------------------
 projected vibrational frequencies (cm⁻¹)
eigval :       -0.00    -0.00    -0.00    -0.00     0.00     0.00
eigval :       -9.63    11.29    17.53    21.55    26.59    32.08
eigval :       38.19    43.57    51.31    58.79    67.14    72.31
eigval :       79.35    85.51    90.60    95.64   111.16   125.29
eigval :      130.68   149.19   159.49   169.27   173.97   184.67
eigval :      194.45   211.82   227.46   231.53   237.37   270.16
eigval :      284.83   291.56   294.82   304.46   306.27   321.46
eigval :      359.41   367.87   379.86   391.23   410.21   416.06
eigval :      440.47   449.56   468.58   490.49   498.77   524.86
eigval :      534.87   566.39   579.00   593.10   603.14   624.24
eigval :      648.48   672.25   680.74   695.12   726.63   758.20
eigval :      771.74   781.68   803.63   805.91   860.62   863.61
eigval :      870.93   892.24   907.45   922.25   932.60   938.35
eigval :      945.10   975.60   992.77  1004.68  1010.43  1013.55
eigval :     1036.35  1044.86  1077.80  1080.28  1090.24  1104.90
eigval :     1114.62  1120.15  1125.55  1132.14  1146.85  1149.39
eigval :     1165.73  1201.34  1211.90  1215.00  1221.04  1222.60
eigval :     1234.38  1252.00  1254.35  1266.16  1270.83  1283.15
eigval :     1285.33  1295.20  1300.34  1310.69  1327.20  1343.10
eigval :     1347.09  1359.69  1371.78  1381.87  1392.85  1416.52
eigval :     1421.57  1435.26  1437.86  1457.34  1463.02  1467.85
eigval :     1476.03  1477.63  1485.03  1496.17  1503.03  1505.89
eigval :     1508.08  1527.28  1549.42  1576.91  1616.60  1717.77
eigval :     1733.75  1758.62  2785.08  2913.13  2947.51  2969.33
eigval :     2971.00  2981.97  2987.38  2988.51  2990.15  2998.82
eigval :     3024.52  3030.86  3031.10  3031.59  3034.20  3039.25
eigval :     3052.96  3055.09  3067.19  3068.33  3078.44  3084.13
eigval :     3139.11  3151.29  3311.86  3373.80  3448.62  3450.99
eigval :     3456.79  3641.91  3660.48
 reduced masses (amu)
   1: 12.46   2: 12.13   3: 12.01   4: 12.25   5: 12.49   6: 11.08   7: 10.97   8: 11.46
   9: 12.41  10: 11.43  11: 11.15  12: 10.30  13: 12.47  14: 12.17  15: 12.49  16: 10.84
  17:  8.23  18:  9.54  19: 10.22  20:  7.86  21:  7.13  22: 11.57  23: 10.93  24:  1.78
  25: 10.99  26: 11.35  27: 11.29  28: 11.00  29: 11.14  30: 11.16  31:  8.39  32: 10.51
  33:  9.70  34:  2.35  35: 12.26  36:  9.77  37:  8.28  38: 12.00  39:  4.62  40:  4.20
  41:  9.76  42: 11.32  43:  9.76  44: 10.04  45:  8.71  46:  2.88  47:  9.72  48: 10.11
  49:  7.22  50:  4.78  51:  8.87  52:  9.49  53: 10.79  54:  2.76  55:  9.89  56:  1.83
  57:  8.38  58: 10.38  59: 10.31  60: 10.14  61:  9.29  62:  9.85  63:  8.59  64:  6.31
  65: 11.12  66:  6.52  67:  5.29  68:  4.05  69:  6.98  70:  7.15  71:  9.38  72:  4.40
  73:  8.40  74:  4.40  75:  2.69  76:  3.98  77:  8.80  78:  6.59  79:  8.73  80: 10.70
  81:  5.75  82:  5.48  83:  6.10  84:  4.68  85:  8.53  86:  5.95  87:  8.47  88:  7.09
  89:  8.89  90:  3.79  91:  7.77  92:  8.00  93: 10.13  94:  7.65  95:  8.39  96:  4.27
  97:  5.67  98:  1.90  99:  5.36 100:  4.45 101:  5.50 102:  4.58 103:  3.40 104:  3.55
 105:  3.78 106:  4.36 107:  2.79 108:  4.41 109:  4.35 110:  3.84 111:  3.89 112:  4.92
 113:  5.02 114:  7.75 115:  6.32 116:  5.26 117:  3.29 118:  8.32 119:  2.63 120:  3.17
 121: 10.06 122:  8.59 123:  8.83 124:  1.67 125:  1.57 126:  1.59 127:  2.00 128:  2.11
 129:  2.51 130:  1.85 131:  1.54 132:  1.63 133:  9.93 134:  2.16 135:  2.16 136: 11.45
 137: 11.54 138: 13.13 139: 11.57 140: 13.19 141:  1.70 142:  1.75 143:  1.81 144:  1.90
 145:  1.91 146:  1.60 147:  1.59 148:  1.98 149:  1.49 150:  1.50 151:  1.82 152:  1.61
 153:  1.71 154:  1.96 155:  1.90 156:  1.30 157:  1.81 158:  1.77 159:  1.76 160:  1.87
 161:  1.83 162:  1.82 163:  1.84 164:  1.90 165:  1.89 166:  1.87 167:  1.86 168:  1.85
 169:  1.84 170:  1.83 171:  1.84
 IR intensities (km·mol⁻¹)
   1:  0.15   2:  0.01   3:  0.10   4:  0.01   5:  0.10   6:  0.08   7:  0.08   8:  0.58
   9:  0.15  10:  0.09  11:  0.17  12:  0.22  13:  0.23  14:  0.06  15:  2.77  16:  2.93
  17: 13.32  18:  1.27  19:  0.65  20:  1.47  21:  1.96  22:  0.66  23: 12.76  24:  0.38
  25:  4.86  26:  4.59  27:  6.25  28:  0.79  29: 10.82  30:  9.05  31: 40.37  32:  6.61
  33: 86.98  34:  0.07  35:  2.21  36:  5.05  37: 20.54  38:  3.20  39: 96.92  40: 62.63
  41:  9.14  42: 14.42  43:  6.36  44:  9.92  45: 13.76  46:120.89  47: 20.12  48:  6.03
  49: 71.50  50:117.57  51: 13.28  52: 12.05  53: 18.70  54:359.75  55:  7.84  56:230.29
  57:  3.50  58: 58.49  59: 34.52  60: 58.09  61: 47.70  62: 27.45  63: 14.41  64: 33.97
  65:  5.19  66: 59.36  67: 94.01  68:  5.66  69: 17.83  70:  4.16  71:  1.07  72:  1.10
  73:  2.88  74:  4.28  75:  0.45  76:  0.50  77:  1.38  78:  7.27  79:  6.91  80: 18.77
  81:  3.26  82: 23.58  83: 12.30  84: 11.61  85: 24.30  86: 21.65  87: 29.57  88: 20.46
  89:  2.93  90:  0.61  91: 17.52  92: 37.10  93:110.32  94: 17.53  95: 25.35  96:  4.62
  97:  1.52  98:  6.64  99:  2.86 100:  8.09 101: 30.53 102:  5.22 103: 33.54 104: 33.79
 105: 27.18 106:  2.00 107:  0.47 108: 27.62 109: 34.82 110: 11.56 111:  2.18 112: 65.34
 113:  5.53 114: 55.97 115: 37.84 116:  8.65 117: 17.12 118:116.95 119:  3.06 120:  2.22
 121:228.88 122:231.90 123: 26.31 124:  5.59 125:  9.76 126: 10.46 127:  1.00 128:  0.38
 129: 26.50 130:  0.90 131:  3.30 132:  1.55 133:175.40 134: 35.34 135:304.39 136:  2.76
 137: 99.85 138:297.08 139:  8.44 140:588.92 141: 92.55 142: 14.27 143: 12.96 144: 30.45
 145: 32.94 146: 21.23 147: 53.32 148: 17.52 149: 45.28 150: 14.79 151: 16.49 152:  7.58
 153: 11.63 154: 51.40 155: 48.89 156: 32.17 157: 33.42 158: 23.06 159:  4.91 160: 74.49
 161: 42.34 162: 19.90 163:  8.93 164:466.75 165:148.12 166:281.89 167:292.06 168: 19.87
 169:  2.37 170: 13.11 171: 13.57
 Raman intensities (Ä⁴*amu⁻¹)
   1:  0.00   2:  0.00   3:  0.00   4:  0.00   5:  0.00   6:  0.00   7:  0.00   8:  0.00
   9:  0.00  10:  0.00  11:  0.00  12:  0.00  13:  0.00  14:  0.00  15:  0.00  16:  0.00
  17:  0.00  18:  0.00  19:  0.00  20:  0.00  21:  0.00  22:  0.00  23:  0.00  24:  0.00
  25:  0.00  26:  0.00  27:  0.00  28:  0.00  29:  0.00  30:  0.00  31:  0.00  32:  0.00
  33:  0.00  34:  0.00  35:  0.00  36:  0.00  37:  0.00  38:  0.00  39:  0.00  40:  0.00
  41:  0.00  42:  0.00  43:  0.00  44:  0.00  45:  0.00  46:  0.00  47:  0.00  48:  0.00
  49:  0.00  50:  0.00  51:  0.00  52:  0.00  53:  0.00  54:  0.00  55:  0.00  56:  0.00
  57:  0.00  58:  0.00  59:  0.00  60:  0.00  61:  0.00  62:  0.00  63:  0.00  64:  0.00
  65:  0.00  66:  0.00  67:  0.00  68:  0.00  69:  0.00  70:  0.00  71:  0.00  72:  0.00
  73:  0.00  74:  0.00  75:  0.00  76:  0.00  77:  0.00  78:  0.00  79:  0.00  80:  0.00
  81:  0.00  82:  0.00  83:  0.00  84:  0.00  85:  0.00  86:  0.00  87:  0.00  88:  0.00
  89:  0.00  90:  0.00  91:  0.00  92:  0.00  93:  0.00  94:  0.00  95:  0.00  96:  0.00
  97:  0.00  98:  0.00  99:  0.00 100:  0.00 101:  0.00 102:  0.00 103:  0.00 104:  0.00
 105:  0.00 106:  0.00 107:  0.00 108:  0.00 109:  0.00 110:  0.00 111:  0.00 112:  0.00
 113:  0.00 114:  0.00 115:  0.00 116:  0.00 117:  0.00 118:  0.00 119:  0.00 120:  0.00
 121:  0.00 122:  0.00 123:  0.00 124:  0.00 125:  0.00 126:  0.00 127:  0.00 128:  0.00
 129:  0.00 130:  0.00 131:  0.00 132:  0.00 133:  0.00 134:  0.00 135:  0.00 136:  0.00
 137:  0.00 138:  0.00 139:  0.00 140:  0.00 141:  0.00 142:  0.00 143:  0.00 144:  0.00
 145:  0.00 146:  0.00 147:  0.00 148:  0.00 149:  0.00 150:  0.00 151:  0.00 152:  0.00
 153:  0.00 154:  0.00 155:  0.00 156:  0.00 157:  0.00 158:  0.00 159:  0.00 160:  0.00
 161:  0.00 162:  0.00 163:  0.00 164:  0.00 165:  0.00 166:  0.00 167:  0.00 168:  0.00
 169:  0.00 170:  0.00 171:  0.00
 output can be read by thermo (or use thermo option).
 writing <g98.out> molden fake output.
 recommended (thermochemical) frequency scaling factor: 1.0
           -------------------------------------------------
          |             Thermodynamic Functions             |
           -------------------------------------------------

Refinement of some symmetry elements was terminated before convergence was reached.
Some symmetry elements may remain unidentified.
Molecule has no symmetry elements
It seems to be the C1 point group
c1  symmetry found (for desy threshold:  0.10E+00) used in thermo
 inverting freq            1   9.63005742942476     

          ...................................................
          :                      SETUP                      :
          :.................................................:
          :  # frequencies                         165      :
          :  # imaginary freq.                       0      :
          :  linear?                             false      :
          :  only rotor calc.                    false      :
          :  symmetry                               c1      :
          :  rotational number                       1      :
          :  scaling factor                  1.0000000      :
          :  rotor cutoff                   50.0000000 cm⁻¹ :
          :  imag. cutoff                  -20.0000000 cm⁻¹ :
          :.................................................:

    mode    ω/cm⁻¹     T·S(HO)/kcal·mol⁻¹    T·S(FR)/kcal·mol⁻¹   T·S(vib)
   ------------------------------------------------------------------------
       1      9.63    -2.41082 (  0.14%)    -1.54438 ( 99.86%)    -1.54557
       2     11.29    -2.31665 (  0.26%)    -1.49730 ( 99.74%)    -1.49943
       3     17.53    -2.05612 (  1.49%)    -1.36703 ( 98.51%)    -1.37728
       4     21.55    -1.93375 (  3.34%)    -1.30581 ( 96.66%)    -1.32676
       5     26.59    -1.80932 (  7.41%)    -1.24353 ( 92.59%)    -1.28546
       6     32.08    -1.69840 ( 14.49%)    -1.18799 ( 85.51%)    -1.26195
       7     38.19    -1.59534 ( 25.39%)    -1.13634 ( 74.61%)    -1.25289
       8     43.57    -1.51755 ( 36.57%)    -1.09732 ( 63.43%)    -1.25098
       9     51.31    -1.42108 ( 52.58%)    -1.04888 ( 47.42%)    -1.24458
      10     58.79    -1.34093 ( 65.65%)    -1.00857 ( 34.35%)    -1.22675
      11     67.14    -1.26285 ( 76.47%)    -0.96923 ( 23.53%)    -1.19377
      12     72.31    -1.21925 ( 81.40%)    -0.94723 ( 18.60%)    -1.16864
      13     79.35    -1.16481 ( 86.38%)    -0.91970 ( 13.62%)    -1.13144
      14     85.51    -1.12115 ( 89.53%)    -0.89758 ( 10.47%)    -1.09774
      15     90.60    -1.08734 ( 91.51%)    -0.88043 (  8.49%)    -1.06978
      16     95.64    -1.05584 ( 93.05%)    -0.86441 (  6.95%)    -1.04253
      17    111.16    -0.96855 ( 96.07%)    -0.81986 (  3.93%)    -0.96271
      18    125.29    -0.89953 ( 97.53%)    -0.78440 (  2.47%)    -0.89668
      19    130.68    -0.87537 ( 97.90%)    -0.77193 (  2.10%)    -0.87320
      20    149.19    -0.79979 ( 98.75%)    -0.73269 (  1.25%)    -0.79896
      21    159.49    -0.76202 ( 99.04%)    -0.71291 (  0.96%)    -0.76155
      22    169.27    -0.72855 ( 99.24%)    -0.69528 (  0.76%)    -0.72829
      23    173.97    -0.71324 ( 99.32%)    -0.68718 (  0.68%)    -0.71306
      24    184.67    -0.67999 ( 99.47%)    -0.66949 (  0.53%)    -0.67993
      25    194.45    -0.65144 ( 99.56%)    -0.65420 (  0.44%)    -0.65145
      26    211.82    -0.60463 ( 99.69%)    -0.62886 (  0.31%)    -0.60471
      27    227.46    -0.56616 ( 99.77%)    -0.60775 (  0.23%)    -0.56626
      28    231.53    -0.55666 ( 99.78%)    -0.60250 (  0.22%)    -0.55676
      29    237.37    -0.54339 ( 99.80%)    -0.59513 (  0.20%)    -0.54349
      30    270.16    -0.47560 ( 99.88%)    -0.55679 (  0.12%)    -0.47569
      31    284.83    -0.44857 ( 99.91%)    -0.54113 (  0.09%)    -0.44866
      32    291.56    -0.43676 ( 99.91%)    -0.53421 (  0.09%)    -0.43685
      33    294.82    -0.43117 ( 99.92%)    -0.53091 (  0.08%)    -0.43125
   ------------------------------------------------------------------------

   temp. (K)  partition function   enthalpy   heat capacity  entropy
                                   cal/mol     cal/K/mol   cal/K/mol   J/K/mol
 298.15  VIB  0.259E+18            19401.609    104.584    127.826
         ROT  0.194E+08              888.752      2.981     36.332
         INT  0.503E+25            20290.361    107.565    164.158
         TR   0.687E+28             1481.254      4.968     43.594
         TOT                       21771.6153   112.5330   207.7521   869.2349

       T/K    H(0)-H(T)+PV         H(T)/Eh          T*S/Eh         G(T)/Eh
   ------------------------------------------------------------------------
    298.15    0.346953E-01    0.503741E+00    0.987097E-01    0.405032E+00
   ------------------------------------------------------------------------

         :::::::::::::::::::::::::::::::::::::::::::::::::::::
         ::                  THERMODYNAMIC                  ::
         :::::::::::::::::::::::::::::::::::::::::::::::::::::
         :: total free energy         -83.055550103742 Eh   ::
         ::.................................................::
         :: total energy              -83.460581776415 Eh   ::
         :: zero point energy           0.469046131515 Eh   ::
         :: G(RRHO) w/o ZPVE           -0.064014458843 Eh   ::
         :: G(RRHO) contrib.            0.405031672673 Eh   ::
         :::::::::::::::::::::::::::::::::::::::::::::::::::::
imag cut-off (cm-1) :    5.00
 found            1  significant imaginary frequency
 writing imag mode distorted coords to xtbhess.xyz
 for further optimization.

           -------------------------------------------------
          | TOTAL ENERGY              -83.460581776415 Eh   |
          | TOTAL ENTHALPY            -82.956840367410 Eh   |
          | TOTAL FREE ENERGY         -83.055550103742 Eh   |
          | GRADIENT NORM               0.000203819160 Eh/α |
          | HOMO-LUMO GAP               3.800083074936 eV   |
           -------------------------------------------------

------------------------------------------------------------------------
 * finished run on 2026/08/20 at 20:35:43.549     
------------------------------------------------------------------------
 total:
 * wall-time:     0 d,  0 h,  0 min,  5.293 sec
 *  cpu-time:     0 d,  0 h,  0 min, 34.719 sec
 * ratio c/w:     6.559 speedup
 SCF:
 * wall-time:     0 d,  0 h,  0 min,  0.044 sec
 *  cpu-time:     0 d,  0 h,  0 min,  0.156 sec
 * ratio c/w:     3.551 speedup
 analytical hessian:
 * wall-time:     0 d,  0 h,  0 min,  5.200 sec
 *  cpu-time:     0 d,  0 h,  0 min, 34.531 sec
 * ratio c/w:     6.641 speedup



===== STDERR =====

normal termination of xtb
