57
 energy: -83.442252808340 gnorm: 0.001506213139 xtb: 6.7.1pre (5071a88)
N           -0.08328863760992        0.41516035889804        0.29636495018278
C            1.25302403643454        0.02445302685536        0.31985023325342
C            2.13032997967168        0.49150556492392        1.29797314255647
C            3.47094092723836        0.17814169432684        1.22943013045362
C            3.96882898073821       -0.59132642167139        0.18392358989815
C            3.07077949065952       -1.13995380687316       -0.72333365710028
C            1.72102300879021       -0.85766610071539       -0.64949929714478
C            5.44908644240137       -0.65117771103149       -0.05601337758213
C            5.87352105365001        0.71676744107206       -0.60594677158425
C           -0.40690666822316        1.63219027659199        0.10046628755585
C            0.49161863026677        2.72010724158216       -0.19364095302095
C            0.09216763754597        3.96340202680444       -0.46949943620766
C            1.02522101930604        5.05242954204156       -0.86665156850825
C            0.84695632304636        5.40713182300088       -2.34964974352163
C            1.82573163624303        6.49160272068683       -2.77955415872751
O            0.56197270648678        1.35685244410560       -2.98597374143298
O           -1.35553856609043       -0.63048859624963       -3.10437974564324
H           -1.17516020223148       -0.88911288327461       -0.15380958995959
H           -0.05912891441843        0.60577399451015       -3.00607911098134
H            1.75175054259331        1.12442423984708        2.08797525543686
H            4.14863725539065        0.57468651046016        1.97173427206622
H            3.43454214315045       -1.78094429265501       -1.51456996536458
H            1.03552727483957       -1.25272428258343       -1.38147182605134
H            5.71070847347085       -1.42501052057291       -0.77871727616587
H            6.00397890713393       -0.84250145632619        0.86286246631836
H            5.71539535739140        1.49178825955642        0.15551992137765
H            4.64138602453043        0.32586098816238       -2.27667226196173
H            7.08940442084438        2.76453981567690       -1.19553821409191
H           -1.47116138300621        1.85117883822134        0.10577563147062
H            1.54432481630210        2.47677872408845       -0.23294463556163
H           -0.96193508291347        4.21396716537467       -0.44968175325468
H            0.82954194150403        5.94477110907895       -0.26610086183345
H            2.05687701150000        4.73878139083632       -0.69898799819073
H            1.01268813511902        4.50762287945901       -2.94587704401474
H           -0.17776382734437        5.74354980296522       -2.52469265251355
H            1.70725051750340        6.71464851695175       -3.83738238803284
H            1.65764105612263        7.40602994216541       -2.21498935693899
H            2.84985162833047        6.16825266410287       -2.60705340851841
H           -1.57475098808902       -0.96852024996721       -2.21003452289075
H           -1.19174263392138       -1.40272545030902       -3.64723380048273
O           -1.82664696924667       -1.49302715925857       -0.57852176657197
H            0.06898257932098        2.09531988888907       -3.34799814447987
H           -2.67288034552378       -1.31188767892170       -0.16746579748436
N            5.04507642301190        1.07922858706912       -1.74319402277449
C            7.35853068608986        0.75747984576060       -1.01506353440557
O            8.05812510852703       -0.22979472928686       -1.10108025785725
C            3.65610175498695        2.48818950699449       -3.10174568022034
C            4.65576549163292        2.34686875282158       -1.98493247188903
O            5.10660041467082        3.28866736823811       -1.35172675824272
H            4.03241996707429        2.00931580834140       -4.00301211323997
H            3.48312925786141        3.54191204578124       -3.30010072378430
H            2.71315964374293        2.01288213876567       -2.83064230647466
N            7.76588864286481        2.01244633439092       -1.26662850757290
C            9.10117237192410        2.32934347682223       -1.70714389469402
H            9.57740341067306        3.02242763285042       -1.01168469598849
H            9.08452952101161        2.77942432668162       -2.70169395378929
H            9.66931156695971        1.40095662376097       -1.73926213392664
