57
 energy: -83.439221586897 gnorm: 0.000565501066 xtb: 6.7.1pre (5071a88)
N           -0.10025720064803       -0.63622912260043        0.49105385413263
C            1.26005625955887       -0.43708617947836        0.59831845285664
C            1.75383618614705        0.62937727347638        1.35261385761129
C            3.09951424238695        0.92833866202448        1.34252563922860
C            3.99795570378267        0.17416025139902        0.59589504899878
C            3.51005642263759       -0.91308404240554       -0.11857187200025
C            2.16334288906529       -1.21874494390100       -0.12158157786018
C            5.44159443880953        0.57674565778120        0.50488180372918
C            5.61090805254829        1.71723932923169       -0.50386180622431
C           -0.96666665153999        0.74547110855235       -1.24737521898462
C            0.23715399753275        1.55985078595776       -1.28148154685627
C            0.34418091747162        2.71676891051205       -0.62281226807478
C            1.55137570195773        3.57797983002372       -0.60682892421949
C            1.28623057243516        4.94323076906113       -1.25529875343539
C            2.54475972847642        5.80068079827308       -1.24350200072637
O           -2.02312902875390        1.07270286570547       -0.72106852843454
O           -3.67575619145985       -0.85148233012287        0.35120094499595
H           -0.67421112544595       -0.22608991135948        1.23037792548188
H           -0.39629303457160       -1.56051306888600        0.21507129517514
H            1.06375757848975        1.21454027131610        1.94111758935003
H            3.46539440321468        1.76103503663413        1.92591503709902
H            4.19387458501200       -1.54044123613999       -0.67548429064513
H            1.79963505709973       -2.06356674289585       -0.68995270871951
H            6.06620897633260       -0.26032372414746        0.18792385190072
H            5.81321277098615        0.92122026134614        1.47047706233911
H            5.08739303318108        2.61810037915563       -0.15989640787564
H            4.93067142230255        0.35026417393468       -1.95341819872663
H            6.44989721454022        3.70036172965737       -1.72600187294354
H           -0.92570647431895       -0.16066907595583       -1.87489643860924
H            1.07085623163173        1.16687154551214       -1.84466601198698
H           -0.51463975863829        3.07970028863069       -0.07169388434416
H            1.85196357353234        3.74159066919946        0.43155916256220
H            2.37317007406160        3.08569974537510       -1.12779059908338
H            0.96004396610866        4.78835323317785       -2.28568278818203
H            0.48038198432661        5.45172543079481       -0.72122301062397
H            2.36400916657232        6.74980518906463       -1.74223638028693
H            2.85914390981132        6.00372163647210       -0.22177854073225
H            3.35245865705194        5.28586696604614       -1.75806359006597
H           -3.15980392208320       -0.21412011732496       -0.17754552294061
H           -4.59608178353819       -0.70164017923960        0.13022295936283
O           -2.06663742574403        0.63535119347142        2.10634999235760
H           -2.13995226654078        1.30780979692417        1.41953537462921
H           -2.73223320138199       -0.02834872391045        1.86955641308095
N            5.02088048796084        1.33831585057505       -1.77667960330053
C            7.10263269887470        2.06633020158838       -0.70516090786665
O            8.00468368248663        1.35944388291219       -0.30679935245239
C            3.86117064449920        1.60317290637084       -3.86147601802539
C            4.54132146423151        2.22530736059619       -2.66433248956422
O            4.65830360836397        3.43128074631801       -2.51117809313714
H            3.14455212882397        0.84850370800847       -3.54578092965377
H            4.60699341933655        1.13158763098158       -4.49860968808542
H            3.35232449860907        2.37666474560657       -4.42930387871430
N            7.26989736483025        3.22162714367807       -1.36720449568374
C            8.57082638678464        3.72682342620786       -1.73093354160708
H            8.70216538962983        4.74088908571666       -1.35085111501258
H            8.69475320949983        3.73497813145265       -2.81584678805529
H            9.31882536374835        3.07185078960844       -1.28672662123193
