      -----------------------------------------------------------      
     |                   =====================                   |     
     |                           x T B                           |     
     |                   =====================                   |     
     |                         S. Grimme                         |     
     |          Mulliken Center for Theoretical Chemistry        |     
     |                    University of Bonn                     |     
      -----------------------------------------------------------      

   * xtb version 6.7.1pre (5071a88) compiled by 'Marcel@Raven' on 2024-07-23

   xtb is free software: you can redistribute it and/or modify it under
   the terms of the GNU Lesser General Public License as published by
   the Free Software Foundation, either version 3 of the License, or
   (at your option) any later version.
   
   xtb is distributed in the hope that it will be useful,
   but WITHOUT ANY WARRANTY; without even the implied warranty of
   MERCHANTABILITY or FITNESS FOR A PARTICULAR PURPOSE.  See the
   GNU Lesser General Public License for more details.
   
   Cite this work as:
   * C. Bannwarth, E. Caldeweyher, S. Ehlert, A. Hansen, P. Pracht,
     J. Seibert, S. Spicher, S. Grimme, WIREs Comput. Mol. Sci., 2020, 11,
     e01493. DOI: 10.1002/wcms.1493
   
   for GFN2-xTB:
   * C. Bannwarth, S. Ehlert and S. Grimme., J. Chem. Theory Comput., 2019,
     15, 1652-1671. DOI: 10.1021/acs.jctc.8b01176
   for GFN1-xTB:
   * S. Grimme, C. Bannwarth, P. Shushkov, J. Chem. Theory Comput., 2017,
     13, 1989-2009. DOI: 10.1021/acs.jctc.7b00118
   for GFN0-xTB:
   * P. Pracht, E. Caldeweyher, S. Ehlert, S. Grimme, ChemRxiv, 2019, preprint.
     DOI: 10.26434/chemrxiv.8326202.v1
   for GFN-FF:
   * S. Spicher and S. Grimme, Angew. Chem. Int. Ed., 2020, 59, 15665-15673.
     DOI: 10.1002/anie.202004239
   
   for ALPB and GBSA implicit solvation:
   * S. Ehlert, M. Stahn, S. Spicher, S. Grimme, J. Chem. Theory Comput.,
     2021, 17, 4250-4261. DOI: 10.1021/acs.jctc.1c00471
   
   for ddCOSMO and CPCM-X implicit solvation:
   * M. Stahn, S. Ehlert, S. Grimme, J. Phys. Chem. A,
     2023, XX, XXXX-XXXX. DOI: 10.1021/acs.jpca.3c04382
   
   for DFT-D4:
   * E. Caldeweyher, C. Bannwarth and S. Grimme, J. Chem. Phys., 2017,
     147, 034112. DOI: 10.1063/1.4993215
   * E. Caldeweyher, S. Ehlert, A. Hansen, H. Neugebauer, S. Spicher,
     C. Bannwarth and S. Grimme, J. Chem. Phys., 2019, 150, 154122.
     DOI: 10.1063/1.5090222
   * E. Caldeweyher, J.-M. Mewes, S. Ehlert and S. Grimme, Phys. Chem. Chem. Phys.
     2020, 22, 8499-8512. DOI: 10.1039/D0CP00502A
   
   for sTDA-xTB:
   * S. Grimme and C. Bannwarth, J. Chem. Phys., 2016, 145, 054103.
     DOI: 10.1063/1.4959605
   
   in the mass-spec context:
   * V. Asgeirsson, C. Bauer and S. Grimme, Chem. Sci., 2017, 8, 4879.
     DOI: 10.1039/c7sc00601b
   * J. Koopman and S. Grimme, ACS Omega 2019, 4, 12, 15120-15133.
     DOI: 10.1021/acsomega.9b02011
   
   for metadynamics refer to:
   * S. Grimme, J. Chem. Theory Comput., 2019, 155, 2847-2862
     DOI: 10.1021/acs.jctc.9b00143
   
   for SPH calculations refer to:
   * S. Spicher and S. Grimme, J. Chem. Theory Comput., 2021, 17, 1701-1714
     DOI: 10.1021/acs.jctc.0c01306
   
   for ONIOM refer to:
   * C. Plett, A. Katbashev, S. Ehlert, S. Grimme, M. Bursch,
     Phys. Chem. Chem. Phys., 2023, 25, 17860-17868. DOI: 10.1039/D3CP02178E
   
   for DIPRO refer to:
   * J. Kohn, N. Gildemeister, S. Grimme, D. Fazzi, A. Hansen,
     J. Chem. Phys., 2023, just accepted.
   
   for PTB refer to:
   * S. Grimme, M. Mueller, A. Hansen, J. Chem. Phys., 2023, 158, 124111.
     DOI: 10.1063/5.0137838
   
   with help from (in alphabetical order)
   P. Atkinson, C. Bannwarth, F. Bohle, G. Brandenburg, E. Caldeweyher
   M. Checinski, S. Dohm, S. Ehlert, S. Ehrlich, I. Gerasimov, C. Hölzer
   A. Katbashev, J. Kohn, J. Koopman, C. Lavigne, S. Lehtola, F. März, M. Müller,
   F. Musil, H. Neugebauer, J. Pisarek, C. Plett, P. Pracht, F. Pultar,
   J. Seibert, P. Shushkov, S. Spicher, M. Stahn, M. Steiner, T. Strunk,
   J. Stückrath, T. Rose, and J. Unsleber
   
 * started run on 2026/08/20 at 20:34:49.895     
   ID    Z sym.   atoms
    1    7 N      1, 44, 53
    2    6 C      2-15, 45, 47, 48, 54
    3    8 O      16, 17, 41, 46, 49
    4    1 H      18-40, 42, 43, 50-52, 55-57

           -------------------------------------------------
          |                Calculation Setup                |
           -------------------------------------------------

          program call               : C:\Users\Nayanika\Downloads\xtb-6.7.1pre-windows-x86_64\xtb-6.7.1\bin\xtb.exe D:\PhD_Thesis\LmrR_EVB\charges\fast_lmrr_5QM\xtb_preparation\TS1_2_to_PS1_2b\TS1_2_to_PS1_2b_TS.xyz --gfn 2 --opt tight --chrg 0 --uhf 0 --etemp 500
          coordinate file            : D:\PhD_Thesis\LmrR_EVB\charges\fast_lmrr_5QM\xtb_preparation\TS1_2_to_PS1_2b\TS1_2_to_PS1_2b_TS.xyz
          omp threads                :                     8


molecular fragmentation (1/2 indicates fragments):
111111111111111121111111111111111111112222211111111111111
# atoms in fragment 1/2:    51     6
 fragment masses (1/2) :      333.43       36.03
CMA distance (Bohr)    :  12.491
constraining FC (au)   :  0.0500

           -------------------------------------------------
          |                 G F N 2 - x T B                 |
           -------------------------------------------------

        Reference                      10.1021/acs.jctc.8b01176
      * Hamiltonian:
        H0-scaling (s, p, d)           1.850000    2.230000    2.230000
        zeta-weighting                 0.500000
      * Dispersion:
        s8                             2.700000
        a1                             0.520000
        a2                             5.000000
        s9                             5.000000
      * Repulsion:
        kExp                           1.500000    1.000000
        rExp                           1.000000
      * Coulomb:
        alpha                          2.000000
        third order                    shell-resolved
        anisotropic                    true
        a3                             3.000000
        a5                             4.000000
        cn-shift                       1.200000
        cn-exp                         4.000000
        max-rad                        5.000000

q/qsh data taken from xtbrestart
CAMM data taken from xtbrestart

          ...................................................
          :                      SETUP                      :
          :.................................................:
          :  # basis functions                 135          :
          :  # atomic orbitals                 135          :
          :  # shells                           83          :
          :  # electrons                       148          :
          :  max. iterations                   250          :
          :  Hamiltonian                  GFN2-xTB          :
          :  restarted?                       true          :
          :  GBSA solvation                  false          :
          :  PC potential                    false          :
          :  electronic temp.          500.0000000     K    :
          :  accuracy                    1.0000000          :
          :  -> integral cutoff          0.2500000E+02      :
          :  -> integral neglect         0.1000000E-07      :
          :  -> SCF convergence          0.1000000E-05 Eh   :
          :  -> wf. convergence          0.1000000E-03 e    :
          :  Broyden damping             0.4000000          :
          :  net charge                          0          :
          :  unpaired electrons                  0          :
          ...................................................

 iter      E             dE          RMSdq      gap      omega  full diag
   1    -84.1482010 -0.841482E+02  0.309E+00    3.36       0.0  T
   2    -84.1914008 -0.431998E-01  0.180E+00    2.23       1.0  T
   3    -84.1684604  0.229404E-01  0.104E+00    0.94       1.0  T
   4    -84.2022864 -0.338260E-01  0.312E-01    0.76       1.0  T
   5    -84.2037562 -0.146985E-02  0.108E-01    0.97       1.0  T
   6    -84.2043222 -0.565990E-03  0.442E-02    1.00       1.0  T
   7    -84.2043778 -0.555751E-04  0.199E-02    0.99       1.0  T
   8    -84.2043807 -0.291611E-05  0.779E-03    0.99       1.7  T
   9    -84.2043815 -0.797589E-06  0.297E-03    0.99       4.5  T
  10    -84.2043817 -0.203361E-06  0.135E-03    0.99       9.8  T
  11    -84.2043818 -0.273665E-07  0.552E-04    0.99      24.0  T
  12    -84.2043818 -0.639062E-08  0.168E-04    0.99      78.6  T

   *** convergence criteria satisfied after 12 iterations ***

         #    Occupation            Energy/Eh            Energy/eV
      -------------------------------------------------------------
         1        2.0000           -0.7686618             -20.9164
       ...           ...                  ...                  ...
        68        2.0000           -0.3887023             -10.5771
        69        2.0000           -0.3766533             -10.2493
        70        2.0000           -0.3575674              -9.7299
        71        2.0000           -0.3092310              -8.4146
        72        2.0000           -0.2920132              -7.9461
        73        2.0000           -0.2880879              -7.8393
        74        2.0000           -0.2725484              -7.4164 (HOMO)
        75        0.0000           -0.2361375              -6.4256 (LUMO)
        76                         -0.2265606              -6.1650
        77                         -0.2214199              -6.0251
        78                         -0.2153564              -5.8601
        79                         -0.1823599              -4.9623
       ...                                ...                  ...
       135                          0.6463068              17.5869
      -------------------------------------------------------------
                  HL-Gap            0.0364109 Eh            0.9908 eV
             Fermi-level           -0.2543449 Eh           -6.9211 eV

 SCC (total)                   0 d,  0 h,  0 min,  0.204 sec
 SCC setup                      ...        0 min,  0.000 sec (  0.000%)
 Dispersion                     ...        0 min,  0.002 sec (  0.980%)
 classical contributions        ...        0 min,  0.000 sec (  0.000%)
 integral evaluation            ...        0 min,  0.005 sec (  2.451%)
 iterations                     ...        0 min,  0.148 sec ( 72.549%)
 molecular gradient             ...        0 min,  0.048 sec ( 23.529%)
 printout                       ...        0 min,  0.001 sec (  0.490%)

         :::::::::::::::::::::::::::::::::::::::::::::::::::::
         ::                     SUMMARY                     ::
         :::::::::::::::::::::::::::::::::::::::::::::::::::::
         :: total energy             -83.172909110559 Eh    ::
         :: gradient norm              0.170813472464 Eh/a0 ::
         :: HOMO-LUMO gap              0.990791502001 eV    ::
         ::.................................................::
         :: SCC energy               -84.203581169236 Eh    ::
         :: -> isotropic ES            0.278152364523 Eh    ::
         :: -> anisotropic ES          0.012093189092 Eh    ::
         :: -> anisotropic XC          0.028338542844 Eh    ::
         :: -> dispersion             -0.054216767034 Eh    ::
         :: repulsion energy           1.030672058677 Eh    ::
         :: add. restraining           0.000000000000 Eh    ::
         :: total charge              -0.000000000000 e     ::
         :::::::::::::::::::::::::::::::::::::::::::::::::::::

      ----------------------------------------------------------- 
     |                   =====================                   |
     |                        A N C O P T                        |
     |                   =====================                   |
     |               Approximate Normal Coordinate               |
     |                Rational Function Optimizer                |
      ----------------------------------------------------------- 
      ----------------------------------------------------------- 
     |                   =====================                   |
     |                        A N C O P T                        |
     |                   =====================                   |
     |               Approximate Normal Coordinate               |
     |                Rational Function Optimizer                |
      ----------------------------------------------------------- 

          ...................................................
          :                      SETUP                      :
          :.................................................:
          :   optimization level             tight          :
          :   max. optcycles                   285          :
          :   ANC micro-cycles                  20          :
          :   degrees of freedom               165          :
          :.................................................:
          :   RF solver                   davidson          :
          :   write xtbopt.log                true          :
          :   linear?                        false          :
          :   energy convergence         0.1000000E-05 Eh   :
          :   grad. convergence          0.8000000E-03 Eh/α :
          :   maxmium RF displ.          1.0000000          :
          :   Hlow (freq-cutoff)         0.1000000E-01      :
          :   Hmax (freq-cutoff)         5.0000000          :
          :   S6 in model hess.         20.0000000          :
          ...................................................

generating ANC from exact Hessian ...
Using Lindh-Hessian (1995)
 Shifting diagonal of input Hessian by   1.023562881853586E-002
 Lowest  eigenvalues of input Hessian
    0.010000    0.010114    0.000000    0.000000    0.000000    0.000000
    0.000000    0.000000    0.010305    0.010330    0.010418    0.010559
    0.010729    0.010909    0.011340    0.011531    0.011825    0.012340
 Highest eigenvalues
    1.899607    1.943744    1.977553    2.028443    2.237086    2.249261
 

........................................................................
.............................. CYCLE    1 ..............................
........................................................................

 iter      E             dE          RMSdq      gap      omega  full diag
   1    -84.2043818 -0.842044E+02  0.824E-05    0.99       0.0  T
   2    -84.2043818 -0.490274E-10  0.486E-05    0.99     272.6  T
   3    -84.2043818 -0.679279E-11  0.334E-05    0.99     396.3  T
     SCC iter.                  ...        0 min,  0.038 sec
     gradient                   ...        0 min,  0.009 sec
 * total energy  :   -83.1729091 Eh     change       -0.5355218E-09 Eh
   gradient norm :     0.1708006 Eh/α   predicted     0.0000000E+00 (-100.00%)
   displ. norm   :     0.5992818 α      lambda       -0.7086348E-01
   maximum displ.:     0.1949304 α      in ANC's #77, #55, #85, ...

........................................................................
.............................. CYCLE    2 ..............................
........................................................................

 iter      E             dE          RMSdq      gap      omega  full diag
   1    -84.2688441 -0.842688E+02  0.331E-01    1.14       0.0  T
   2    -84.2702822 -0.143813E-02  0.158E-01    1.49       1.0  T
   3    -84.2703259 -0.436666E-04  0.762E-02    1.51       1.0  T
   4    -84.2704232 -0.973236E-04  0.397E-02    1.52       1.0  T
   5    -84.2704609 -0.377199E-04  0.944E-03    1.51       1.4  T
   6    -84.2704627 -0.175803E-05  0.468E-03    1.51       2.8  T
   7    -84.2704629 -0.272332E-06  0.264E-03    1.51       5.0  T
   8    -84.2704631 -0.132793E-06  0.111E-03    1.51      11.9  T
   9    -84.2704631 -0.276467E-07  0.460E-04    1.51      28.8  T
  10    -84.2704631 -0.259593E-08  0.191E-04    1.51      69.2  T
     SCC iter.                  ...        0 min,  0.122 sec
     gradient                   ...        0 min,  0.011 sec
 * total energy  :   -83.2318755 Eh     change       -0.5896637E-01 Eh
   gradient norm :     0.1479005 Eh/α   predicted    -0.4817522E-01 ( -18.30%)
   displ. norm   :     0.7649452 α      lambda       -0.8386409E-01
   maximum displ.:     0.2471839 α      in ANC's #85, #55, #77, ...

........................................................................
.............................. CYCLE    3 ..............................
........................................................................

 iter      E             dE          RMSdq      gap      omega  full diag
   1    -84.3465293 -0.843465E+02  0.484E-01    1.35       0.0  T
   2    -84.3497302 -0.320089E-02  0.234E-01    1.62       1.0  T
   3    -84.3499762 -0.245997E-03  0.106E-01    1.65       1.0  T
   4    -84.3500299 -0.536418E-04  0.480E-02    1.65       1.0  T
   5    -84.3500787 -0.488354E-04  0.173E-02    1.63       1.0  T
   6    -84.3500902 -0.115481E-04  0.748E-03    1.63       1.8  T
   7    -84.3500907 -0.427327E-06  0.424E-03    1.64       3.1  T
   8    -84.3500909 -0.218932E-06  0.187E-03    1.64       7.1  T
   9    -84.3500910 -0.105485E-06  0.573E-04    1.64      23.1  T
  10    -84.3500910 -0.398816E-08  0.292E-04    1.64      45.4  T
     SCC iter.                  ...        0 min,  0.129 sec
     gradient                   ...        0 min,  0.010 sec
 * total energy  :   -83.2958006 Eh     change       -0.6392510E-01 Eh
   gradient norm :     0.1207366 Eh/α   predicted    -0.6646830E-01 (   3.98%)
   displ. norm   :     0.6125722 α      lambda       -0.4346775E-01
   maximum displ.:     0.1938829 α      in ANC's #44, #47, #21, ...

........................................................................
.............................. CYCLE    4 ..............................
........................................................................

 iter      E             dE          RMSdq      gap      omega  full diag
   1    -84.4008529 -0.844009E+02  0.373E-01    1.46       0.0  T
   2    -84.4038468 -0.299392E-02  0.171E-01    1.90       1.0  T
   3    -84.4039998 -0.153023E-03  0.892E-02    1.94       1.0  T
   4    -84.4040153 -0.154250E-04  0.380E-02    1.95       1.0  T
   5    -84.4040419 -0.266503E-04  0.123E-02    1.94       1.1  T
   6    -84.4040482 -0.624197E-05  0.484E-03    1.94       2.7  T
   7    -84.4040486 -0.399766E-06  0.274E-03    1.94       4.8  T
   8    -84.4040486 -0.863943E-07  0.128E-03    1.94      10.4  T
   9    -84.4040487 -0.372215E-07  0.344E-04    1.94      38.5  T
  10    -84.4040487 -0.147895E-08  0.179E-04    1.94      74.0  T
     SCC iter.                  ...        0 min,  0.118 sec
     gradient                   ...        0 min,  0.009 sec
 * total energy  :   -83.3215023 Eh     change       -0.2570169E-01 Eh
   gradient norm :     0.1567139 Eh/α   predicted    -0.2988982E-01 (  16.30%)
   displ. norm   :     0.5564959 α      lambda       -0.4209655E-01
   maximum displ.:     0.2145685 α      in ANC's #44, #2, #21, ...

........................................................................
.............................. CYCLE    5 ..............................
........................................................................

 iter      E             dE          RMSdq      gap      omega  full diag
   1    -84.4087701 -0.844088E+02  0.304E-01    1.89       0.0  T
   2    -84.4101814 -0.141130E-02  0.158E-01    2.20       1.0  T
   3    -84.4102503 -0.689305E-04  0.765E-02    2.25       1.0  T
   4    -84.4102610 -0.107273E-04  0.329E-02    2.26       1.0  T
   5    -84.4102836 -0.225241E-04  0.150E-02    2.26       1.0  T
   6    -84.4102907 -0.711466E-05  0.546E-03    2.25       2.4  T
   7    -84.4102910 -0.355756E-06  0.261E-03    2.25       5.1  T
   8    -84.4102911 -0.938951E-07  0.104E-03    2.25      12.7  T
   9    -84.4102911 -0.264988E-07  0.306E-04    2.25      43.2  T
  10    -84.4102911 -0.108530E-08  0.155E-04    2.25      85.3  T
     SCC iter.                  ...        0 min,  0.106 sec
     gradient                   ...        0 min,  0.009 sec
 * total energy  :   -83.3421602 Eh     change       -0.2065790E-01 Eh
   gradient norm :     0.1197886 Eh/α   predicted    -0.2756650E-01 (  33.44%)
   displ. norm   :     0.5527654 α      lambda       -0.2793534E-01
   maximum displ.:     0.1653841 α      in ANC's #44, #2, #23, ...

........................................................................
.............................. CYCLE    6 ..............................
........................................................................

 iter      E             dE          RMSdq      gap      omega  full diag
   1    -84.4352396 -0.844352E+02  0.202E-01    2.38       0.0  T
   2    -84.4353989 -0.159356E-03  0.118E-01    2.39       1.0  T
   3    -84.4353869  0.119858E-04  0.417E-02    2.41       1.0  T
   4    -84.4354185 -0.315981E-04  0.145E-02    2.41       1.0  T
   5    -84.4354243 -0.573404E-05  0.617E-03    2.41       2.1  T
   6    -84.4354250 -0.717416E-06  0.239E-03    2.41       5.5  T
   7    -84.4354251 -0.981995E-07  0.110E-03    2.41      12.0  T
   8    -84.4354251 -0.199673E-07  0.379E-04    2.41      35.0  T
   9    -84.4354251 -0.209130E-08  0.124E-04    2.41     107.1  T
     SCC iter.                  ...        0 min,  0.096 sec
     gradient                   ...        0 min,  0.008 sec
 * total energy  :   -83.3625428 Eh     change       -0.2038260E-01 Eh
   gradient norm :     0.0633845 Eh/α   predicted    -0.1823551E-01 ( -10.53%)
   displ. norm   :     0.6178929 α      lambda       -0.1945814E-01
   maximum displ.:     0.2288536 α      in ANC's #44, #42, #12, ...

........................................................................
.............................. CYCLE    7 ..............................
........................................................................

 iter      E             dE          RMSdq      gap      omega  full diag
   1    -84.4595421 -0.844595E+02  0.262E-01    2.48       0.0  T
   2    -84.4601499 -0.607726E-03  0.137E-01    2.68       1.0  T
   3    -84.4601100  0.398471E-04  0.762E-02    2.71       1.0  T
   4    -84.4601948 -0.847729E-04  0.342E-02    2.71       1.0  T
   5    -84.4602368 -0.420278E-04  0.890E-03    2.71       1.5  T
   6    -84.4602384 -0.158115E-05  0.425E-03    2.71       3.1  T
   7    -84.4602385 -0.136431E-06  0.170E-03    2.71       7.8  T
   8    -84.4602386 -0.722214E-07  0.624E-04    2.71      21.2  T
   9    -84.4602386 -0.843515E-08  0.207E-04    2.71      64.1  T
     SCC iter.                  ...        0 min,  0.090 sec
     gradient                   ...        0 min,  0.009 sec
 * total energy  :   -83.3765005 Eh     change       -0.1395770E-01 Eh
   gradient norm :     0.0467461 Eh/α   predicted    -0.1344356E-01 (  -3.68%)
   displ. norm   :     0.6019312 α      lambda       -0.1286706E-01
   maximum displ.:     0.2209340 α      in ANC's #12, #16, #11, ...

........................................................................
.............................. CYCLE    8 ..............................
........................................................................

 iter      E             dE          RMSdq      gap      omega  full diag
   1    -84.4908661 -0.844909E+02  0.276E-01    2.70       0.0  T
   2    -84.4922471 -0.138102E-02  0.135E-01    2.97       1.0  T
   3    -84.4922849 -0.378061E-04  0.809E-02    3.00       1.0  T
   4    -84.4923233 -0.383975E-04  0.454E-02    3.01       1.0  T
   5    -84.4923882 -0.648225E-04  0.114E-02    3.02       1.2  T
   6    -84.4923914 -0.327161E-05  0.492E-03    3.01       2.7  T
   7    -84.4923917 -0.293357E-06  0.211E-03    3.01       6.3  T
   8    -84.4923918 -0.943503E-07  0.980E-04    3.01      13.5  T
   9    -84.4923918 -0.143251E-07  0.263E-04    3.01      50.4  T
     SCC iter.                  ...        0 min,  0.095 sec
     gradient                   ...        0 min,  0.009 sec
 * total energy  :   -83.3808266 Eh     change       -0.4326128E-02 Eh
   gradient norm :     0.0920459 Eh/α   predicted    -0.8764533E-02 ( 102.60%)
   displ. norm   :     0.5425605 α      lambda       -0.1543065E-01
   maximum displ.:     0.1689509 α      in ANC's #38, #18, #42, ...

........................................................................
.............................. CYCLE    9 ..............................
........................................................................

 iter      E             dE          RMSdq      gap      omega  full diag
   1    -84.4838741 -0.844839E+02  0.241E-01    3.04       0.0  T
   2    -84.4846272 -0.753124E-03  0.130E-01    3.25       1.0  T
   3    -84.4846358 -0.857930E-05  0.680E-02    3.27       1.0  T
   4    -84.4846351  0.689810E-06  0.355E-02    3.28       1.0  T
   5    -84.4846851 -0.499343E-04  0.976E-03    3.28       1.4  T
   6    -84.4846871 -0.205410E-05  0.457E-03    3.28       2.9  T
   7    -84.4846873 -0.238257E-06  0.181E-03    3.28       7.3  T
   8    -84.4846874 -0.345721E-07  0.845E-04    3.28      15.7  T
   9    -84.4846874 -0.189366E-07  0.207E-04    3.28      63.9  T
     SCC iter.                  ...        0 min,  0.095 sec
     gradient                   ...        0 min,  0.008 sec
 * total energy  :   -83.3884616 Eh     change       -0.7635024E-02 Eh
   gradient norm :     0.0439677 Eh/α   predicted    -0.9986502E-02 (  30.80%)
   displ. norm   :     0.4360908 α      lambda       -0.5324395E-02
   maximum displ.:     0.1648134 α      in ANC's #12, #22, #34, ...

........................................................................
.............................. CYCLE   10 ..............................
........................................................................

 iter      E             dE          RMSdq      gap      omega  full diag
   1    -84.4840745 -0.844841E+02  0.137E-01    3.31       0.0  T
   2    -84.4842533 -0.178824E-03  0.773E-02    3.37       1.0  T
   3    -84.4842482  0.512891E-05  0.397E-02    3.38       1.0  T
   4    -84.4842596 -0.114437E-04  0.201E-02    3.38       1.0  T
   5    -84.4842763 -0.166525E-04  0.519E-03    3.38       2.6  T
   6    -84.4842768 -0.480804E-06  0.281E-03    3.38       4.7  T
   7    -84.4842768 -0.659593E-07  0.106E-03    3.38      12.5  T
   8    -84.4842769 -0.213071E-07  0.455E-04    3.38      29.1  T
   9    -84.4842769 -0.591137E-08  0.158E-04    3.38      84.0  T
     SCC iter.                  ...        0 min,  0.089 sec
     gradient                   ...        0 min,  0.010 sec
 * total energy  :   -83.3901663 Eh     change       -0.1704629E-02 Eh
   gradient norm :     0.0615118 Eh/α   predicted    -0.3168485E-02 (  85.88%)
   displ. norm   :     0.5247355 α      lambda       -0.9593207E-02
   maximum displ.:     0.2098447 α      in ANC's #12, #34, #18, ...

........................................................................
.............................. CYCLE   11 ..............................
........................................................................

 iter      E             dE          RMSdq      gap      omega  full diag
   1    -84.4871723 -0.844872E+02  0.212E-01    3.39       0.0  T
   2    -84.4875547 -0.382423E-03  0.117E-01    3.47       1.0  T
   3    -84.4875250  0.296943E-04  0.633E-02    3.47       1.0  T
   4    -84.4875889 -0.639272E-04  0.304E-02    3.47       1.0  T
   5    -84.4876203 -0.313539E-04  0.928E-03    3.47       1.4  T
   6    -84.4876217 -0.139084E-05  0.456E-03    3.47       2.9  T
   7    -84.4876219 -0.266966E-06  0.183E-03    3.47       7.2  T
   8    -84.4876219 -0.205085E-07  0.895E-04    3.47      14.8  T
   9    -84.4876220 -0.264208E-07  0.179E-04    3.47      74.0  T
     SCC iter.                  ...        0 min,  0.085 sec
     gradient                   ...        0 min,  0.009 sec
 * total energy  :   -83.3914851 Eh     change       -0.1318849E-02 Eh
   gradient norm :     0.0787987 Eh/α   predicted    -0.6117333E-02 ( 363.84%)
   displ. norm   :     0.2824445 α      lambda       -0.8927943E-02
   maximum displ.:     0.0767180 α      in ANC's #19, #17, #65, ...

........................................................................
.............................. CYCLE   12 ..............................
........................................................................

 iter      E             dE          RMSdq      gap      omega  full diag
   1    -84.4908644 -0.844909E+02  0.155E-01    3.45       0.0  T
   2    -84.4912662 -0.401741E-03  0.837E-02    3.54       1.0  T
   3    -84.4912790 -0.128002E-04  0.450E-02    3.55       1.0  T
   4    -84.4912713  0.764853E-05  0.216E-02    3.55       1.0  T
   5    -84.4912899 -0.186304E-04  0.645E-03    3.55       2.1  T
   6    -84.4912908 -0.860708E-06  0.258E-03    3.55       5.1  T
   7    -84.4912909 -0.779651E-07  0.124E-03    3.55      10.7  T
   8    -84.4912909 -0.138187E-07  0.499E-04    3.55      26.6  T
   9    -84.4912909 -0.338861E-08  0.161E-04    3.55      82.3  T
     SCC iter.                  ...        0 min,  0.078 sec
     gradient                   ...        0 min,  0.007 sec
 * total energy  :   -83.3940506 Eh     change       -0.2565538E-02 Eh
   gradient norm :     0.0681716 Eh/α   predicted    -0.4820090E-02 (  87.88%)
   displ. norm   :     0.3069362 α      lambda       -0.7810648E-02
   maximum displ.:     0.1040037 α      in ANC's #12, #44, #6, ...

........................................................................
.............................. CYCLE   13 ..............................
........................................................................

 iter      E             dE          RMSdq      gap      omega  full diag
   1    -84.4909112 -0.844909E+02  0.133E-01    3.52       0.0  T
   2    -84.4911244 -0.213172E-03  0.779E-02    3.60       1.0  T
   3    -84.4911299 -0.555371E-05  0.346E-02    3.61       1.0  T
   4    -84.4911327 -0.278433E-05  0.125E-02    3.61       1.1  T
   5    -84.4911376 -0.495724E-05  0.408E-03    3.61       3.2  T
   6    -84.4911379 -0.203699E-06  0.201E-03    3.61       6.6  T
   7    -84.4911379 -0.516313E-07  0.108E-03    3.61      12.3  T
   8    -84.4911379 -0.231376E-07  0.375E-04    3.61      35.3  T
   9    -84.4911379 -0.203725E-08  0.133E-04    3.61      99.5  T
     SCC iter.                  ...        0 min,  0.087 sec
     gradient                   ...        0 min,  0.010 sec
 * total energy  :   -83.3947197 Eh     change       -0.6690212E-03 Eh
   gradient norm :     0.0674059 Eh/α   predicted    -0.4273249E-02 ( 538.73%)
   displ. norm   :     0.2730040 α      lambda       -0.6073294E-02
   maximum displ.:     0.0926450 α      in ANC's #1, #34, #22, ...

........................................................................
.............................. CYCLE   14 ..............................
........................................................................

 iter      E             dE          RMSdq      gap      omega  full diag
   1    -84.4836485 -0.844836E+02  0.138E-01    3.60       0.0  T
   2    -84.4838910 -0.242447E-03  0.786E-02    3.61       1.0  T
   3    -84.4839045 -0.135736E-04  0.385E-02    3.61       1.0  T
   4    -84.4839068 -0.229375E-05  0.156E-02    3.61       1.0  T
   5    -84.4839143 -0.743887E-05  0.714E-03    3.61       1.9  T
   6    -84.4839154 -0.116466E-05  0.294E-03    3.61       4.5  T
   7    -84.4839155 -0.115126E-06  0.146E-03    3.61       9.0  T
   8    -84.4839156 -0.929865E-08  0.436E-04    3.61      30.4  T
   9    -84.4839156 -0.901262E-08  0.129E-04    3.61     102.6  T
     SCC iter.                  ...        0 min,  0.078 sec
     gradient                   ...        0 min,  0.008 sec
 * total energy  :   -83.3958216 Eh     change       -0.1101900E-02 Eh
   gradient norm :     0.0591686 Eh/α   predicted    -0.3262972E-02 ( 196.12%)
   displ. norm   :     0.4243513 α      lambda       -0.1018033E-01
   maximum displ.:     0.1734761 α      in ANC's #1, #2, #15, ...

........................................................................
.............................. CYCLE   15 ..............................
........................................................................

 iter      E             dE          RMSdq      gap      omega  full diag
   1    -84.5163017 -0.845163E+02  0.219E-01    3.49       0.0  T
   2    -84.5166451 -0.343373E-03  0.128E-01    3.50       1.0  T
   3    -84.5166339  0.111889E-04  0.556E-02    3.49       1.0  T
   4    -84.5166681 -0.342562E-04  0.252E-02    3.50       1.0  T
   5    -84.5166919 -0.237716E-04  0.906E-03    3.50       1.5  T
   6    -84.5166932 -0.134973E-05  0.435E-03    3.50       3.0  T
   7    -84.5166935 -0.248092E-06  0.183E-03    3.50       7.2  T
   8    -84.5166935 -0.119414E-07  0.643E-04    3.50      20.6  T
   9    -84.5166935 -0.128586E-07  0.220E-04    3.50      60.2  T
     SCC iter.                  ...        0 min,  0.079 sec
     gradient                   ...        0 min,  0.009 sec
 * total energy  :   -83.3900719 Eh     change        0.5749655E-02 Eh
   gradient norm :     0.1316067 Eh/α   predicted    -0.6006776E-02 (-204.47%)
   displ. norm   :     0.2529291 α      lambda       -0.1759262E-01
   maximum displ.:     0.0858137 α      in ANC's #44, #2, #15, ...

........................................................................
.............................. CYCLE   16 ..............................
........................................................................

 iter      E             dE          RMSdq      gap      omega  full diag
   1    -84.4928732 -0.844929E+02  0.170E-01    3.56       0.0  T
   2    -84.4936480 -0.774814E-03  0.101E-01    3.57       1.0  T
   3    -84.4936958 -0.477678E-04  0.569E-02    3.57       1.0  T
   4    -84.4936967 -0.989503E-06  0.119E-02    3.57       1.1  T
   5    -84.4936997 -0.296514E-05  0.602E-03    3.57       2.2  T
   6    -84.4937005 -0.801125E-06  0.272E-03    3.57       4.9  T
   7    -84.4937007 -0.175876E-06  0.131E-03    3.57      10.1  T
   8    -84.4937007 -0.135887E-07  0.542E-04    3.57      24.4  T
   9    -84.4937007 -0.573671E-08  0.186E-04    3.57      71.3  T
     SCC iter.                  ...        0 min,  0.079 sec
     gradient                   ...        0 min,  0.008 sec
 * total energy  :   -83.3988175 Eh     change       -0.8745565E-02 Eh
   gradient norm :     0.0276727 Eh/α   predicted    -0.9359029E-02 (   7.01%)
   displ. norm   :     0.3067548 α      lambda       -0.2438070E-02
   maximum displ.:     0.1031076 α      in ANC's #11, #12, #22, ...

........................................................................
.............................. CYCLE   17 ..............................
........................................................................

 iter      E             dE          RMSdq      gap      omega  full diag
   1    -84.4972302 -0.844972E+02  0.115E-01    3.57       0.0  T
   2    -84.4975425 -0.312319E-03  0.626E-02    3.54       1.0  T
   3    -84.4975528 -0.102550E-04  0.362E-02    3.54       1.0  T
   4    -84.4975450  0.772390E-05  0.194E-02    3.53       1.0  T
   5    -84.4975591 -0.140554E-04  0.497E-03    3.53       2.7  T
   6    -84.4975597 -0.626506E-06  0.202E-03    3.53       6.6  T
   7    -84.4975598 -0.779336E-07  0.888E-04    3.53      14.9  T
   8    -84.4975598 -0.499293E-08  0.378E-04    3.53      35.0  T
     SCC iter.                  ...        0 min,  0.068 sec
     gradient                   ...        0 min,  0.009 sec
 * total energy  :   -83.3994600 Eh     change       -0.6425415E-03 Eh
   gradient norm :     0.0366139 Eh/α   predicted    -0.1333776E-02 ( 107.58%)
   displ. norm   :     0.3077299 α      lambda       -0.1907099E-02
   maximum displ.:     0.1242797 α      in ANC's #12, #19, #18, ...

........................................................................
.............................. CYCLE   18 ..............................
........................................................................

 iter      E             dE          RMSdq      gap      omega  full diag
   1    -84.4949625 -0.844950E+02  0.949E-02    3.46       0.0  T
   2    -84.4950354 -0.728177E-04  0.542E-02    3.43       1.0  T
   3    -84.4950245  0.108350E-04  0.326E-02    3.42       1.0  T
   4    -84.4950427 -0.182078E-04  0.127E-02    3.42       1.0  T
   5    -84.4950490 -0.625715E-05  0.242E-03    3.42       5.5  T
   6    -84.4950491 -0.118766E-06  0.122E-03    3.42      10.9  T
   7    -84.4950491 -0.133309E-07  0.544E-04    3.42      24.4  T
   8    -84.4950491 -0.158202E-08  0.213E-04    3.42      62.1  T
     SCC iter.                  ...        0 min,  0.071 sec
     gradient                   ...        0 min,  0.009 sec
 * total energy  :   -83.4008771 Eh     change       -0.1417092E-02 Eh
   gradient norm :     0.0185979 Eh/α   predicted    -0.1043867E-02 ( -26.34%)
   displ. norm   :     0.4665224 α      lambda       -0.2372968E-02
   maximum displ.:     0.1683903 α      in ANC's #12, #11, #18, ...

........................................................................
.............................. CYCLE   19 ..............................
........................................................................

 iter      E             dE          RMSdq      gap      omega  full diag
   1    -84.5046407 -0.845046E+02  0.127E-01    3.31       0.0  T
   2    -84.5047592 -0.118522E-03  0.739E-02    3.26       1.0  T
   3    -84.5047347  0.245213E-04  0.481E-02    3.24       1.0  T
   4    -84.5047831 -0.484018E-04  0.153E-02    3.24       1.0  T
   5    -84.5047914 -0.837136E-05  0.313E-03    3.24       4.2  T
   6    -84.5047916 -0.177845E-06  0.156E-03    3.24       8.5  T
   7    -84.5047916 -0.236750E-07  0.707E-04    3.24      18.7  T
   8    -84.5047916 -0.310654E-08  0.272E-04    3.24      48.6  T
     SCC iter.                  ...        0 min,  0.073 sec
     gradient                   ...        0 min,  0.007 sec
 * total energy  :   -83.4022057 Eh     change       -0.1328598E-02 Eh
   gradient norm :     0.0276892 Eh/α   predicted    -0.1444744E-02 (   8.74%)
   displ. norm   :     0.5461999 α      lambda       -0.1999069E-02
   maximum displ.:     0.1933399 α      in ANC's #12, #11, #33, ...

........................................................................
.............................. CYCLE   20 ..............................
........................................................................

 iter      E             dE          RMSdq      gap      omega  full diag
   1    -84.5015688 -0.845016E+02  0.148E-01    3.12       0.0  T
   2    -84.5016706 -0.101826E-03  0.858E-02    3.04       1.0  T
   3    -84.5016009  0.697438E-04  0.601E-02    3.02       1.0  T
   4    -84.5017101 -0.109259E-03  0.120E-02    3.01       1.1  T
   5    -84.5017136 -0.351489E-05  0.359E-03    3.01       3.7  T
   6    -84.5017140 -0.354197E-06  0.160E-03    3.01       8.3  T
   7    -84.5017140 -0.128739E-07  0.700E-04    3.02      18.9  T
   8    -84.5017140 -0.466346E-08  0.255E-04    3.02      51.9  T
     SCC iter.                  ...        0 min,  0.065 sec
     gradient                   ...        0 min,  0.009 sec
 * total energy  :   -83.4036566 Eh     change       -0.1450913E-02 Eh
   gradient norm :     0.0223339 Eh/α   predicted    -0.1297766E-02 ( -10.56%)
   displ. norm   :     0.5439242 α      lambda       -0.1734213E-02
   maximum displ.:     0.2031857 α      in ANC's #11, #12, #33, ...
 * RMSD in coord.:     0.8285283 α      energy gain  -0.2307475E+00 Eh

generating ANC from exact Hessian ...
Using Lindh-Hessian (1995)
 Shifting diagonal of input Hessian by   1.012410259271749E-002
 Lowest  eigenvalues of input Hessian
    0.010000    0.010059    0.000000    0.000000    0.000000    0.000000
    0.000000    0.000000    0.010154    0.010167    0.010191    0.010218
    0.010261    0.010365    0.010388    0.010535    0.010672    0.010756
 Highest eigenvalues
    1.927477    2.013278    2.106032    2.176375    2.313031    2.333795
 

........................................................................
.............................. CYCLE   21 ..............................
........................................................................

 iter      E             dE          RMSdq      gap      omega  full diag
   1    -84.5034629 -0.845035E+02  0.150E-01    2.91       0.0  T
   2    -84.5035556 -0.926720E-04  0.880E-02    2.83       1.0  T
   3    -84.5034841  0.714680E-04  0.645E-02    2.81       1.0  T
   4    -84.5036085 -0.124403E-03  0.109E-02    2.79       1.2  T
   5    -84.5036113 -0.272257E-05  0.339E-03    2.80       3.9  T
   6    -84.5036116 -0.317644E-06  0.150E-03    2.80       8.8  T
   7    -84.5036116 -0.207137E-07  0.724E-04    2.80      18.3  T
   8    -84.5036116 -0.349688E-08  0.249E-04    2.80      53.1  T
     SCC iter.                  ...        0 min,  0.074 sec
     gradient                   ...        0 min,  0.009 sec
 * total energy  :   -83.4049778 Eh     change       -0.1321190E-02 Eh
   gradient norm :     0.0146141 Eh/α   predicted     0.0000000E+00 (-100.00%)
   displ. norm   :     0.2107621 α      lambda       -0.1011745E-02
   maximum displ.:     0.0810987 α      in ANC's #19, #13, #35, ...

........................................................................
.............................. CYCLE   22 ..............................
........................................................................

 iter      E             dE          RMSdq      gap      omega  full diag
   1    -84.5100111 -0.845100E+02  0.665E-02    2.78       0.0  T
   2    -84.5100158 -0.472921E-05  0.398E-02    2.76       1.0  T
   3    -84.5099967  0.191515E-04  0.237E-02    2.76       1.0  T
   4    -84.5100195 -0.228058E-04  0.251E-03    2.76       5.3  T
   5    -84.5100196 -0.137157E-06  0.125E-03    2.76      10.6  T
   6    -84.5100196 -0.249247E-07  0.703E-04    2.76      18.8  T
   7    -84.5100196 -0.448586E-08  0.214E-04    2.76      62.0  T
     SCC iter.                  ...        0 min,  0.069 sec
     gradient                   ...        0 min,  0.010 sec
 * total energy  :   -83.4058203 Eh     change       -0.8425252E-03 Eh
   gradient norm :     0.0066359 Eh/α   predicted    -0.5286112E-03 ( -37.26%)
   displ. norm   :     0.5603578 α      lambda       -0.1839689E-02
   maximum displ.:     0.2041556 α      in ANC's #13, #11, #19, ...

........................................................................
.............................. CYCLE   23 ..............................
........................................................................

 iter      E             dE          RMSdq      gap      omega  full diag
   1    -84.5157953 -0.845158E+02  0.153E-01    2.65       0.0  T
   2    -84.5158192 -0.239036E-04  0.910E-02    2.62       1.0  T
   3    -84.5157093  0.109913E-03  0.659E-02    2.61       1.0  T
   4    -84.5158634 -0.154104E-03  0.526E-03    2.60       2.5  T
   5    -84.5158640 -0.634509E-06  0.269E-03    2.61       4.9  T
   6    -84.5158642 -0.190154E-06  0.133E-03    2.61      10.0  T
   7    -84.5158642 -0.163034E-07  0.459E-04    2.61      28.8  T
   8    -84.5158642 -0.216524E-08  0.169E-04    2.61      78.5  T
     SCC iter.                  ...        0 min,  0.081 sec
     gradient                   ...        0 min,  0.008 sec
 * total energy  :   -83.4072526 Eh     change       -0.1432254E-02 Eh
   gradient norm :     0.0123320 Eh/α   predicted    -0.1208974E-02 ( -15.59%)
   displ. norm   :     0.6761767 α      lambda       -0.1696204E-02
   maximum displ.:     0.2739556 α      in ANC's #13, #11, #35, ...

........................................................................
.............................. CYCLE   24 ..............................
........................................................................

 iter      E             dE          RMSdq      gap      omega  full diag
   1    -84.5141268 -0.845141E+02  0.203E-01    2.44       0.0  T
   2    -84.5141686 -0.418192E-04  0.121E-01    2.40       1.0  T
   3    -84.5139735  0.195087E-03  0.898E-02    2.39       1.0  T
   4    -84.5142629 -0.289372E-03  0.730E-03    2.38       1.8  T
   5    -84.5142643 -0.139556E-05  0.346E-03    2.38       3.8  T
   6    -84.5142645 -0.253995E-06  0.179E-03    2.38       7.4  T
   7    -84.5142645 -0.262755E-07  0.683E-04    2.38      19.4  T
   8    -84.5142646 -0.745052E-08  0.233E-04    2.38      56.9  T
     SCC iter.                  ...        0 min,  0.078 sec
     gradient                   ...        0 min,  0.010 sec
 * total energy  :   -83.4086007 Eh     change       -0.1348076E-02 Eh
   gradient norm :     0.0129755 Eh/α   predicted    -0.1235870E-02 (  -8.32%)
   displ. norm   :     0.6724826 α      lambda       -0.1458740E-02
   maximum displ.:     0.2761654 α      in ANC's #13, #5, #11, ...

........................................................................
.............................. CYCLE   25 ..............................
........................................................................

 iter      E             dE          RMSdq      gap      omega  full diag
   1    -84.5104385 -0.845104E+02  0.185E-01    2.23       0.0  T
   2    -84.5104720 -0.334563E-04  0.111E-01    2.20       1.0  T
   3    -84.5103082  0.163748E-03  0.827E-02    2.20       1.0  T
   4    -84.5105565 -0.248316E-03  0.730E-03    2.19       1.8  T
   5    -84.5105586 -0.202660E-05  0.290E-03    2.19       4.6  T
   6    -84.5105588 -0.231223E-06  0.140E-03    2.19       9.5  T
   7    -84.5105588 -0.182949E-07  0.547E-04    2.19      24.2  T
   8    -84.5105588 -0.400073E-08  0.212E-04    2.19      62.5  T
     SCC iter.                  ...        0 min,  0.083 sec
     gradient                   ...        0 min,  0.009 sec
 * total energy  :   -83.4096752 Eh     change       -0.1074503E-02 Eh
   gradient norm :     0.0140882 Eh/α   predicted    -0.1059289E-02 (  -1.42%)
   displ. norm   :     0.5248754 α      lambda       -0.1177917E-02
   maximum displ.:     0.1994869 α      in ANC's #13, #5, #8, ...

........................................................................
.............................. CYCLE   26 ..............................
........................................................................

 iter      E             dE          RMSdq      gap      omega  full diag
   1    -84.5141142 -0.845141E+02  0.132E-01    2.12       0.0  T
   2    -84.5141285 -0.142556E-04  0.794E-02    2.08       1.0  T
   3    -84.5140329  0.955170E-04  0.579E-02    2.08       1.0  T
   4    -84.5141637 -0.130770E-03  0.545E-03    2.07       2.4  T
   5    -84.5141647 -0.970034E-06  0.268E-03    2.07       4.9  T
   6    -84.5141648 -0.124580E-06  0.131E-03    2.08      10.1  T
   7    -84.5141648 -0.121741E-07  0.456E-04    2.08      29.0  T
   8    -84.5141648 -0.422014E-08  0.157E-04    2.08      84.3  T
     SCC iter.                  ...        0 min,  0.079 sec
     gradient                   ...        0 min,  0.008 sec
 * total energy  :   -83.4104471 Eh     change       -0.7719554E-03 Eh
   gradient norm :     0.0195033 Eh/α   predicted    -0.7512162E-03 (  -2.69%)
   displ. norm   :     0.5420810 α      lambda       -0.1306633E-02
   maximum displ.:     0.1851014 α      in ANC's #5, #8, #13, ...

........................................................................
.............................. CYCLE   27 ..............................
........................................................................

 iter      E             dE          RMSdq      gap      omega  full diag
   1    -84.5173334 -0.845173E+02  0.113E-01    2.03       0.0  T
   2    -84.5173477 -0.143102E-04  0.676E-02    2.01       1.0  T
   3    -84.5173061  0.416028E-04  0.337E-02    2.01       1.0  T
   4    -84.5173561 -0.499432E-04  0.539E-03    2.00       2.5  T
   5    -84.5173570 -0.960818E-06  0.255E-03    2.01       5.2  T
   6    -84.5173572 -0.175199E-06  0.112E-03    2.01      11.8  T
   7    -84.5173572 -0.121673E-07  0.423E-04    2.01      31.3  T
   8    -84.5173572 -0.316751E-08  0.142E-04    2.01      93.4  T
     SCC iter.                  ...        0 min,  0.072 sec
     gradient                   ...        0 min,  0.008 sec
 * total energy  :   -83.4111053 Eh     change       -0.6582270E-03 Eh
   gradient norm :     0.0190929 Eh/α   predicted    -0.8452964E-03 (  28.42%)
   displ. norm   :     0.5144034 α      lambda       -0.1461412E-02
   maximum displ.:     0.2161954 α      in ANC's #10, #5, #8, ...

........................................................................
.............................. CYCLE   28 ..............................
........................................................................

 iter      E             dE          RMSdq      gap      omega  full diag
   1    -84.5159853 -0.845160E+02  0.986E-02    1.97       0.0  T
   2    -84.5159977 -0.124091E-04  0.600E-02    1.97       1.0  T
   3    -84.5159597  0.380222E-04  0.310E-02    1.97       1.0  T
   4    -84.5160059 -0.462963E-04  0.552E-03    1.97       2.4  T
   5    -84.5160065 -0.509243E-06  0.263E-03    1.97       5.0  T
   6    -84.5160065 -0.306865E-07  0.107E-03    1.97      12.4  T
   7    -84.5160065 -0.121824E-07  0.447E-04    1.97      29.7  T
   8    -84.5160065 -0.388465E-08  0.134E-04    1.97      99.0  T
     SCC iter.                  ...        0 min,  0.071 sec
     gradient                   ...        0 min,  0.009 sec
 * total energy  :   -83.4117088 Eh     change       -0.6034312E-03 Eh
   gradient norm :     0.0294886 Eh/α   predicted    -0.9240612E-03 (  53.13%)
   displ. norm   :     0.3644894 α      lambda       -0.1755134E-02
   maximum displ.:     0.1348257 α      in ANC's #13, #5, #8, ...

........................................................................
.............................. CYCLE   29 ..............................
........................................................................

 iter      E             dE          RMSdq      gap      omega  full diag
   1    -84.5242028 -0.845242E+02  0.763E-02    1.98       0.0  T
   2    -84.5242138 -0.109632E-04  0.455E-02    2.00       1.0  T
   3    -84.5242068  0.693312E-05  0.154E-02    2.00       1.0  T
   4    -84.5242166 -0.974076E-05  0.402E-03    2.00       3.3  T
   5    -84.5242169 -0.331343E-06  0.186E-03    2.00       7.1  T
   6    -84.5242169 -0.486714E-07  0.103E-03    2.00      12.8  T
   7    -84.5242170 -0.191312E-07  0.489E-04    2.00      27.1  T
   8    -84.5242170 -0.396325E-08  0.151E-04    2.00      87.6  T
     SCC iter.                  ...        0 min,  0.069 sec
     gradient                   ...        0 min,  0.008 sec
 * total energy  :   -83.4123155 Eh     change       -0.6067673E-03 Eh
   gradient norm :     0.0215583 Eh/α   predicted    -0.9941569E-03 (  63.84%)
   displ. norm   :     0.4732610 α      lambda       -0.1449007E-02
   maximum displ.:     0.1954848 α      in ANC's #13, #5, #8, ...

........................................................................
.............................. CYCLE   30 ..............................
........................................................................

 iter      E             dE          RMSdq      gap      omega  full diag
   1    -84.5164302 -0.845164E+02  0.121E-01    1.99       0.0  T
   2    -84.5164367 -0.651965E-05  0.722E-02    1.97       1.0  T
   3    -84.5163610  0.756278E-04  0.414E-02    1.97       1.0  T
   4    -84.5164472 -0.861192E-04  0.331E-03    1.97       4.0  T
   5    -84.5164474 -0.219106E-06  0.159E-03    1.97       8.3  T
   6    -84.5164474 -0.268421E-07  0.824E-04    1.97      16.1  T
   7    -84.5164474 -0.587214E-08  0.270E-04    1.97      49.0  T
     SCC iter.                  ...        0 min,  0.063 sec
     gradient                   ...        0 min,  0.008 sec
 * total energy  :   -83.4132051 Eh     change       -0.8896062E-03 Eh
   gradient norm :     0.0154159 Eh/α   predicted    -0.8867785E-03 (  -0.32%)
   displ. norm   :     0.5315264 α      lambda       -0.1273244E-02
   maximum displ.:     0.1988918 α      in ANC's #13, #8, #5, ...

........................................................................
.............................. CYCLE   31 ..............................
........................................................................

 iter      E             dE          RMSdq      gap      omega  full diag
   1    -84.5182185 -0.845182E+02  0.735E-02    1.99       0.0  T
   2    -84.5182292 -0.106713E-04  0.433E-02    2.01       1.0  T
   3    -84.5182272  0.197449E-05  0.108E-02    2.02       1.2  T
   4    -84.5182301 -0.293890E-05  0.327E-03    2.02       4.1  T
   5    -84.5182305 -0.344241E-06  0.114E-03    2.02      11.6  T
   6    -84.5182305 -0.541732E-08  0.605E-04    2.02      21.9  T
   7    -84.5182305 -0.175619E-08  0.350E-04    2.02      37.8  T
     SCC iter.                  ...        0 min,  0.061 sec
     gradient                   ...        0 min,  0.009 sec
 * total energy  :   -83.4139783 Eh     change       -0.7731655E-03 Eh
   gradient norm :     0.0209274 Eh/α   predicted    -0.8164832E-03 (   5.60%)
   displ. norm   :     0.6249640 α      lambda       -0.1382808E-02
   maximum displ.:     0.2303779 α      in ANC's #8, #5, #13, ...

........................................................................
.............................. CYCLE   32 ..............................
........................................................................

 iter      E             dE          RMSdq      gap      omega  full diag
   1    -84.5133424 -0.845133E+02  0.900E-02    2.02       0.0  T
   2    -84.5133739 -0.315604E-04  0.528E-02    2.06       1.0  T
   3    -84.5133720  0.190833E-05  0.174E-02    2.07       1.0  T
   4    -84.5133757 -0.367350E-05  0.655E-03    2.07       2.0  T
   5    -84.5133772 -0.153711E-05  0.237E-03    2.07       5.6  T
   6    -84.5133773 -0.623554E-07  0.140E-03    2.07       9.5  T
   7    -84.5133773 -0.305998E-07  0.544E-04    2.07      24.4  T
   8    -84.5133773 -0.607416E-08  0.141E-04    2.07      93.9  T
     SCC iter.                  ...        0 min,  0.067 sec
     gradient                   ...        0 min,  0.008 sec
 * total energy  :   -83.4148607 Eh     change       -0.8823750E-03 Eh
   gradient norm :     0.0229782 Eh/α   predicted    -0.9614575E-03 (   8.96%)
   displ. norm   :     0.5508335 α      lambda       -0.1560424E-02
   maximum displ.:     0.2141856 α      in ANC's #8, #13, #5, ...

........................................................................
.............................. CYCLE   33 ..............................
........................................................................

 iter      E             dE          RMSdq      gap      omega  full diag
   1    -84.5187172 -0.845187E+02  0.806E-02    2.13       0.0  T
   2    -84.5187371 -0.198551E-04  0.455E-02    2.16       1.0  T
   3    -84.5187230  0.140382E-04  0.229E-02    2.17       1.0  T
   4    -84.5187405 -0.174533E-04  0.614E-03    2.18       2.2  T
   5    -84.5187418 -0.130873E-05  0.225E-03    2.17       5.9  T
   6    -84.5187419 -0.127679E-06  0.996E-04    2.17      13.3  T
   7    -84.5187419 -0.660397E-08  0.410E-04    2.17      32.3  T
     SCC iter.                  ...        0 min,  0.065 sec
     gradient                   ...        0 min,  0.008 sec
 * total energy  :   -83.4158722 Eh     change       -0.1011500E-02 Eh
   gradient norm :     0.0145276 Eh/α   predicted    -0.1016945E-02 (   0.54%)
   displ. norm   :     0.6663321 α      lambda       -0.1404793E-02
   maximum displ.:     0.2580516 α      in ANC's #8, #13, #5, ...

........................................................................
.............................. CYCLE   34 ..............................
........................................................................

 iter      E             dE          RMSdq      gap      omega  full diag
   1    -84.5175604 -0.845176E+02  0.104E-01    2.18       0.0  T
   2    -84.5176511 -0.907434E-04  0.593E-02    2.24       1.0  T
   3    -84.5176466  0.449505E-05  0.267E-02    2.26       1.0  T
   4    -84.5176507 -0.405058E-05  0.119E-02    2.26       1.1  T
   5    -84.5176573 -0.659382E-05  0.270E-03    2.26       4.9  T
   6    -84.5176574 -0.190907E-06  0.136E-03    2.26       9.7  T
   7    -84.5176575 -0.306369E-07  0.598E-04    2.26      22.1  T
   8    -84.5176575 -0.313243E-08  0.190E-04    2.26      69.9  T
     SCC iter.                  ...        0 min,  0.068 sec
     gradient                   ...        0 min,  0.008 sec
 * total energy  :   -83.4168450 Eh     change       -0.9728247E-03 Eh
   gradient norm :     0.0178567 Eh/α   predicted    -0.1014263E-02 (   4.26%)
   displ. norm   :     0.6746930 α      lambda       -0.1385444E-02
   maximum displ.:     0.2461850 α      in ANC's #8, #13, #27, ...

........................................................................
.............................. CYCLE   35 ..............................
........................................................................

 iter      E             dE          RMSdq      gap      omega  full diag
   1    -84.5193768 -0.845194E+02  0.954E-02    2.35       0.0  T
   2    -84.5194222 -0.453571E-04  0.538E-02    2.40       1.0  T
   3    -84.5194076  0.145289E-04  0.286E-02    2.41       1.0  T
   4    -84.5194270 -0.193242E-04  0.963E-03    2.42       1.4  T
   5    -84.5194308 -0.380295E-05  0.286E-03    2.42       4.6  T
   6    -84.5194310 -0.215836E-06  0.139E-03    2.42       9.5  T
   7    -84.5194310 -0.116707E-07  0.570E-04    2.42      23.3  T
   8    -84.5194310 -0.531985E-08  0.179E-04    2.42      74.1  T
     SCC iter.                  ...        0 min,  0.069 sec
     gradient                   ...        0 min,  0.008 sec
 * total energy  :   -83.4178127 Eh     change       -0.9676693E-03 Eh
   gradient norm :     0.0143429 Eh/α   predicted    -0.1008058E-02 (   4.17%)
   displ. norm   :     0.6890517 α      lambda       -0.1315771E-02
   maximum displ.:     0.2378159 α      in ANC's #8, #13, #19, ...

........................................................................
.............................. CYCLE   36 ..............................
........................................................................

 iter      E             dE          RMSdq      gap      omega  full diag
   1    -84.5078600 -0.845079E+02  0.126E-01    2.38       0.0  T
   2    -84.5078856 -0.255845E-04  0.746E-02    2.40       1.0  T
   3    -84.5078394  0.461800E-04  0.333E-02    2.41       1.0  T
   4    -84.5078917 -0.522465E-04  0.783E-03    2.40       1.7  T
   5    -84.5078941 -0.241233E-05  0.230E-03    2.40       5.8  T
   6    -84.5078941 -0.348067E-07  0.129E-03    2.40      10.2  T
   7    -84.5078942 -0.374869E-07  0.548E-04    2.40      24.2  T
   8    -84.5078942 -0.423447E-08  0.191E-04    2.40      69.3  T
     SCC iter.                  ...        0 min,  0.067 sec
     gradient                   ...        0 min,  0.009 sec
 * total energy  :   -83.4184684 Eh     change       -0.6556814E-03 Eh
   gradient norm :     0.0251558 Eh/α   predicted    -0.9702500E-03 (  47.98%)
   displ. norm   :     0.4729711 α      lambda       -0.1753063E-02
   maximum displ.:     0.1461392 α      in ANC's #19, #27, #25, ...

........................................................................
.............................. CYCLE   37 ..............................
........................................................................

 iter      E             dE          RMSdq      gap      omega  full diag
   1    -84.5285528 -0.845286E+02  0.133E-01    2.49       0.0  T
   2    -84.5286094 -0.565779E-04  0.766E-02    2.54       1.0  T
   3    -84.5285695  0.398847E-04  0.354E-02    2.55       1.0  T
   4    -84.5286150 -0.455183E-04  0.114E-02    2.55       1.2  T
   5    -84.5286207 -0.565433E-05  0.277E-03    2.55       4.8  T
   6    -84.5286208 -0.818283E-07  0.156E-03    2.55       8.5  T
   7    -84.5286208 -0.245343E-07  0.538E-04    2.55      24.6  T
   8    -84.5286208 -0.354473E-08  0.220E-04    2.55      60.2  T
     SCC iter.                  ...        0 min,  0.073 sec
     gradient                   ...        0 min,  0.010 sec
 * total energy  :   -83.4189781 Eh     change       -0.5097599E-03 Eh
   gradient norm :     0.0251119 Eh/α   predicted    -0.1072616E-02 ( 110.42%)
   displ. norm   :     0.5079370 α      lambda       -0.2068640E-02
   maximum displ.:     0.1885649 α      in ANC's #13, #5, #8, ...

........................................................................
.............................. CYCLE   38 ..............................
........................................................................

 iter      E             dE          RMSdq      gap      omega  full diag
   1    -84.5219211 -0.845219E+02  0.101E-01    2.57       0.0  T
   2    -84.5219394 -0.183091E-04  0.590E-02    2.58       1.0  T
   3    -84.5219376  0.181345E-05  0.135E-02    2.58       1.0  T
   4    -84.5219418 -0.422096E-05  0.587E-03    2.58       2.3  T
   5    -84.5219429 -0.106064E-05  0.248E-03    2.58       5.3  T
   6    -84.5219429 -0.360127E-07  0.136E-03    2.58       9.8  T
   7    -84.5219430 -0.464080E-07  0.487E-04    2.58      27.2  T
   8    -84.5219430 -0.357062E-08  0.168E-04    2.58      79.0  T
     SCC iter.                  ...        0 min,  0.062 sec
     gradient                   ...        0 min,  0.008 sec
 * total energy  :   -83.4195091 Eh     change       -0.5310018E-03 Eh
   gradient norm :     0.0284428 Eh/α   predicted    -0.1301176E-02 ( 145.04%)
   displ. norm   :     0.3438155 α      lambda       -0.1612719E-02
   maximum displ.:     0.1481530 α      in ANC's #8, #5, #9, ...

........................................................................
.............................. CYCLE   39 ..............................
........................................................................

 iter      E             dE          RMSdq      gap      omega  full diag
   1    -84.5204727 -0.845205E+02  0.747E-02    2.54       0.0  T
   2    -84.5204833 -0.105497E-04  0.439E-02    2.55       1.0  T
   3    -84.5204786  0.464378E-05  0.127E-02    2.55       1.0  T
   4    -84.5204849 -0.621675E-05  0.546E-03    2.55       2.4  T
   5    -84.5204858 -0.976569E-06  0.228E-03    2.55       5.8  T
   6    -84.5204859 -0.104083E-06  0.933E-04    2.55      14.2  T
   7    -84.5204859 -0.450946E-08  0.404E-04    2.55      32.8  T
     SCC iter.                  ...        0 min,  0.062 sec
     gradient                   ...        0 min,  0.007 sec
 * total energy  :   -83.4202130 Eh     change       -0.7038685E-03 Eh
   gradient norm :     0.0193686 Eh/α   predicted    -0.9016793E-03 (  28.10%)
   displ. norm   :     0.4846755 α      lambda       -0.1393695E-02
   maximum displ.:     0.1534284 α      in ANC's #19, #8, #13, ...

........................................................................
.............................. CYCLE   40 ..............................
........................................................................

 iter      E             dE          RMSdq      gap      omega  full diag
   1    -84.5110904 -0.845111E+02  0.113E-01    2.57       0.0  T
   2    -84.5110985 -0.813404E-05  0.663E-02    2.57       1.0  T
   3    -84.5110972  0.127270E-05  0.888E-03    2.57       1.5  T
   4    -84.5111001 -0.293145E-05  0.374E-03    2.57       3.5  T
   5    -84.5111005 -0.373526E-06  0.178E-03    2.57       7.4  T
   6    -84.5111005 -0.121254E-07  0.946E-04    2.57      14.0  T
   7    -84.5111006 -0.263910E-07  0.368E-04    2.57      36.0  T
     SCC iter.                  ...        0 min,  0.067 sec
     gradient                   ...        0 min,  0.007 sec
 * total energy  :   -83.4203551 Eh     change       -0.1421108E-03 Eh
   gradient norm :     0.0327080 Eh/α   predicted    -0.8605449E-03 ( 505.55%)
   displ. norm   :     0.2493139 α      lambda       -0.1561995E-02
   maximum displ.:     0.0984257 α      in ANC's #8, #5, #1, ...

........................................................................
.............................. CYCLE   41 ..............................
........................................................................

 iter      E             dE          RMSdq      gap      omega  full diag
   1    -84.5192418 -0.845192E+02  0.555E-02    2.60       0.0  T
   2    -84.5192509 -0.904457E-05  0.324E-02    2.58       1.0  T
   3    -84.5192510 -0.123276E-06  0.802E-03    2.58       1.7  T
   4    -84.5192519 -0.897904E-06  0.329E-03    2.58       4.0  T
   5    -84.5192521 -0.256930E-06  0.145E-03    2.58       9.1  T
   6    -84.5192522 -0.296059E-07  0.770E-04    2.58      17.2  T
   7    -84.5192522 -0.860830E-08  0.393E-04    2.58      33.7  T
     SCC iter.                  ...        0 min,  0.062 sec
     gradient                   ...        0 min,  0.008 sec
 * total energy  :   -83.4212128 Eh     change       -0.8577407E-03 Eh
   gradient norm :     0.0157676 Eh/α   predicted    -0.8295431E-03 (  -3.29%)
   displ. norm   :     0.4412553 α      lambda       -0.1124718E-02
   maximum displ.:     0.1614875 α      in ANC's #5, #8, #1, ...

........................................................................
.............................. CYCLE   42 ..............................
........................................................................

 iter      E             dE          RMSdq      gap      omega  full diag
   1    -84.5219271 -0.845219E+02  0.907E-02    2.52       0.0  T
   2    -84.5219546 -0.274855E-04  0.535E-02    2.55       1.0  T
   3    -84.5219318  0.227126E-04  0.260E-02    2.55       1.0  T
   4    -84.5219580 -0.261299E-04  0.830E-03    2.55       1.6  T
   5    -84.5219609 -0.289886E-05  0.204E-03    2.55       6.5  T
   6    -84.5219609 -0.550324E-07  0.107E-03    2.55      12.3  T
   7    -84.5219609 -0.997287E-08  0.394E-04    2.55      33.6  T
   8    -84.5219609 -0.114358E-08  0.158E-04    2.55      83.6  T
     SCC iter.                  ...        0 min,  0.063 sec
     gradient                   ...        0 min,  0.015 sec
 * total energy  :   -83.4215593 Eh     change       -0.3464856E-03 Eh
   gradient norm :     0.0229429 Eh/α   predicted    -0.6718572E-03 (  93.91%)
   displ. norm   :     0.3767083 α      lambda       -0.1258402E-02
   maximum displ.:     0.1441634 α      in ANC's #8, #5, #1, ...
 * RMSD in coord.:     1.2692575 α      energy gain  -0.1790272E-01 Eh

generating ANC from exact Hessian ...
Using Lindh-Hessian (1995)
 Shifting diagonal of input Hessian by   1.010447571365235E-002
 Lowest  eigenvalues of input Hessian
    0.010000    0.000000    0.000000    0.000000    0.000000    0.000000
    0.000000    0.010146    0.010161    0.010266    0.010326    0.010374
    0.010459    0.010549    0.010735    0.010845    0.010982    0.011152
 Highest eigenvalues
    1.945617    2.018868    2.111530    2.178557    2.330949    2.347879
 

........................................................................
.............................. CYCLE   43 ..............................
........................................................................

 iter      E             dE          RMSdq      gap      omega  full diag
   1    -84.5277732 -0.845278E+02  0.840E-02    2.58       0.0  T
   2    -84.5278039 -0.306862E-04  0.491E-02    2.56       1.0  T
   3    -84.5278017  0.220753E-05  0.153E-02    2.56       1.0  T
   4    -84.5278043 -0.255896E-05  0.625E-03    2.55       2.1  T
   5    -84.5278060 -0.177599E-05  0.193E-03    2.55       6.9  T
   6    -84.5278061 -0.591089E-07  0.105E-03    2.56      12.7  T
   7    -84.5278061 -0.194355E-07  0.394E-04    2.56      33.6  T
   8    -84.5278061 -0.227101E-08  0.134E-04    2.56      99.2  T
     SCC iter.                  ...        0 min,  0.072 sec
     gradient                   ...        0 min,  0.003 sec
 * total energy  :   -83.4221112 Eh     change       -0.5518924E-03 Eh
   gradient norm :     0.0170025 Eh/α   predicted     0.0000000E+00 (-100.00%)
   displ. norm   :     0.2479143 α      lambda       -0.1329692E-02
   maximum displ.:     0.1699951 α      in ANC's #8, #9, #12, ...

........................................................................
.............................. CYCLE   44 ..............................
........................................................................

 iter      E             dE          RMSdq      gap      omega  full diag
   1    -84.5242464 -0.845242E+02  0.113E-01    2.55       0.0  T
   2    -84.5242577 -0.112444E-04  0.682E-02    2.53       1.0  T
   3    -84.5242212  0.364630E-04  0.293E-02    2.53       1.0  T
   4    -84.5242647 -0.434812E-04  0.488E-03    2.53       2.7  T
   5    -84.5242651 -0.386259E-06  0.262E-03    2.53       5.1  T
   6    -84.5242652 -0.794361E-07  0.126E-03    2.53      10.5  T
   7    -84.5242652 -0.379736E-07  0.313E-04    2.53      42.4  T
   8    -84.5242652 -0.144799E-08  0.107E-04    2.53     124.3  T
     SCC iter.                  ...        0 min,  0.077 sec
     gradient                   ...        0 min,  0.007 sec
 * total energy  :   -83.4228912 Eh     change       -0.7800057E-03 Eh
   gradient norm :     0.0141732 Eh/α   predicted    -0.7057184E-03 (  -9.52%)
   displ. norm   :     0.2329865 α      lambda       -0.7829639E-03
   maximum displ.:     0.0966923 α      in ANC's #12, #15, #18, ...

........................................................................
.............................. CYCLE   45 ..............................
........................................................................

 iter      E             dE          RMSdq      gap      omega  full diag
   1    -84.5232650 -0.845233E+02  0.689E-02    2.52       0.0  T
   2    -84.5232690 -0.398958E-05  0.414E-02    2.51       1.0  T
   3    -84.5232622  0.679977E-05  0.125E-02    2.51       1.1  T
   4    -84.5232704 -0.828136E-05  0.363E-03    2.51       3.6  T
   5    -84.5232708 -0.388891E-06  0.169E-03    2.51       7.8  T
   6    -84.5232708 -0.189444E-07  0.740E-04    2.51      17.9  T
   7    -84.5232709 -0.664339E-08  0.235E-04    2.51      56.3  T
     SCC iter.                  ...        0 min,  0.062 sec
     gradient                   ...        0 min,  0.009 sec
 * total energy  :   -83.4233318 Eh     change       -0.4405239E-03 Eh
   gradient norm :     0.0136240 Eh/α   predicted    -0.4127423E-03 (  -6.31%)
   displ. norm   :     0.2845411 α      lambda       -0.6459526E-03
   maximum displ.:     0.1073906 α      in ANC's #8, #9, #10, ...

........................................................................
.............................. CYCLE   46 ..............................
........................................................................

 iter      E             dE          RMSdq      gap      omega  full diag
   1    -84.5205187 -0.845205E+02  0.753E-02    2.51       0.0  T
   2    -84.5205226 -0.388185E-05  0.457E-02    2.50       1.0  T
   3    -84.5205178  0.480680E-05  0.111E-02    2.50       1.2  T
   4    -84.5205246 -0.683944E-05  0.267E-03    2.50       5.0  T
   5    -84.5205247 -0.616255E-07  0.158E-03    2.50       8.4  T
   6    -84.5205247 -0.144508E-07  0.771E-04    2.50      17.2  T
   7    -84.5205247 -0.221536E-07  0.228E-04    2.50      58.1  T
     SCC iter.                  ...        0 min,  0.057 sec
     gradient                   ...        0 min,  0.007 sec
 * total energy  :   -83.4237501 Eh     change       -0.4183238E-03 Eh
   gradient norm :     0.0235957 Eh/α   predicted    -0.3491261E-03 ( -16.54%)
   displ. norm   :     0.3910661 α      lambda       -0.1203644E-02
   maximum displ.:     0.1712765 α      in ANC's #7, #10, #15, ...

........................................................................
.............................. CYCLE   47 ..............................
........................................................................

 iter      E             dE          RMSdq      gap      omega  full diag
   1    -84.5230727 -0.845231E+02  0.901E-02    2.50       0.0  T
   2    -84.5230811 -0.840122E-05  0.537E-02    2.49       1.0  T
   3    -84.5230620  0.190613E-04  0.196E-02    2.49       1.0  T
   4    -84.5230845 -0.225213E-04  0.480E-03    2.49       2.8  T
   5    -84.5230851 -0.566740E-06  0.228E-03    2.49       5.8  T
   6    -84.5230852 -0.875842E-07  0.109E-03    2.49      12.1  T
   7    -84.5230852 -0.143981E-07  0.477E-04    2.49      27.8  T
   8    -84.5230852 -0.287780E-08  0.155E-04    2.49      85.4  T
     SCC iter.                  ...        0 min,  0.068 sec
     gradient                   ...        0 min,  0.009 sec
 * total energy  :   -83.4244452 Eh     change       -0.6951244E-03 Eh
   gradient norm :     0.0170109 Eh/α   predicted    -0.6938623E-03 (  -0.18%)
   displ. norm   :     0.4636341 α      lambda       -0.1491876E-02
   maximum displ.:     0.1694281 α      in ANC's #8, #10, #7, ...

........................................................................
.............................. CYCLE   48 ..............................
........................................................................

 iter      E             dE          RMSdq      gap      omega  full diag
   1    -84.5228355 -0.845228E+02  0.124E-01    2.48       0.0  T
   2    -84.5228489 -0.133506E-04  0.745E-02    2.48       1.0  T
   3    -84.5228418  0.710038E-05  0.151E-02    2.48       1.0  T
   4    -84.5228530 -0.112769E-04  0.511E-03    2.48       2.6  T
   5    -84.5228536 -0.561681E-06  0.204E-03    2.48       6.5  T
   6    -84.5228536 -0.305714E-07  0.104E-03    2.48      12.7  T
   7    -84.5228536 -0.133071E-07  0.536E-04    2.48      24.7  T
   8    -84.5228537 -0.862256E-08  0.149E-04    2.48      88.7  T
     SCC iter.                  ...        0 min,  0.066 sec
     gradient                   ...        0 min,  0.003 sec
 * total energy  :   -83.4252301 Eh     change       -0.7849291E-03 Eh
   gradient norm :     0.0243811 Eh/α   predicted    -0.9062838E-03 (  15.46%)
   displ. norm   :     0.4660723 α      lambda       -0.1463083E-02
   maximum displ.:     0.1756493 α      in ANC's #7, #9, #12, ...

........................................................................
.............................. CYCLE   49 ..............................
........................................................................

 iter      E             dE          RMSdq      gap      omega  full diag
   1    -84.5168046 -0.845168E+02  0.126E-01    2.45       0.0  T
   2    -84.5168147 -0.101814E-04  0.759E-02    2.45       1.0  T
   3    -84.5168035  0.112645E-04  0.180E-02    2.45       1.0  T
   4    -84.5168204 -0.168931E-04  0.585E-03    2.45       2.3  T
   5    -84.5168208 -0.436647E-06  0.335E-03    2.45       4.0  T
   6    -84.5168209 -0.789059E-07  0.135E-03    2.45       9.8  T
   7    -84.5168210 -0.656652E-07  0.309E-04    2.45      42.9  T
   8    -84.5168210 -0.118206E-08  0.150E-04    2.45      88.2  T
     SCC iter.                  ...        0 min,  0.078 sec
     gradient                   ...        0 min,  0.006 sec
 * total energy  :   -83.4257647 Eh     change       -0.5345661E-03 Eh
   gradient norm :     0.0371419 Eh/α   predicted    -0.8904514E-03 (  66.57%)
   displ. norm   :     0.3115008 α      lambda       -0.2891006E-02
   maximum displ.:     0.1136842 α      in ANC's #26, #7, #8, ...

........................................................................
.............................. CYCLE   50 ..............................
........................................................................

 iter      E             dE          RMSdq      gap      omega  full diag
   1    -84.5341111 -0.845341E+02  0.126E-01    2.45       0.0  T
   2    -84.5341431 -0.319907E-04  0.740E-02    2.48       1.0  T
   3    -84.5341419  0.117008E-05  0.173E-02    2.48       1.0  T
   4    -84.5341485 -0.655117E-05  0.692E-03    2.49       1.9  T
   5    -84.5341492 -0.745064E-06  0.371E-03    2.48       3.6  T
   6    -84.5341497 -0.417076E-06  0.157E-03    2.48       8.4  T
   7    -84.5341497 -0.377678E-07  0.708E-04    2.48      18.7  T
   8    -84.5341497 -0.261537E-08  0.251E-04    2.48      52.7  T
     SCC iter.                  ...        0 min,  0.078 sec
     gradient                   ...        0 min,  0.005 sec
 * total energy  :   -83.4257859 Eh     change       -0.2125009E-04 Eh
   gradient norm :     0.0453765 Eh/α   predicted    -0.1585766E-02 (7362.40%)
   displ. norm   :     0.3354503 α      lambda       -0.3214166E-02
   maximum displ.:     0.1527196 α      in ANC's #8, #6, #10, ...

........................................................................
.............................. CYCLE   51 ..............................
........................................................................

 iter      E             dE          RMSdq      gap      omega  full diag
   1    -84.5240489 -0.845240E+02  0.118E-01    2.48       0.0  T
   2    -84.5240726 -0.237283E-04  0.701E-02    2.48       1.0  T
   3    -84.5240566  0.160437E-04  0.210E-02    2.48       1.0  T
   4    -84.5240791 -0.224886E-04  0.765E-03    2.48       1.7  T
   5    -84.5240806 -0.153496E-05  0.362E-03    2.48       3.7  T
   6    -84.5240809 -0.320833E-06  0.165E-03    2.48       8.0  T
   7    -84.5240810 -0.459543E-07  0.764E-04    2.48      17.3  T
   8    -84.5240810 -0.582695E-08  0.197E-04    2.48      67.1  T
     SCC iter.                  ...        0 min,  0.077 sec
     gradient                   ...        0 min,  0.006 sec
 * total energy  :   -83.4270987 Eh     change       -0.1312793E-02 Eh
   gradient norm :     0.0313151 Eh/α   predicted    -0.1787926E-02 (  36.19%)
   displ. norm   :     0.3370655 α      lambda       -0.2843606E-02
   maximum displ.:     0.1413589 α      in ANC's #36, #19, #6, ...

........................................................................
.............................. CYCLE   52 ..............................
........................................................................

 iter      E             dE          RMSdq      gap      omega  full diag
   1    -84.5234042 -0.845234E+02  0.131E-01    2.48       0.0  T
   2    -84.5234277 -0.235091E-04  0.784E-02    2.49       1.0  T
   3    -84.5234032  0.245237E-04  0.285E-02    2.49       1.0  T
   4    -84.5234368 -0.336278E-04  0.824E-03    2.49       1.6  T
   5    -84.5234384 -0.160914E-05  0.406E-03    2.49       3.3  T
   6    -84.5234385 -0.126950E-06  0.184E-03    2.49       7.2  T
   7    -84.5234386 -0.735591E-07  0.669E-04    2.49      19.8  T
   8    -84.5234386 -0.595915E-08  0.192E-04    2.49      69.0  T
     SCC iter.                  ...        0 min,  0.071 sec
     gradient                   ...        0 min,  0.008 sec
 * total energy  :   -83.4266058 Eh     change        0.4929006E-03 Eh
   gradient norm :     0.0549075 Eh/α   predicted    -0.1583336E-02 (-421.23%)
   displ. norm   :     0.2526283 α      lambda       -0.3464863E-02
   maximum displ.:     0.0901388 α      in ANC's #7, #26, #9, ...

........................................................................
.............................. CYCLE   53 ..............................
........................................................................

 iter      E             dE          RMSdq      gap      omega  full diag
   1    -84.5251222 -0.845251E+02  0.885E-02    2.49       0.0  T
   2    -84.5251322 -0.100020E-04  0.521E-02    2.49       1.0  T
   3    -84.5251180  0.142785E-04  0.199E-02    2.48       1.0  T
   4    -84.5251356 -0.175869E-04  0.497E-03    2.49       2.7  T
   5    -84.5251361 -0.527286E-06  0.190E-03    2.49       7.0  T
   6    -84.5251361 -0.466182E-07  0.926E-04    2.49      14.3  T
   7    -84.5251361 -0.793378E-08  0.453E-04    2.49      29.3  T
     SCC iter.                  ...        0 min,  0.062 sec
     gradient                   ...        0 min,  0.009 sec
 * total energy  :   -83.4284823 Eh     change       -0.1876430E-02 Eh
   gradient norm :     0.0185797 Eh/α   predicted    -0.1842995E-02 (  -1.78%)
   displ. norm   :     0.4828355 α      lambda       -0.1438227E-02
   maximum displ.:     0.1954350 α      in ANC's #7, #6, #24, ...

........................................................................
.............................. CYCLE   54 ..............................
........................................................................

 iter      E             dE          RMSdq      gap      omega  full diag
   1    -84.5206916 -0.845207E+02  0.119E-01    2.47       0.0  T
   2    -84.5207176 -0.259994E-04  0.704E-02    2.49       1.0  T
   3    -84.5207006  0.170368E-04  0.218E-02    2.49       1.0  T
   4    -84.5207204 -0.197806E-04  0.740E-03    2.49       1.8  T
   5    -84.5207229 -0.254762E-05  0.277E-03    2.49       4.8  T
   6    -84.5207231 -0.125631E-06  0.146E-03    2.49       9.0  T
   7    -84.5207231 -0.575041E-07  0.542E-04    2.49      24.4  T
   8    -84.5207231 -0.148215E-08  0.160E-04    2.49      82.7  T
     SCC iter.                  ...        0 min,  0.081 sec
     gradient                   ...        0 min,  0.011 sec
 * total energy  :   -83.4291635 Eh     change       -0.6811842E-03 Eh
   gradient norm :     0.0268479 Eh/α   predicted    -0.8867624E-03 (  30.18%)
   displ. norm   :     0.3965297 α      lambda       -0.1432390E-02
   maximum displ.:     0.1703004 α      in ANC's #6, #11, #7, ...

........................................................................
.............................. CYCLE   55 ..............................
........................................................................

 iter      E             dE          RMSdq      gap      omega  full diag
   1    -84.5260161 -0.845260E+02  0.762E-02    2.51       0.0  T
   2    -84.5260254 -0.923741E-05  0.445E-02    2.52       1.0  T
   3    -84.5260185  0.693000E-05  0.153E-02    2.52       1.0  T
   4    -84.5260273 -0.882363E-05  0.503E-03    2.52       2.6  T
   5    -84.5260280 -0.750061E-06  0.201E-03    2.52       6.6  T
   6    -84.5260281 -0.475160E-07  0.102E-03    2.52      13.0  T
   7    -84.5260281 -0.220419E-07  0.434E-04    2.52      30.5  T
   8    -84.5260281 -0.126734E-08  0.102E-04    2.52     130.0  T
     SCC iter.                  ...        0 min,  0.070 sec
     gradient                   ...        0 min,  0.012 sec
 * total energy  :   -83.4301202 Eh     change       -0.9567951E-03 Eh
   gradient norm :     0.0185859 Eh/α   predicted    -0.8288075E-03 ( -13.38%)
   displ. norm   :     0.5518116 α      lambda       -0.2060349E-02
   maximum displ.:     0.2414354 α      in ANC's #6, #7, #1, ...

........................................................................
.............................. CYCLE   56 ..............................
........................................................................

 iter      E             dE          RMSdq      gap      omega  full diag
   1    -84.5306767 -0.845307E+02  0.119E-01    2.55       0.0  T
   2    -84.5307253 -0.486678E-04  0.683E-02    2.59       1.0  T
   3    -84.5307124  0.129007E-04  0.282E-02    2.58       1.0  T
   4    -84.5307308 -0.183781E-04  0.113E-02    2.59       1.2  T
   5    -84.5307354 -0.460682E-05  0.399E-03    2.58       3.3  T
   6    -84.5307355 -0.906152E-07  0.236E-03    2.58       5.6  T
   7    -84.5307356 -0.125002E-06  0.715E-04    2.58      18.5  T
   8    -84.5307356 -0.377794E-08  0.198E-04    2.58      67.0  T
     SCC iter.                  ...        0 min,  0.078 sec
     gradient                   ...        0 min,  0.009 sec
 * total energy  :   -83.4308272 Eh     change       -0.7069662E-03 Eh
   gradient norm :     0.0292916 Eh/α   predicted    -0.1343860E-02 (  90.09%)
   displ. norm   :     0.3442925 α      lambda       -0.1277315E-02
   maximum displ.:     0.1588625 α      in ANC's #6, #7, #11, ...

........................................................................
.............................. CYCLE   57 ..............................
........................................................................

 iter      E             dE          RMSdq      gap      omega  full diag
   1    -84.5258372 -0.845258E+02  0.776E-02    2.59       0.0  T
   2    -84.5258614 -0.242016E-04  0.448E-02    2.62       1.0  T
   3    -84.5258459  0.154746E-04  0.248E-02    2.62       1.0  T
   4    -84.5258661 -0.201207E-04  0.730E-03    2.62       1.8  T
   5    -84.5258680 -0.195494E-05  0.223E-03    2.62       5.9  T
   6    -84.5258681 -0.692406E-07  0.117E-03    2.62      11.3  T
   7    -84.5258681 -0.427937E-07  0.454E-04    2.62      29.2  T
   8    -84.5258681 -0.108841E-08  0.147E-04    2.62      90.0  T
     SCC iter.                  ...        0 min,  0.073 sec
     gradient                   ...        0 min,  0.006 sec
 * total energy  :   -83.4315572 Eh     change       -0.7299939E-03 Eh
   gradient norm :     0.0128190 Eh/α   predicted    -0.7143633E-03 (  -2.14%)
   displ. norm   :     0.2715822 α      lambda       -0.1087561E-02
   maximum displ.:     0.1098340 α      in ANC's #18, #9, #17, ...

........................................................................
.............................. CYCLE   58 ..............................
........................................................................

 iter      E             dE          RMSdq      gap      omega  full diag
   1    -84.5452648 -0.845453E+02  0.975E-02    2.70       0.0  T
   2    -84.5453530 -0.881452E-04  0.555E-02    2.76       1.0  T
   3    -84.5453428  0.101683E-04  0.360E-02    2.76       1.0  T
   4    -84.5453661 -0.232487E-04  0.139E-02    2.77       1.0  T
   5    -84.5453729 -0.686911E-05  0.379E-03    2.77       3.5  T
   6    -84.5453730 -0.526081E-07  0.207E-03    2.77       6.4  T
   7    -84.5453730 -0.617807E-07  0.752E-04    2.77      17.6  T
   8    -84.5453730 -0.592456E-08  0.253E-04    2.77      52.4  T
     SCC iter.                  ...        0 min,  0.070 sec
     gradient                   ...        0 min,  0.019 sec
 * total energy  :   -83.4299010 Eh     change        0.1656226E-02 Eh
   gradient norm :     0.0600496 Eh/α   predicted    -0.5838894E-03 (-135.25%)
   displ. norm   :     0.1879967 α      lambda       -0.4133046E-02
   maximum displ.:     0.0758250 α      in ANC's #12, #23, #11, ...

........................................................................
.............................. CYCLE   59 ..............................
........................................................................

 iter      E             dE          RMSdq      gap      omega  full diag
   1    -84.5314346 -0.845314E+02  0.706E-02    2.74       0.0  T
   2    -84.5314411 -0.650006E-05  0.425E-02    2.74       1.0  T
   3    -84.5314401  0.928782E-06  0.104E-02    2.74       1.3  T
   4    -84.5314442 -0.408838E-05  0.472E-03    2.74       2.8  T
   5    -84.5314446 -0.347823E-06  0.228E-03    2.74       5.8  T
   6    -84.5314446 -0.337867E-07  0.885E-04    2.74      15.0  T
   7    -84.5314446 -0.189475E-07  0.282E-04    2.74      47.0  T
     SCC iter.                  ...        0 min,  0.064 sec
     gradient                   ...        0 min,  0.019 sec
 * total energy  :   -83.4320097 Eh     change       -0.2108668E-02 Eh
   gradient norm :     0.0096488 Eh/α   predicted    -0.2139562E-02 (   1.47%)
   displ. norm   :     0.3346076 α      lambda       -0.6317878E-03
   maximum displ.:     0.1580365 α      in ANC's #6, #11, #7, ...

........................................................................
.............................. CYCLE   60 ..............................
........................................................................

 iter      E             dE          RMSdq      gap      omega  full diag
   1    -84.5252865 -0.845253E+02  0.762E-02    2.77       0.0  T
   2    -84.5253133 -0.268571E-04  0.437E-02    2.79       1.0  T
   3    -84.5252996  0.137803E-04  0.254E-02    2.79       1.0  T
   4    -84.5253189 -0.193840E-04  0.844E-03    2.80       1.6  T
   5    -84.5253212 -0.221627E-05  0.239E-03    2.79       5.5  T
   6    -84.5253212 -0.493410E-07  0.135E-03    2.79       9.8  T
   7    -84.5253213 -0.451409E-07  0.532E-04    2.79      24.9  T
   8    -84.5253213 -0.126165E-08  0.143E-04    2.79      92.4  T
     SCC iter.                  ...        0 min,  0.081 sec
     gradient                   ...        0 min,  0.009 sec
 * total energy  :   -83.4321542 Eh     change       -0.1445264E-03 Eh
   gradient norm :     0.0166305 Eh/α   predicted    -0.3512634E-03 ( 143.04%)
   displ. norm   :     0.2292105 α      lambda       -0.5889924E-03
   maximum displ.:     0.0912036 α      in ANC's #6, #23, #2, ...

........................................................................
.............................. CYCLE   61 ..............................
........................................................................

 iter      E             dE          RMSdq      gap      omega  full diag
   1    -84.5243360 -0.845243E+02  0.556E-02    2.83       0.0  T
   2    -84.5243714 -0.354649E-04  0.307E-02    2.87       1.0  T
   3    -84.5243700  0.147392E-05  0.199E-02    2.87       1.0  T
   4    -84.5243756 -0.563472E-05  0.858E-03    2.87       1.5  T
   5    -84.5243782 -0.258446E-05  0.138E-03    2.87       9.6  T
   6    -84.5243782 -0.231106E-07  0.780E-04    2.87      17.0  T
   7    -84.5243782 -0.105452E-07  0.281E-04    2.87      47.2  T
     SCC iter.                  ...        0 min,  0.053 sec
     gradient                   ...        0 min,  0.021 sec
 * total energy  :   -83.4325082 Eh     change       -0.3540130E-03 Eh
   gradient norm :     0.0093454 Eh/α   predicted    -0.3099709E-03 ( -12.44%)
   displ. norm   :     0.2752291 α      lambda       -0.5357597E-03
   maximum displ.:     0.1165943 α      in ANC's #9, #2, #5, ...

........................................................................
.............................. CYCLE   62 ..............................
........................................................................

 iter      E             dE          RMSdq      gap      omega  full diag
   1    -84.5310567 -0.845311E+02  0.493E-02    2.92       0.0  T
   2    -84.5310842 -0.275052E-04  0.276E-02    2.95       1.0  T
   3    -84.5310827  0.153683E-05  0.176E-02    2.95       1.0  T
   4    -84.5310867 -0.395362E-05  0.738E-03    2.95       1.8  T
   5    -84.5310888 -0.212463E-05  0.132E-03    2.95      10.0  T
   6    -84.5310888 -0.217480E-07  0.697E-04    2.95      19.0  T
   7    -84.5310888 -0.794508E-08  0.275E-04    2.95      48.2  T
     SCC iter.                  ...        0 min,  0.058 sec
     gradient                   ...        0 min,  0.020 sec
 * total energy  :   -83.4327213 Eh     change       -0.2130664E-03 Eh
   gradient norm :     0.0095130 Eh/α   predicted    -0.2881736E-03 (  35.25%)
   displ. norm   :     0.3336415 α      lambda       -0.3756900E-03
   maximum displ.:     0.1647802 α      in ANC's #6, #11, #20, ...

........................................................................
.............................. CYCLE   63 ..............................
........................................................................

 iter      E             dE          RMSdq      gap      omega  full diag
   1    -84.5271155 -0.845271E+02  0.604E-02    2.99       0.0  T
   2    -84.5271401 -0.245379E-04  0.341E-02    3.02       1.0  T
   3    -84.5271334  0.669767E-05  0.222E-02    3.02       1.0  T
   4    -84.5271445 -0.111096E-04  0.743E-03    3.02       1.8  T
   5    -84.5271464 -0.192859E-05  0.148E-03    3.02       9.0  T
   6    -84.5271464 -0.207899E-07  0.870E-04    3.02      15.2  T
   7    -84.5271465 -0.139248E-07  0.300E-04    3.02      44.1  T
     SCC iter.                  ...        0 min,  0.059 sec
     gradient                   ...        0 min,  0.013 sec
 * total energy  :   -83.4329852 Eh     change       -0.2639635E-03 Eh
   gradient norm :     0.0061046 Eh/α   predicted    -0.2087574E-03 ( -20.91%)
   displ. norm   :     0.3710699 α      lambda       -0.2759165E-03
   maximum displ.:     0.1967320 α      in ANC's #6, #11, #2, ...

........................................................................
.............................. CYCLE   64 ..............................
........................................................................

 iter      E             dE          RMSdq      gap      omega  full diag
   1    -84.5239086 -0.845239E+02  0.530E-02    3.04       0.0  T
   2    -84.5239140 -0.533717E-05  0.313E-02    3.05       1.0  T
   3    -84.5239068  0.718740E-05  0.144E-02    3.05       1.0  T
   4    -84.5239154 -0.862251E-05  0.375E-03    3.05       3.5  T
   5    -84.5239158 -0.433349E-06  0.134E-03    3.05       9.9  T
   6    -84.5239159 -0.206669E-07  0.699E-04    3.05      18.9  T
   7    -84.5239159 -0.101106E-07  0.281E-04    3.05      47.1  T
     SCC iter.                  ...        0 min,  0.062 sec
     gradient                   ...        0 min,  0.005 sec
 * total energy  :   -83.4331574 Eh     change       -0.1721916E-03 Eh
   gradient norm :     0.0067729 Eh/α   predicted    -0.1569582E-03 (  -8.85%)
   displ. norm   :     0.2848268 α      lambda       -0.2263292E-03
   maximum displ.:     0.1400179 α      in ANC's #6, #2, #5, ...

........................................................................
.............................. CYCLE   65 ..............................
........................................................................

 iter      E             dE          RMSdq      gap      omega  full diag
   1    -84.5260842 -0.845261E+02  0.392E-02    3.05       0.0  T
   2    -84.5260979 -0.137437E-04  0.217E-02    3.03       1.0  T
   3    -84.5260975  0.445216E-06  0.104E-02    3.03       1.3  T
   4    -84.5260975 -0.517069E-07  0.509E-03    3.02       2.6  T
   5    -84.5260987 -0.123911E-05  0.811E-04    3.03      16.3  T
   6    -84.5260988 -0.868029E-08  0.464E-04    3.03      28.6  T
   7    -84.5260988 -0.282377E-08  0.180E-04    3.03      73.6  T
     SCC iter.                  ...        0 min,  0.068 sec
     gradient                   ...        0 min,  0.010 sec
 * total energy  :   -83.4333217 Eh     change       -0.1642886E-03 Eh
   gradient norm :     0.0073099 Eh/α   predicted    -0.1223458E-03 ( -25.53%)
   displ. norm   :     0.4658375 α      lambda       -0.3604864E-03
   maximum displ.:     0.2169935 α      in ANC's #6, #2, #5, ...

........................................................................
.............................. CYCLE   66 ..............................
........................................................................

 iter      E             dE          RMSdq      gap      omega  full diag
   1    -84.5290369 -0.845290E+02  0.675E-02    2.99       0.0  T
   2    -84.5290655 -0.285876E-04  0.378E-02    2.96       1.0  T
   3    -84.5290574  0.804651E-05  0.220E-02    2.96       1.0  T
   4    -84.5290683 -0.109026E-04  0.853E-03    2.95       1.6  T
   5    -84.5290710 -0.270287E-05  0.139E-03    2.96       9.5  T
   6    -84.5290711 -0.155177E-07  0.830E-04    2.96      16.0  T
   7    -84.5290711 -0.849073E-08  0.276E-04    2.96      48.0  T
     SCC iter.                  ...        0 min,  0.064 sec
     gradient                   ...        0 min,  0.005 sec
 * total energy  :   -83.4335719 Eh     change       -0.2502134E-03 Eh
   gradient norm :     0.0057905 Eh/α   predicted    -0.2193600E-03 ( -12.33%)
   displ. norm   :     0.4517772 α      lambda       -0.3053368E-03
   maximum displ.:     0.1849019 α      in ANC's #9, #6, #2, ...
 * RMSD in coord.:     0.7673348 α      energy gain  -0.1201258E-01 Eh

generating ANC from exact Hessian ...
Using Lindh-Hessian (1995)
 Shifting diagonal of input Hessian by   9.948828873396995E-003
 Lowest  eigenvalues of input Hessian
    0.000000    0.000000    0.000000    0.000000    0.000000    0.000000
    0.010000    0.010033    0.010143    0.010180    0.010291    0.010375
    0.010578    0.010747    0.010970    0.011114    0.011199    0.011328
 Highest eigenvalues
    1.953396    2.018056    2.108649    2.113222    2.322248    2.347959
 

........................................................................
.............................. CYCLE   67 ..............................
........................................................................

 iter      E             dE          RMSdq      gap      omega  full diag
   1    -84.5307911 -0.845308E+02  0.700E-02    2.91       0.0  T
   2    -84.5308418 -0.506695E-04  0.377E-02    2.86       1.0  T
   3    -84.5308375  0.430731E-05  0.245E-02    2.86       1.0  T
   4    -84.5308475 -0.100138E-04  0.964E-03    2.86       1.4  T
   5    -84.5308507 -0.319074E-05  0.175E-03    2.86       7.6  T
   6    -84.5308508 -0.525464E-07  0.946E-04    2.86      14.0  T
   7    -84.5308508 -0.119435E-07  0.385E-04    2.86      34.4  T
     SCC iter.                  ...        0 min,  0.049 sec
     gradient                   ...        0 min,  0.015 sec
 * total energy  :   -83.4337695 Eh     change       -0.1976212E-03 Eh
   gradient norm :     0.0099628 Eh/α   predicted     0.0000000E+00 (-100.00%)
   displ. norm   :     0.1112134 α      lambda       -0.3445593E-03
   maximum displ.:     0.0499193 α      in ANC's #40, #15, #43, ...

........................................................................
.............................. CYCLE   68 ..............................
........................................................................

 iter      E             dE          RMSdq      gap      omega  full diag
   1    -84.5305402 -0.845305E+02  0.404E-02    2.85       0.0  T
   2    -84.5305422 -0.193903E-05  0.248E-02    2.85       1.0  T
   3    -84.5305341  0.805796E-05  0.149E-02    2.85       1.0  T
   4    -84.5305440 -0.988263E-05  0.205E-03    2.85       6.5  T
   5    -84.5305441 -0.698726E-07  0.102E-03    2.85      13.0  T
   6    -84.5305441 -0.227217E-09  0.438E-04    2.85      30.2  T
   7    -84.5305441 -0.630060E-08  0.109E-04    2.85     121.5  T
     SCC iter.                  ...        0 min,  0.054 sec
     gradient                   ...        0 min,  0.011 sec
 * total energy  :   -83.4340157 Eh     change       -0.2461349E-03 Eh
   gradient norm :     0.0039871 Eh/α   predicted    -0.1744110E-03 ( -29.14%)
   displ. norm   :     0.1600326 α      lambda       -0.2149181E-03
   maximum displ.:     0.0707113 α      in ANC's #15, #6, #4, ...

........................................................................
.............................. CYCLE   69 ..............................
........................................................................

 iter      E             dE          RMSdq      gap      omega  full diag
   1    -84.5296928 -0.845297E+02  0.451E-02    2.85       0.0  T
   2    -84.5296948 -0.200774E-05  0.275E-02    2.85       1.0  T
   3    -84.5296882  0.660489E-05  0.132E-02    2.85       1.0  T
   4    -84.5296960 -0.779654E-05  0.228E-03    2.85       5.8  T
   5    -84.5296961 -0.132050E-06  0.100E-03    2.85      13.2  T
   6    -84.5296961  0.729429E-09  0.416E-04    2.85      31.8  T
   7    -84.5296961 -0.440170E-08  0.113E-04    2.85     117.0  T
     SCC iter.                  ...        0 min,  0.048 sec
     gradient                   ...        0 min,  0.008 sec
 * total energy  :   -83.4341477 Eh     change       -0.1320423E-03 Eh
   gradient norm :     0.0058530 Eh/α   predicted    -0.1102321E-03 ( -16.52%)
   displ. norm   :     0.1426481 α      lambda       -0.1292694E-03
   maximum displ.:     0.0528067 α      in ANC's #15, #6, #4, ...

........................................................................
.............................. CYCLE   70 ..............................
........................................................................

 iter      E             dE          RMSdq      gap      omega  full diag
   1    -84.5298935 -0.845299E+02  0.306E-02    2.84       0.0  T
   2    -84.5298943 -0.843995E-06  0.183E-02    2.85       1.0  T
   3    -84.5298941  0.178390E-06  0.312E-03    2.85       4.2  T
   4    -84.5298944 -0.283733E-06  0.142E-03    2.85       9.3  T
   5    -84.5298945 -0.674779E-07  0.567E-04    2.85      23.3  T
   6    -84.5298945 -0.362661E-08  0.284E-04    2.85      46.7  T
     SCC iter.                  ...        0 min,  0.032 sec
     gradient                   ...        0 min,  0.021 sec
 * total energy  :   -83.4342499 Eh     change       -0.1022198E-03 Eh
   gradient norm :     0.0061140 Eh/α   predicted    -0.6596417E-04 ( -35.47%)
   displ. norm   :     0.2881663 α      lambda       -0.2232719E-03
   maximum displ.:     0.1069491 α      in ANC's #18, #4, #6, ...

........................................................................
.............................. CYCLE   71 ..............................
........................................................................

 iter      E             dE          RMSdq      gap      omega  full diag
   1    -84.5300401 -0.845300E+02  0.560E-02    2.85       0.0  T
   2    -84.5300422 -0.204485E-05  0.332E-02    2.85       1.0  T
   3    -84.5300406  0.157390E-05  0.675E-03    2.85       2.0  T
   4    -84.5300425 -0.191258E-05  0.253E-03    2.85       5.2  T
   5    -84.5300427 -0.224920E-06  0.972E-04    2.85      13.6  T
   6    -84.5300428 -0.884654E-08  0.465E-04    2.85      28.5  T
     SCC iter.                  ...        0 min,  0.045 sec
     gradient                   ...        0 min,  0.009 sec
 * total energy  :   -83.4344087 Eh     change       -0.1587182E-03 Eh
   gradient norm :     0.0051328 Eh/α   predicted    -0.1209063E-03 ( -23.82%)
   displ. norm   :     0.3173096 α      lambda       -0.1742267E-03
   maximum displ.:     0.1201305 α      in ANC's #18, #6, #4, ...

........................................................................
.............................. CYCLE   72 ..............................
........................................................................

 iter      E             dE          RMSdq      gap      omega  full diag
   1    -84.5290578 -0.845291E+02  0.623E-02    2.86       0.0  T
   2    -84.5290593 -0.150577E-05  0.372E-02    2.86       1.0  T
   3    -84.5290584  0.876915E-06  0.563E-03    2.86       2.4  T
   4    -84.5290597 -0.133381E-05  0.218E-03    2.86       6.1  T
   5    -84.5290599 -0.119309E-06  0.108E-03    2.86      12.2  T
   6    -84.5290599 -0.483880E-08  0.418E-04    2.86      31.7  T
   7    -84.5290599 -0.573810E-08  0.118E-04    2.86     112.2  T
     SCC iter.                  ...        0 min,  0.052 sec
     gradient                   ...        0 min,  0.009 sec
 * total energy  :   -83.4345386 Eh     change       -0.1299342E-03 Eh
   gradient norm :     0.0072381 Eh/α   predicted    -0.9588496E-04 ( -26.20%)
   displ. norm   :     0.4459972 α      lambda       -0.2973782E-03
   maximum displ.:     0.1758370 α      in ANC's #18, #4, #2, ...

........................................................................
.............................. CYCLE   73 ..............................
........................................................................

 iter      E             dE          RMSdq      gap      omega  full diag
   1    -84.5297852 -0.845298E+02  0.788E-02    2.87       0.0  T
   2    -84.5297895 -0.428952E-05  0.464E-02    2.86       1.0  T
   3    -84.5297833  0.617530E-05  0.119E-02    2.87       1.1  T
   4    -84.5297904 -0.708431E-05  0.352E-03    2.86       3.8  T
   5    -84.5297908 -0.468922E-06  0.128E-03    2.86      10.4  T
   6    -84.5297908 -0.465477E-08  0.606E-04    2.86      21.8  T
   7    -84.5297908 -0.748271E-08  0.260E-04    2.86      51.0  T
     SCC iter.                  ...        0 min,  0.051 sec
     gradient                   ...        0 min,  0.005 sec
 * total energy  :   -83.4346736 Eh     change       -0.1350524E-03 Eh
   gradient norm :     0.0118285 Eh/α   predicted    -0.1782658E-03 (  32.00%)
   displ. norm   :     0.3955039 α      lambda       -0.3392072E-03
   maximum displ.:     0.1681316 α      in ANC's #6, #2, #4, ...

........................................................................
.............................. CYCLE   74 ..............................
........................................................................

 iter      E             dE          RMSdq      gap      omega  full diag
   1    -84.5279165 -0.845279E+02  0.731E-02    2.87       0.0  T
   2    -84.5279196 -0.313172E-05  0.437E-02    2.86       1.0  T
   3    -84.5279176  0.197876E-05  0.813E-03    2.86       1.6  T
   4    -84.5279202 -0.253204E-05  0.327E-03    2.86       4.0  T
   5    -84.5279205 -0.372116E-06  0.130E-03    2.86      10.2  T
   6    -84.5279205 -0.680113E-08  0.471E-04    2.86      28.1  T
   7    -84.5279205 -0.437188E-08  0.181E-04    2.86      73.3  T
     SCC iter.                  ...        0 min,  0.054 sec
     gradient                   ...        0 min,  0.003 sec
 * total energy  :   -83.4348785 Eh     change       -0.2048559E-03 Eh
   gradient norm :     0.0096881 Eh/α   predicted    -0.1961366E-03 (  -4.26%)
   displ. norm   :     0.1812430 α      lambda       -0.2830288E-03
   maximum displ.:     0.0803403 α      in ANC's #2, #6, #10, ...

........................................................................
.............................. CYCLE   75 ..............................
........................................................................

 iter      E             dE          RMSdq      gap      omega  full diag
   1    -84.5327086 -0.845327E+02  0.315E-02    2.86       0.0  T
   2    -84.5327143 -0.565996E-05  0.177E-02    2.85       1.0  T
   3    -84.5327138  0.461270E-06  0.801E-03    2.85       1.7  T
   4    -84.5327146 -0.744565E-06  0.322E-03    2.85       4.1  T
   5    -84.5327150 -0.417947E-06  0.925E-04    2.85      14.3  T
   6    -84.5327150 -0.124273E-07  0.494E-04    2.85      26.8  T
     SCC iter.                  ...        0 min,  0.048 sec
     gradient                   ...        0 min,  0.007 sec
 * total energy  :   -83.4350485 Eh     change       -0.1699854E-03 Eh
   gradient norm :     0.0065035 Eh/α   predicted    -0.1461681E-03 ( -14.01%)
   displ. norm   :     0.5127064 α      lambda       -0.2982580E-03
   maximum displ.:     0.2126466 α      in ANC's #6, #2, #4, ...

........................................................................
.............................. CYCLE   76 ..............................
........................................................................

 iter      E             dE          RMSdq      gap      omega  full diag
   1    -84.5297448 -0.845297E+02  0.826E-02    2.84       0.0  T
   2    -84.5297544 -0.956930E-05  0.486E-02    2.82       1.0  T
   3    -84.5297393  0.150993E-04  0.199E-02    2.83       1.0  T
   4    -84.5297563 -0.170003E-04  0.495E-03    2.82       2.7  T
   5    -84.5297573 -0.103698E-05  0.140E-03    2.82       9.5  T
   6    -84.5297573 -0.894353E-08  0.741E-04    2.82      17.9  T
   7    -84.5297574 -0.589186E-08  0.279E-04    2.82      47.4  T
     SCC iter.                  ...        0 min,  0.060 sec
     gradient                   ...        0 min,  0.007 sec
 * total energy  :   -83.4352654 Eh     change       -0.2169508E-03 Eh
   gradient norm :     0.0065797 Eh/α   predicted    -0.1883312E-03 ( -13.19%)
   displ. norm   :     0.4934878 α      lambda       -0.2819186E-03
   maximum displ.:     0.2205420 α      in ANC's #2, #4, #6, ...

........................................................................
.............................. CYCLE   77 ..............................
........................................................................

 iter      E             dE          RMSdq      gap      omega  full diag
   1    -84.5290578 -0.845291E+02  0.684E-02    2.81       0.0  T
   2    -84.5290641 -0.634336E-05  0.400E-02    2.80       1.0  T
   3    -84.5290597  0.442123E-05  0.120E-02    2.80       1.1  T
   4    -84.5290647 -0.497050E-05  0.397E-03    2.80       3.3  T
   5    -84.5290654 -0.664986E-06  0.123E-03    2.80      10.8  T
   6    -84.5290654 -0.120963E-07  0.711E-04    2.80      18.6  T
   7    -84.5290654 -0.683592E-08  0.222E-04    2.80      59.8  T
     SCC iter.                  ...        0 min,  0.060 sec
     gradient                   ...        0 min,  0.009 sec
 * total energy  :   -83.4354267 Eh     change       -0.1612990E-03 Eh
   gradient norm :     0.0086478 Eh/α   predicted    -0.1752875E-03 (   8.67%)
   displ. norm   :     0.3821333 α      lambda       -0.2054549E-03
   maximum displ.:     0.1870022 α      in ANC's #2, #6, #4, ...

........................................................................
.............................. CYCLE   78 ..............................
........................................................................

 iter      E             dE          RMSdq      gap      omega  full diag
   1    -84.5285713 -0.845286E+02  0.470E-02    2.79       0.0  T
   2    -84.5285734 -0.203405E-05  0.278E-02    2.78       1.0  T
   3    -84.5285688  0.457202E-05  0.107E-02    2.78       1.2  T
   4    -84.5285740 -0.516227E-05  0.220E-03    2.78       6.0  T
   5    -84.5285742 -0.182064E-06  0.790E-04    2.78      16.8  T
   6    -84.5285742 -0.366231E-08  0.448E-04    2.78      29.6  T
     SCC iter.                  ...        0 min,  0.045 sec
     gradient                   ...        0 min,  0.010 sec
 * total energy  :   -83.4355814 Eh     change       -0.1546369E-03 Eh
   gradient norm :     0.0062362 Eh/α   predicted    -0.1177285E-03 ( -23.87%)
   displ. norm   :     0.3396597 α      lambda       -0.3655462E-03
   maximum displ.:     0.1843293 α      in ANC's #2, #6, #13, ...

........................................................................
.............................. CYCLE   79 ..............................
........................................................................

 iter      E             dE          RMSdq      gap      omega  full diag
   1    -84.5386357 -0.845386E+02  0.523E-02    2.76       0.0  T
   2    -84.5386444 -0.863363E-05  0.305E-02    2.76       1.0  T
   3    -84.5386417  0.267610E-05  0.123E-02    2.76       1.1  T
   4    -84.5386452 -0.347760E-05  0.434E-03    2.75       3.1  T
   5    -84.5386460 -0.817323E-06  0.126E-03    2.76      10.5  T
   6    -84.5386460 -0.885822E-08  0.715E-04    2.76      18.5  T
   7    -84.5386460 -0.650834E-08  0.213E-04    2.76      62.1  T
     SCC iter.                  ...        0 min,  0.053 sec
     gradient                   ...        0 min,  0.010 sec
 * total energy  :   -83.4355976 Eh     change       -0.1620021E-04 Eh
   gradient norm :     0.0132003 Eh/α   predicted    -0.2038644E-03 (1158.41%)
   displ. norm   :     0.3424076 α      lambda       -0.3849985E-03
   maximum displ.:     0.1480184 α      in ANC's #2, #4, #18, ...

........................................................................
.............................. CYCLE   80 ..............................
........................................................................

 iter      E             dE          RMSdq      gap      omega  full diag
   1    -84.5322615 -0.845323E+02  0.611E-02    2.75       0.0  T
   2    -84.5322745 -0.130633E-04  0.359E-02    2.75       1.0  T
   3    -84.5322722  0.236246E-05  0.128E-02    2.75       1.0  T
   4    -84.5322750 -0.286818E-05  0.475E-03    2.75       2.8  T
   5    -84.5322762 -0.117814E-05  0.129E-03    2.75      10.3  T
   6    -84.5322762 -0.153355E-07  0.726E-04    2.75      18.2  T
   7    -84.5322762 -0.665804E-08  0.245E-04    2.75      54.2  T
     SCC iter.                  ...        0 min,  0.051 sec
     gradient                   ...        0 min,  0.008 sec
 * total energy  :   -83.4358188 Eh     change       -0.2212327E-03 Eh
   gradient norm :     0.0057852 Eh/α   predicted    -0.2150734E-03 (  -2.78%)
   displ. norm   :     0.3200859 α      lambda       -0.1112817E-03
   maximum displ.:     0.1655802 α      in ANC's #2, #4, #6, ...

........................................................................
.............................. CYCLE   81 ..............................
........................................................................

 iter      E             dE          RMSdq      gap      omega  full diag
   1    -84.5301717 -0.845302E+02  0.402E-02    2.74       0.0  T
   2    -84.5301740 -0.227113E-05  0.238E-02    2.73       1.0  T
   3    -84.5301686  0.536038E-05  0.113E-02    2.74       1.2  T
   4    -84.5301748 -0.620776E-05  0.221E-03    2.73       6.0  T
   5    -84.5301750 -0.179360E-06  0.756E-04    2.73      17.5  T
   6    -84.5301750 -0.169049E-08  0.430E-04    2.73      30.8  T
     SCC iter.                  ...        0 min,  0.036 sec
     gradient                   ...        0 min,  0.018 sec
 * total energy  :   -83.4358784 Eh     change       -0.5958708E-04 Eh
   gradient norm :     0.0053245 Eh/α   predicted    -0.6134567E-04 (   2.95%)
   displ. norm   :     0.2208521 α      lambda       -0.1160090E-03
   maximum displ.:     0.1327870 α      in ANC's #2, #4, #7, ...

........................................................................
.............................. CYCLE   82 ..............................
........................................................................

 iter      E             dE          RMSdq      gap      omega  full diag
   1    -84.5318615 -0.845319E+02  0.305E-02    2.73       0.0  T
   2    -84.5318626 -0.111829E-05  0.180E-02    2.73       1.0  T
   3    -84.5318617  0.873047E-06  0.492E-03    2.73       2.7  T
   4    -84.5318627 -0.982449E-06  0.181E-03    2.73       7.3  T
   5    -84.5318629 -0.145471E-06  0.579E-04    2.73      22.9  T
   6    -84.5318629 -0.182945E-08  0.317E-04    2.73      41.8  T
     SCC iter.                  ...        0 min,  0.047 sec
     gradient                   ...        0 min,  0.009 sec
 * total energy  :   -83.4359616 Eh     change       -0.8317509E-04 Eh
   gradient norm :     0.0035113 Eh/α   predicted    -0.6083703E-04 ( -26.86%)
   displ. norm   :     0.2862808 α      lambda       -0.1440768E-03
   maximum displ.:     0.1745597 α      in ANC's #2, #13, #4, ...

........................................................................
.............................. CYCLE   83 ..............................
........................................................................

 iter      E             dE          RMSdq      gap      omega  full diag
   1    -84.5348967 -0.845349E+02  0.485E-02    2.73       0.0  T
   2    -84.5349005 -0.377281E-05  0.283E-02    2.72       1.0  T
   3    -84.5348982  0.236313E-05  0.849E-03    2.72       1.6  T
   4    -84.5349007 -0.254463E-05  0.321E-03    2.72       4.1  T
   5    -84.5349012 -0.521961E-06  0.827E-04    2.72      16.0  T
   6    -84.5349012 -0.553561E-08  0.459E-04    2.72      28.9  T
     SCC iter.                  ...        0 min,  0.046 sec
     gradient                   ...        0 min,  0.007 sec
 * total energy  :   -83.4360485 Eh     change       -0.8689284E-04 Eh
   gradient norm :     0.0041998 Eh/α   predicted    -0.7794627E-04 ( -10.30%)
   displ. norm   :     0.3344826 α      lambda       -0.9321550E-04
   maximum displ.:     0.1982464 α      in ANC's #2, #4, #13, ...

........................................................................
.............................. CYCLE   84 ..............................
........................................................................

 iter      E             dE          RMSdq      gap      omega  full diag
   1    -84.5336862 -0.845337E+02  0.489E-02    2.72       0.0  T
   2    -84.5336877 -0.144758E-05  0.288E-02    2.72       1.0  T
   3    -84.5336861  0.162349E-05  0.627E-03    2.72       2.1  T
   4    -84.5336879 -0.187028E-05  0.211E-03    2.72       6.3  T
   5    -84.5336881 -0.178802E-06  0.774E-04    2.72      17.1  T
   6    -84.5336881 -0.176156E-08  0.361E-04    2.72      36.6  T
     SCC iter.                  ...        0 min,  0.050 sec
     gradient                   ...        0 min,  0.009 sec
 * total energy  :   -83.4361198 Eh     change       -0.7137944E-04 Eh
   gradient norm :     0.0046126 Eh/α   predicted    -0.5182355E-04 ( -27.40%)
   displ. norm   :     0.3801209 α      lambda       -0.1288487E-03
   maximum displ.:     0.2303074 α      in ANC's #2, #4, #13, ...

........................................................................
.............................. CYCLE   85 ..............................
........................................................................

 iter      E             dE          RMSdq      gap      omega  full diag
   1    -84.5341375 -0.845341E+02  0.657E-02    2.72       0.0  T
   2    -84.5341396 -0.205916E-05  0.386E-02    2.71       1.0  T
   3    -84.5341392  0.372694E-06  0.406E-03    2.71       3.3  T
   4    -84.5341398 -0.627058E-06  0.162E-03    2.71       8.2  T
   5    -84.5341399 -0.973544E-07  0.792E-04    2.71      16.7  T
   6    -84.5341399 -0.812082E-08  0.400E-04    2.71      33.1  T
     SCC iter.                  ...        0 min,  0.044 sec
     gradient                   ...        0 min,  0.009 sec
 * total energy  :   -83.4362064 Eh     change       -0.8652449E-04 Eh
   gradient norm :     0.0041788 Eh/α   predicted    -0.7373722E-04 ( -14.78%)
   displ. norm   :     0.3827848 α      lambda       -0.1222714E-03
   maximum displ.:     0.2229666 α      in ANC's #2, #4, #13, ...

........................................................................
.............................. CYCLE   86 ..............................
........................................................................

 iter      E             dE          RMSdq      gap      omega  full diag
   1    -84.5322965 -0.845323E+02  0.709E-02    2.71       0.0  T
   2    -84.5322995 -0.301219E-05  0.416E-02    2.71       1.0  T
   3    -84.5322987  0.835220E-06  0.574E-03    2.71       2.3  T
   4    -84.5322999 -0.120042E-05  0.231E-03    2.71       5.7  T
   5    -84.5323001 -0.196975E-06  0.103E-03    2.71      12.9  T
   6    -84.5323001 -0.153455E-07  0.462E-04    2.71      28.7  T
   7    -84.5323001 -0.323843E-08  0.193E-04    2.71      68.5  T
     SCC iter.                  ...        0 min,  0.049 sec
     gradient                   ...        0 min,  0.015 sec
 * total energy  :   -83.4362797 Eh     change       -0.7337735E-04 Eh
   gradient norm :     0.0041627 Eh/α   predicted    -0.7009786E-04 (  -4.47%)
   displ. norm   :     0.2229272 α      lambda       -0.8856839E-04
   maximum displ.:     0.1095660 α      in ANC's #2, #5, #13, ...

........................................................................
.............................. CYCLE   87 ..............................
........................................................................

 iter      E             dE          RMSdq      gap      omega  full diag
   1    -84.5336297 -0.845336E+02  0.437E-02    2.70       0.0  T
   2    -84.5336305 -0.835388E-06  0.258E-02    2.70       1.0  T
   3    -84.5336283  0.218488E-05  0.690E-03    2.70       1.9  T
   4    -84.5336308 -0.249288E-05  0.146E-03    2.70       9.1  T
   5    -84.5336309 -0.764527E-07  0.628E-04    2.70      21.1  T
   6    -84.5336309 -0.410353E-08  0.282E-04    2.70      47.0  T
     SCC iter.                  ...        0 min,  0.047 sec
     gradient                   ...        0 min,  0.004 sec
 * total energy  :   -83.4363365 Eh     change       -0.5671887E-04 Eh
   gradient norm :     0.0032188 Eh/α   predicted    -0.4648543E-04 ( -18.04%)
   displ. norm   :     0.1842216 α      lambda       -0.6564238E-04
   maximum displ.:     0.0880942 α      in ANC's #5, #2, #4, ...

........................................................................
.............................. CYCLE   88 ..............................
........................................................................

 iter      E             dE          RMSdq      gap      omega  full diag
   1    -84.5339042 -0.845339E+02  0.289E-02    2.70       0.0  T
   2    -84.5339051 -0.966935E-06  0.169E-02    2.69       1.0  T
   3    -84.5339050  0.158475E-06  0.315E-03    2.69       4.2  T
   4    -84.5339053 -0.275598E-06  0.897E-04    2.69      14.8  T
   5    -84.5339053 -0.248426E-07  0.394E-04    2.69      33.6  T
     SCC iter.                  ...        0 min,  0.042 sec
     gradient                   ...        0 min,  0.005 sec
 * total energy  :   -83.4363806 Eh     change       -0.4416758E-04 Eh
   gradient norm :     0.0034352 Eh/α   predicted    -0.3394000E-04 ( -23.16%)
   displ. norm   :     0.2507915 α      lambda       -0.7973587E-04
   maximum displ.:     0.1501467 α      in ANC's #5, #3, #2, ...

........................................................................
.............................. CYCLE   89 ..............................
........................................................................

 iter      E             dE          RMSdq      gap      omega  full diag
   1    -84.5347290 -0.845347E+02  0.343E-02    2.68       0.0  T
   2    -84.5347316 -0.260505E-05  0.201E-02    2.67       1.0  T
   3    -84.5347307  0.856337E-06  0.623E-03    2.67       2.1  T
   4    -84.5347317 -0.968606E-06  0.237E-03    2.67       5.6  T
   5    -84.5347319 -0.248827E-06  0.657E-04    2.67      20.1  T
   6    -84.5347319 -0.689603E-08  0.334E-04    2.67      39.6  T
     SCC iter.                  ...        0 min,  0.054 sec
     gradient                   ...        0 min,  0.010 sec
 * total energy  :   -83.4364250 Eh     change       -0.4437642E-04 Eh
   gradient norm :     0.0043200 Eh/α   predicted    -0.4237773E-04 (  -4.50%)
   displ. norm   :     0.2066737 α      lambda       -0.7497214E-04
   maximum displ.:     0.1173224 α      in ANC's #2, #4, #5, ...

........................................................................
.............................. CYCLE   90 ..............................
........................................................................

 iter      E             dE          RMSdq      gap      omega  full diag
   1    -84.5331098 -0.845331E+02  0.260E-02    2.66       0.0  T
   2    -84.5331141 -0.433619E-05  0.146E-02    2.65       1.0  T
   3    -84.5331134  0.741665E-06  0.737E-03    2.65       1.8  T
   4    -84.5331142 -0.807972E-06  0.326E-03    2.64       4.1  T
   5    -84.5331147 -0.499751E-06  0.566E-04    2.64      23.4  T
   6    -84.5331147 -0.445885E-08  0.324E-04    2.64      40.9  T
     SCC iter.                  ...        0 min,  0.064 sec
     gradient                   ...        0 min,  0.009 sec
 * total energy  :   -83.4364727 Eh     change       -0.4767617E-04 Eh
   gradient norm :     0.0039487 Eh/α   predicted    -0.3909124E-04 ( -18.01%)
   displ. norm   :     0.2065710 α      lambda       -0.8353947E-04
   maximum displ.:     0.1149115 α      in ANC's #5, #2, #4, ...

........................................................................
.............................. CYCLE   91 ..............................
........................................................................

 iter      E             dE          RMSdq      gap      omega  full diag
   1    -84.5334589 -0.845335E+02  0.318E-02    2.63       0.0  T
   2    -84.5334645 -0.558496E-05  0.177E-02    2.62       1.0  T
   3    -84.5334636  0.936139E-06  0.791E-03    2.62       1.7  T
   4    -84.5334644 -0.776151E-06  0.371E-03    2.62       3.6  T
   5    -84.5334651 -0.690773E-06  0.540E-04    2.62      24.5  T
   6    -84.5334651 -0.359486E-08  0.319E-04    2.62      41.5  T
     SCC iter.                  ...        0 min,  0.058 sec
     gradient                   ...        0 min,  0.010 sec
 * total energy  :   -83.4365357 Eh     change       -0.6301012E-04 Eh
   gradient norm :     0.0038108 Eh/α   predicted    -0.4355419E-04 ( -30.88%)
   displ. norm   :     0.3109567 α      lambda       -0.1046217E-03
   maximum displ.:     0.1630491 α      in ANC's #2, #5, #4, ...

........................................................................
.............................. CYCLE   92 ..............................
........................................................................

 iter      E             dE          RMSdq      gap      omega  full diag
   1    -84.5333428 -0.845333E+02  0.466E-02    2.60       0.0  T
   2    -84.5333539 -0.111486E-04  0.260E-02    2.58       1.0  T
   3    -84.5333519  0.203826E-05  0.113E-02    2.58       1.2  T
   4    -84.5333536 -0.174362E-05  0.526E-03    2.58       2.5  T
   5    -84.5333550 -0.136846E-05  0.862E-04    2.58      15.4  T
   6    -84.5333550 -0.648477E-08  0.509E-04    2.58      26.0  T
   7    -84.5333550 -0.410871E-08  0.222E-04    2.58      59.7  T
     SCC iter.                  ...        0 min,  0.068 sec
     gradient                   ...        0 min,  0.016 sec
 * total energy  :   -83.4366134 Eh     change       -0.7769419E-04 Eh
   gradient norm :     0.0040417 Eh/α   predicted    -0.5737068E-04 ( -26.16%)
   displ. norm   :     0.3518868 α      lambda       -0.8898777E-04
   maximum displ.:     0.1916845 α      in ANC's #2, #5, #4, ...
 * RMSD in coord.:     0.7861066 α      energy gain  -0.3041463E-02 Eh

generating ANC from exact Hessian ...
Using Lindh-Hessian (1995)
 Shifting diagonal of input Hessian by   1.007584834901189E-002
 Lowest  eigenvalues of input Hessian
    0.000000    0.010000    0.000000    0.000000    0.000000    0.000000
    0.000000    0.010172    0.010266    0.010302    0.010359    0.010409
    0.010719    0.010856    0.010946    0.011268    0.011438    0.011471
 Highest eigenvalues
    1.954140    2.013763    2.109839    2.131669    2.317430    2.349848
 

........................................................................
.............................. CYCLE   93 ..............................
........................................................................

 iter      E             dE          RMSdq      gap      omega  full diag
   1    -84.5340341 -0.845340E+02  0.475E-02    2.57       0.0  T
   2    -84.5340437 -0.968081E-05  0.266E-02    2.55       1.0  T
   3    -84.5340427  0.101100E-05  0.950E-03    2.55       1.4  T
   4    -84.5340435 -0.764447E-06  0.423E-03    2.54       3.1  T
   5    -84.5340444 -0.878286E-06  0.805E-04    2.54      16.5  T
   6    -84.5340444 -0.100980E-07  0.459E-04    2.54      28.9  T
     SCC iter.                  ...        0 min,  0.062 sec
     gradient                   ...        0 min,  0.008 sec
 * total energy  :   -83.4366812 Eh     change       -0.6783275E-04 Eh
   gradient norm :     0.0036230 Eh/α   predicted     0.0000000E+00 (-100.00%)
   displ. norm   :     0.0541567 α      lambda       -0.5897777E-04
   maximum displ.:     0.0227752 α      in ANC's #17, #11, #2, ...

........................................................................
.............................. CYCLE   94 ..............................
........................................................................

 iter      E             dE          RMSdq      gap      omega  full diag
   1    -84.5349270 -0.845349E+02  0.204E-02    2.55       0.0  T
   2    -84.5349274 -0.405545E-06  0.125E-02    2.55       1.1  T
   3    -84.5349270  0.446657E-06  0.332E-03    2.55       4.0  T
   4    -84.5349275 -0.577877E-06  0.100E-03    2.55      13.2  T
   5    -84.5349276 -0.334901E-07  0.465E-04    2.55      28.5  T
   6    -84.5349276 -0.225825E-08  0.204E-04    2.55      65.0  T
     SCC iter.                  ...        0 min,  0.062 sec
     gradient                   ...        0 min,  0.003 sec
 * total energy  :   -83.4367202 Eh     change       -0.3894549E-04 Eh
   gradient norm :     0.0015734 Eh/α   predicted    -0.2975581E-04 ( -23.60%)
   displ. norm   :     0.1262672 α      lambda       -0.5395968E-04
   maximum displ.:     0.0469070 α      in ANC's #2, #23, #18, ...

........................................................................
.............................. CYCLE   95 ..............................
........................................................................

 iter      E             dE          RMSdq      gap      omega  full diag
   1    -84.5361752 -0.845362E+02  0.315E-02    2.55       0.0  T
   2    -84.5361765 -0.130734E-05  0.189E-02    2.56       1.0  T
   3    -84.5361750  0.148763E-05  0.637E-03    2.56       2.1  T
   4    -84.5361766 -0.163917E-05  0.194E-03    2.56       6.8  T
   5    -84.5361768 -0.168961E-06  0.562E-04    2.56      23.6  T
   6    -84.5361768 -0.139531E-08  0.288E-04    2.56      45.9  T
     SCC iter.                  ...        0 min,  0.059 sec
     gradient                   ...        0 min,  0.011 sec
 * total energy  :   -83.4367579 Eh     change       -0.3776275E-04 Eh
   gradient norm :     0.0025699 Eh/α   predicted    -0.2717126E-04 ( -28.05%)
   displ. norm   :     0.0643313 α      lambda       -0.3110813E-04
   maximum displ.:     0.0287617 α      in ANC's #2, #13, #17, ...

........................................................................
.............................. CYCLE   96 ..............................
........................................................................

 iter      E             dE          RMSdq      gap      omega  full diag
   1    -84.5358144 -0.845358E+02  0.154E-02    2.56       0.0  T
   2    -84.5358145 -0.126004E-06  0.927E-03    2.56       1.4  T
   3    -84.5358144  0.168574E-06  0.214E-03    2.56       6.2  T
   4    -84.5358146 -0.230480E-06  0.586E-04    2.56      22.6  T
   5    -84.5358146 -0.470355E-08  0.333E-04    2.56      39.7  T
     SCC iter.                  ...        0 min,  0.053 sec
     gradient                   ...        0 min,  0.010 sec
 * total energy  :   -83.4367832 Eh     change       -0.2527385E-04 Eh
   gradient norm :     0.0023219 Eh/α   predicted    -0.1562146E-04 ( -38.19%)
   displ. norm   :     0.1777938 α      lambda       -0.6801365E-04
   maximum displ.:     0.0808675 α      in ANC's #2, #13, #1, ...

........................................................................
.............................. CYCLE   97 ..............................
........................................................................

 iter      E             dE          RMSdq      gap      omega  full diag
   1    -84.5345805 -0.845346E+02  0.369E-02    2.56       0.0  T
   2    -84.5345811 -0.601244E-06  0.220E-02    2.56       1.0  T
   3    -84.5345805  0.526160E-06  0.407E-03    2.56       3.3  T
   4    -84.5345813 -0.764469E-06  0.131E-03    2.56      10.1  T
   5    -84.5345813 -0.288836E-07  0.705E-04    2.56      18.8  T
   6    -84.5345813 -0.595759E-08  0.298E-04    2.56      44.4  T
     SCC iter.                  ...        0 min,  0.065 sec
     gradient                   ...        0 min,  0.008 sec
 * total energy  :   -83.4368316 Eh     change       -0.4845235E-04 Eh
   gradient norm :     0.0021801 Eh/α   predicted    -0.3508339E-04 ( -27.59%)
   displ. norm   :     0.1931524 α      lambda       -0.5257250E-04
   maximum displ.:     0.0918369 α      in ANC's #2, #1, #16, ...

........................................................................
.............................. CYCLE   98 ..............................
........................................................................

 iter      E             dE          RMSdq      gap      omega  full diag
   1    -84.5339361 -0.845339E+02  0.379E-02    2.56       0.0  T
   2    -84.5339367 -0.630133E-06  0.225E-02    2.56       1.0  T
   3    -84.5339366  0.153832E-06  0.273E-03    2.56       4.9  T
   4    -84.5339369 -0.347178E-06  0.107E-03    2.56      12.4  T
   5    -84.5339369 -0.248908E-07  0.578E-04    2.56      22.9  T
   6    -84.5339369 -0.235745E-08  0.187E-04    2.56      70.7  T
     SCC iter.                  ...        0 min,  0.062 sec
     gradient                   ...        0 min,  0.007 sec
 * total energy  :   -83.4368716 Eh     change       -0.3993528E-04 Eh
   gradient norm :     0.0030415 Eh/α   predicted    -0.2726817E-04 ( -31.72%)
   displ. norm   :     0.2396677 α      lambda       -0.6759325E-04
   maximum displ.:     0.1197974 α      in ANC's #2, #8, #1, ...

........................................................................
.............................. CYCLE   99 ..............................
........................................................................

 iter      E             dE          RMSdq      gap      omega  full diag
   1    -84.5341155 -0.845341E+02  0.439E-02    2.56       0.0  T
   2    -84.5341163 -0.832508E-06  0.259E-02    2.56       1.0  T
   3    -84.5341156  0.741597E-06  0.407E-03    2.56       3.3  T
   4    -84.5341165 -0.957824E-06  0.150E-03    2.56       8.8  T
   5    -84.5341166 -0.836490E-07  0.717E-04    2.56      18.5  T
   6    -84.5341166 -0.104779E-08  0.381E-04    2.56      34.8  T
     SCC iter.                  ...        0 min,  0.060 sec
     gradient                   ...        0 min,  0.010 sec
 * total energy  :   -83.4369233 Eh     change       -0.5175274E-04 Eh
   gradient norm :     0.0034707 Eh/α   predicted    -0.3574657E-04 ( -30.93%)
   displ. norm   :     0.2451302 α      lambda       -0.7490438E-04
   maximum displ.:     0.1303019 α      in ANC's #2, #1, #8, ...

........................................................................
.............................. CYCLE  100 ..............................
........................................................................

 iter      E             dE          RMSdq      gap      omega  full diag
   1    -84.5350554 -0.845351E+02  0.429E-02    2.56       0.0  T
   2    -84.5350563 -0.946635E-06  0.253E-02    2.56       1.0  T
   3    -84.5350543  0.201954E-05  0.620E-03    2.56       2.1  T
   4    -84.5350566 -0.232189E-05  0.163E-03    2.56       8.1  T
   5    -84.5350567 -0.973857E-07  0.669E-04    2.56      19.8  T
   6    -84.5350567 -0.101954E-08  0.388E-04    2.56      34.1  T
     SCC iter.                  ...        0 min,  0.063 sec
     gradient                   ...        0 min,  0.010 sec
 * total energy  :   -83.4369806 Eh     change       -0.5721924E-04 Eh
   gradient norm :     0.0034233 Eh/α   predicted    -0.3970764E-04 ( -30.60%)
   displ. norm   :     0.2326083 α      lambda       -0.7490406E-04
   maximum displ.:     0.1320835 α      in ANC's #2, #1, #8, ...

........................................................................
.............................. CYCLE  101 ..............................
........................................................................

 iter      E             dE          RMSdq      gap      omega  full diag
   1    -84.5364284 -0.845364E+02  0.389E-02    2.56       0.0  T
   2    -84.5364293 -0.903087E-06  0.229E-02    2.56       1.0  T
   3    -84.5364275  0.176486E-05  0.591E-03    2.56       2.2  T
   4    -84.5364295 -0.198668E-05  0.159E-03    2.56       8.3  T
   5    -84.5364296 -0.988634E-07  0.568E-04    2.56      23.3  T
   6    -84.5364296 -0.590489E-09  0.329E-04    2.56      40.2  T
     SCC iter.                  ...        0 min,  0.064 sec
     gradient                   ...        0 min,  0.011 sec
 * total energy  :   -83.4370372 Eh     change       -0.5666699E-04 Eh
   gradient norm :     0.0024951 Eh/α   predicted    -0.3948389E-04 ( -30.32%)
   displ. norm   :     0.2491798 α      lambda       -0.7216461E-04
   maximum displ.:     0.1453283 α      in ANC's #2, #1, #5, ...

........................................................................
.............................. CYCLE  102 ..............................
........................................................................

 iter      E             dE          RMSdq      gap      omega  full diag
   1    -84.5363634 -0.845364E+02  0.416E-02    2.55       0.0  T
   2    -84.5363648 -0.138621E-05  0.246E-02    2.55       1.0  T
   3    -84.5363625  0.227175E-05  0.685E-03    2.55       1.9  T
   4    -84.5363651 -0.256924E-05  0.205E-03    2.55       6.5  T
   5    -84.5363652 -0.171159E-06  0.743E-04    2.55      17.8  T
   6    -84.5363652 -0.123555E-08  0.432E-04    2.55      30.7  T
     SCC iter.                  ...        0 min,  0.061 sec
     gradient                   ...        0 min,  0.008 sec
 * total energy  :   -83.4370868 Eh     change       -0.4961598E-04 Eh
   gradient norm :     0.0038599 Eh/α   predicted    -0.3832462E-04 ( -22.76%)
   displ. norm   :     0.2255696 α      lambda       -0.8853598E-04
   maximum displ.:     0.1351169 α      in ANC's #2, #1, #5, ...

........................................................................
.............................. CYCLE  103 ..............................
........................................................................

 iter      E             dE          RMSdq      gap      omega  full diag
   1    -84.5376692 -0.845377E+02  0.373E-02    2.54       0.0  T
   2    -84.5376718 -0.268325E-05  0.222E-02    2.53       1.0  T
   3    -84.5376712  0.613586E-06  0.573E-03    2.53       2.3  T
   4    -84.5376719 -0.659631E-06  0.267E-03    2.53       5.0  T
   5    -84.5376722 -0.347511E-06  0.797E-04    2.53      16.6  T
   6    -84.5376722 -0.195013E-08  0.422E-04    2.53      31.4  T
     SCC iter.                  ...        0 min,  0.057 sec
     gradient                   ...        0 min,  0.007 sec
 * total energy  :   -83.4371240 Eh     change       -0.3719269E-04 Eh
   gradient norm :     0.0059957 Eh/α   predicted    -0.4652034E-04 (  25.08%)
   displ. norm   :     0.1438337 α      lambda       -0.7106383E-04
   maximum displ.:     0.0859664 α      in ANC's #2, #1, #5, ...

........................................................................
.............................. CYCLE  104 ..............................
........................................................................

 iter      E             dE          RMSdq      gap      omega  full diag
   1    -84.5366140 -0.845366E+02  0.223E-02    2.53       0.0  T
   2    -84.5366148 -0.800012E-06  0.131E-02    2.52       1.0  T
   3    -84.5366143  0.492531E-06  0.378E-03    2.52       3.5  T
   4    -84.5366148 -0.503614E-06  0.152E-03    2.52       8.7  T
   5    -84.5366149 -0.121883E-06  0.398E-04    2.52      33.3  T
   6    -84.5366149 -0.112578E-08  0.225E-04    2.52      58.8  T
     SCC iter.                  ...        0 min,  0.061 sec
     gradient                   ...        0 min,  0.008 sec
 * total energy  :   -83.4371800 Eh     change       -0.5599173E-04 Eh
   gradient norm :     0.0038166 Eh/α   predicted    -0.3627088E-04 ( -35.22%)
   displ. norm   :     0.2470579 α      lambda       -0.1047006E-03
   maximum displ.:     0.1557913 α      in ANC's #2, #1, #5, ...

........................................................................
.............................. CYCLE  105 ..............................
........................................................................

 iter      E             dE          RMSdq      gap      omega  full diag
   1    -84.5359863 -0.845360E+02  0.308E-02    2.51       0.0  T
   2    -84.5359908 -0.444535E-05  0.177E-02    2.50       1.0  T
   3    -84.5359896  0.114718E-05  0.786E-03    2.50       1.7  T
   4    -84.5359907 -0.109189E-05  0.351E-03    2.50       3.8  T
   5    -84.5359913 -0.634210E-06  0.733E-04    2.50      18.1  T
   6    -84.5359914 -0.444032E-08  0.430E-04    2.50      30.8  T
     SCC iter.                  ...        0 min,  0.056 sec
     gradient                   ...        0 min,  0.009 sec
 * total energy  :   -83.4372560 Eh     change       -0.7593326E-04 Eh
   gradient norm :     0.0024789 Eh/α   predicted    -0.5554604E-04 ( -26.85%)
   displ. norm   :     0.3237623 α      lambda       -0.9663069E-04
   maximum displ.:     0.2043362 α      in ANC's #2, #1, #5, ...

........................................................................
.............................. CYCLE  106 ..............................
........................................................................

 iter      E             dE          RMSdq      gap      omega  full diag
   1    -84.5352719 -0.845353E+02  0.408E-02    2.48       0.0  T
   2    -84.5352794 -0.746718E-05  0.236E-02    2.46       1.0  T
   3    -84.5352781  0.126452E-05  0.939E-03    2.46       1.4  T
   4    -84.5352791 -0.984908E-06  0.447E-03    2.46       3.0  T
   5    -84.5352801 -0.104551E-05  0.948E-04    2.46      14.0  T
   6    -84.5352801 -0.638096E-08  0.536E-04    2.46      24.7  T
   7    -84.5352801 -0.417178E-08  0.195E-04    2.46      67.9  T
     SCC iter.                  ...        0 min,  0.061 sec
     gradient                   ...        0 min,  0.008 sec
 * total energy  :   -83.4373334 Eh     change       -0.7746072E-04 Eh
   gradient norm :     0.0043768 Eh/α   predicted    -0.5338153E-04 ( -31.09%)
   displ. norm   :     0.3396064 α      lambda       -0.1144631E-03
   maximum displ.:     0.2214282 α      in ANC's #2, #1, #5, ...

........................................................................
.............................. CYCLE  107 ..............................
........................................................................

 iter      E             dE          RMSdq      gap      omega  full diag
   1    -84.5362390 -0.845362E+02  0.369E-02    2.44       0.0  T
   2    -84.5362481 -0.914930E-05  0.211E-02    2.42       1.0  T
   3    -84.5362464  0.169691E-05  0.108E-02    2.42       1.2  T
   4    -84.5362480 -0.161313E-05  0.498E-03    2.42       2.7  T
   5    -84.5362493 -0.120658E-05  0.877E-04    2.42      15.1  T
   6    -84.5362493 -0.625656E-08  0.511E-04    2.42      25.9  T
   7    -84.5362493 -0.361015E-08  0.191E-04    2.42      69.2  T
     SCC iter.                  ...        0 min,  0.062 sec
     gradient                   ...        0 min,  0.010 sec
 * total energy  :   -83.4374173 Eh     change       -0.8393261E-04 Eh
   gradient norm :     0.0048067 Eh/α   predicted    -0.6383764E-04 ( -23.94%)
   displ. norm   :     0.3986008 α      lambda       -0.1157498E-03
   maximum displ.:     0.2553335 α      in ANC's #2, #1, #5, ...

........................................................................
.............................. CYCLE  108 ..............................
........................................................................

 iter      E             dE          RMSdq      gap      omega  full diag
   1    -84.5363299 -0.845363E+02  0.413E-02    2.40       0.0  T
   2    -84.5363367 -0.681607E-05  0.242E-02    2.38       1.0  T
   3    -84.5363350  0.171921E-05  0.958E-03    2.38       1.4  T
   4    -84.5363365 -0.157580E-05  0.449E-03    2.38       2.9  T
   5    -84.5363375 -0.101557E-05  0.984E-04    2.38      13.5  T
   6    -84.5363376 -0.395413E-08  0.565E-04    2.38      23.4  T
   7    -84.5363376 -0.425429E-08  0.184E-04    2.38      71.8  T
     SCC iter.                  ...        0 min,  0.062 sec
     gradient                   ...        0 min,  0.006 sec
 * total energy  :   -83.4375137 Eh     change       -0.9634808E-04 Eh
   gradient norm :     0.0055316 Eh/α   predicted    -0.6707242E-04 ( -30.39%)
   displ. norm   :     0.5238066 α      lambda       -0.1734068E-03
   maximum displ.:     0.3430344 α      in ANC's #2, #1, #5, ...

........................................................................
.............................. CYCLE  109 ..............................
........................................................................

 iter      E             dE          RMSdq      gap      omega  full diag
   1    -84.5377943 -0.845378E+02  0.465E-02    2.37       0.0  T
   2    -84.5378030 -0.863044E-05  0.271E-02    2.35       1.0  T
   3    -84.5378000  0.294023E-05  0.113E-02    2.35       1.2  T
   4    -84.5378029 -0.288359E-05  0.497E-03    2.35       2.7  T
   5    -84.5378042 -0.124331E-05  0.101E-03    2.35      13.2  T
   6    -84.5378042 -0.587958E-08  0.597E-04    2.35      22.2  T
   7    -84.5378042 -0.543972E-08  0.208E-04    2.35      63.6  T
     SCC iter.                  ...        0 min,  0.068 sec
     gradient                   ...        0 min,  0.008 sec
 * total energy  :   -83.4376343 Eh     change       -0.1205683E-03 Eh
   gradient norm :     0.0059925 Eh/α   predicted    -0.1104935E-03 (  -8.36%)
   displ. norm   :     0.5555046 α      lambda       -0.2200738E-03
   maximum displ.:     0.3627943 α      in ANC's #2, #1, #5, ...

........................................................................
.............................. CYCLE  110 ..............................
........................................................................

 iter      E             dE          RMSdq      gap      omega  full diag
   1    -84.5373158 -0.845373E+02  0.536E-02    2.34       0.0  T
   2    -84.5373227 -0.691446E-05  0.317E-02    2.33       1.0  T
   3    -84.5373196  0.311859E-05  0.108E-02    2.33       1.2  T
   4    -84.5373229 -0.336325E-05  0.467E-03    2.32       2.8  T
   5    -84.5373240 -0.104197E-05  0.131E-03    2.33      10.1  T
   6    -84.5373240 -0.239103E-08  0.679E-04    2.33      19.5  T
   7    -84.5373240 -0.808927E-08  0.221E-04    2.33      59.9  T
     SCC iter.                  ...        0 min,  0.055 sec
     gradient                   ...        0 min,  0.015 sec
 * total energy  :   -83.4377712 Eh     change       -0.1369436E-03 Eh
   gradient norm :     0.0070803 Eh/α   predicted    -0.1439959E-03 (   5.15%)
   displ. norm   :     0.3995067 α      lambda       -0.1430021E-03
   maximum displ.:     0.2694658 α      in ANC's #2, #1, #4, ...

........................................................................
.............................. CYCLE  111 ..............................
........................................................................

 iter      E             dE          RMSdq      gap      omega  full diag
   1    -84.5383799 -0.845384E+02  0.319E-02    2.33       0.0  T
   2    -84.5383820 -0.208402E-05  0.188E-02    2.32       1.0  T
   3    -84.5383820  0.434529E-07  0.387E-03    2.32       3.4  T
   4    -84.5383822 -0.205828E-06  0.126E-03    2.32      10.5  T
   5    -84.5383822 -0.515334E-07  0.588E-04    2.32      22.5  T
   6    -84.5383822 -0.954813E-09  0.292E-04    2.32      45.4  T
     SCC iter.                  ...        0 min,  0.056 sec
     gradient                   ...        0 min,  0.006 sec
 * total energy  :   -83.4378909 Eh     change       -0.1196886E-03 Eh
   gradient norm :     0.0045712 Eh/α   predicted    -0.8291576E-04 ( -30.72%)
   displ. norm   :     0.5263123 α      lambda       -0.1756103E-03
   maximum displ.:     0.3539591 α      in ANC's #2, #1, #4, ...

........................................................................
.............................. CYCLE  112 ..............................
........................................................................

 iter      E             dE          RMSdq      gap      omega  full diag
   1    -84.5370993 -0.845371E+02  0.450E-02    2.31       0.0  T
   2    -84.5371015 -0.222744E-05  0.267E-02    2.31       1.0  T
   3    -84.5371015  0.639686E-07  0.390E-03    2.31       3.4  T
   4    -84.5371018 -0.316093E-06  0.140E-03    2.31       9.5  T
   5    -84.5371018 -0.584511E-07  0.738E-04    2.31      17.9  T
   6    -84.5371018 -0.329692E-08  0.352E-04    2.31      37.6  T
     SCC iter.                  ...        0 min,  0.061 sec
     gradient                   ...        0 min,  0.009 sec
 * total energy  :   -83.4380178 Eh     change       -0.1268761E-03 Eh
   gradient norm :     0.0054974 Eh/α   predicted    -0.1121283E-03 ( -11.62%)
   displ. norm   :     0.5008385 α      lambda       -0.1535205E-03
   maximum displ.:     0.3443480 α      in ANC's #2, #1, #4, ...

........................................................................
.............................. CYCLE  113 ..............................
........................................................................

 iter      E             dE          RMSdq      gap      omega  full diag
   1    -84.5376831 -0.845377E+02  0.421E-02    2.31       0.0  T
   2    -84.5376845 -0.140164E-05  0.251E-02    2.31       1.0  T
   3    -84.5376842  0.285712E-06  0.406E-03    2.30       3.3  T
   4    -84.5376847 -0.523042E-06  0.206E-03    2.30       6.4  T
   5    -84.5376848 -0.158213E-06  0.889E-04    2.30      14.9  T
   6    -84.5376849 -0.401202E-08  0.304E-04    2.30      43.6  T
     SCC iter.                  ...        0 min,  0.112 sec
     gradient                   ...        0 min,  0.009 sec
 * total energy  :   -83.4381502 Eh     change       -0.1324546E-03 Eh
   gradient norm :     0.0039555 Eh/α   predicted    -0.9601839E-04 ( -27.51%)
   displ. norm   :     0.6951846 α      lambda       -0.1900361E-03
   maximum displ.:     0.4779796 α      in ANC's #2, #1, #4, ...

........................................................................
.............................. CYCLE  114 ..............................
........................................................................

 iter      E             dE          RMSdq      gap      omega  full diag
   1    -84.5366400 -0.845366E+02  0.593E-02    2.31       0.0  T
   2    -84.5366427 -0.270697E-05  0.353E-02    2.30       1.0  T
   3    -84.5366425  0.210321E-06  0.529E-03    2.30       2.5  T
   4    -84.5366432 -0.714622E-06  0.263E-03    2.30       5.0  T
   5    -84.5366434 -0.217233E-06  0.126E-03    2.30      10.5  T
   6    -84.5366434 -0.143803E-07  0.480E-04    2.30      27.6  T
   7    -84.5366434 -0.526200E-08  0.179E-04    2.30      74.0  T
     SCC iter.                  ...        0 min,  0.065 sec
     gradient                   ...        0 min,  0.006 sec
 * total energy  :   -83.4383112 Eh     change       -0.1610188E-03 Eh
   gradient norm :     0.0044938 Eh/α   predicted    -0.1409397E-03 ( -12.47%)
   displ. norm   :     0.6449232 α      lambda       -0.2041632E-03
   maximum displ.:     0.4520485 α      in ANC's #2, #1, #4, ...

........................................................................
.............................. CYCLE  115 ..............................
........................................................................

 iter      E             dE          RMSdq      gap      omega  full diag
   1    -84.5387785 -0.845388E+02  0.532E-02    2.32       0.0  T
   2    -84.5387801 -0.158614E-05  0.315E-02    2.32       1.0  T
   3    -84.5387791  0.986266E-06  0.585E-03    2.32       2.3  T
   4    -84.5387805 -0.135925E-05  0.213E-03    2.32       6.2  T
   5    -84.5387806 -0.140300E-06  0.101E-03    2.32      13.1  T
   6    -84.5387806 -0.565198E-08  0.446E-04    2.32      29.7  T
   7    -84.5387806 -0.505594E-08  0.129E-04    2.32     102.9  T
     SCC iter.                  ...        0 min,  0.053 sec
     gradient                   ...        0 min,  0.016 sec
 * total energy  :   -83.4384736 Eh     change       -0.1623979E-03 Eh
   gradient norm :     0.0033840 Eh/α   predicted    -0.1445421E-03 ( -11.00%)
   displ. norm   :     0.7242027 α      lambda       -0.1806043E-03
   maximum displ.:     0.5018179 α      in ANC's #2, #1, #4, ...

........................................................................
.............................. CYCLE  116 ..............................
........................................................................

 iter      E             dE          RMSdq      gap      omega  full diag
   1    -84.5364135 -0.845364E+02  0.611E-02    2.32       0.0  T
   2    -84.5364154 -0.180832E-05  0.364E-02    2.32       1.0  T
   3    -84.5364149  0.472706E-06  0.551E-03    2.32       2.4  T
   4    -84.5364159 -0.105850E-05  0.220E-03    2.32       6.0  T
   5    -84.5364160 -0.870433E-07  0.121E-03    2.32      11.0  T
   6    -84.5364161 -0.229065E-07  0.498E-04    2.32      26.6  T
   7    -84.5364161 -0.597426E-08  0.181E-04    2.32      73.4  T
     SCC iter.                  ...        0 min,  0.064 sec
     gradient                   ...        0 min,  0.004 sec
 * total energy  :   -83.4386084 Eh     change       -0.1347328E-03 Eh
   gradient norm :     0.0053594 Eh/α   predicted    -0.1376682E-03 (   2.18%)
   displ. norm   :     0.5683116 α      lambda       -0.1598722E-03
   maximum displ.:     0.3975263 α      in ANC's #2, #1, #4, ...

........................................................................
.............................. CYCLE  117 ..............................
........................................................................

 iter      E             dE          RMSdq      gap      omega  full diag
   1    -84.5374745 -0.845375E+02  0.486E-02    2.32       0.0  T
   2    -84.5374753 -0.871836E-06  0.287E-02    2.32       1.0  T
   3    -84.5374752  0.895071E-07  0.304E-03    2.32       4.4  T
   4    -84.5374756 -0.328601E-06  0.121E-03    2.32      10.9  T
   5    -84.5374756 -0.201548E-07  0.624E-04    2.32      21.2  T
   6    -84.5374756 -0.284466E-08  0.212E-04    2.32      62.5  T
     SCC iter.                  ...        0 min,  0.061 sec
     gradient                   ...        0 min,  0.004 sec
 * total energy  :   -83.4387190 Eh     change       -0.1105755E-03 Eh
   gradient norm :     0.0044293 Eh/α   predicted    -0.1057582E-03 (  -4.36%)
   displ. norm   :     0.5013085 α      lambda       -0.1307276E-03
   maximum displ.:     0.3468024 α      in ANC's #2, #1, #4, ...

........................................................................
.............................. CYCLE  118 ..............................
........................................................................

 iter      E             dE          RMSdq      gap      omega  full diag
   1    -84.5397839 -0.845398E+02  0.495E-02    2.32       0.0  T
   2    -84.5397847 -0.816948E-06  0.292E-02    2.32       1.0  T
   3    -84.5397844  0.331153E-06  0.320E-03    2.32       4.1  T
   4    -84.5397849 -0.565155E-06  0.139E-03    2.32       9.5  T
   5    -84.5397850 -0.538870E-07  0.711E-04    2.32      18.6  T
   6    -84.5397850 -0.515446E-08  0.349E-04    2.32      38.0  T
     SCC iter.                  ...        0 min,  0.054 sec
     gradient                   ...        0 min,  0.010 sec
 * total energy  :   -83.4388005 Eh     change       -0.8157407E-04 Eh
   gradient norm :     0.0033294 Eh/α   predicted    -0.8179510E-04 (   0.27%)
   displ. norm   :     0.5002840 α      lambda       -0.9310181E-04
   maximum displ.:     0.3439439 α      in ANC's #2, #1, #4, ...

........................................................................
.............................. CYCLE  119 ..............................
........................................................................

 iter      E             dE          RMSdq      gap      omega  full diag
   1    -84.5369350 -0.845369E+02  0.527E-02    2.31       0.0  T
   2    -84.5369364 -0.134429E-05  0.311E-02    2.30       1.0  T
   3    -84.5369343  0.210849E-05  0.705E-03    2.30       1.9  T
   4    -84.5369369 -0.257528E-05  0.196E-03    2.30       6.8  T
   5    -84.5369370 -0.103822E-06  0.933E-04    2.30      14.2  T
   6    -84.5369370 -0.415815E-08  0.412E-04    2.30      32.2  T
     SCC iter.                  ...        0 min,  0.055 sec
     gradient                   ...        0 min,  0.008 sec
 * total energy  :   -83.4388445 Eh     change       -0.4401725E-04 Eh
   gradient norm :     0.0049962 Eh/α   predicted    -0.5820285E-04 (  32.23%)
   displ. norm   :     0.1055815 α      lambda       -0.6574370E-04
   maximum displ.:     0.0425367 α      in ANC's #14, #1, #3, ...

........................................................................
.............................. CYCLE  120 ..............................
........................................................................

 iter      E             dE          RMSdq      gap      omega  full diag
   1    -84.5395492 -0.845395E+02  0.314E-02    2.30       0.0  T
   2    -84.5395502 -0.970731E-06  0.183E-02    2.29       1.0  T
   3    -84.5395491  0.106948E-05  0.536E-03    2.29       2.5  T
   4    -84.5395503 -0.119806E-05  0.135E-03    2.29       9.8  T
   5    -84.5395504 -0.763097E-07  0.457E-04    2.29      29.0  T
   6    -84.5395504 -0.575999E-08  0.220E-04    2.29      60.1  T
     SCC iter.                  ...        0 min,  0.053 sec
     gradient                   ...        0 min,  0.006 sec
 * total energy  :   -83.4388874 Eh     change       -0.4284160E-04 Eh
   gradient norm :     0.0034477 Eh/α   predicted    -0.3324260E-04 ( -22.41%)
   displ. norm   :     0.1731237 α      lambda       -0.5627776E-04
   maximum displ.:     0.0837636 α      in ANC's #1, #2, #14, ...
 * RMSD in coord.:     1.1139659 α      energy gain  -0.2274005E-02 Eh

generating ANC from exact Hessian ...
Using Lindh-Hessian (1995)
 Shifting diagonal of input Hessian by   1.014844617825240E-002
 Lowest  eigenvalues of input Hessian
    0.010000    0.000000    0.010094    0.000000    0.000000    0.000000
    0.000000    0.000000    0.010314    0.010424    0.010524    0.010534
    0.010624    0.010819    0.010915    0.011437    0.011557    0.011802
 Highest eigenvalues
    1.954750    2.014381    2.115803    2.165633    2.313470    2.350197
 

........................................................................
.............................. CYCLE  121 ..............................
........................................................................

 iter      E             dE          RMSdq      gap      omega  full diag
   1    -84.5396377 -0.845396E+02  0.441E-02    2.28       0.0  T
   2    -84.5396399 -0.223113E-05  0.256E-02    2.27       1.0  T
   3    -84.5396390  0.934407E-06  0.547E-03    2.27       2.4  T
   4    -84.5396399 -0.944691E-06  0.207E-03    2.27       6.4  T
   5    -84.5396401 -0.214648E-06  0.493E-04    2.27      26.9  T
   6    -84.5396401 -0.586901E-08  0.251E-04    2.27      52.8  T
     SCC iter.                  ...        0 min,  0.052 sec
     gradient                   ...        0 min,  0.010 sec
 * total energy  :   -83.4389240 Eh     change       -0.3665326E-04 Eh
   gradient norm :     0.0028995 Eh/α   predicted     0.0000000E+00 (-100.00%)
   displ. norm   :     0.0345833 α      lambda       -0.2695951E-04
   maximum displ.:     0.0129284 α      in ANC's #18, #8, #5, ...

........................................................................
.............................. CYCLE  122 ..............................
........................................................................

 iter      E             dE          RMSdq      gap      omega  full diag
   1    -84.5394466 -0.845394E+02  0.105E-02    2.27       0.0  T
   2    -84.5394468 -0.208024E-06  0.625E-03    2.26       2.1  T
   3    -84.5394468  0.703468E-07  0.165E-03    2.26       8.0  T
   4    -84.5394468 -0.833242E-07  0.751E-04    2.26      17.6  T
   5    -84.5394469 -0.265483E-07  0.253E-04    2.26      52.4  T
     SCC iter.                  ...        0 min,  0.041 sec
     gradient                   ...        0 min,  0.009 sec
 * total energy  :   -83.4389463 Eh     change       -0.2223140E-04 Eh
   gradient norm :     0.0010808 Eh/α   predicted    -0.1396932E-04 ( -37.16%)
   displ. norm   :     0.1320382 α      lambda       -0.4102350E-04
   maximum displ.:     0.0546307 α      in ANC's #8, #18, #14, ...

........................................................................
.............................. CYCLE  123 ..............................
........................................................................

 iter      E             dE          RMSdq      gap      omega  full diag
   1    -84.5387983 -0.845388E+02  0.346E-02    2.26       0.0  T
   2    -84.5388001 -0.182358E-05  0.204E-02    2.25       1.0  T
   3    -84.5387983  0.181524E-05  0.701E-03    2.25       1.9  T
   4    -84.5388003 -0.206956E-05  0.226E-03    2.25       5.9  T
   5    -84.5388005 -0.212535E-06  0.716E-04    2.25      18.5  T
   6    -84.5388005 -0.351015E-08  0.355E-04    2.25      37.3  T
     SCC iter.                  ...        0 min,  0.055 sec
     gradient                   ...        0 min,  0.009 sec
 * total energy  :   -83.4389730 Eh     change       -0.2673626E-04 Eh
   gradient norm :     0.0034223 Eh/α   predicted    -0.2067116E-04 ( -22.68%)
   displ. norm   :     0.0284713 α      lambda       -0.1425533E-04
   maximum displ.:     0.0141908 α      in ANC's #8, #14, #5, ...

........................................................................
.............................. CYCLE  124 ..............................
........................................................................

 iter      E             dE          RMSdq      gap      omega  full diag
   1    -84.5390757 -0.845391E+02  0.891E-03    2.25       0.0  T
   2    -84.5390757 -0.755449E-07  0.530E-03    2.24       2.5  T
   3    -84.5390754  0.297298E-06  0.254E-03    2.24       5.2  T
   4    -84.5390758 -0.337642E-06  0.364E-04    2.24      36.4  T
   5    -84.5390758 -0.452307E-08  0.129E-04    2.24     103.0  T
     SCC iter.                  ...        0 min,  0.046 sec
     gradient                   ...        0 min,  0.004 sec
 * total energy  :   -83.4389845 Eh     change       -0.1145228E-04 Eh
   gradient norm :     0.0023160 Eh/α   predicted    -0.7138779E-05 ( -37.67%)
   displ. norm   :     0.0901437 α      lambda       -0.3150928E-04
   maximum displ.:     0.0440843 α      in ANC's #8, #14, #5, ...

........................................................................
.............................. CYCLE  125 ..............................
........................................................................

 iter      E             dE          RMSdq      gap      omega  full diag
   1    -84.5398395 -0.845398E+02  0.244E-02    2.24       0.0  T
   2    -84.5398399 -0.334828E-06  0.145E-02    2.23       1.0  T
   3    -84.5398375  0.233714E-05  0.713E-03    2.24       1.9  T
   4    -84.5398402 -0.265625E-05  0.741E-04    2.23      17.9  T
   5    -84.5398402 -0.148668E-07  0.357E-04    2.23      37.1  T
   6    -84.5398402 -0.219099E-08  0.184E-04    2.23      71.9  T
     SCC iter.                  ...        0 min,  0.061 sec
     gradient                   ...        0 min,  0.008 sec
 * total energy  :   -83.4390031 Eh     change       -0.1868440E-04 Eh
   gradient norm :     0.0012304 Eh/α   predicted    -0.1600894E-04 ( -14.32%)
   displ. norm   :     0.0930967 α      lambda       -0.8834804E-05
   maximum displ.:     0.0454645 α      in ANC's #8, #5, #14, ...

........................................................................
.............................. CYCLE  126 ..............................
........................................................................

 iter      E             dE          RMSdq      gap      omega  full diag
   1    -84.5397886 -0.845398E+02  0.254E-02    2.23       0.0  T
   2    -84.5397889 -0.357185E-06  0.150E-02    2.22       1.0  T
   3    -84.5397878  0.114840E-05  0.499E-03    2.22       2.7  T
   4    -84.5397891 -0.128373E-05  0.798E-04    2.22      16.6  T
   5    -84.5397891 -0.222916E-07  0.337E-04    2.22      39.3  T
   6    -84.5397891 -0.187761E-08  0.179E-04    2.22      73.9  T
     SCC iter.                  ...        0 min,  0.044 sec
     gradient                   ...        0 min,  0.019 sec
 * total energy  :   -83.4390123 Eh     change       -0.9112480E-05 Eh
   gradient norm :     0.0014888 Eh/α   predicted    -0.4441875E-05 ( -51.26%)
   displ. norm   :     0.0916356 α      lambda       -0.8998337E-05
   maximum displ.:     0.0443997 α      in ANC's #8, #5, #14, ...

........................................................................
.............................. CYCLE  127 ..............................
........................................................................

 iter      E             dE          RMSdq      gap      omega  full diag
   1    -84.5397324 -0.845397E+02  0.245E-02    2.22       0.0  T
   2    -84.5397326 -0.150278E-06  0.144E-02    2.22       1.0  T
   3    -84.5397323  0.278100E-06  0.254E-03    2.22       5.2  T
   4    -84.5397326 -0.327519E-06  0.532E-04    2.22      24.9  T
   5    -84.5397326 -0.796354E-08  0.277E-04    2.22      47.8  T
     SCC iter.                  ...        0 min,  0.048 sec
     gradient                   ...        0 min,  0.009 sec
 * total energy  :   -83.4390215 Eh     change       -0.9278436E-05 Eh
   gradient norm :     0.0007904 Eh/α   predicted    -0.4517036E-05 ( -51.32%)
   displ. norm   :     0.0853891 α      lambda       -0.6578640E-05
   maximum displ.:     0.0383384 α      in ANC's #8, #5, #4, ...

........................................................................
.............................. CYCLE  128 ..............................
........................................................................

 iter      E             dE          RMSdq      gap      omega  full diag
   1    -84.5397165 -0.845397E+02  0.213E-02    2.22       0.0  T
   2    -84.5397165 -0.840239E-07  0.125E-02    2.22       1.1  T
   3    -84.5397163  0.279547E-06  0.219E-03    2.22       6.1  T
   4    -84.5397166 -0.318645E-06  0.463E-04    2.22      28.6  T
   5    -84.5397166 -0.689374E-08  0.204E-04    2.22      64.9  T
     SCC iter.                  ...        0 min,  0.047 sec
     gradient                   ...        0 min,  0.005 sec
 * total energy  :   -83.4390285 Eh     change       -0.6918467E-05 Eh
   gradient norm :     0.0005731 Eh/α   predicted    -0.3300276E-05 ( -52.30%)
   displ. norm   :     0.1006796 α      lambda       -0.6492558E-05
   maximum displ.:     0.0422589 α      in ANC's #8, #5, #4, ...

........................................................................
.............................. CYCLE  129 ..............................
........................................................................

 iter      E             dE          RMSdq      gap      omega  full diag
   1    -84.5397186 -0.845397E+02  0.239E-02    2.22       0.0  T
   2    -84.5397188 -0.203129E-06  0.141E-02    2.22       1.0  T
   3    -84.5397188  0.437753E-08  0.104E-03    2.22      12.8  T
   4    -84.5397188 -0.367146E-07  0.493E-04    2.22      26.9  T
   5    -84.5397188 -0.790899E-08  0.269E-04    2.22      49.2  T
     SCC iter.                  ...        0 min,  0.043 sec
     gradient                   ...        0 min,  0.009 sec
 * total energy  :   -83.4390352 Eh     change       -0.6799361E-05 Eh
   gradient norm :     0.0008730 Eh/α   predicted    -0.3262057E-05 ( -52.02%)
   displ. norm   :     0.0977699 α      lambda       -0.6264719E-05
   maximum displ.:     0.0376252 α      in ANC's #5, #4, #2, ...

........................................................................
.............................. CYCLE  130 ..............................
........................................................................

 iter      E             dE          RMSdq      gap      omega  full diag
   1    -84.5397790 -0.845398E+02  0.193E-02    2.23       0.0  T
   2    -84.5397794 -0.395461E-06  0.113E-02    2.23       1.2  T
   3    -84.5397791  0.315550E-06  0.284E-03    2.23       4.7  T
   4    -84.5397794 -0.325935E-06  0.104E-03    2.23      12.7  T
   5    -84.5397794 -0.559848E-07  0.271E-04    2.23      48.9  T
   6    -84.5397794 -0.559055E-09  0.157E-04    2.23      84.5  T
     SCC iter.                  ...        0 min,  0.051 sec
     gradient                   ...        0 min,  0.007 sec
 * total energy  :   -83.4390417 Eh     change       -0.6484176E-05 Eh
   gradient norm :     0.0007465 Eh/α   predicted    -0.3148145E-05 ( -51.45%)
   displ. norm   :     0.0794128 α      lambda       -0.4708721E-05
   maximum displ.:     0.0323943 α      in ANC's #5, #2, #3, ...

........................................................................
.............................. CYCLE  131 ..............................
........................................................................

 iter      E             dE          RMSdq      gap      omega  full diag
   1    -84.5397070 -0.845397E+02  0.133E-02    2.24       0.0  T
   2    -84.5397072 -0.260379E-06  0.781E-03    2.24       1.7  T
   3    -84.5397072  0.349798E-07  0.162E-03    2.24       8.2  T
   4    -84.5397073 -0.602926E-07  0.561E-04    2.24      23.6  T
   5    -84.5397073 -0.949645E-08  0.213E-04    2.24      62.2  T
     SCC iter.                  ...        0 min,  0.035 sec
     gradient                   ...        0 min,  0.016 sec
 * total energy  :   -83.4390469 Eh     change       -0.5147120E-05 Eh
   gradient norm :     0.0005697 Eh/α   predicted    -0.2362502E-05 ( -54.10%)
   displ. norm   :     0.0749880 α      lambda       -0.4496062E-05
   maximum displ.:     0.0322921 α      in ANC's #5, #2, #3, ...

........................................................................
.............................. CYCLE  132 ..............................
........................................................................

 iter      E             dE          RMSdq      gap      omega  full diag
   1    -84.5397709 -0.845398E+02  0.995E-03    2.24       0.0  T
   2    -84.5397710 -0.120294E-06  0.593E-03    2.25       2.2  T
   3    -84.5397710  0.901576E-07  0.166E-03    2.25       8.0  T
   4    -84.5397711 -0.104276E-06  0.563E-04    2.25      23.5  T
   5    -84.5397711 -0.129517E-07  0.205E-04    2.25      64.5  T
     SCC iter.                  ...        0 min,  0.044 sec
     gradient                   ...        0 min,  0.004 sec
 * total energy  :   -83.4390518 Eh     change       -0.4951611E-05 Eh
   gradient norm :     0.0005339 Eh/α   predicted    -0.2254066E-05 ( -54.48%)
   displ. norm   :     0.0908889 α      lambda       -0.4859712E-05
   maximum displ.:     0.0399920 α      in ANC's #5, #2, #3, ...

........................................................................
.............................. CYCLE  133 ..............................
........................................................................

 iter      E             dE          RMSdq      gap      omega  full diag
   1    -84.5396960 -0.845397E+02  0.112E-02    2.25       0.0  T
   2    -84.5396960 -0.566644E-07  0.670E-03    2.25       2.0  T
   3    -84.5396958  0.234150E-06  0.217E-03    2.25       6.1  T
   4    -84.5396961 -0.267651E-06  0.387E-04    2.25      34.2  T
   5    -84.5396961 -0.303226E-08  0.189E-04    2.25      70.2  T
     SCC iter.                  ...        0 min,  0.039 sec
     gradient                   ...        0 min,  0.014 sec
 * total energy  :   -83.4390572 Eh     change       -0.5383531E-05 Eh
   gradient norm :     0.0007018 Eh/α   predicted    -0.2441675E-05 ( -54.65%)
   displ. norm   :     0.1206379 α      lambda       -0.5917074E-05
   maximum displ.:     0.0528361 α      in ANC's #5, #2, #3, ...

........................................................................
.............................. CYCLE  134 ..............................
........................................................................

 iter      E             dE          RMSdq      gap      omega  full diag
   1    -84.5396707 -0.845397E+02  0.147E-02    2.24       0.0  T
   2    -84.5396709 -0.185953E-06  0.877E-03    2.24       1.5  T
   3    -84.5396701  0.774765E-06  0.412E-03    2.24       3.2  T
   4    -84.5396710 -0.880345E-06  0.568E-04    2.24      23.3  T
   5    -84.5396710 -0.915679E-08  0.238E-04    2.24      55.6  T
     SCC iter.                  ...        0 min,  0.048 sec
     gradient                   ...        0 min,  0.004 sec
 * total energy  :   -83.4390638 Eh     change       -0.6612168E-05 Eh
   gradient norm :     0.0007973 Eh/α   predicted    -0.2979545E-05 ( -54.94%)
   displ. norm   :     0.1654069 α      lambda       -0.7586747E-05
   maximum displ.:     0.0717290 α      in ANC's #5, #2, #3, ...

........................................................................
.............................. CYCLE  135 ..............................
........................................................................

 iter      E             dE          RMSdq      gap      omega  full diag
   1    -84.5397386 -0.845397E+02  0.201E-02    2.23       0.0  T
   2    -84.5397391 -0.555601E-06  0.118E-02    2.23       1.1  T
   3    -84.5397383  0.825085E-06  0.461E-03    2.23       2.9  T
   4    -84.5397392 -0.914461E-06  0.112E-03    2.23      11.9  T
   5    -84.5397393 -0.562557E-07  0.338E-04    2.23      39.2  T
   6    -84.5397393 -0.137582E-08  0.190E-04    2.23      69.9  T
     SCC iter.                  ...        0 min,  0.052 sec
     gradient                   ...        0 min,  0.008 sec
 * total energy  :   -83.4390721 Eh     change       -0.8308766E-05 Eh
   gradient norm :     0.0009005 Eh/α   predicted    -0.3843664E-05 ( -53.74%)
   displ. norm   :     0.1764545 α      lambda       -0.7990346E-05
   maximum displ.:     0.0766572 α      in ANC's #2, #3, #5, ...

........................................................................
.............................. CYCLE  136 ..............................
........................................................................

 iter      E             dE          RMSdq      gap      omega  full diag
   1    -84.5398225 -0.845398E+02  0.206E-02    2.22       0.0  T
   2    -84.5398233 -0.842090E-06  0.120E-02    2.21       1.1  T
   3    -84.5398225  0.873548E-06  0.505E-03    2.21       2.6  T
   4    -84.5398234 -0.967867E-06  0.135E-03    2.21       9.8  T
   5    -84.5398235 -0.851235E-07  0.376E-04    2.21      35.3  T
   6    -84.5398235 -0.245090E-08  0.202E-04    2.21      65.6  T
     SCC iter.                  ...        0 min,  0.050 sec
     gradient                   ...        0 min,  0.009 sec
 * total energy  :   -83.4390808 Eh     change       -0.8637186E-05 Eh
   gradient norm :     0.0007181 Eh/α   predicted    -0.4053453E-05 ( -53.07%)
   displ. norm   :     0.1576380 α      lambda       -0.7043951E-05
   maximum displ.:     0.0683091 α      in ANC's #3, #2, #5, ...

........................................................................
.............................. CYCLE  137 ..............................
........................................................................

 iter      E             dE          RMSdq      gap      omega  full diag
   1    -84.5400719 -0.845401E+02  0.180E-02    2.20       0.0  T
   2    -84.5400724 -0.482931E-06  0.105E-02    2.20       1.3  T
   3    -84.5400721  0.315664E-06  0.317E-03    2.20       4.2  T
   4    -84.5400724 -0.338628E-06  0.104E-03    2.19      12.8  T
   5    -84.5400725 -0.502546E-07  0.309E-04    2.19      42.9  T
   6    -84.5400725 -0.160904E-08  0.163E-04    2.19      81.4  T
     SCC iter.                  ...        0 min,  0.044 sec
     gradient                   ...        0 min,  0.019 sec
 * total energy  :   -83.4390883 Eh     change       -0.7495673E-05 Eh
   gradient norm :     0.0006870 Eh/α   predicted    -0.3563051E-05 ( -52.47%)
   displ. norm   :     0.1373028 α      lambda       -0.5549012E-05
   maximum displ.:     0.0611886 α      in ANC's #3, #2, #5, ...

........................................................................
.............................. CYCLE  138 ..............................
........................................................................

 iter      E             dE          RMSdq      gap      omega  full diag
   1    -84.5402523 -0.845403E+02  0.164E-02    2.19       0.0  T
   2    -84.5402524 -0.100429E-06  0.970E-03    2.19       1.4  T
   3    -84.5402523  0.469365E-07  0.126E-03    2.19      10.5  T
   4    -84.5402524 -0.595605E-07  0.525E-04    2.19      25.2  T
   5    -84.5402524 -0.104979E-07  0.210E-04    2.19      63.2  T
     SCC iter.                  ...        0 min,  0.048 sec
     gradient                   ...        0 min,  0.008 sec
 * total energy  :   -83.4390941 Eh     change       -0.5873834E-05 Eh
   gradient norm :     0.0006193 Eh/α   predicted    -0.2801678E-05 ( -52.30%)
   displ. norm   :     0.2259935 α      lambda       -0.5743411E-05
   maximum displ.:     0.0977869 α      in ANC's #3, #2, #5, ...

........................................................................
.............................. CYCLE  139 ..............................
........................................................................

 iter      E             dE          RMSdq      gap      omega  full diag
   1    -84.5393705 -0.845394E+02  0.295E-02    2.19       0.0  T
   2    -84.5393707 -0.234504E-06  0.174E-02    2.19       1.0  T
   3    -84.5393706  0.623365E-07  0.177E-03    2.19       7.5  T
   4    -84.5393707 -0.107643E-06  0.821E-04    2.19      16.1  T
   5    -84.5393708 -0.206932E-07  0.374E-04    2.19      35.4  T
     SCC iter.                  ...        0 min,  0.037 sec
     gradient                   ...        0 min,  0.015 sec
 * total energy  :   -83.4390949 Eh     change       -0.7767432E-06 Eh
   gradient norm :     0.0020375 Eh/α   predicted    -0.2937779E-05 ( 278.22%)
   displ. norm   :     0.0482057 α      lambda       -0.1233531E-04
   maximum displ.:     0.0181541 α      in ANC's #3, #1, #9, ...

........................................................................
.............................. CYCLE  140 ..............................
........................................................................

 iter      E             dE          RMSdq      gap      omega  full diag
   1    -84.5402595 -0.845403E+02  0.955E-03    2.19       0.0  T
   2    -84.5402598 -0.260748E-06  0.546E-03    2.20       2.4  T
   3    -84.5402596  0.179079E-06  0.252E-03    2.20       5.2  T
   4    -84.5402598 -0.207365E-06  0.720E-04    2.20      18.4  T
   5    -84.5402598 -0.227988E-07  0.220E-04    2.20      60.3  T
     SCC iter.                  ...        0 min,  0.048 sec
     gradient                   ...        0 min,  0.009 sec
 * total energy  :   -83.4391019 Eh     change       -0.7026615E-05 Eh
   gradient norm :     0.0007409 Eh/α   predicted    -0.6184255E-05 ( -11.99%)
   displ. norm   :     0.0494264 α      lambda       -0.3450351E-05
   maximum displ.:     0.0243923 α      in ANC's #3, #2, #1, ...

........................................................................
.............................. CYCLE  141 ..............................
........................................................................

 iter      E             dE          RMSdq      gap      omega  full diag
   1    -84.5404251 -0.845404E+02  0.663E-03    2.20       0.0  T
   2    -84.5404253 -0.121125E-06  0.384E-03    2.21       3.4  T
   3    -84.5404252  0.460324E-07  0.145E-03    2.21       9.1  T
   4    -84.5404253 -0.539582E-07  0.437E-04    2.21      30.3  T
   5    -84.5404253 -0.781472E-08  0.146E-04    2.21      90.5  T
     SCC iter.                  ...        0 min,  0.040 sec
     gradient                   ...        0 min,  0.012 sec
 * total energy  :   -83.4391053 Eh     change       -0.3350323E-05 Eh
   gradient norm :     0.0006267 Eh/α   predicted    -0.1729767E-05 ( -48.37%)
   displ. norm   :     0.1026805 α      lambda       -0.3324421E-05
   maximum displ.:     0.0498697 α      in ANC's #3, #2, #5, ...

........................................................................
.............................. CYCLE  142 ..............................
........................................................................

 iter      E             dE          RMSdq      gap      omega  full diag
   1    -84.5402554 -0.845403E+02  0.115E-02    2.21       0.0  T
   2    -84.5402555 -0.161554E-06  0.677E-03    2.21       2.0  T
   3    -84.5402555  0.479253E-07  0.146E-03    2.21       9.1  T
   4    -84.5402555 -0.602398E-07  0.470E-04    2.21      28.2  T
   5    -84.5402555 -0.759273E-08  0.176E-04    2.21      75.4  T
     SCC iter.                  ...        0 min,  0.045 sec
     gradient                   ...        0 min,  0.005 sec
 * total energy  :   -83.4391091 Eh     change       -0.3771566E-05 Eh
   gradient norm :     0.0003920 Eh/α   predicted    -0.1671958E-05 ( -55.67%)
   displ. norm   :     0.1393290 α      lambda       -0.2961110E-05
   maximum displ.:     0.0672006 α      in ANC's #3, #2, #8, ...

........................................................................
.............................. CYCLE  143 ..............................
........................................................................

 iter      E             dE          RMSdq      gap      omega  full diag
   1    -84.5399704 -0.845400E+02  0.164E-02    2.22       0.0  T
   2    -84.5399706 -0.125302E-06  0.973E-03    2.22       1.4  T
   3    -84.5399705  0.206332E-07  0.117E-03    2.22      11.3  T
   4    -84.5399706 -0.419195E-07  0.469E-04    2.22      28.2  T
   5    -84.5399706 -0.507087E-08  0.220E-04    2.22      60.3  T
     SCC iter.                  ...        0 min,  0.054 sec
     gradient                   ...        0 min,  0.008 sec
 * total energy  :   -83.4391120 Eh     change       -0.2904854E-05 Eh
   gradient norm :     0.0005298 Eh/α   predicted    -0.1495065E-05 ( -48.53%)
   displ. norm   :     0.0645341 α      lambda       -0.1781813E-05
   maximum displ.:     0.0311605 α      in ANC's #3, #1, #10, ...

........................................................................
.............................. CYCLE  144 ..............................
........................................................................

 iter      E             dE          RMSdq      gap      omega  full diag
   1    -84.5401384 -0.845401E+02  0.882E-03    2.22       0.0  T
   2    -84.5401384 -0.255640E-07  0.524E-03    2.22       2.5  T
   3    -84.5401384 -0.408001E-08  0.430E-04    2.22      30.8  T
   4    -84.5401384 -0.486851E-08  0.223E-04    2.22      59.5  T
     SCC iter.                  ...        0 min,  0.037 sec
     gradient                   ...        0 min,  0.008 sec
 * total energy  :   -83.4391140 Eh     change       -0.2065065E-05 Eh
   gradient norm :     0.0004234 Eh/α   predicted    -0.8949189E-06 ( -56.66%)
   displ. norm   :     0.0805460 α      lambda       -0.2381448E-05
   maximum displ.:     0.0389590 α      in ANC's #3, #1, #10, ...

........................................................................
.............................. CYCLE  145 ..............................
........................................................................

 iter      E             dE          RMSdq      gap      omega  full diag
   1    -84.5402022 -0.845402E+02  0.121E-02    2.22       0.0  T
   2    -84.5402022 -0.945917E-07  0.713E-03    2.22       1.9  T
   3    -84.5402022  0.337496E-08  0.895E-04    2.22      14.8  T
   4    -84.5402023 -0.207996E-07  0.377E-04    2.22      35.1  T
     SCC iter.                  ...        0 min,  0.037 sec
     gradient                   ...        0 min,  0.008 sec
 * total energy  :   -83.4391169 Eh     change       -0.2895359E-05 Eh
   gradient norm :     0.0002856 Eh/α   predicted    -0.1196680E-05 ( -58.67%)
   displ. norm   :     0.0945538 α      lambda       -0.2380710E-05
   maximum displ.:     0.0464415 α      in ANC's #3, #1, #10, ...

........................................................................
.............................. CYCLE  146 ..............................
........................................................................

 iter      E             dE          RMSdq      gap      omega  full diag
   1    -84.5402229 -0.845402E+02  0.151E-02    2.21       0.0  T
   2    -84.5402231 -0.211930E-06  0.890E-03    2.21       1.5  T
   3    -84.5402230  0.774154E-07  0.171E-03    2.21       7.7  T
   4    -84.5402231 -0.962353E-07  0.715E-04    2.21      18.5  T
   5    -84.5402232 -0.215685E-07  0.275E-04    2.21      48.2  T
     SCC iter.                  ...        0 min,  0.057 sec
     gradient                   ...        0 min,  0.012 sec
 * total energy  :   -83.4391197 Eh     change       -0.2782215E-05 Eh
   gradient norm :     0.0002803 Eh/α   predicted    -0.1197482E-05 ( -56.96%)
   displ. norm   :     0.0794458 α      lambda       -0.1670888E-05
   maximum displ.:     0.0396781 α      in ANC's #3, #1, #10, ...

........................................................................
.............................. CYCLE  147 ..............................
........................................................................

 iter      E             dE          RMSdq      gap      omega  full diag
   1    -84.5403043 -0.845403E+02  0.132E-02    2.21       0.0  T
   2    -84.5403045 -0.162420E-06  0.778E-03    2.21       1.7  T
   3    -84.5403044  0.554629E-07  0.145E-03    2.21       9.1  T
   4    -84.5403045 -0.683839E-07  0.623E-04    2.21      21.3  T
   5    -84.5403045 -0.167207E-07  0.234E-04    2.21      56.5  T
     SCC iter.                  ...        0 min,  0.048 sec
     gradient                   ...        0 min,  0.017 sec
 * total energy  :   -83.4391218 Eh     change       -0.2080427E-05 Eh
   gradient norm :     0.0003272 Eh/α   predicted    -0.8408523E-06 ( -59.58%)
   displ. norm   :     0.0759580 α      lambda       -0.1726696E-05
   maximum displ.:     0.0380895 α      in ANC's #3, #1, #7, ...

........................................................................
.............................. CYCLE  148 ..............................
........................................................................

 iter      E             dE          RMSdq      gap      omega  full diag
   1    -84.5403462 -0.845403E+02  0.128E-02    2.20       0.0  T
   2    -84.5403463 -0.169441E-06  0.751E-03    2.20       1.8  T
   3    -84.5403462  0.991340E-07  0.169E-03    2.20       7.8  T
   4    -84.5403463 -0.109643E-06  0.679E-04    2.20      19.5  T
   5    -84.5403464 -0.218523E-07  0.224E-04    2.20      59.1  T
     SCC iter.                  ...        0 min,  0.047 sec
     gradient                   ...        0 min,  0.011 sec
 * total energy  :   -83.4391240 Eh     change       -0.2187871E-05 Eh
   gradient norm :     0.0003158 Eh/α   predicted    -0.8690045E-06 ( -60.28%)
   displ. norm   :     0.0720166 α      lambda       -0.1935439E-05
   maximum displ.:     0.0399534 α      in ANC's #1, #3, #7, ...

........................................................................
.............................. CYCLE  149 ..............................
........................................................................

 iter      E             dE          RMSdq      gap      omega  full diag
   1    -84.5404537 -0.845405E+02  0.119E-02    2.20       0.0  T
   2    -84.5404538 -0.121397E-06  0.701E-03    2.20       1.9  T
   3    -84.5404538  0.594289E-07  0.130E-03    2.20      10.2  T
   4    -84.5404538 -0.674689E-07  0.587E-04    2.20      22.6  T
   5    -84.5404539 -0.164805E-07  0.205E-04    2.20      64.7  T
     SCC iter.                  ...        0 min,  0.047 sec
     gradient                   ...        0 min,  0.008 sec
 * total energy  :   -83.4391263 Eh     change       -0.2311139E-05 Eh
   gradient norm :     0.0003184 Eh/α   predicted    -0.9720830E-06 ( -57.94%)
   displ. norm   :     0.0726568 α      lambda       -0.1626162E-05
   maximum displ.:     0.0403979 α      in ANC's #1, #3, #7, ...

........................................................................
.............................. CYCLE  150 ..............................
........................................................................

 iter      E             dE          RMSdq      gap      omega  full diag
   1    -84.5403975 -0.845404E+02  0.116E-02    2.20       0.0  T
   2    -84.5403976 -0.771573E-07  0.685E-03    2.20       1.9  T
   3    -84.5403975  0.913514E-07  0.142E-03    2.20       9.3  T
   4    -84.5403976 -0.106599E-06  0.486E-04    2.19      27.2  T
   5    -84.5403976 -0.951771E-08  0.193E-04    2.19      68.5  T
     SCC iter.                  ...        0 min,  0.043 sec
     gradient                   ...        0 min,  0.011 sec
 * total energy  :   -83.4391282 Eh     change       -0.1952973E-05 Eh
   gradient norm :     0.0002078 Eh/α   predicted    -0.8180191E-06 ( -58.11%)
   displ. norm   :     0.0549750 α      lambda       -0.1091378E-05
   maximum displ.:     0.0312017 α      in ANC's #1, #3, #7, ...
 * RMSD in coord.:     0.2999240 α      energy gain  -0.2408656E-03 Eh

generating ANC from exact Hessian ...
Using Lindh-Hessian (1995)
 Shifting diagonal of input Hessian by   1.012589359454126E-002
 Lowest  eigenvalues of input Hessian
    0.010000    0.000000    0.000000    0.000000    0.000000    0.000000
    0.000000    0.010251    0.010295    0.010468    0.010486    0.010576
    0.010780    0.010871    0.011402    0.011447    0.011620    0.011720
 Highest eigenvalues
    1.957429    2.015360    2.117514    2.169405    2.316355    2.350162
 

........................................................................
.............................. CYCLE  151 ..............................
........................................................................

 iter      E             dE          RMSdq      gap      omega  full diag
   1    -84.5404059 -0.845404E+02  0.843E-03    2.20       0.0  T
   2    -84.5404059 -0.187876E-07  0.499E-03    2.20       2.7  T
   3    -84.5404059  0.323166E-08  0.473E-04    2.20      28.0  T
   4    -84.5404059 -0.105318E-07  0.218E-04    2.20      60.7  T
     SCC iter.                  ...        0 min,  0.031 sec
     gradient                   ...        0 min,  0.010 sec
 * total energy  :   -83.4391296 Eh     change       -0.1392184E-05 Eh
   gradient norm :     0.0002297 Eh/α   predicted     0.0000000E+00 (-100.00%)
   displ. norm   :     0.0169138 α      lambda       -0.6795720E-07
   maximum displ.:     0.0120732 α      in ANC's #2, #3, #15, ...

........................................................................
.............................. CYCLE  152 ..............................
........................................................................

 iter      E             dE          RMSdq      gap      omega  full diag
   1    -84.5403917 -0.845404E+02  0.238E-03    2.20       0.0  T
   2    -84.5403917 -0.132989E-07  0.141E-03    2.20       9.4  T
   3    -84.5403917  0.154178E-07  0.666E-04    2.20      19.9  T
   4    -84.5403917 -0.180176E-07  0.177E-04    2.20      74.7  T
     SCC iter.                  ...        0 min,  0.031 sec
     gradient                   ...        0 min,  0.004 sec
 * total energy  :   -83.4391317 Eh     change       -0.2040480E-05 Eh
   gradient norm :     0.0001567 Eh/α   predicted    -0.7591645E-06 ( -62.79%)
   displ. norm   :     0.0476921 α      lambda       -0.3599050E-05
   maximum displ.:     0.0300764 α      in ANC's #2, #3, #15, ...

........................................................................
.............................. CYCLE  153 ..............................
........................................................................

 iter      E             dE          RMSdq      gap      omega  full diag
   1    -84.5403817 -0.845404E+02  0.700E-03    2.20       0.0  T
   2    -84.5403817 -0.719480E-07  0.417E-03    2.20       3.2  T
   3    -84.5403816  0.179498E-06  0.209E-03    2.20       6.3  T
   4    -84.5403818 -0.208167E-06  0.371E-04    2.20      35.7  T
   5    -84.5403818 -0.457658E-08  0.140E-04    2.20      94.5  T
     SCC iter.                  ...        0 min,  0.037 sec
     gradient                   ...        0 min,  0.004 sec
 * total energy  :   -83.4391360 Eh     change       -0.4361500E-05 Eh
   gradient norm :     0.0003107 Eh/α   predicted    -0.1801639E-05 ( -58.69%)
   displ. norm   :     0.0688163 α      lambda       -0.3954769E-05
   maximum displ.:     0.0443745 α      in ANC's #2, #3, #4, ...

........................................................................
.............................. CYCLE  154 ..............................
........................................................................

 iter      E             dE          RMSdq      gap      omega  full diag
   1    -84.5403356 -0.845403E+02  0.968E-03    2.21       0.0  T
   2    -84.5403358 -0.143170E-06  0.580E-03    2.21       2.3  T
   3    -84.5403354  0.397429E-06  0.314E-03    2.21       4.2  T
   4    -84.5403358 -0.469456E-06  0.507E-04    2.21      26.1  T
   5    -84.5403358 -0.728642E-08  0.219E-04    2.21      60.6  T
     SCC iter.                  ...        0 min,  0.038 sec
     gradient                   ...        0 min,  0.010 sec
 * total energy  :   -83.4391407 Eh     change       -0.4701104E-05 Eh
   gradient norm :     0.0003508 Eh/α   predicted    -0.1992142E-05 ( -57.62%)
   displ. norm   :     0.0739859 α      lambda       -0.3687338E-05
   maximum displ.:     0.0480768 α      in ANC's #2, #3, #4, ...

........................................................................
.............................. CYCLE  155 ..............................
........................................................................

 iter      E             dE          RMSdq      gap      omega  full diag
   1    -84.5402389 -0.845402E+02  0.938E-03    2.21       0.0  T
   2    -84.5402390 -0.706961E-07  0.564E-03    2.22       2.3  T
   3    -84.5402387  0.295911E-06  0.264E-03    2.22       5.0  T
   4    -84.5402390 -0.345419E-06  0.390E-04    2.22      33.9  T
   5    -84.5402390 -0.296549E-08  0.213E-04    2.22      62.1  T
     SCC iter.                  ...        0 min,  0.036 sec
     gradient                   ...        0 min,  0.009 sec
 * total energy  :   -83.4391452 Eh     change       -0.4483011E-05 Eh
   gradient norm :     0.0004216 Eh/α   predicted    -0.1848350E-05 ( -58.77%)
   displ. norm   :     0.0958688 α      lambda       -0.4827867E-05
   maximum displ.:     0.0625055 α      in ANC's #2, #3, #8, ...

........................................................................
.............................. CYCLE  156 ..............................
........................................................................

 iter      E             dE          RMSdq      gap      omega  full diag
   1    -84.5401380 -0.845401E+02  0.128E-02    2.22       0.0  T
   2    -84.5401381 -0.107556E-06  0.770E-03    2.22       1.7  T
   3    -84.5401378  0.287711E-06  0.263E-03    2.22       5.0  T
   4    -84.5401382 -0.344942E-06  0.520E-04    2.22      25.5  T
   5    -84.5401382 -0.538203E-08  0.285E-04    2.22      46.4  T
     SCC iter.                  ...        0 min,  0.041 sec
     gradient                   ...        0 min,  0.008 sec
 * total energy  :   -83.4391508 Eh     change       -0.5585231E-05 Eh
   gradient norm :     0.0004268 Eh/α   predicted    -0.2423857E-05 ( -56.60%)
   displ. norm   :     0.1036849 α      lambda       -0.4890901E-05
   maximum displ.:     0.0682729 α      in ANC's #2, #3, #8, ...

........................................................................
.............................. CYCLE  157 ..............................
........................................................................

 iter      E             dE          RMSdq      gap      omega  full diag
   1    -84.5400600 -0.845401E+02  0.130E-02    2.22       0.0  T
   2    -84.5400601 -0.106437E-06  0.785E-03    2.22       1.7  T
   3    -84.5400600  0.106612E-06  0.187E-03    2.22       7.1  T
   4    -84.5400601 -0.159766E-06  0.576E-04    2.22      23.0  T
   5    -84.5400601 -0.654030E-08  0.317E-04    2.22      41.8  T
     SCC iter.                  ...        0 min,  0.046 sec
     gradient                   ...        0 min,  0.004 sec
 * total energy  :   -83.4391565 Eh     change       -0.5735955E-05 Eh
   gradient norm :     0.0003821 Eh/α   predicted    -0.2460821E-05 ( -57.10%)
   displ. norm   :     0.0958536 α      lambda       -0.3602068E-05
   maximum displ.:     0.0631880 α      in ANC's #2, #3, #8, ...

........................................................................
.............................. CYCLE  158 ..............................
........................................................................

 iter      E             dE          RMSdq      gap      omega  full diag
   1    -84.5400707 -0.845401E+02  0.114E-02    2.22       0.0  T
   2    -84.5400709 -0.174843E-06  0.679E-03    2.22       2.0  T
   3    -84.5400709  0.992912E-08  0.118E-03    2.22      11.2  T
   4    -84.5400709 -0.332010E-07  0.540E-04    2.22      24.5  T
   5    -84.5400709 -0.118562E-07  0.273E-04    2.22      48.5  T
     SCC iter.                  ...        0 min,  0.040 sec
     gradient                   ...        0 min,  0.013 sec
 * total energy  :   -83.4391609 Eh     change       -0.4365427E-05 Eh
   gradient norm :     0.0003295 Eh/α   predicted    -0.1808939E-05 ( -58.56%)
   displ. norm   :     0.0923874 α      lambda       -0.2966076E-05
   maximum displ.:     0.0608588 α      in ANC's #2, #3, #8, ...

........................................................................
.............................. CYCLE  159 ..............................
........................................................................

 iter      E             dE          RMSdq      gap      omega  full diag
   1    -84.5401110 -0.845401E+02  0.111E-02    2.22       0.0  T
   2    -84.5401113 -0.292562E-06  0.654E-03    2.21       2.0  T
   3    -84.5401113  0.147202E-07  0.157E-03    2.21       8.4  T
   4    -84.5401113 -0.339462E-07  0.677E-04    2.21      19.6  T
   5    -84.5401113 -0.196825E-07  0.276E-04    2.21      48.0  T
     SCC iter.                  ...        0 min,  0.046 sec
     gradient                   ...        0 min,  0.006 sec
 * total energy  :   -83.4391646 Eh     change       -0.3654832E-05 Eh
   gradient norm :     0.0003140 Eh/α   predicted    -0.1491046E-05 ( -59.20%)
   displ. norm   :     0.0915829 α      lambda       -0.2702305E-05
   maximum displ.:     0.0593311 α      in ANC's #2, #3, #8, ...

........................................................................
.............................. CYCLE  160 ..............................
........................................................................

 iter      E             dE          RMSdq      gap      omega  full diag
   1    -84.5402034 -0.845402E+02  0.106E-02    2.21       0.0  T
   2    -84.5402037 -0.363425E-06  0.613E-03    2.20       2.2  T
   3    -84.5402036  0.935731E-07  0.219E-03    2.20       6.0  T
   4    -84.5402037 -0.972746E-07  0.928E-04    2.20      14.3  T
   5    -84.5402038 -0.427681E-07  0.254E-04    2.20      52.1  T
     SCC iter.                  ...        0 min,  0.040 sec
     gradient                   ...        0 min,  0.012 sec
 * total energy  :   -83.4391678 Eh     change       -0.3224870E-05 Eh
   gradient norm :     0.0002744 Eh/α   predicted    -0.1358091E-05 ( -57.89%)
   displ. norm   :     0.0993312 α      lambda       -0.2530640E-05
   maximum displ.:     0.0632105 α      in ANC's #2, #3, #1, ...

........................................................................
.............................. CYCLE  161 ..............................
........................................................................

 iter      E             dE          RMSdq      gap      omega  full diag
   1    -84.5402199 -0.845402E+02  0.117E-02    2.20       0.0  T
   2    -84.5402202 -0.346863E-06  0.682E-03    2.20       1.9  T
   3    -84.5402202  0.377334E-07  0.188E-03    2.20       7.0  T
   4    -84.5402202 -0.543166E-07  0.758E-04    2.20      17.5  T
   5    -84.5402202 -0.235443E-07  0.272E-04    2.20      48.7  T
     SCC iter.                  ...        0 min,  0.033 sec
     gradient                   ...        0 min,  0.020 sec
 * total energy  :   -83.4391706 Eh     change       -0.2787404E-05 Eh
   gradient norm :     0.0002482 Eh/α   predicted    -0.1272791E-05 ( -54.34%)
   displ. norm   :     0.0996740 α      lambda       -0.2082302E-05
   maximum displ.:     0.0618210 α      in ANC's #2, #3, #1, ...

........................................................................
.............................. CYCLE  162 ..............................
........................................................................

 iter      E             dE          RMSdq      gap      omega  full diag
   1    -84.5403027 -0.845403E+02  0.109E-02    2.19       0.0  T
   2    -84.5403029 -0.198594E-06  0.638E-03    2.19       2.1  T
   3    -84.5403028  0.826035E-07  0.173E-03    2.19       7.7  T
   4    -84.5403029 -0.905937E-07  0.706E-04    2.19      18.8  T
   5    -84.5403029 -0.241653E-07  0.223E-04    2.19      59.5  T
     SCC iter.                  ...        0 min,  0.045 sec
     gradient                   ...        0 min,  0.009 sec
 * total energy  :   -83.4391727 Eh     change       -0.2107474E-05 Eh
   gradient norm :     0.0003669 Eh/α   predicted    -0.1046904E-05 ( -50.32%)
   displ. norm   :     0.0915741 α      lambda        0.4457430E-06
   maximum displ.:     0.0568306 α      in ANC's #2, #3, #1, ...

........................................................................
.............................. CYCLE  163 ..............................
........................................................................

 iter      E             dE          RMSdq      gap      omega  full diag
   1    -84.5403218 -0.845403E+02  0.101E-02    2.19       0.0  T
   2    -84.5403219 -0.168978E-06  0.587E-03    2.19       2.3  T
   3    -84.5403218  0.918882E-07  0.172E-03    2.19       7.7  T
   4    -84.5403219 -0.100438E-06  0.666E-04    2.19      19.9  T
   5    -84.5403220 -0.216693E-07  0.206E-04    2.19      64.3  T
     SCC iter.                  ...        0 min,  0.046 sec
     gradient                   ...        0 min,  0.009 sec
 * total energy  :   -83.4391726 Eh     change        0.5625729E-07 Eh
   gradient norm :     0.0007693 Eh/α   predicted     0.2191939E-06 ( 289.63%)
   displ. norm   :     0.0111848 α      lambda       -0.1734408E-05
   maximum displ.:     0.0042575 α      in ANC's #1, #11, #45, ...

........................................................................
.............................. CYCLE  164 ..............................
........................................................................

 iter      E             dE          RMSdq      gap      omega  full diag
   1    -84.5402973 -0.845403E+02  0.330E-03    2.19       0.0  T
   2    -84.5402974 -0.541733E-07  0.190E-03    2.19       7.0  T
   3    -84.5402973  0.313263E-07  0.114E-03    2.19      11.6  T
   4    -84.5402974 -0.413849E-07  0.351E-04    2.19      37.8  T
   5    -84.5402974 -0.474358E-08  0.917E-05    2.19     144.4  T
     SCC iter.                  ...        0 min,  0.049 sec
     gradient                   ...        0 min,  0.008 sec
 * total energy  :   -83.4391743 Eh     change       -0.1710292E-05 Eh
   gradient norm :     0.0003240 Eh/α   predicted    -0.8693151E-06 ( -49.17%)
   displ. norm   :     0.0102702 α      lambda        0.1419143E-06
   maximum displ.:     0.0038124 α      in ANC's #1, #45, #11, ...

........................................................................
.............................. CYCLE  165 ..............................
........................................................................

 iter      E             dE          RMSdq      gap      omega  full diag
   1    -84.5402688 -0.845403E+02  0.309E-03    2.19       0.0  T
   2    -84.5402688 -0.466764E-07  0.178E-03    2.19       7.4  T
   3    -84.5402688  0.252368E-07  0.105E-03    2.19      12.7  T
   4    -84.5402689 -0.334251E-07  0.329E-04    2.19      40.3  T
   5    -84.5402689 -0.426714E-08  0.937E-05    2.19     141.3  T
     SCC iter.                  ...        0 min,  0.046 sec
     gradient                   ...        0 min,  0.005 sec
 * total energy  :   -83.4391742 Eh     change        0.9478543E-07 Eh
   gradient norm :     0.0008296 Eh/α   predicted     0.6902659E-07 ( -27.18%)
   displ. norm   :     0.0129169 α      lambda       -0.1554358E-05
   maximum displ.:     0.0070185 α      in ANC's #1, #11, #23, ...

........................................................................
.............................. CYCLE  166 ..............................
........................................................................

 iter      E             dE          RMSdq      gap      omega  full diag
   1    -84.5403133 -0.845403E+02  0.306E-03    2.19       0.0  T
   2    -84.5403133 -0.540938E-07  0.171E-03    2.20       7.7  T
   3    -84.5403133  0.748676E-08  0.809E-04    2.20      16.4  T
   4    -84.5403133 -0.904780E-08  0.315E-04    2.20      42.0  T
     SCC iter.                  ...        0 min,  0.045 sec
     gradient                   ...        0 min,  0.009 sec
 * total energy  :   -83.4391759 Eh     change       -0.1682539E-05 Eh
   gradient norm :     0.0002959 Eh/α   predicted    -0.7786215E-06 ( -53.72%)
   displ. norm   :     0.0262555 α      lambda       -0.1362513E-05
   maximum displ.:     0.0155103 α      in ANC's #1, #11, #23, ...

........................................................................
.............................. CYCLE  167 ..............................
........................................................................

 iter      E             dE          RMSdq      gap      omega  full diag
   1    -84.5401757 -0.845402E+02  0.549E-03    2.20       0.0  T
   2    -84.5401759 -0.213110E-06  0.300E-03    2.20       4.4  T
   3    -84.5401758  0.225905E-07  0.150E-03    2.20       8.9  T
   4    -84.5401759 -0.248188E-07  0.613E-04    2.21      21.6  T
   5    -84.5401759 -0.167783E-07  0.147E-04    2.21      90.1  T
     SCC iter.                  ...        0 min,  0.047 sec
     gradient                   ...        0 min,  0.008 sec
 * total energy  :   -83.4391773 Eh     change       -0.1380945E-05 Eh
   gradient norm :     0.0002030 Eh/α   predicted    -0.6827401E-06 ( -50.56%)
   displ. norm   :     0.0255722 α      lambda       -0.6809230E-06
   maximum displ.:     0.0165752 α      in ANC's #1, #11, #23, ...

........................................................................
.............................. CYCLE  168 ..............................
........................................................................

 iter      E             dE          RMSdq      gap      omega  full diag
   1    -84.5401507 -0.845402E+02  0.488E-03    2.21       0.0  T
   2    -84.5401508 -0.962877E-07  0.276E-03    2.21       4.8  T
   3    -84.5401508  0.209427E-07  0.114E-03    2.21      11.6  T
   4    -84.5401508 -0.226184E-07  0.426E-04    2.21      31.1  T
   5    -84.5401508 -0.848891E-08  0.114E-04    2.21     116.7  T
     SCC iter.                  ...        0 min,  0.045 sec
     gradient                   ...        0 min,  0.007 sec
 * total energy  :   -83.4391781 Eh     change       -0.7790594E-06 Eh
   gradient norm :     0.0003058 Eh/α   predicted    -0.3426590E-06 ( -56.02%)
   displ. norm   :     0.0239879 α      lambda       -0.5799171E-06
   maximum displ.:     0.0163312 α      in ANC's #1, #11, #9, ...

   *** GEOMETRY OPTIMIZATION CONVERGED AFTER 168 ITERATIONS ***

------------------------------------------------------------------------
 total energy gain   :        -0.2662690 Eh     -167.0863 kcal/mol
 total RMSD          :         2.9192976 a0        1.5448 Å
 total power (kW/mol):        -4.1612447 (step)  -55.6866 (real)
------------------------------------------------------------------------

 ANCopt (total)                0 d,  0 h,  0 min, 12.554 sec
 optimizer setup                ...        0 min,  0.000 sec (  0.000%)
 model hessian                  ...        0 min,  0.147 sec (  1.171%)
 ANC generation                 ...        0 min,  0.100 sec (  0.797%)
 coordinate transformation      ...        0 min,  0.020 sec (  0.159%)
 single point calculation       ...        0 min, 12.155 sec ( 96.822%)
 optimization log               ...        0 min,  0.031 sec (  0.247%)
 hessian update                 ...        0 min,  0.035 sec (  0.279%)
 rational function              ...        0 min,  0.058 sec (  0.462%)

================
 final structure:
================
57
 xtb: 6.7.1pre (5071a88)
N           -0.13130651568512       -0.66888142199680        0.31994323148422
C            1.24221755227200       -0.54981077045192        0.35185216407520
C            1.84663328603305        0.36573458480879        1.21593832778750
C            3.20270511064890        0.60352124119122        1.14467819286901
C            4.00256008383275       -0.06632584036643        0.22541545051923
C            3.40567264123998       -1.00892203293142       -0.60283951241046
C            2.04733782697750       -1.25106793148126       -0.54542748974130
C            5.45640937630784        0.28017648017821        0.08092333437124
C            5.61847147032265        1.56083249043751       -0.74434069730808
C           -1.02331496521074        1.00062643545610       -1.11299557162790
C            0.21141026033453        1.76862374121500       -1.09662777396247
C            0.40376468647188        2.80747633154323       -0.27989685691095
C            1.64541772988125        3.61579288969473       -0.21060120826402
C            1.40475875552316        5.06354308302499       -0.65949989148093
C            2.69712291410609        5.86772629155089       -0.61098586245715
O           -2.03353576897626        1.27919985862395       -0.47845144160249
O           -3.68180783865263       -0.76921425480889        0.32547426152798
H           -0.63278148871934       -0.36042538985219        1.15530935867416
H           -0.49602023842581       -1.52303327735519       -0.07482640481807
H            1.23353891915335        0.88491779312188        1.93671473436003
H            3.65408312416131        1.32159780185052        1.81409113025123
H            4.01263162258932       -1.57288105939388       -1.29915451814106
H            1.59778975826059       -1.98197151991819       -1.20322981864581
H            6.00530620610249       -0.52179465244592       -0.41597144097452
H            5.91803794568751        0.44449139966787        1.05516370622615
H            5.20106230833429        2.42242058234354       -0.20847557949367
H            4.70341037638587        0.49998919947991       -2.31601320118026
H            6.49185665739329        3.66622948049574       -1.70820295702174
H           -1.05961839697776        0.20781342787005       -1.87886294453887
H            0.99537871499627        1.43730815056422       -1.76162875896276
H           -0.40763880207645        3.11145991834362        0.36989083813589
H            2.00084192356905        3.62886435254212        0.82318200829056
H            2.42101249697243        3.17005878096235       -0.83428862402295
H            1.01697324167297        5.05756492177389       -1.68020144951030
H            0.65106710086338        5.52489521382700       -0.01739570131885
H            2.52858821093461        6.88111449154135       -0.96718146008796
H            3.07670284414181        5.92011046812150        0.40737317556770
H            3.45255557913821        5.40028489652423       -1.23790350384627
H           -3.17553853176223       -0.05486070925834       -0.10613423953367
H           -4.60747843939194       -0.56763628575030        0.18175601970275
O           -1.96130161570104        0.35428645566301        2.23827276958082
H           -2.04767816747605        1.14453634949413        1.69358829304632
H           -2.65239162999950       -0.24300354022685        1.91319031048841
N            4.88538597480775        1.43723684874539       -1.99319620394294
C            7.10776616960654        1.84573299145727       -1.04337045629763
O            7.98395204078247        1.02530991389729       -0.86678129909343
C            3.56820296522806        2.12386996587605       -3.88034953304548
C            4.39954068250616        2.48906695334970       -2.67292632731704
O            4.62582664512121        3.64240988217721       -2.34039813649944
H            2.87510108069769        1.31984301954667       -3.64498523110958
H            4.22526405036015        1.79538013409897       -4.68371360153642
H            3.01768506496629        2.99803680917961       -4.21597090101434
N            7.30264116812106        3.08512098578446       -1.51946558855711
C            8.59793485523653        3.56276072364489       -1.93661265218399
H            8.84766840640454        4.48525472149454       -1.41057276975567
H            8.61411575355429        3.75139777037842       -3.01205827437983
H            9.33100881752885        2.79521085460463       -1.69321942447918
 
 Bond Distances (Angstroems)
 ---------------------------
N1-C2=1.3790         N1-H18=1.0220        N1-H19=1.0092        C2-N1=1.3790         C2-C3=1.3965         C2-C7=1.3947         
C3-C2=1.3965         C3-C4=1.3786         C3-H20=1.0793        C4-C3=1.3786         C4-C5=1.3905         C4-H21=1.0805        
C5-C4=1.3905         C5-C6=1.3895         C5-C8=1.5015         C6-C5=1.3895         C6-C7=1.3809         C6-H22=1.0823        
C7-C2=1.3947         C7-C6=1.3809         C7-H23=1.0812        C8-C5=1.5015         C8-C9=1.5321         C8-H24=1.0915        
C8-H25=1.0905        C9-C8=1.5321         C9-H26=1.0971        C9-N44=1.4534        C9-C45=1.5455        C10-C11=1.4542       
C10-O16=1.2251       C10-H29=1.1029       C11-C10=1.4542       C11-C12=1.3354       C11-H30=1.0801       C12-C11=1.3354       
C12-C13=1.4832       C12-H31=1.0831       C13-C12=1.4832       C13-C14=1.5347       C13-H32=1.0933       C13-H33=1.0905       
C14-C13=1.5347       C14-C15=1.5229       C14-H34=1.0919       C14-H35=1.0923       C15-C14=1.5229       C15-H36=1.0873       
C15-H37=1.0881       C15-H38=1.0873       O16-C10=1.2251       O17-H39=0.9762       O17-H40=0.9582       H18-N1=1.0220        
H19-N1=1.0092        H20-C3=1.0793        H21-C4=1.0805        H22-C6=1.0823        H23-C7=1.0812        H24-C8=1.0915        
H25-C8=1.0905        H26-C9=1.0971        H27-N44=1.0078       H28-N53=1.0152       H29-C10=1.1029       H30-C11=1.0801       
H31-C12=1.0831       H32-C13=1.0933       H33-C13=1.0905       H34-C14=1.0919       H35-C14=1.0923       H36-C15=1.0873       
H37-C15=1.0881       H38-C15=1.0873       H39-O17=0.9762       H40-O17=0.9582       O41-H42=0.9637       O41-H43=0.9696       
H42-O41=0.9637       H43-O41=0.9696       N44-C9=1.4534        N44-H27=1.0078       N44-C48=1.3433       C45-C9=1.5455        
C45-O46=1.2133       C45-N53=1.3419       O46-C45=1.2133       C47-C48=1.5107       C47-H50=1.0873       C47-H51=1.0886       
C47-H52=1.0862       C48-N44=1.3433       C48-C47=1.5107       C48-O49=1.2215       O49-C48=1.2215       H50-C47=1.0873       
H51-C47=1.0886       H52-C47=1.0862       N53-H28=1.0152       N53-C45=1.3419       N53-C54=1.4422       C54-N53=1.4422       
C54-H55=1.0909       C54-H56=1.0920       C54-H57=1.0889       H55-C54=1.0909       H56-C54=1.0920       H57-C54=1.0889       
 C  H  Rav=1.0884 sigma=0.0056  Rmin=1.0793  Rmax=1.1029    23
 C  C  Rav=1.4501 sigma=0.0693  Rmin=1.3354  Rmax=1.5455    15
 N  H  Rav=1.0136 sigma=0.0056  Rmin=1.0078  Rmax=1.0220     4
 N  C  Rav=1.3920 sigma=0.0476  Rmin=1.3419  Rmax=1.4534     5
 O  H  Rav=0.9669 sigma=0.0067  Rmin=0.9582  Rmax=0.9762     4
 O  C  Rav=1.2199 sigma=0.0049  Rmin=1.2133  Rmax=1.2251     3
 
 selected bond angles (degree)
 --------------------
H18-N1-C2=116.34               H19-N1-C2=116.24               H19-N1-H18=113.45              C3-C2-N1=120.13                
C7-C2-N1=121.11                C7-C2-C3=118.55                C4-C3-C2=120.45                H20-C3-C2=118.86               
H20-C3-C4=120.68               C5-C4-C3=121.12                H21-C4-C3=119.57               H21-C4-C5=119.30               
C6-C5-C4=118.28                C8-C5-C4=120.62                C8-C5-C6=121.00                C7-C6-C5=121.11                
H22-C6-C5=119.74               H22-C6-C7=119.14               C6-C7-C2=120.43                H23-C7-C2=119.43               
H23-C7-C6=120.15               C9-C8-C5=110.31                H24-C8-C5=111.17               H24-C8-C9=108.41               
H25-C8-C5=111.02               H25-C8-C9=108.09               H25-C8-H24=107.73              H26-C9-C8=110.68               
N44-C9-C8=109.78               N44-C9-H26=107.13              C45-C9-C8=111.11               C45-C9-H26=108.44              
C45-C9-N44=109.60              O16-C10-C11=125.05             H29-C10-C11=114.54             H29-C10-O16=119.74             
 
 selected dihedral angles (degree)
 ---------------------------------
C3-C2-N1-H18=337.11           C3-C2-N1-H19=199.46           C7-C2-N1-H18=162.47           C7-C2-N1-H19= 24.82           
C4-C3-C2-N1=187.61            C4-C3-C2-C7=  2.39            H20-C3-C2-N1=  7.41           H20-C3-C2-C7=182.19           
C5-C4-C3-C2=359.39            C5-C4-C3-H20=179.59           H21-C4-C3-C2=179.44           H21-C4-C3-H20=359.64          
C6-C5-C4-C3=358.50            C6-C5-C4-H21=178.45           C8-C5-C4-C3=175.03            C8-C5-C4-H21=354.98           
C7-C6-C5-C4=  1.82            C7-C6-C5-C8=185.31            H22-C6-C5-C4=182.47           H22-C6-C5-C8=  5.96           
C6-C7-C2-N1=172.65            C6-C7-C2-C3=357.93            H23-C7-C2-N1=353.15           H23-C7-C2-C3=178.43           
C2-C7-C6-C5=359.97            C2-C7-C6-H22=179.32           H23-C7-C6-C5=179.47           H23-C7-C6-H22=358.82          
C9-C8-C5-C4=281.62            C9-C8-C5-C6= 98.05            H24-C8-C5-C4=161.33           H24-C8-C5-C6=337.76           
H25-C8-C5-C4= 41.42           H25-C8-C5-C6=217.85           H26-C9-C8-C5= 66.01           H26-C9-C8-H24=187.95          
H26-C9-C8-H25=304.46          N44-C9-C8-C5=307.96           N44-C9-C8-H24= 69.90          N44-C9-C8-H25=186.41          
C45-C9-C8-C5=186.56           C45-C9-C8-H24=308.50          C45-C9-C8-H25= 65.01          
 
 CMA Distance (Angstroems)
 ---------------------------
R(CMA):  6.7618
           -------------------------------------------------
          |                Final Singlepoint                |
           -------------------------------------------------

          ...................................................
          :                      SETUP                      :
          :.................................................:
          :  # basis functions                 135          :
          :  # atomic orbitals                 135          :
          :  # shells                           83          :
          :  # electrons                       148          :
          :  max. iterations                   250          :
          :  Hamiltonian                  GFN2-xTB          :
          :  restarted?                      false          :
          :  GBSA solvation                  false          :
          :  PC potential                    false          :
          :  electronic temp.          500.0000000     K    :
          :  accuracy                    1.0000000          :
          :  -> integral cutoff          0.2500000E+02      :
          :  -> integral neglect         0.1000000E-07      :
          :  -> SCF convergence          0.1000000E-05 Eh   :
          :  -> wf. convergence          0.1000000E-03 e    :
          :  Broyden damping             0.4000000          :
          :  net charge                          0          :
          :  unpaired electrons                  0          :
          ...................................................

 iter      E             dE          RMSdq      gap      omega  full diag
   1    -84.5401508 -0.845402E+02  0.622E-05    2.21       0.0  T
   2    -84.5401508 -0.203784E-10  0.423E-05    2.21     312.9  T
   3    -84.5401508 -0.332960E-10  0.265E-05    2.21     499.4  T

   *** convergence criteria satisfied after 3 iterations ***

         #    Occupation            Energy/Eh            Energy/eV
      -------------------------------------------------------------
         1        2.0000           -0.7122872             -19.3823
       ...           ...                  ...                  ...
        68        2.0000           -0.4165555             -11.3351
        69        2.0000           -0.4110983             -11.1866
        70        2.0000           -0.4062411             -11.0544
        71        2.0000           -0.4005105             -10.8984
        72        2.0000           -0.3995836             -10.8732
        73        2.0000           -0.3870644             -10.5326
        74        2.0000           -0.3662780              -9.9669 (HOMO)
        75                         -0.2850485              -7.7566 (LUMO)
        76                         -0.2246911              -6.1142
        77                         -0.2224976              -6.0545
        78                         -0.2153925              -5.8611
        79                         -0.2079151              -5.6577
       ...                                ...                  ...
       135                          0.6581269              17.9085
      -------------------------------------------------------------
                  HL-Gap            0.0812295 Eh            2.2104 eV
             Fermi-level           -0.3256633 Eh           -8.8617 eV

 SCC (total)                   0 d,  0 h,  0 min,  0.045 sec
 SCC setup                      ...        0 min,  0.000 sec (  0.000%)
 Dispersion                     ...        0 min,  0.000 sec (  0.000%)
 classical contributions        ...        0 min,  0.000 sec (  0.000%)
 integral evaluation            ...        0 min,  0.000 sec (  0.000%)
 iterations                     ...        0 min,  0.033 sec ( 73.334%)
 molecular gradient             ...        0 min,  0.012 sec ( 26.666%)
 printout                       ...        0 min,  0.000 sec (  0.000%)

         :::::::::::::::::::::::::::::::::::::::::::::::::::::
         ::                     SUMMARY                     ::
         :::::::::::::::::::::::::::::::::::::::::::::::::::::
         :: total energy             -83.439178090348 Eh    ::
         :: gradient norm              0.000342581987 Eh/a0 ::
         :: HOMO-LUMO gap              2.210367863174 eV    ::
         ::.................................................::
         :: SCC energy               -84.538200364008 Eh    ::
         :: -> isotropic ES            0.175891836943 Eh    ::
         :: -> anisotropic ES         -0.001637904065 Eh    ::
         :: -> anisotropic XC          0.029475706906 Eh    ::
         :: -> dispersion             -0.057999787526 Eh    ::
         :: repulsion energy           1.099022273661 Eh    ::
         :: add. restraining           0.000000000000 Eh    ::
         :: total charge               0.000000000000 e     ::
         :::::::::::::::::::::::::::::::::::::::::::::::::::::

           -------------------------------------------------
          |                Property Printout                |
           -------------------------------------------------

    * Orbital Energies and Occupations

         #    Occupation            Energy/Eh            Energy/eV
      -------------------------------------------------------------
         1        2.0000           -0.7122872             -19.3823
       ...           ...                  ...                  ...
        62        2.0000           -0.4362860             -11.8719
        63        2.0000           -0.4361694             -11.8688
        64        2.0000           -0.4338098             -11.8046
        65        2.0000           -0.4308631             -11.7244
        66        2.0000           -0.4267845             -11.6134
        67        2.0000           -0.4208860             -11.4529
        68        2.0000           -0.4165555             -11.3351
        69        2.0000           -0.4110983             -11.1866
        70        2.0000           -0.4062411             -11.0544
        71        2.0000           -0.4005105             -10.8984
        72        2.0000           -0.3995836             -10.8732
        73        2.0000           -0.3870644             -10.5326
        74        2.0000           -0.3662780              -9.9669 (HOMO)
        75                         -0.2850485              -7.7566 (LUMO)
        76                         -0.2246911              -6.1142
        77                         -0.2224976              -6.0545
        78                         -0.2153925              -5.8611
        79                         -0.2079151              -5.6577
        80                         -0.1698570              -4.6220
        81                         -0.0924575              -2.5159
        82                         -0.0016484              -0.0449
        83                          0.0079223               0.2156
        84                          0.0279950               0.7618
        85                          0.0734859               1.9997
       ...                                ...                  ...
       135                          0.6581269              17.9085
      -------------------------------------------------------------
                  HL-Gap            0.0812295 Eh            2.2104 eV
             Fermi-level           -0.3256633 Eh           -8.8617 eV

     #   Z          covCN         q      C6AA      α(0)
     1   7 N        2.649    -0.278    27.180     7.743
     2   6 C        2.900     0.077    26.290     8.407
     3   6 C        2.923    -0.059    29.459     8.901
     4   6 C        2.924    -0.038    28.947     8.823
     5   6 C        2.970    -0.005    28.135     8.701
     6   6 C        2.924    -0.044    29.090     8.845
     7   6 C        2.922    -0.063    29.570     8.917
     8   6 C        3.812    -0.070    21.828     6.650
     9   6 C        3.796     0.020    20.239     6.406
    10   6 C        2.775     0.209    23.578     7.953
    11   6 C        2.890    -0.064    29.588     8.918
    12   6 C        2.896    -0.001    28.043     8.683
    13   6 C        3.807    -0.061    21.665     6.626
    14   6 C        3.802    -0.046    21.402     6.586
    15   6 C        3.753    -0.110    22.669     6.790
    16   8 O        0.856    -0.426    22.201     6.317
    17   8 O        1.609    -0.608    25.375     6.799
    18   1 H        0.859     0.217     1.022     1.584
    19   1 H        0.860     0.170     1.275     1.769
    20   1 H        0.926     0.040     2.452     2.449
    21   1 H        0.926     0.031     2.565     2.505
    22   1 H        0.925     0.023     2.689     2.565
    23   1 H        0.925     0.024     2.668     2.554
    24   1 H        0.924     0.062     2.181     2.309
    25   1 H        0.924     0.058     2.218     2.329
    26   1 H        0.924     0.060     2.196     2.317
    27   1 H        0.860     0.183     1.196     1.713
    28   1 H        0.860     0.206     1.078     1.627
    29   1 H        0.923     0.011     2.875     2.652
    30   1 H        0.926     0.037     2.496     2.470
    31   1 H        0.925     0.064     2.152     2.294
    32   1 H        0.924     0.056     2.248     2.345
    33   1 H        0.924     0.046     2.368     2.406
    34   1 H        0.924     0.032     2.553     2.499
    35   1 H        0.924     0.033     2.544     2.495
    36   1 H        0.925     0.036     2.508     2.476
    37   1 H        0.925     0.033     2.542     2.493
    38   1 H        0.925     0.062     2.179     2.308
    39   1 H        0.803     0.319     0.667     1.283
    40   1 H        0.806     0.275     0.802     1.407
    41   8 O        1.609    -0.595    25.060     6.756
    42   1 H        0.805     0.298     0.728     1.340
    43   1 H        0.804     0.311     0.688     1.303
    44   7 N        2.692    -0.182    24.936     7.416
    45   6 C        2.753     0.264    22.553     7.776
    46   8 O        0.858    -0.434    22.375     6.342
    47   6 C        3.757    -0.141    23.274     6.878
    48   6 C        2.749     0.277    22.317     7.735
    49   8 O        0.859    -0.462    22.956     6.424
    50   1 H        0.925     0.051     2.306     2.375
    51   1 H        0.925     0.063     2.159     2.298
    52   1 H        0.925     0.074     2.042     2.234
    53   7 N        2.686    -0.177    24.839     7.402
    54   6 C        3.690    -0.043    21.526     6.640
    55   1 H        0.924     0.053     2.285     2.364
    56   1 H        0.924     0.049     2.330     2.387
    57   1 H        0.925     0.082     1.954     2.186

 Mol. C6AA /au·bohr⁶  :      29543.732376
 Mol. C8AA /au·bohr⁸  :     657866.069904
 Mol. α(0) /au        :        262.770988


Wiberg/Mayer (AO) data.
largest (>0.10) Wiberg bond orders for each atom

 ---------------------------------------------------------------------------
     #   Z sym  total        # sym  WBO       # sym  WBO       # sym  WBO
 ---------------------------------------------------------------------------
     1   7 N    3.356 --     2 C    1.155    19 H    0.951    18 H    0.888
                            10 C    0.108
     2   6 C    3.972 --     7 C    1.351     3 C    1.339     1 N    1.155
     3   6 C    3.989 --     4 C    1.472     2 C    1.339    20 H    0.967
                             6 C    0.101
     4   6 C    3.992 --     3 C    1.472     5 C    1.395    21 H    0.969
                             7 C    0.102
     5   6 C    3.976 --     6 C    1.403     4 C    1.395     8 C    1.010
     6   6 C    3.991 --     7 C    1.458     5 C    1.403    22 H    0.967
                             3 C    0.101
     7   6 C    3.988 --     6 C    1.458     2 C    1.351    23 H    0.969
                             4 C    0.102
     8   6 C    3.990 --     5 C    1.010     9 C    0.980    24 H    0.969
                            25 H    0.967
     9   6 C    3.961 --     8 C    0.980    44 N    0.973    26 H    0.953
                            45 C    0.913
    10   6 C    3.927 --    16 O    1.703    11 C    1.098    29 H    0.940
                             1 N    0.108
    11   6 C    3.989 --    12 C    1.804    10 C    1.098    30 H    0.965
    12   6 C    3.978 --    11 C    1.804    13 C    1.047    31 H    0.961
    13   6 C    3.996 --    12 C    1.047    14 C    0.978    33 H    0.972
                            32 H    0.952
    14   6 C    3.994 --    15 C    1.018    34 H    0.980    35 H    0.979
                            13 C    0.978
    15   6 C    3.993 --    14 C    1.018    37 H    0.988    36 H    0.986
                            38 H    0.981
    16   8 O    2.023 --    10 C    1.703
    17   8 O    1.835 --    40 H    0.922    39 H    0.851
    18   1 H    0.952 --     1 N    0.888
    19   1 H    0.971 --     1 N    0.951
    20   1 H    0.998 --     3 C    0.967
    21   1 H    0.999 --     4 C    0.969
    22   1 H    0.999 --     6 C    0.967
    23   1 H    0.999 --     7 C    0.969
    24   1 H    0.996 --     8 C    0.969
    25   1 H    0.995 --     8 C    0.967
    26   1 H    0.996 --     9 C    0.953
    27   1 H    0.966 --    44 N    0.931
    28   1 H    0.958 --    53 N    0.906
    29   1 H    0.999 --    10 C    0.940
    30   1 H    0.999 --    11 C    0.965
    31   1 H    0.996 --    12 C    0.961
    32   1 H    0.997 --    13 C    0.952
    33   1 H    0.998 --    13 C    0.972
    34   1 H    0.999 --    14 C    0.980
    35   1 H    0.999 --    14 C    0.979
    36   1 H    0.997 --    15 C    0.986
    37   1 H    0.999 --    15 C    0.988
    38   1 H    0.996 --    15 C    0.981
    39   1 H    0.898 --    17 O    0.851
    40   1 H    0.925 --    17 O    0.922
    41   8 O    1.875 --    42 H    0.899    43 H    0.876
    42   1 H    0.911 --    41 O    0.899
    43   1 H    0.903 --    41 O    0.876
    44   7 N    3.459 --    48 C    1.280     9 C    0.973    27 H    0.931
                            49 O    0.192
    45   6 C    3.956 --    46 O    1.680    53 N    1.291     9 C    0.913
    46   8 O    2.012 --    45 C    1.680    53 N    0.212
    47   6 C    3.993 --    48 C    0.984    52 H    0.981    50 H    0.976
                            51 H    0.965
    48   6 C    3.951 --    49 O    1.634    44 N    1.280    47 C    0.984
    49   8 O    1.985 --    48 C    1.634    44 N    0.192
    50   1 H    0.997 --    47 C    0.976
    51   1 H    0.996 --    47 C    0.965
    52   1 H    0.994 --    47 C    0.981
    53   7 N    3.465 --    45 C    1.291    54 C    1.006    28 H    0.906
                            46 O    0.212
    54   6 C    3.965 --    53 N    1.006    55 H    0.977    57 H    0.977
                            56 H    0.976
    55   1 H    0.997 --    54 C    0.977
    56   1 H    0.998 --    54 C    0.976
    57   1 H    0.993 --    54 C    0.977
 ---------------------------------------------------------------------------

Topologies differ in total number of bonds
Writing topology from bond orders to xtbtopo.mol

molecular dipole:
                 x           y           z       tot (Debye)
 q only:       -0.153       0.452      -0.939
   full:       -0.660       0.314      -1.461       4.151
molecular quadrupole (traceless):
                xx          xy          yy          xz          yz          zz
 q only:      -14.374      10.017       7.298      -4.489       2.043       7.076
  q+dip:      -20.495       6.423       7.959      -6.412       7.775      12.537
   full:      -20.947       6.584       8.032      -5.538       4.284      12.915

           -------------------------------------------------
          |                Geometry Summary                 |
           -------------------------------------------------

      molecular mass/u    :      369.4565437
   center of mass at/Å    :        2.6953625       1.5300480      -0.6348145
  moments of inertia/u·Å² :        0.1575538E+04   0.4771810E+04   0.5521630E+04
rotational constants/cm⁻¹ :        0.1069960E-01   0.3532754E-02   0.3053017E-02

 * 50 selected distances

     #   Z          #   Z                                           value/Å
     1   7 N        2   6 C                                       1.3790449
     2   6 C        3   6 C                                       1.3964909
     3   6 C        4   6 C                                       1.3786050
     4   6 C        5   6 C                                       1.3905062
     5   6 C        6   6 C                                       1.3895211
     2   6 C        7   6 C                                       1.3946653
     6   6 C        7   6 C                                       1.3809434
     8   6 C        9   6 C                                       1.5321244
    11   6 C       12   6 C                                       1.3353893
    12   6 C       13   6 C                                       1.4831993
    13   6 C       14   6 C                                       1.5347338 (max)
    14   6 C       15   6 C                                       1.5229149
    10   6 C       16   8 O                                       1.2250697
     1   7 N       18   1 H                                       1.0219878
     1   7 N       19   1 H                                       1.0091753
     3   6 C       20   1 H                                       1.0793307
     4   6 C       21   1 H                                       1.0805045
     6   6 C       22   1 H                                       1.0822679
     7   6 C       23   1 H                                       1.0812112
     8   6 C       24   1 H                                       1.0914898
     8   6 C       25   1 H                                       1.0905250
     9   6 C       26   1 H                                       1.0971400
    10   6 C       29   1 H                                       1.1029159
    11   6 C       30   1 H                                       1.0800940
    12   6 C       31   1 H                                       1.0830540
    13   6 C       32   1 H                                       1.0932544
    13   6 C       33   1 H                                       1.0905101
    14   6 C       34   1 H                                       1.0918998
    14   6 C       35   1 H                                       1.0923346
    15   6 C       36   1 H                                       1.0873064
    15   6 C       37   1 H                                       1.0880627
    15   6 C       38   1 H                                       1.0872929
    17   8 O       39   1 H                                       0.9761638
    17   8 O       40   1 H                                       0.9582040 (min)
    41   8 O       42   1 H                                       0.9636582
    41   8 O       43   1 H                                       0.9695564
     9   6 C       44   7 N                                       1.4533859
    27   1 H       44   7 N                                       1.0078488
    45   6 C       46   8 O                                       1.2132517
    44   7 N       48   6 C                                       1.3432891
    48   6 C       49   8 O                                       1.2214665
    47   6 C       50   1 H                                       1.0873114
    47   6 C       51   1 H                                       1.0885903
    47   6 C       52   1 H                                       1.0862226
    28   1 H       53   7 N                                       1.0152244
    45   6 C       53   7 N                                       1.3419112
    53   7 N       54   6 C                                       1.4421988
    54   6 C       55   1 H                                       1.0909080
    54   6 C       56   1 H                                       1.0919841
    54   6 C       57   1 H                                       1.0889310

 * 6 distinct bonds (by element types)

   Z      Z             #   av. dist./Å        max./Å        min./Å
   1 H    6 C          23     1.0883974     1.1029159     1.0793307
   6 C    6 C          11     1.4308267     1.5347338     1.3353893
   1 H    7 N           4     1.0135591     1.0219878     1.0078488
   6 C    7 N           5     1.3919660     1.4533859     1.3419112
   1 H    8 O           4     0.9668956     0.9761638     0.9582040
   6 C    8 O           3     1.2199293     1.2250697     1.2132517


optimized geometry written to: xtbopt.xyz


           -------------------------------------------------
          | TOTAL ENERGY              -83.439178090348 Eh   |
          | GRADIENT NORM               0.000342581987 Eh/α |
          | HOMO-LUMO GAP               2.210367863174 eV   |
           -------------------------------------------------

------------------------------------------------------------------------
 * finished run on 2026/08/20 at 20:35:02.724     
------------------------------------------------------------------------
 total:
 * wall-time:     0 d,  0 h,  0 min, 12.826 sec
 *  cpu-time:     0 d,  0 h,  0 min, 25.922 sec
 * ratio c/w:     2.021 speedup
 SCF:
 * wall-time:     0 d,  0 h,  0 min,  0.204 sec
 *  cpu-time:     0 d,  0 h,  0 min,  0.156 sec
 * ratio c/w:     0.766 speedup
 ANC optimizer:
 * wall-time:     0 d,  0 h,  0 min, 12.601 sec
 *  cpu-time:     0 d,  0 h,  0 min, 25.734 sec
 * ratio c/w:     2.042 speedup



===== STDERR =====

normal termination of xtb
