      -----------------------------------------------------------      
     |                   =====================                   |     
     |                           x T B                           |     
     |                   =====================                   |     
     |                         S. Grimme                         |     
     |          Mulliken Center for Theoretical Chemistry        |     
     |                    University of Bonn                     |     
      -----------------------------------------------------------      

   * xtb version 6.7.1pre (5071a88) compiled by 'Marcel@Raven' on 2024-07-23

   xtb is free software: you can redistribute it and/or modify it under
   the terms of the GNU Lesser General Public License as published by
   the Free Software Foundation, either version 3 of the License, or
   (at your option) any later version.
   
   xtb is distributed in the hope that it will be useful,
   but WITHOUT ANY WARRANTY; without even the implied warranty of
   MERCHANTABILITY or FITNESS FOR A PARTICULAR PURPOSE.  See the
   GNU Lesser General Public License for more details.
   
   Cite this work as:
   * C. Bannwarth, E. Caldeweyher, S. Ehlert, A. Hansen, P. Pracht,
     J. Seibert, S. Spicher, S. Grimme, WIREs Comput. Mol. Sci., 2020, 11,
     e01493. DOI: 10.1002/wcms.1493
   
   for GFN2-xTB:
   * C. Bannwarth, S. Ehlert and S. Grimme., J. Chem. Theory Comput., 2019,
     15, 1652-1671. DOI: 10.1021/acs.jctc.8b01176
   for GFN1-xTB:
   * S. Grimme, C. Bannwarth, P. Shushkov, J. Chem. Theory Comput., 2017,
     13, 1989-2009. DOI: 10.1021/acs.jctc.7b00118
   for GFN0-xTB:
   * P. Pracht, E. Caldeweyher, S. Ehlert, S. Grimme, ChemRxiv, 2019, preprint.
     DOI: 10.26434/chemrxiv.8326202.v1
   for GFN-FF:
   * S. Spicher and S. Grimme, Angew. Chem. Int. Ed., 2020, 59, 15665-15673.
     DOI: 10.1002/anie.202004239
   
   for ALPB and GBSA implicit solvation:
   * S. Ehlert, M. Stahn, S. Spicher, S. Grimme, J. Chem. Theory Comput.,
     2021, 17, 4250-4261. DOI: 10.1021/acs.jctc.1c00471
   
   for ddCOSMO and CPCM-X implicit solvation:
   * M. Stahn, S. Ehlert, S. Grimme, J. Phys. Chem. A,
     2023, XX, XXXX-XXXX. DOI: 10.1021/acs.jpca.3c04382
   
   for DFT-D4:
   * E. Caldeweyher, C. Bannwarth and S. Grimme, J. Chem. Phys., 2017,
     147, 034112. DOI: 10.1063/1.4993215
   * E. Caldeweyher, S. Ehlert, A. Hansen, H. Neugebauer, S. Spicher,
     C. Bannwarth and S. Grimme, J. Chem. Phys., 2019, 150, 154122.
     DOI: 10.1063/1.5090222
   * E. Caldeweyher, J.-M. Mewes, S. Ehlert and S. Grimme, Phys. Chem. Chem. Phys.
     2020, 22, 8499-8512. DOI: 10.1039/D0CP00502A
   
   for sTDA-xTB:
   * S. Grimme and C. Bannwarth, J. Chem. Phys., 2016, 145, 054103.
     DOI: 10.1063/1.4959605
   
   in the mass-spec context:
   * V. Asgeirsson, C. Bauer and S. Grimme, Chem. Sci., 2017, 8, 4879.
     DOI: 10.1039/c7sc00601b
   * J. Koopman and S. Grimme, ACS Omega 2019, 4, 12, 15120-15133.
     DOI: 10.1021/acsomega.9b02011
   
   for metadynamics refer to:
   * S. Grimme, J. Chem. Theory Comput., 2019, 155, 2847-2862
     DOI: 10.1021/acs.jctc.9b00143
   
   for SPH calculations refer to:
   * S. Spicher and S. Grimme, J. Chem. Theory Comput., 2021, 17, 1701-1714
     DOI: 10.1021/acs.jctc.0c01306
   
   for ONIOM refer to:
   * C. Plett, A. Katbashev, S. Ehlert, S. Grimme, M. Bursch,
     Phys. Chem. Chem. Phys., 2023, 25, 17860-17868. DOI: 10.1039/D3CP02178E
   
   for DIPRO refer to:
   * J. Kohn, N. Gildemeister, S. Grimme, D. Fazzi, A. Hansen,
     J. Chem. Phys., 2023, just accepted.
   
   for PTB refer to:
   * S. Grimme, M. Mueller, A. Hansen, J. Chem. Phys., 2023, 158, 124111.
     DOI: 10.1063/5.0137838
   
   with help from (in alphabetical order)
   P. Atkinson, C. Bannwarth, F. Bohle, G. Brandenburg, E. Caldeweyher
   M. Checinski, S. Dohm, S. Ehlert, S. Ehrlich, I. Gerasimov, C. Hölzer
   A. Katbashev, J. Kohn, J. Koopman, C. Lavigne, S. Lehtola, F. März, M. Müller,
   F. Musil, H. Neugebauer, J. Pisarek, C. Plett, P. Pracht, F. Pultar,
   J. Seibert, P. Shushkov, S. Spicher, M. Stahn, M. Steiner, T. Strunk,
   J. Stückrath, T. Rose, and J. Unsleber
   
 * started run on 2026/08/31 at 13:17:02.291     
   ID    Z sym.   atoms
    1    7 N      1, 44, 53
    2    6 C      2-15, 45, 47, 48, 54
    3    8 O      16, 17, 41, 46, 49
    4    1 H      18-40, 42, 43, 50-52, 55-57

           -------------------------------------------------
          |                Calculation Setup                |
           -------------------------------------------------

          program call               : C:\Users\Nayanika\Downloads\xtb-6.7.1pre-windows-x86_64\xtb-6.7.1\bin\xtb.exe D:\PhD_Thesis\LmrR_EVB\charges\fast_lmrr_5QM\xtb_preparation\stage2_five_xtb_protocols\GFN2_etemp500\TS1_2_to_PS1_2b\TS1_2_to_PS1_2b_RS_xtbopt.xyz --gfn 2 --chrg 0 --uhf 0 --etemp 500
          coordinate file            : D:\PhD_Thesis\LmrR_EVB\charges\fast_lmrr_5QM\xtb_preparation\stage2_five_xtb_protocols\GFN2_etemp500\TS1_2_to_PS1_2b\TS1_2_to_PS1_2b_RS_xtbopt.xyz
          omp threads                :                     1


molecular fragmentation (1/2 indicates fragments):
111111111222222221111111111122222222222222211111111111111
# atoms in fragment 1/2:    34    23
 fragment masses (1/2) :      235.28      134.17
CMA distance (Bohr)    :   9.582
constraining FC (au)   :  0.0500

           -------------------------------------------------
          |                 G F N 2 - x T B                 |
           -------------------------------------------------

        Reference                      10.1021/acs.jctc.8b01176
      * Hamiltonian:
        H0-scaling (s, p, d)           1.850000    2.230000    2.230000
        zeta-weighting                 0.500000
      * Dispersion:
        s8                             2.700000
        a1                             0.520000
        a2                             5.000000
        s9                             5.000000
      * Repulsion:
        kExp                           1.500000    1.000000
        rExp                           1.000000
      * Coulomb:
        alpha                          2.000000
        third order                    shell-resolved
        anisotropic                    true
        a3                             3.000000
        a5                             4.000000
        cn-shift                       1.200000
        cn-exp                         4.000000
        max-rad                        5.000000

q/qsh data taken from xtbrestart
CAMM data taken from xtbrestart

          ...................................................
          :                      SETUP                      :
          :.................................................:
          :  # basis functions                 135          :
          :  # atomic orbitals                 135          :
          :  # shells                           83          :
          :  # electrons                       148          :
          :  max. iterations                   250          :
          :  Hamiltonian                  GFN2-xTB          :
          :  restarted?                       true          :
          :  GBSA solvation                  false          :
          :  PC potential                    false          :
          :  electronic temp.          500.0000000     K    :
          :  accuracy                    1.0000000          :
          :  -> integral cutoff          0.2500000E+02      :
          :  -> integral neglect         0.1000000E-07      :
          :  -> SCF convergence          0.1000000E-05 Eh   :
          :  -> wf. convergence          0.1000000E-03 e    :
          :  Broyden damping             0.4000000          :
          :  net charge                          0          :
          :  unpaired electrons                  0          :
          ...................................................

 iter      E             dE          RMSdq      gap      omega  full diag
   1    -84.5393697 -0.845394E+02  0.998E-01    2.26       0.0  T
   2    -84.5401621 -0.792311E-03  0.589E-01    2.21       1.0  T
   3    -84.5396383  0.523727E-03  0.125E-01    2.19       1.0  T
   4    -84.5404375 -0.799166E-03  0.451E-02    2.19       1.0  T
   5    -84.5404841 -0.466439E-04  0.251E-02    2.20       1.0  T
   6    -84.5404955 -0.113975E-04  0.104E-02    2.19       1.3  T
   7    -84.5404971 -0.152485E-05  0.405E-03    2.19       3.3  T
   8    -84.5404973 -0.224061E-06  0.136E-03    2.19       9.7  T
   9    -84.5404973 -0.528049E-07  0.511E-04    2.19      25.9  T
  10    -84.5404973 -0.130792E-08  0.142E-04    2.19      93.4  T

   *** convergence criteria satisfied after 10 iterations ***

         #    Occupation            Energy/Eh            Energy/eV
      -------------------------------------------------------------
         1        2.0000           -0.7122879             -19.3823
       ...           ...                  ...                  ...
        68        2.0000           -0.4163264             -11.3288
        69        2.0000           -0.4111291             -11.1874
        70        2.0000           -0.4059685             -11.0470
        71        2.0000           -0.4006849             -10.9032
        72        2.0000           -0.3995671             -10.8728
        73        2.0000           -0.3869906             -10.5306
        74        2.0000           -0.3658536              -9.9554 (HOMO)
        75                         -0.2853109              -7.7637 (LUMO)
        76                         -0.2244940              -6.1088
        77                         -0.2223106              -6.0494
        78                         -0.2150197              -5.8510
        79                         -0.2079019              -5.6573
       ...                                ...                  ...
       135                          0.6585603              17.9203
      -------------------------------------------------------------
                  HL-Gap            0.0805427 Eh            2.1917 eV
             Fermi-level           -0.3255822 Eh           -8.8595 eV

 SCC (total)                   0 d,  0 h,  0 min,  0.170 sec
 SCC setup                      ...        0 min,  0.001 sec (  0.588%)
 Dispersion                     ...        0 min,  0.002 sec (  1.176%)
 classical contributions        ...        0 min,  0.001 sec (  0.588%)
 integral evaluation            ...        0 min,  0.027 sec ( 15.882%)
 iterations                     ...        0 min,  0.082 sec ( 48.235%)
 molecular gradient             ...        0 min,  0.056 sec ( 32.941%)
 printout                       ...        0 min,  0.000 sec (  0.000%)

         :::::::::::::::::::::::::::::::::::::::::::::::::::::
         ::                     SUMMARY                     ::
         :::::::::::::::::::::::::::::::::::::::::::::::::::::
         :: total energy             -83.439221586655 Eh    ::
         :: gradient norm              0.000565295450 Eh/a0 ::
         :: HOMO-LUMO gap              2.191679060270 eV    ::
         ::.................................................::
         :: SCC energy               -84.538532982867 Eh    ::
         :: -> isotropic ES            0.175782531743 Eh    ::
         :: -> anisotropic ES         -0.001574229497 Eh    ::
         :: -> anisotropic XC          0.029488322146 Eh    ::
         :: -> dispersion             -0.057929780767 Eh    ::
         :: repulsion energy           1.099311396212 Eh    ::
         :: add. restraining           0.000000000000 Eh    ::
         :: total charge               0.000000000000 e     ::
         :::::::::::::::::::::::::::::::::::::::::::::::::::::

           -------------------------------------------------
          |                Property Printout                |
           -------------------------------------------------

    * Orbital Energies and Occupations

         #    Occupation            Energy/Eh            Energy/eV
      -------------------------------------------------------------
         1        2.0000           -0.7122879             -19.3823
       ...           ...                  ...                  ...
        62        2.0000           -0.4360798             -11.8663
        63        2.0000           -0.4360075             -11.8644
        64        2.0000           -0.4337810             -11.8038
        65        2.0000           -0.4307123             -11.7203
        66        2.0000           -0.4266655             -11.6102
        67        2.0000           -0.4205231             -11.4430
        68        2.0000           -0.4163264             -11.3288
        69        2.0000           -0.4111291             -11.1874
        70        2.0000           -0.4059685             -11.0470
        71        2.0000           -0.4006849             -10.9032
        72        2.0000           -0.3995671             -10.8728
        73        2.0000           -0.3869906             -10.5306
        74        2.0000           -0.3658536              -9.9554 (HOMO)
        75                         -0.2853109              -7.7637 (LUMO)
        76                         -0.2244940              -6.1088
        77                         -0.2223106              -6.0494
        78                         -0.2150197              -5.8510
        79                         -0.2079019              -5.6573
        80                         -0.1699813              -4.6254
        81                         -0.0920983              -2.5061
        82                         -0.0015365              -0.0418
        83                          0.0079467               0.2162
        84                          0.0285951               0.7781
        85                          0.0735365               2.0010
       ...                                ...                  ...
       135                          0.6585603              17.9203
      -------------------------------------------------------------
                  HL-Gap            0.0805427 Eh            2.1917 eV
             Fermi-level           -0.3255822 Eh           -8.8595 eV

     #   Z          covCN         q      C6AA      α(0)
     1   7 N        2.648    -0.279    27.205     7.746
     2   6 C        2.900     0.077    26.289     8.407
     3   6 C        2.923    -0.059    29.467     8.902
     4   6 C        2.924    -0.038    28.950     8.824
     5   6 C        2.970    -0.005    28.139     8.701
     6   6 C        2.924    -0.044    29.084     8.844
     7   6 C        2.922    -0.063    29.571     8.918
     8   6 C        3.812    -0.070    21.823     6.649
     9   6 C        3.796     0.020    20.240     6.406
    10   6 C        2.774     0.209    23.574     7.952
    11   6 C        2.890    -0.064    29.587     8.918
    12   6 C        2.896    -0.000    28.037     8.682
    13   6 C        3.808    -0.061    21.667     6.626
    14   6 C        3.802    -0.046    21.405     6.587
    15   6 C        3.753    -0.110    22.668     6.789
    16   8 O        0.856    -0.425    22.186     6.315
    17   8 O        1.609    -0.607    25.356     6.796
    18   1 H        0.860     0.217     1.022     1.584
    19   1 H        0.860     0.169     1.281     1.773
    20   1 H        0.926     0.041     2.441     2.443
    21   1 H        0.926     0.031     2.569     2.506
    22   1 H        0.925     0.022     2.698     2.568
    23   1 H        0.925     0.024     2.672     2.556
    24   1 H        0.924     0.061     2.192     2.315
    25   1 H        0.924     0.059     2.211     2.325
    26   1 H        0.924     0.060     2.193     2.316
    27   1 H        0.860     0.183     1.196     1.713
    28   1 H        0.860     0.205     1.080     1.628
    29   1 H        0.923     0.011     2.873     2.651
    30   1 H        0.926     0.037     2.496     2.470
    31   1 H        0.925     0.064     2.152     2.294
    32   1 H        0.924     0.056     2.241     2.341
    33   1 H        0.924     0.046     2.364     2.405
    34   1 H        0.924     0.033     2.547     2.496
    35   1 H        0.924     0.033     2.544     2.494
    36   1 H        0.925     0.036     2.508     2.477
    37   1 H        0.925     0.033     2.545     2.495
    38   1 H        0.925     0.062     2.180     2.309
    39   1 H        0.804     0.318     0.668     1.284
    40   1 H        0.806     0.275     0.802     1.407
    41   8 O        1.609    -0.595    25.065     6.757
    42   1 H        0.805     0.298     0.727     1.339
    43   1 H        0.804     0.311     0.689     1.304
    44   7 N        2.692    -0.182    24.938     7.417
    45   6 C        2.753     0.264    22.553     7.777
    46   8 O        0.858    -0.434    22.373     6.342
    47   6 C        3.757    -0.141    23.278     6.879
    48   6 C        2.749     0.277    22.317     7.735
    49   8 O        0.859    -0.461    22.948     6.423
    50   1 H        0.925     0.053     2.288     2.366
    51   1 H        0.925     0.062     2.174     2.306
    52   1 H        0.925     0.074     2.045     2.236
    53   7 N        2.686    -0.177    24.835     7.401
    54   6 C        3.690    -0.043    21.528     6.640
    55   1 H        0.924     0.053     2.286     2.364
    56   1 H        0.924     0.049     2.330     2.387
    57   1 H        0.925     0.083     1.953     2.185

 Mol. C6AA /au·bohr⁶  :      29543.340429
 Mol. C8AA /au·bohr⁸  :     657858.367015
 Mol. α(0) /au        :        262.769588


Wiberg/Mayer (AO) data.
largest (>0.10) Wiberg bond orders for each atom

 ---------------------------------------------------------------------------
     #   Z sym  total        # sym  WBO       # sym  WBO       # sym  WBO
 ---------------------------------------------------------------------------
     1   7 N    3.353 --     2 C    1.156    19 H    0.951    18 H    0.888
                            10 C    0.105
     2   6 C    3.972 --     7 C    1.351     3 C    1.338     1 N    1.156
     3   6 C    3.989 --     4 C    1.472     2 C    1.338    20 H    0.967
                             6 C    0.101
     4   6 C    3.992 --     3 C    1.472     5 C    1.395    21 H    0.969
                             7 C    0.101
     5   6 C    3.977 --     6 C    1.403     4 C    1.395     8 C    1.010
     6   6 C    3.991 --     7 C    1.458     5 C    1.403    22 H    0.967
                             3 C    0.101
     7   6 C    3.988 --     6 C    1.458     2 C    1.351    23 H    0.969
                             4 C    0.101
     8   6 C    3.990 --     5 C    1.010     9 C    0.980    24 H    0.969
                            25 H    0.966
     9   6 C    3.961 --     8 C    0.980    44 N    0.973    26 H    0.952
                            45 C    0.914
    10   6 C    3.927 --    16 O    1.704    11 C    1.099    29 H    0.940
                             1 N    0.105
    11   6 C    3.989 --    12 C    1.803    10 C    1.099    30 H    0.965
    12   6 C    3.978 --    11 C    1.803    13 C    1.047    31 H    0.961
    13   6 C    3.996 --    12 C    1.047    14 C    0.978    33 H    0.972
                            32 H    0.951
    14   6 C    3.994 --    15 C    1.018    34 H    0.980    35 H    0.979
                            13 C    0.978
    15   6 C    3.993 --    14 C    1.018    37 H    0.988    36 H    0.986
                            38 H    0.981
    16   8 O    2.023 --    10 C    1.704
    17   8 O    1.835 --    40 H    0.922    39 H    0.852
    18   1 H    0.952 --     1 N    0.888
    19   1 H    0.971 --     1 N    0.951
    20   1 H    0.998 --     3 C    0.967
    21   1 H    0.999 --     4 C    0.969
    22   1 H    0.999 --     6 C    0.967
    23   1 H    0.999 --     7 C    0.969
    24   1 H    0.996 --     8 C    0.969
    25   1 H    0.995 --     8 C    0.966
    26   1 H    0.996 --     9 C    0.952
    27   1 H    0.966 --    44 N    0.931
    28   1 H    0.958 --    53 N    0.906
    29   1 H    0.999 --    10 C    0.940
    30   1 H    0.999 --    11 C    0.965
    31   1 H    0.996 --    12 C    0.961
    32   1 H    0.997 --    13 C    0.951
    33   1 H    0.998 --    13 C    0.972
    34   1 H    0.999 --    14 C    0.980
    35   1 H    0.999 --    14 C    0.979
    36   1 H    0.997 --    15 C    0.986
    37   1 H    0.999 --    15 C    0.988
    38   1 H    0.996 --    15 C    0.981
    39   1 H    0.899 --    17 O    0.852
    40   1 H    0.924 --    17 O    0.922
    41   8 O    1.875 --    42 H    0.898    43 H    0.877
    42   1 H    0.911 --    41 O    0.898
    43   1 H    0.903 --    41 O    0.877
    44   7 N    3.458 --    48 C    1.280     9 C    0.973    27 H    0.931
                            49 O    0.192
    45   6 C    3.956 --    46 O    1.681    53 N    1.290     9 C    0.914
    46   8 O    2.012 --    45 C    1.681    53 N    0.212
    47   6 C    3.993 --    48 C    0.984    52 H    0.982    50 H    0.974
                            51 H    0.966
    48   6 C    3.951 --    49 O    1.634    44 N    1.280    47 C    0.984
    49   8 O    1.985 --    48 C    1.634    44 N    0.192
    50   1 H    0.997 --    47 C    0.974
    51   1 H    0.996 --    47 C    0.966
    52   1 H    0.994 --    47 C    0.982
    53   7 N    3.465 --    45 C    1.290    54 C    1.006    28 H    0.906
                            46 O    0.212
    54   6 C    3.965 --    53 N    1.006    55 H    0.977    57 H    0.977
                            56 H    0.976
    55   1 H    0.997 --    54 C    0.977
    56   1 H    0.998 --    54 C    0.976
    57   1 H    0.993 --    54 C    0.977
 ---------------------------------------------------------------------------

Topologies differ in total number of bonds
Writing topology from bond orders to xtbtopo.mol

molecular dipole:
                 x           y           z       tot (Debye)
 q only:       -0.090       0.265      -1.029
   full:       -0.545       0.005      -1.560       4.202
molecular quadrupole (traceless):
                xx          xy          yy          xz          yz          zz
 q only:      -14.021       7.403       9.209      -8.347       2.362       4.812
  q+dip:      -19.222       2.435      11.311     -11.071       8.101       7.911
   full:      -19.807       2.956      10.394     -10.236       4.906       9.412


           -------------------------------------------------
          | TOTAL ENERGY              -83.439221586655 Eh   |
          | GRADIENT NORM               0.000565295450 Eh/α |
          | HOMO-LUMO GAP               2.191679060270 eV   |
           -------------------------------------------------

------------------------------------------------------------------------
 * finished run on 2026/08/31 at 13:17:02.615     
------------------------------------------------------------------------
 total:
 * wall-time:     0 d,  0 h,  0 min,  0.315 sec
 *  cpu-time:     0 d,  0 h,  0 min,  0.219 sec
 * ratio c/w:     0.694 speedup
 SCF:
 * wall-time:     0 d,  0 h,  0 min,  0.171 sec
 *  cpu-time:     0 d,  0 h,  0 min,  0.156 sec
 * ratio c/w:     0.914 speedup



===== STDERR =====

normal termination of xtb
