      -----------------------------------------------------------      
     |                   =====================                   |     
     |                           x T B                           |     
     |                   =====================                   |     
     |                         S. Grimme                         |     
     |          Mulliken Center for Theoretical Chemistry        |     
     |                    University of Bonn                     |     
      -----------------------------------------------------------      

   * xtb version 6.7.1pre (5071a88) compiled by 'Marcel@Raven' on 2024-07-23

   xtb is free software: you can redistribute it and/or modify it under
   the terms of the GNU Lesser General Public License as published by
   the Free Software Foundation, either version 3 of the License, or
   (at your option) any later version.
   
   xtb is distributed in the hope that it will be useful,
   but WITHOUT ANY WARRANTY; without even the implied warranty of
   MERCHANTABILITY or FITNESS FOR A PARTICULAR PURPOSE.  See the
   GNU Lesser General Public License for more details.
   
   Cite this work as:
   * C. Bannwarth, E. Caldeweyher, S. Ehlert, A. Hansen, P. Pracht,
     J. Seibert, S. Spicher, S. Grimme, WIREs Comput. Mol. Sci., 2020, 11,
     e01493. DOI: 10.1002/wcms.1493
   
   for GFN2-xTB:
   * C. Bannwarth, S. Ehlert and S. Grimme., J. Chem. Theory Comput., 2019,
     15, 1652-1671. DOI: 10.1021/acs.jctc.8b01176
   for GFN1-xTB:
   * S. Grimme, C. Bannwarth, P. Shushkov, J. Chem. Theory Comput., 2017,
     13, 1989-2009. DOI: 10.1021/acs.jctc.7b00118
   for GFN0-xTB:
   * P. Pracht, E. Caldeweyher, S. Ehlert, S. Grimme, ChemRxiv, 2019, preprint.
     DOI: 10.26434/chemrxiv.8326202.v1
   for GFN-FF:
   * S. Spicher and S. Grimme, Angew. Chem. Int. Ed., 2020, 59, 15665-15673.
     DOI: 10.1002/anie.202004239
   
   for ALPB and GBSA implicit solvation:
   * S. Ehlert, M. Stahn, S. Spicher, S. Grimme, J. Chem. Theory Comput.,
     2021, 17, 4250-4261. DOI: 10.1021/acs.jctc.1c00471
   
   for ddCOSMO and CPCM-X implicit solvation:
   * M. Stahn, S. Ehlert, S. Grimme, J. Phys. Chem. A,
     2023, XX, XXXX-XXXX. DOI: 10.1021/acs.jpca.3c04382
   
   for DFT-D4:
   * E. Caldeweyher, C. Bannwarth and S. Grimme, J. Chem. Phys., 2017,
     147, 034112. DOI: 10.1063/1.4993215
   * E. Caldeweyher, S. Ehlert, A. Hansen, H. Neugebauer, S. Spicher,
     C. Bannwarth and S. Grimme, J. Chem. Phys., 2019, 150, 154122.
     DOI: 10.1063/1.5090222
   * E. Caldeweyher, J.-M. Mewes, S. Ehlert and S. Grimme, Phys. Chem. Chem. Phys.
     2020, 22, 8499-8512. DOI: 10.1039/D0CP00502A
   
   for sTDA-xTB:
   * S. Grimme and C. Bannwarth, J. Chem. Phys., 2016, 145, 054103.
     DOI: 10.1063/1.4959605
   
   in the mass-spec context:
   * V. Asgeirsson, C. Bauer and S. Grimme, Chem. Sci., 2017, 8, 4879.
     DOI: 10.1039/c7sc00601b
   * J. Koopman and S. Grimme, ACS Omega 2019, 4, 12, 15120-15133.
     DOI: 10.1021/acsomega.9b02011
   
   for metadynamics refer to:
   * S. Grimme, J. Chem. Theory Comput., 2019, 155, 2847-2862
     DOI: 10.1021/acs.jctc.9b00143
   
   for SPH calculations refer to:
   * S. Spicher and S. Grimme, J. Chem. Theory Comput., 2021, 17, 1701-1714
     DOI: 10.1021/acs.jctc.0c01306
   
   for ONIOM refer to:
   * C. Plett, A. Katbashev, S. Ehlert, S. Grimme, M. Bursch,
     Phys. Chem. Chem. Phys., 2023, 25, 17860-17868. DOI: 10.1039/D3CP02178E
   
   for DIPRO refer to:
   * J. Kohn, N. Gildemeister, S. Grimme, D. Fazzi, A. Hansen,
     J. Chem. Phys., 2023, just accepted.
   
   for PTB refer to:
   * S. Grimme, M. Mueller, A. Hansen, J. Chem. Phys., 2023, 158, 124111.
     DOI: 10.1063/5.0137838
   
   with help from (in alphabetical order)
   P. Atkinson, C. Bannwarth, F. Bohle, G. Brandenburg, E. Caldeweyher
   M. Checinski, S. Dohm, S. Ehlert, S. Ehrlich, I. Gerasimov, C. Hölzer
   A. Katbashev, J. Kohn, J. Koopman, C. Lavigne, S. Lehtola, F. März, M. Müller,
   F. Musil, H. Neugebauer, J. Pisarek, C. Plett, P. Pracht, F. Pultar,
   J. Seibert, P. Shushkov, S. Spicher, M. Stahn, M. Steiner, T. Strunk,
   J. Stückrath, T. Rose, and J. Unsleber
   
 * started run on 2026/08/20 at 20:34:43.870     
   ID    Z sym.   atoms
    1    7 N      1, 44, 53
    2    6 C      2-15, 45, 47, 48, 54
    3    8 O      16, 17, 41, 46, 49
    4    1 H      18-40, 42, 43, 50-52, 55-57

           -------------------------------------------------
          |                Calculation Setup                |
           -------------------------------------------------

          program call               : C:\Users\Nayanika\Downloads\xtb-6.7.1pre-windows-x86_64\xtb-6.7.1\bin\xtb.exe D:\PhD_Thesis\LmrR_EVB\charges\fast_lmrr_5QM\xtb_preparation\stage2_five_xtb_protocols\GFN2_etemp500\TS1_2_to_PS1_2b\TS1_2_to_PS1_2b_RS_xtbopt.xyz --gfn 2 --chrg 0 --uhf 0 --hess --etemp 500
          coordinate file            : D:\PhD_Thesis\LmrR_EVB\charges\fast_lmrr_5QM\xtb_preparation\stage2_five_xtb_protocols\GFN2_etemp500\TS1_2_to_PS1_2b\TS1_2_to_PS1_2b_RS_xtbopt.xyz
          omp threads                :                     8


molecular fragmentation (1/2 indicates fragments):
111111111222222221111111111122222222222222211111111111111
# atoms in fragment 1/2:    34    23
 fragment masses (1/2) :      235.28      134.17
CMA distance (Bohr)    :   9.582
constraining FC (au)   :  0.0500

           -------------------------------------------------
          |                 G F N 2 - x T B                 |
           -------------------------------------------------

        Reference                      10.1021/acs.jctc.8b01176
      * Hamiltonian:
        H0-scaling (s, p, d)           1.850000    2.230000    2.230000
        zeta-weighting                 0.500000
      * Dispersion:
        s8                             2.700000
        a1                             0.520000
        a2                             5.000000
        s9                             5.000000
      * Repulsion:
        kExp                           1.500000    1.000000
        rExp                           1.000000
      * Coulomb:
        alpha                          2.000000
        third order                    shell-resolved
        anisotropic                    true
        a3                             3.000000
        a5                             4.000000
        cn-shift                       1.200000
        cn-exp                         4.000000
        max-rad                        5.000000

q/qsh data taken from xtbrestart
CAMM data taken from xtbrestart

          ...................................................
          :                      SETUP                      :
          :.................................................:
          :  # basis functions                 135          :
          :  # atomic orbitals                 135          :
          :  # shells                           83          :
          :  # electrons                       148          :
          :  max. iterations                   250          :
          :  Hamiltonian                  GFN2-xTB          :
          :  restarted?                       true          :
          :  GBSA solvation                  false          :
          :  PC potential                    false          :
          :  electronic temp.          500.0000000     K    :
          :  accuracy                    1.0000000          :
          :  -> integral cutoff          0.2500000E+02      :
          :  -> integral neglect         0.1000000E-07      :
          :  -> SCF convergence          0.1000000E-05 Eh   :
          :  -> wf. convergence          0.1000000E-03 e    :
          :  Broyden damping             0.4000000          :
          :  net charge                          0          :
          :  unpaired electrons                  0          :
          ...................................................

 iter      E             dE          RMSdq      gap      omega  full diag
   1    -84.5404973 -0.845405E+02  0.306E-06    2.19       0.0  T
   2    -84.5404973 -0.710543E-13  0.224E-06    2.19    5908.4  T
   3    -84.5404973 -0.852651E-13  0.129E-06    2.19   10241.8  T

   *** convergence criteria satisfied after 3 iterations ***

         #    Occupation            Energy/Eh            Energy/eV
      -------------------------------------------------------------
         1        2.0000           -0.7122875             -19.3823
       ...           ...                  ...                  ...
        68        2.0000           -0.4163255             -11.3288
        69        2.0000           -0.4111290             -11.1874
        70        2.0000           -0.4059668             -11.0469
        71        2.0000           -0.4006844             -10.9032
        72        2.0000           -0.3995672             -10.8728
        73        2.0000           -0.3869898             -10.5305
        74        2.0000           -0.3658524              -9.9554 (HOMO)
        75                         -0.2853101              -7.7637 (LUMO)
        76                         -0.2244926              -6.1088
        77                         -0.2223094              -6.0493
        78                         -0.2150187              -5.8510
        79                         -0.2079018              -5.6573
       ...                                ...                  ...
       135                          0.6585616              17.9204
      -------------------------------------------------------------
                  HL-Gap            0.0805424 Eh            2.1917 eV
             Fermi-level           -0.3255813 Eh           -8.8595 eV

 SCC (total)                   0 d,  0 h,  0 min,  0.035 sec
 SCC setup                      ...        0 min,  0.000 sec (  0.000%)
 Dispersion                     ...        0 min,  0.001 sec (  2.858%)
 classical contributions        ...        0 min,  0.000 sec (  0.000%)
 integral evaluation            ...        0 min,  0.002 sec (  5.714%)
 iterations                     ...        0 min,  0.019 sec ( 54.286%)
 molecular gradient             ...        0 min,  0.013 sec ( 37.143%)
 printout                       ...        0 min,  0.000 sec (  0.000%)

         :::::::::::::::::::::::::::::::::::::::::::::::::::::
         ::                     SUMMARY                     ::
         :::::::::::::::::::::::::::::::::::::::::::::::::::::
         :: total energy             -83.439221587023 Eh    ::
         :: gradient norm              0.000565821292 Eh/a0 ::
         :: HOMO-LUMO gap              2.191670079008 eV    ::
         ::.................................................::
         :: SCC energy               -84.538532983235 Eh    ::
         :: -> isotropic ES            0.175781794869 Eh    ::
         :: -> anisotropic ES         -0.001574234847 Eh    ::
         :: -> anisotropic XC          0.029488269592 Eh    ::
         :: -> dispersion             -0.057929786325 Eh    ::
         :: repulsion energy           1.099311396212 Eh    ::
         :: add. restraining           0.000000000000 Eh    ::
         :: total charge               0.000000000000 e     ::
         :::::::::::::::::::::::::::::::::::::::::::::::::::::

           ------------------------------------------------- 
          |                Numerical Hessian                |
           ------------------------------------------------- 
step length          :   0.00500
SCC accuracy         :   0.30000
Hessian scale factor :   1.00000
frozen atoms in %    :   0.00000    0
RMS gradient         :   0.00057
estimated CPU  time      4.70 min
estimated wall time      0.67 min

writing file <hessian>.

 projected vibrational frequencies (cm⁻¹)
eigval :       -0.00    -0.00    -0.00     0.00     0.00     0.00
eigval :       12.42    18.00    27.12    29.23    33.22    38.77
eigval :       47.60    54.35    59.60    61.44    71.84    75.60
eigval :       80.16    84.41    89.54    99.20   107.79   116.54
eigval :      125.64   129.66   139.36   155.41   156.62   171.01
eigval :      182.28   193.32   204.01   211.33   228.45   239.95
eigval :      262.21   288.11   290.14   295.34   301.09   330.91
eigval :      349.50   355.30   382.53   384.99   392.81   405.33
eigval :      415.52   435.65   444.74   448.95   476.41   488.48
eigval :      531.01   564.30   577.42   601.73   613.57   625.48
eigval :      642.77   667.84   673.74   692.11   725.20   728.51
eigval :      755.23   779.19   791.61   809.75   841.97   865.18
eigval :      870.16   883.32   892.61   908.84   921.67   922.89
eigval :      928.04   940.60   975.32   992.03   997.13  1002.42
eigval :     1009.95  1019.00  1034.25  1050.45  1073.90  1077.25
eigval :     1089.61  1104.61  1110.50  1116.73  1130.51  1144.79
eigval :     1160.48  1164.27  1196.44  1208.84  1219.61  1222.49
eigval :     1223.04  1238.87  1251.66  1265.53  1281.36  1284.81
eigval :     1287.40  1296.29  1312.33  1322.47  1342.97  1348.50
eigval :     1374.05  1381.85  1393.02  1418.77  1423.86  1430.15
eigval :     1433.55  1457.31  1462.63  1466.20  1472.18  1478.54
eigval :     1480.77  1484.33  1493.67  1501.39  1504.62  1514.29
eigval :     1547.88  1551.56  1577.23  1615.33  1636.25  1678.14
eigval :     1711.60  1758.82  2804.43  2913.83  2955.37  2969.81
eigval :     2970.43  2986.22  2991.39  2991.92  3003.71  3009.12
eigval :     3022.91  3030.16  3030.21  3032.34  3039.62  3050.99
eigval :     3055.36  3056.79  3065.27  3070.47  3074.80  3081.98
eigval :     3095.30  3221.98  3323.80  3324.84  3454.87  3462.17
eigval :     3468.07  3571.51  3666.53
           -------------------------------------------------
          |                Property Printout                |
           -------------------------------------------------

    * Orbital Energies and Occupations

         #    Occupation            Energy/Eh            Energy/eV
      -------------------------------------------------------------
         1        2.0000           -0.7122875             -19.3823
       ...           ...                  ...                  ...
        62        2.0000           -0.4360787             -11.8663
        63        2.0000           -0.4360074             -11.8644
        64        2.0000           -0.4337806             -11.8038
        65        2.0000           -0.4307108             -11.7202
        66        2.0000           -0.4266653             -11.6102
        67        2.0000           -0.4205218             -11.4430
        68        2.0000           -0.4163255             -11.3288
        69        2.0000           -0.4111290             -11.1874
        70        2.0000           -0.4059668             -11.0469
        71        2.0000           -0.4006844             -10.9032
        72        2.0000           -0.3995672             -10.8728
        73        2.0000           -0.3869898             -10.5305
        74        2.0000           -0.3658524              -9.9554 (HOMO)
        75                         -0.2853101              -7.7637 (LUMO)
        76                         -0.2244926              -6.1088
        77                         -0.2223094              -6.0493
        78                         -0.2150187              -5.8510
        79                         -0.2079018              -5.6573
        80                         -0.1699805              -4.6254
        81                         -0.0920969              -2.5061
        82                         -0.0015355              -0.0418
        83                          0.0079467               0.2162
        84                          0.0285959               0.7781
        85                          0.0735371               2.0010
       ...                                ...                  ...
       135                          0.6585616              17.9204
      -------------------------------------------------------------
                  HL-Gap            0.0805424 Eh            2.1917 eV
             Fermi-level           -0.3255813 Eh           -8.8595 eV

     #   Z          covCN         q      C6AA      α(0)
     1   7 N        2.648    -0.279    27.205     7.746
     2   6 C        2.900     0.077    26.289     8.407
     3   6 C        2.923    -0.059    29.467     8.902
     4   6 C        2.924    -0.038    28.950     8.824
     5   6 C        2.970    -0.005    28.139     8.701
     6   6 C        2.924    -0.044    29.084     8.844
     7   6 C        2.922    -0.063    29.571     8.918
     8   6 C        3.812    -0.070    21.823     6.649
     9   6 C        3.796     0.020    20.240     6.406
    10   6 C        2.774     0.209    23.574     7.952
    11   6 C        2.890    -0.064    29.587     8.918
    12   6 C        2.896    -0.000    28.037     8.682
    13   6 C        3.808    -0.061    21.667     6.626
    14   6 C        3.802    -0.046    21.405     6.587
    15   6 C        3.753    -0.110    22.668     6.789
    16   8 O        0.856    -0.425    22.186     6.315
    17   8 O        1.609    -0.607    25.356     6.796
    18   1 H        0.860     0.217     1.022     1.584
    19   1 H        0.860     0.169     1.281     1.773
    20   1 H        0.926     0.041     2.441     2.443
    21   1 H        0.926     0.031     2.569     2.506
    22   1 H        0.925     0.022     2.698     2.569
    23   1 H        0.925     0.024     2.672     2.556
    24   1 H        0.924     0.061     2.192     2.315
    25   1 H        0.924     0.059     2.211     2.325
    26   1 H        0.924     0.060     2.193     2.316
    27   1 H        0.860     0.183     1.196     1.713
    28   1 H        0.860     0.205     1.080     1.628
    29   1 H        0.923     0.011     2.873     2.651
    30   1 H        0.926     0.037     2.495     2.470
    31   1 H        0.925     0.064     2.152     2.294
    32   1 H        0.924     0.056     2.241     2.341
    33   1 H        0.924     0.046     2.364     2.405
    34   1 H        0.924     0.033     2.547     2.496
    35   1 H        0.924     0.033     2.544     2.494
    36   1 H        0.925     0.036     2.508     2.477
    37   1 H        0.925     0.033     2.545     2.495
    38   1 H        0.925     0.062     2.180     2.309
    39   1 H        0.804     0.318     0.668     1.284
    40   1 H        0.806     0.275     0.802     1.407
    41   8 O        1.609    -0.595    25.065     6.757
    42   1 H        0.805     0.298     0.727     1.339
    43   1 H        0.804     0.311     0.689     1.304
    44   7 N        2.692    -0.182    24.938     7.417
    45   6 C        2.753     0.264    22.553     7.777
    46   8 O        0.858    -0.434    22.373     6.342
    47   6 C        3.757    -0.141    23.278     6.879
    48   6 C        2.749     0.277    22.317     7.735
    49   8 O        0.859    -0.461    22.948     6.423
    50   1 H        0.925     0.053     2.288     2.366
    51   1 H        0.925     0.062     2.174     2.306
    52   1 H        0.925     0.074     2.045     2.236
    53   7 N        2.686    -0.177    24.835     7.401
    54   6 C        3.690    -0.043    21.528     6.640
    55   1 H        0.924     0.053     2.286     2.364
    56   1 H        0.924     0.049     2.330     2.387
    57   1 H        0.925     0.083     1.953     2.185

 Mol. C6AA /au·bohr⁶  :      29543.335000
 Mol. C8AA /au·bohr⁸  :     657858.300497
 Mol. α(0) /au        :        262.769564


Wiberg/Mayer (AO) data.
largest (>0.10) Wiberg bond orders for each atom

 ---------------------------------------------------------------------------
     #   Z sym  total        # sym  WBO       # sym  WBO       # sym  WBO
 ---------------------------------------------------------------------------
     1   7 N    3.353 --     2 C    1.156    19 H    0.951    18 H    0.888
                            10 C    0.105
     2   6 C    3.972 --     7 C    1.351     3 C    1.338     1 N    1.156
     3   6 C    3.989 --     4 C    1.472     2 C    1.338    20 H    0.967
                             6 C    0.101
     4   6 C    3.992 --     3 C    1.472     5 C    1.395    21 H    0.969
                             7 C    0.101
     5   6 C    3.977 --     6 C    1.403     4 C    1.395     8 C    1.010
     6   6 C    3.991 --     7 C    1.458     5 C    1.403    22 H    0.967
                             3 C    0.101
     7   6 C    3.988 --     6 C    1.458     2 C    1.351    23 H    0.969
                             4 C    0.101
     8   6 C    3.990 --     5 C    1.010     9 C    0.980    24 H    0.969
                            25 H    0.966
     9   6 C    3.961 --     8 C    0.980    44 N    0.973    26 H    0.952
                            45 C    0.914
    10   6 C    3.927 --    16 O    1.704    11 C    1.099    29 H    0.940
                             1 N    0.105
    11   6 C    3.989 --    12 C    1.803    10 C    1.099    30 H    0.965
    12   6 C    3.978 --    11 C    1.803    13 C    1.047    31 H    0.961
    13   6 C    3.996 --    12 C    1.047    14 C    0.978    33 H    0.972
                            32 H    0.951
    14   6 C    3.994 --    15 C    1.018    34 H    0.980    35 H    0.979
                            13 C    0.978
    15   6 C    3.993 --    14 C    1.018    37 H    0.988    36 H    0.986
                            38 H    0.981
    16   8 O    2.023 --    10 C    1.704
    17   8 O    1.835 --    40 H    0.922    39 H    0.852
    18   1 H    0.952 --     1 N    0.888
    19   1 H    0.971 --     1 N    0.951
    20   1 H    0.998 --     3 C    0.967
    21   1 H    0.999 --     4 C    0.969
    22   1 H    0.999 --     6 C    0.967
    23   1 H    0.999 --     7 C    0.969
    24   1 H    0.996 --     8 C    0.969
    25   1 H    0.995 --     8 C    0.966
    26   1 H    0.996 --     9 C    0.952
    27   1 H    0.966 --    44 N    0.931
    28   1 H    0.958 --    53 N    0.906
    29   1 H    0.999 --    10 C    0.940
    30   1 H    0.999 --    11 C    0.965
    31   1 H    0.996 --    12 C    0.961
    32   1 H    0.997 --    13 C    0.951
    33   1 H    0.998 --    13 C    0.972
    34   1 H    0.999 --    14 C    0.980
    35   1 H    0.999 --    14 C    0.979
    36   1 H    0.997 --    15 C    0.986
    37   1 H    0.999 --    15 C    0.988
    38   1 H    0.996 --    15 C    0.981
    39   1 H    0.899 --    17 O    0.852
    40   1 H    0.924 --    17 O    0.922
    41   8 O    1.875 --    42 H    0.898    43 H    0.877
    42   1 H    0.911 --    41 O    0.898
    43   1 H    0.903 --    41 O    0.877
    44   7 N    3.458 --    48 C    1.280     9 C    0.973    27 H    0.931
                            49 O    0.192
    45   6 C    3.956 --    46 O    1.681    53 N    1.290     9 C    0.914
    46   8 O    2.012 --    45 C    1.681    53 N    0.212
    47   6 C    3.993 --    48 C    0.984    52 H    0.982    50 H    0.974
                            51 H    0.966
    48   6 C    3.951 --    49 O    1.634    44 N    1.280    47 C    0.984
    49   8 O    1.985 --    48 C    1.634    44 N    0.192
    50   1 H    0.997 --    47 C    0.974
    51   1 H    0.996 --    47 C    0.966
    52   1 H    0.994 --    47 C    0.982
    53   7 N    3.465 --    45 C    1.290    54 C    1.006    28 H    0.906
                            46 O    0.212
    54   6 C    3.965 --    53 N    1.006    55 H    0.977    57 H    0.977
                            56 H    0.976
    55   1 H    0.997 --    54 C    0.977
    56   1 H    0.998 --    54 C    0.976
    57   1 H    0.993 --    54 C    0.977
 ---------------------------------------------------------------------------

Topologies differ in total number of bonds
Writing topology from bond orders to xtbtopo.mol

molecular dipole:
                 x           y           z       tot (Debye)
 q only:       -0.090       0.265      -1.029
   full:       -0.546       0.005      -1.560       4.202
molecular quadrupole (traceless):
                xx          xy          yy          xz          yz          zz
 q only:      -14.021       7.403       9.209      -8.347       2.362       4.812
  q+dip:      -19.222       2.435      11.311     -11.071       8.102       7.911
   full:      -19.807       2.956      10.394     -10.236       4.906       9.413

           -------------------------------------------------
          |               Frequency Printout                |
           -------------------------------------------------
 projected vibrational frequencies (cm⁻¹)
eigval :       -0.00    -0.00    -0.00     0.00     0.00     0.00
eigval :       12.42    18.00    27.12    29.23    33.22    38.77
eigval :       47.60    54.35    59.60    61.44    71.84    75.60
eigval :       80.16    84.41    89.54    99.20   107.79   116.54
eigval :      125.64   129.66   139.36   155.41   156.62   171.01
eigval :      182.28   193.32   204.01   211.33   228.45   239.95
eigval :      262.21   288.11   290.14   295.34   301.09   330.91
eigval :      349.50   355.30   382.53   384.99   392.81   405.33
eigval :      415.52   435.65   444.74   448.95   476.41   488.48
eigval :      531.01   564.30   577.42   601.73   613.57   625.48
eigval :      642.77   667.84   673.74   692.11   725.20   728.51
eigval :      755.23   779.19   791.61   809.75   841.97   865.18
eigval :      870.16   883.32   892.61   908.84   921.67   922.89
eigval :      928.04   940.60   975.32   992.03   997.13  1002.42
eigval :     1009.95  1019.00  1034.25  1050.45  1073.90  1077.25
eigval :     1089.61  1104.61  1110.50  1116.73  1130.51  1144.79
eigval :     1160.48  1164.27  1196.44  1208.84  1219.61  1222.49
eigval :     1223.04  1238.87  1251.66  1265.53  1281.36  1284.81
eigval :     1287.40  1296.29  1312.33  1322.47  1342.97  1348.50
eigval :     1374.05  1381.85  1393.02  1418.77  1423.86  1430.15
eigval :     1433.55  1457.31  1462.63  1466.20  1472.18  1478.54
eigval :     1480.77  1484.33  1493.67  1501.39  1504.62  1514.29
eigval :     1547.88  1551.56  1577.23  1615.33  1636.25  1678.14
eigval :     1711.60  1758.82  2804.43  2913.83  2955.37  2969.81
eigval :     2970.43  2986.22  2991.39  2991.92  3003.71  3009.12
eigval :     3022.91  3030.16  3030.21  3032.34  3039.62  3050.99
eigval :     3055.36  3056.79  3065.27  3070.47  3074.80  3081.98
eigval :     3095.30  3221.98  3323.80  3324.84  3454.87  3462.17
eigval :     3468.07  3571.51  3666.53
 reduced masses (amu)
   1: 12.43   2: 12.22   3: 12.31   4: 12.14   5: 11.99   6: 12.02   7: 11.58   8: 12.14
   9: 13.09  10: 11.72  11: 12.40  12: 11.92  13: 11.29  14: 12.73  15: 10.23  16: 10.92
  17:  4.18  18:  7.14  19: 10.03  20: 10.87  21: 10.62  22:  9.46  23: 11.51  24: 12.00
  25:  2.35  26: 11.44  27: 11.16  28:  6.57  29: 11.39  30: 12.10  31: 12.30  32: 11.28
  33: 10.77  34: 11.68  35: 11.02  36: 12.36  37:  1.96  38:  4.30  39: 11.07  40:  9.09
  41: 10.03  42:  9.70  43:  8.91  44: 10.79  45:  8.62  46:  3.56  47:  8.63  48:  6.65
  49:  9.56  50:  5.81  51:  4.67  52:  9.46  53: 10.49  54: 10.70  55:  9.49  56:  2.99
  57:  8.19  58: 10.01  59: 10.79  60:  2.59  61:  8.36  62:  2.39  63:  9.27  64:  7.96
  65:  9.87  66: 11.45  67:  5.89  68:  9.23  69:  2.54  70:  6.05  71:  3.70  72:  3.44
  73:  8.29  74:  9.89  75:  3.69  76:  2.69  77:  5.04  78:  4.28  79:  8.59  80:  6.05
  81: 10.93  82:  5.69  83:  4.87  84:  5.30  85:  3.97  86:  8.37  87:  7.85  88:  4.28
  89:  5.41  90:  6.66  91:  8.80  92:  3.91  93:  7.23  94:  8.04  95:  7.37  96:  3.20
  97:  8.47  98:  6.20  99:  1.85 100:  5.25 101:  4.99 102:  5.85 103:  4.67 104:  3.42
 105:  4.64 106:  2.47 107:  4.30 108:  3.24 109:  3.70 110:  4.03 111:  5.78 112:  9.66
 113: 11.14 114:  4.98 115:  3.28 116:  3.43 117:  2.62 118:  3.23 119: 10.00 120:  9.73
 121:  8.62 122:  1.67 123:  1.57 124:  1.64 125:  2.10 126:  2.20 127:  3.66 128:  2.47
 129:  1.87 130:  1.53 131:  1.62 132:  9.21 133:  2.35 134:  2.44 135: 11.54 136: 11.54
 137: 12.05 138: 12.05 139: 13.11 140: 13.20 141:  1.70 142:  1.74 143:  1.77 144:  1.89
 145:  1.89 146:  1.55 147:  1.50 148:  1.94 149:  1.54 150:  1.70 151:  1.84 152:  1.72
 153:  1.66 154:  1.73 155:  1.65 156:  1.79 157:  1.73 158:  1.79 159:  1.75 160:  1.86
 161:  1.80 162:  1.83 163:  1.86 164:  1.78 165:  1.87 166:  1.88 167:  1.84 168:  1.90
 169:  1.90 170:  1.77 171:  1.84
 IR intensities (km·mol⁻¹)
   1:  0.18   2:  0.23   3:  0.09   4:  0.02   5:  0.04   6:  0.15   7:  0.23   8:  0.30
   9:  0.46  10:  0.34  11:  3.01  12:  1.36  13:  4.81  14:  5.34  15:  1.83  16:  0.41
  17:  3.82  18:  3.27  19:  0.68  20:  6.76  21:  0.55  22:  7.93  23: 16.78  24: 14.02
  25:  0.54  26:  5.18  27: 10.51  28: 36.92  29: 16.71  30: 10.43  31: 21.57  32: 24.48
  33: 37.84  34: 24.45  35: 29.16  36:  7.74  37:  0.50  38: 39.93  39: 11.76  40:  7.34
  41:  5.88  42: 21.24  43: 23.77  44: 29.74  45:  4.84  46: 36.93  47: 31.00  48: 83.37
  49: 16.68  50:140.00  51: 97.36  52:  4.80  53:  3.04  54:  0.28  55: 14.05  56: 47.97
  57:  5.06  58: 30.09  59: 20.83  60:558.88  61: 51.50  62:148.02  63: 44.11  64: 25.71
  65: 65.21  66: 11.83  67:  3.74  68:  9.06  69: 19.25  70: 18.56  71:149.91  72:  6.44
  73:  2.34  74:  1.40  75: 10.37  76:  0.78  77: 27.53  78: 18.69  79:  2.23  80:  3.38
  81: 19.37  82:  3.21  83: 18.71  84: 23.96  85: 22.63  86:  0.09  87: 18.71  88:  3.21
  89:  8.30  90: 24.39  91:  0.07  92:  0.49  93: 11.63  94: 28.25  95: 23.17  96:  1.52
  97:  0.42  98:  1.40  99:  4.26 100:  2.79 101:  1.87 102: 11.20 103:  5.39 104: 11.88
 105: 34.02 106:  0.69 107: 14.49 108:  2.39 109:  3.82 110:  2.78 111: 14.46 112: 34.76
 113:  7.85 114:  5.76 115: 18.58 116: 21.47 117:  3.05 118:  2.47 119:208.03 120: 16.07
 121:227.40 122:  2.78 123: 10.37 124: 10.03 125:  5.72 126:  3.38 127: 17.47 128: 23.06
 129:  1.19 130:  4.05 131:  5.22 132:176.96 133:200.21 134: 20.13 135:  3.28 136:  9.95
 137:714.62 138:183.18 139:316.10 140:578.90 141:110.65 142: 13.52 143:  5.29 144: 27.84
 145: 43.87 146: 30.57 147: 41.63 148: 13.95 149: 18.19 150: 22.37 151: 12.20 152: 32.95
 153: 26.85 154:  6.86 155: 46.31 156: 35.78 157:  0.14 158: 17.06 159:  4.16 160: 58.93
 161: 18.18 162: 36.38 163: 22.86 164:510.08 165:751.27 166: 92.38 167: 22.88 168:191.64
 169: 54.72 170: 45.68 171:  9.14
 Raman intensities (Ä⁴*amu⁻¹)
   1:  0.00   2:  0.00   3:  0.00   4:  0.00   5:  0.00   6:  0.00   7:  0.00   8:  0.00
   9:  0.00  10:  0.00  11:  0.00  12:  0.00  13:  0.00  14:  0.00  15:  0.00  16:  0.00
  17:  0.00  18:  0.00  19:  0.00  20:  0.00  21:  0.00  22:  0.00  23:  0.00  24:  0.00
  25:  0.00  26:  0.00  27:  0.00  28:  0.00  29:  0.00  30:  0.00  31:  0.00  32:  0.00
  33:  0.00  34:  0.00  35:  0.00  36:  0.00  37:  0.00  38:  0.00  39:  0.00  40:  0.00
  41:  0.00  42:  0.00  43:  0.00  44:  0.00  45:  0.00  46:  0.00  47:  0.00  48:  0.00
  49:  0.00  50:  0.00  51:  0.00  52:  0.00  53:  0.00  54:  0.00  55:  0.00  56:  0.00
  57:  0.00  58:  0.00  59:  0.00  60:  0.00  61:  0.00  62:  0.00  63:  0.00  64:  0.00
  65:  0.00  66:  0.00  67:  0.00  68:  0.00  69:  0.00  70:  0.00  71:  0.00  72:  0.00
  73:  0.00  74:  0.00  75:  0.00  76:  0.00  77:  0.00  78:  0.00  79:  0.00  80:  0.00
  81:  0.00  82:  0.00  83:  0.00  84:  0.00  85:  0.00  86:  0.00  87:  0.00  88:  0.00
  89:  0.00  90:  0.00  91:  0.00  92:  0.00  93:  0.00  94:  0.00  95:  0.00  96:  0.00
  97:  0.00  98:  0.00  99:  0.00 100:  0.00 101:  0.00 102:  0.00 103:  0.00 104:  0.00
 105:  0.00 106:  0.00 107:  0.00 108:  0.00 109:  0.00 110:  0.00 111:  0.00 112:  0.00
 113:  0.00 114:  0.00 115:  0.00 116:  0.00 117:  0.00 118:  0.00 119:  0.00 120:  0.00
 121:  0.00 122:  0.00 123:  0.00 124:  0.00 125:  0.00 126:  0.00 127:  0.00 128:  0.00
 129:  0.00 130:  0.00 131:  0.00 132:  0.00 133:  0.00 134:  0.00 135:  0.00 136:  0.00
 137:  0.00 138:  0.00 139:  0.00 140:  0.00 141:  0.00 142:  0.00 143:  0.00 144:  0.00
 145:  0.00 146:  0.00 147:  0.00 148:  0.00 149:  0.00 150:  0.00 151:  0.00 152:  0.00
 153:  0.00 154:  0.00 155:  0.00 156:  0.00 157:  0.00 158:  0.00 159:  0.00 160:  0.00
 161:  0.00 162:  0.00 163:  0.00 164:  0.00 165:  0.00 166:  0.00 167:  0.00 168:  0.00
 169:  0.00 170:  0.00 171:  0.00
 output can be read by thermo (or use thermo option).
 writing <g98.out> molden fake output.
 recommended (thermochemical) frequency scaling factor: 1.0
           -------------------------------------------------
          |             Thermodynamic Functions             |
           -------------------------------------------------

Refinement of some symmetry elements was terminated before convergence was reached.
Some symmetry elements may remain unidentified.
Molecule has no symmetry elements
It seems to be the C1 point group
c1  symmetry found (for desy threshold:  0.10E+00) used in thermo

          ...................................................
          :                      SETUP                      :
          :.................................................:
          :  # frequencies                         165      :
          :  # imaginary freq.                       0      :
          :  linear?                             false      :
          :  only rotor calc.                    false      :
          :  symmetry                               c1      :
          :  rotational number                       1      :
          :  scaling factor                  1.0000000      :
          :  rotor cutoff                   50.0000000 cm⁻¹ :
          :  imag. cutoff                  -20.0000000 cm⁻¹ :
          :.................................................:

    mode    ω/cm⁻¹     T·S(HO)/kcal·mol⁻¹    T·S(FR)/kcal·mol⁻¹   T·S(vib)
   ------------------------------------------------------------------------
       1     12.42    -2.26009 (  0.38%)    -1.46902 ( 99.62%)    -1.47202
       2     18.00    -2.04047 (  1.65%)    -1.35919 ( 98.35%)    -1.37043
       3     27.12    -1.79770 (  7.97%)    -1.23771 ( 92.03%)    -1.28233
       4     29.23    -1.75351 ( 10.45%)    -1.21559 ( 89.55%)    -1.27181
       5     33.22    -1.67777 ( 16.31%)    -1.17765 ( 83.69%)    -1.25920
       6     38.77    -1.58643 ( 26.55%)    -1.13187 ( 73.45%)    -1.25257
       7     47.60    -1.46534 ( 45.09%)    -1.07111 ( 54.91%)    -1.24888
       8     54.35    -1.38709 ( 58.27%)    -1.03179 ( 41.73%)    -1.23883
       9     59.60    -1.33287 ( 66.87%)    -1.00451 ( 33.13%)    -1.22409
      10     61.44    -1.31493 ( 69.52%)    -0.99548 ( 30.48%)    -1.21755
      11     71.84    -1.22306 ( 81.00%)    -0.94915 ( 19.00%)    -1.17101
      12     75.60    -1.19318 ( 83.94%)    -0.93405 ( 16.06%)    -1.15156
      13     80.16    -1.15888 ( 86.85%)    -0.91670 ( 13.15%)    -1.12704
      14     84.41    -1.12867 ( 89.04%)    -0.90140 ( 10.96%)    -1.10376
      15     89.54    -1.09426 ( 91.14%)    -0.88394 (  8.86%)    -1.07562
      16     99.20    -1.03457 ( 93.94%)    -0.85357 (  6.06%)    -1.02359
      17    107.79    -0.98635 ( 95.58%)    -0.82897 (  4.42%)    -0.97939
      18    116.54    -0.94124 ( 96.72%)    -0.80585 (  3.28%)    -0.93680
      19    125.64    -0.89797 ( 97.55%)    -0.78359 (  2.45%)    -0.89517
      20    129.66    -0.87985 ( 97.84%)    -0.77425 (  2.16%)    -0.87757
      21    139.36    -0.83860 ( 98.37%)    -0.75289 (  1.63%)    -0.83721
      22    155.41    -0.77665 ( 98.94%)    -0.72059 (  1.06%)    -0.77606
      23    156.62    -0.77228 ( 98.97%)    -0.71830 (  1.03%)    -0.77172
      24    171.01    -0.72283 ( 99.27%)    -0.69226 (  0.73%)    -0.72261
      25    182.28    -0.68721 ( 99.44%)    -0.67334 (  0.56%)    -0.68713
      26    193.32    -0.65466 ( 99.55%)    -0.65592 (  0.45%)    -0.65466
      27    204.01    -0.62512 ( 99.64%)    -0.63999 (  0.36%)    -0.62517
      28    211.33    -0.60588 ( 99.69%)    -0.62954 (  0.31%)    -0.60596
      29    228.45    -0.56383 ( 99.77%)    -0.60647 (  0.23%)    -0.56392
      30    239.95    -0.53764 ( 99.81%)    -0.59192 (  0.19%)    -0.53775
      31    262.21    -0.49106 ( 99.87%)    -0.56564 (  0.13%)    -0.49116
      32    288.11    -0.44277 ( 99.91%)    -0.53773 (  0.09%)    -0.44285
      33    290.14    -0.43923 ( 99.91%)    -0.53566 (  0.09%)    -0.43931
      34    295.34    -0.43028 ( 99.92%)    -0.53039 (  0.08%)    -0.43036
   ------------------------------------------------------------------------

   temp. (K)  partition function   enthalpy   heat capacity  entropy
                                   cal/mol     cal/K/mol   cal/K/mol   J/K/mol
 298.15  VIB  0.596E+17            19704.991    106.874    129.514
         ROT  0.155E+08              888.752      2.981     35.888
         INT  0.926E+24            20593.743    109.854    165.403
         TR   0.687E+28             1481.254      4.968     43.594
         TOT                       22074.9970   114.8226   208.9962   874.4403

       T/K    H(0)-H(T)+PV         H(T)/Eh          T*S/Eh         G(T)/Eh
   ------------------------------------------------------------------------
    298.15    0.351787E-01    0.502993E+00    0.993009E-01    0.403692E+00
   ------------------------------------------------------------------------

         :::::::::::::::::::::::::::::::::::::::::::::::::::::
         ::                  THERMODYNAMIC                  ::
         :::::::::::::::::::::::::::::::::::::::::::::::::::::
         :: total free energy         -83.035529837042 Eh   ::
         ::.................................................::
         :: total energy              -83.439221587023 Eh   ::
         :: zero point energy           0.467813862081 Eh   ::
         :: G(RRHO) w/o ZPVE           -0.064122112100 Eh   ::
         :: G(RRHO) contrib.            0.403691749981 Eh   ::
         :::::::::::::::::::::::::::::::::::::::::::::::::::::

           -------------------------------------------------
          | TOTAL ENERGY              -83.439221587023 Eh   |
          | TOTAL ENTHALPY            -82.936228978072 Eh   |
          | TOTAL FREE ENERGY         -83.035529837042 Eh   |
          | GRADIENT NORM               0.000565833920 Eh/α |
          | HOMO-LUMO GAP               2.191669684295 eV   |
           -------------------------------------------------

------------------------------------------------------------------------
 * finished run on 2026/08/20 at 20:34:49.831     
------------------------------------------------------------------------
 total:
 * wall-time:     0 d,  0 h,  0 min,  5.959 sec
 *  cpu-time:     0 d,  0 h,  0 min, 36.172 sec
 * ratio c/w:     6.070 speedup
 SCF:
 * wall-time:     0 d,  0 h,  0 min,  0.035 sec
 *  cpu-time:     0 d,  0 h,  0 min,  0.031 sec
 * ratio c/w:     0.893 speedup
 analytical hessian:
 * wall-time:     0 d,  0 h,  0 min,  5.865 sec
 *  cpu-time:     0 d,  0 h,  0 min, 36.078 sec
 * ratio c/w:     6.151 speedup



===== STDERR =====

normal termination of xtb
