57
 energy: -83.437178177329 gnorm: 0.000228163458 xtb: 6.7.1pre (5071a88)
N           -0.22827689096380       -0.35793879410679        0.55221031750261
C            1.14849153310327       -0.33629366322568        0.61220088527020
C            1.80339099247923        0.65461282400512        1.34656387685073
C            3.17398043423642        0.78440919706648        1.28099834705339
C            3.93760586906483       -0.06643657739811        0.48930861860244
C            3.28795044060528       -1.07649126474527       -0.20924174113103
C            1.91521577611709       -1.21818961318664       -0.14894381625949
C            5.41391972017916        0.16336295408882        0.33475575874882
C            5.66360456130599        1.39644842253915       -0.53801666035474
C           -0.89428835443071        0.92032331315694       -1.34229701165319
C            0.27970710141084        1.77198863092571       -1.22629329915870
C            0.27134292487173        2.95596196084560       -0.60951205445673
C            1.45753067741167        3.83707413315947       -0.47137581652736
C            1.30260515760320        5.12100203004052       -1.29860439840945
C            2.56012173467752        5.97554010203618       -1.21353497874462
O           -2.02673964413392        1.21145797585136       -0.97828069768887
O           -2.92806866999631       -1.31634295210725        0.20443471538300
H           -0.71275201872981        0.15326180495762        1.27778390380409
H           -0.68622835134819       -1.22746241023978        0.31128345477740
H            1.21885453899861        1.32630200751729        1.95764664448539
H            3.66286962725026        1.56186961637740        1.85008983281768
H            3.86446411225093       -1.76869057042629       -0.80828104263945
H            1.42342862224364       -2.00466391569740       -0.70308244023814
H            5.90050756174866       -0.69646686896041       -0.12879745224589
H            5.88787113641727        0.33103618485001        1.30289040574960
H            5.30308182895822        2.30356263850955       -0.03760859024557
H            4.71572832232838        0.34415517203329       -2.09883196003144
H            6.66325503699320        3.41611668642462       -1.55539933640469
H           -0.73316336384257        0.00915482924021       -1.94265605065981
H            1.19531866405869        1.38185076541375       -1.64587379464945
H           -0.66064332774058        3.32693515720188       -0.20159751910324
H            1.57917454897385        4.11364160803245        0.57910393992046
H            2.35647402734625        3.31036555975540       -0.79442972425713
H            1.11556863710458        4.84980560551628       -2.33975750251897
H            0.43893379722925        5.68564656059651       -0.94015757947260
H            2.45651760113515        6.86724810449985       -1.82710008332636
H            2.74383979271575        6.28414665956804       -0.18658914169476
H            3.42084151529553        5.41056923935343       -1.56339791883668
H           -3.02104991071746       -0.80052914902440        1.01390532113919
H           -2.92797582171840       -0.66169545616908       -0.50330887973707
O           -2.61858384263987        1.19152047022364        1.68836573645829
H           -2.48176593095852        1.37837563031436        0.74266918151910
H           -3.36285395742154        1.72816367780762        1.96547054147123
N            4.92156797029178        1.27842439373025       -1.78212796201670
C            7.16608421822231        1.57674579228849       -0.84677057749907
O            7.99053240940321        0.70937650979721       -0.64810815379954
C            3.64697044452410        2.00602374944902       -3.68694610911027
C            4.48008600190605        2.34302775852520       -2.47321169259178
O            4.74992641813854        3.48783980305106       -2.14398599597227
H            2.96942629361508        1.18107190493700       -3.48204374674699
H            4.30751082998913        1.72180117141658       -4.50451263009950
H            3.08053223099217        2.88230905905475       -3.98915919139615
N            7.43533199388097        2.78725160889690       -1.36106376013264
C            8.75741263448261        3.17493881078251       -1.78744122458810
H            9.06289646817342        4.09344708700979       -1.28429962247604
H            8.78609705418652        3.33463941088726       -2.86725938981499
H            9.44181882290794        2.37039465355564       -1.52278193487459
