76
 energy: -110.294759883287 gnorm: 0.000197475620 xtb: 6.7.1pre (5071a88)
N            0.46153197402950        0.21618662133350        1.23565746662977
C            1.80567027369960       -0.01625112244428        0.85888520919996
C            2.83074464666540        0.73290348806932        1.43049360307670
C            4.14535569461824        0.50420524171035        1.08041514333612
C            4.48222516957999       -0.47521925228669        0.15195645982508
C            3.46233398476387       -1.24658840933829       -0.38730596948493
C            2.14297981675688       -1.02895597659581       -0.03326713514797
C            5.90985976107934       -0.66403914006896       -0.27948890625435
C            6.50507532307576        0.63837923647227       -0.81930693607011
C           -0.25233656291198        1.31362191617490        0.62229831826231
C            0.48615755680936        2.64164857545682        0.73099429670795
C           -0.42232183335541        3.83816985749730        0.40221159184252
C            0.41688773715735        5.08517295133465        0.07949597309115
C            0.84322087518280        5.11746072364367       -1.38753708318979
C            1.82121204453391        6.25174371196698       -1.66659076405693
O           -0.49142922633744        1.07123293573863       -0.76764363261510
N           -2.37309774642680        4.63339048702691        3.44986876211143
C           -3.36351815054673        4.07486510253471        2.69747332621382
C           -2.78975587935542        3.70003139351742        1.45879571295912
C           -1.40673820132276        4.06709694261648        1.51033368895626
C           -4.70381148844626        3.85879078685234        2.98571205712600
C           -3.59784173801435        3.09245121307761        0.49597013747284
C           -1.19403103811885        4.62777437559333        2.74254085165522
C           -5.47615116781578        3.25801849874039        2.01472201289833
C           -4.92727339199164        2.88088755135188        0.78652103579306
C            0.02740740292145        5.20987631102121        3.36421101832635
O           -1.92039943165905        2.50147532696518       -2.70406706045709
H           -0.07775141171545       -0.63866958430864        1.12672548641835
H           -1.03925254507744        0.28244740474993       -0.85835021598293
H            2.59400069883812        1.48330662643729        2.16631916592045
H            4.92320428975532        1.09460776480578        1.54131846414750
H            3.70025894567816       -2.02825777368585       -1.09533132708244
H            1.36552291130304       -1.64701221729076       -0.46273469744630
H            5.97861108561681       -1.42583677671830       -1.05857238529566
H            6.52369343717167       -0.99881556491373        0.55943041220130
H            6.71157489781236        1.34542715756527       -0.00687006562573
H            4.86704910073515        0.70007496689665       -2.14786282867465
H            8.06958440063858        2.40015713412187       -1.54697648868136
H           -1.21900240767345        1.38820274210117        1.14343816848916
H            1.33545598727565        2.61717809593156        0.04732103678578
H           -0.99724524685876        3.59627307776060       -0.49318900564835
H           -0.17482376681712        5.97750554776977        0.28844059914699
H            1.30313619553625        5.11396962716251        0.71573171742359
H            1.31043168687912        4.16667319876450       -1.65537757536482
H           -0.04522942838229        5.24643364308187       -2.00754771997803
H            2.09038029196487        6.27495300960401       -2.72027703565567
H            1.37317643624051        7.20851781624714       -1.40922467762244
H            2.73084812771929        6.13067960464671       -1.08069739039192
H           -2.48250958795722        5.00526984559511        4.37798202799284
H           -2.97916882252890        5.26076107083308       -1.35519059719535
H           -5.12347168447114        4.15251367942523        3.93695809274789
H           -3.19603961499137        2.79021922971872       -0.45921022039324
H           -6.52355559935861        3.07467001829403        2.20333563552178
H           -5.56532819057543        2.41384524102729        0.05056136702992
H            0.92355497252041        4.72641987644926        2.98833055909382
H            0.10136134241244        6.27553140676174        3.14315954797170
H           -0.00662754779486        5.08920273514560        4.44615614636590
H            0.85305989680819        2.73894022759447        1.75070749142083
H           -1.42484918481313        2.55840361055678       -3.52260732424684
O           -2.50901977575052        5.22084173368513       -2.19014040337697
H           -1.32597129529177        2.10991902977888       -2.04269276422854
H           -2.43418109115315        4.27919015301225       -2.41030594664513
N            5.55652207894462        1.28859940162657       -1.70805889341876
C            7.83185193057815        0.38170089099126       -1.56755722725289
O            8.20219661225779       -0.72580997149137       -1.89823032099535
C            4.32923769369401        3.11327883295290       -2.67356922649807
C            5.49910693273153        2.62659814153821       -1.85270792247571
O            6.33658977937275        3.36564674036257       -1.36336300179717
H            3.40238734266719        2.68605219102444       -2.29755470477783
H            4.45777103555281        2.81194904554262       -3.71127830423573
H            4.27788636302918        4.19677945821383       -2.62321605463779
N            8.50358676861118        1.51859164725887       -1.80318400914935
C            9.74830733308759        1.55205010442627       -2.53015393019832
H           10.52526691103185        2.02612349422839       -1.92839097569360
H            9.63680650080298        2.10425273328193       -3.46536491260838
H           10.03464880984437        0.52431458354840       -2.74847694361485
