76
 energy: -110.273359590645 gnorm: 0.000202548584 xtb: 6.7.1pre (5071a88)
N            0.23562026917474        0.45036334977902       -0.48964324566876
C            1.56949824973736        0.16222021922239       -0.27175362032883
C            2.29795211669448        0.68782286651791        0.79660996013742
C            3.64843715334258        0.43226053760261        0.91066760369805
C            4.30542893835416       -0.38479054945200       -0.00027079107613
C            3.55022501371112       -1.01141663507495       -0.98462205393844
C            2.20422885667818       -0.74746014177653       -1.12069338687318
C            5.80311698107881       -0.43852170002907       -0.03734080609521
C            6.27716775712297        0.72642746272570       -0.92782529894589
C           -0.41399765508916        1.64682777909609       -0.24286145660837
C            0.10075048697224        2.81494369523884        0.14250996483749
C           -0.77189285789747        4.01472867175136        0.40562912729059
C            0.03884816286721        5.31815552930292        0.47225539182155
C            0.68673463295899        5.68206004566540       -0.86170364550376
C            1.37333983781478        7.04076716178285       -0.79345423123331
O            0.32763415013105        0.18660227675950       -3.50923420374364
N           -2.20634644836777        3.41905523224538        3.77459824338727
C           -3.34725829131719        3.76227760678784        3.11361878804422
C           -2.98924361245601        4.02769350303738        1.76782898096245
C           -1.57551748614103        3.82734193679825        1.66422744110797
C           -4.65593944109736        3.87676537114423        3.56183433953518
C           -3.98345448004841        4.40722670060499        0.86369860974271
C           -1.13822755457615        3.45877351124595        2.90852466119745
C           -5.61357652290163        4.25927118436921        2.64649836437279
C           -5.27981180658808        4.51911280795898        1.31432487795630
C            0.21665265130766        3.10917979503923        3.41156970940218
O            1.50744963824059        2.55006550920974       -2.80186523245691
H           -0.17082869419810       -0.09177666580201       -1.24204083670431
H           -0.18582672138287        0.38389879389866       -4.29375019662568
H            1.80271065474005        1.29905864593362        1.53249608396539
H            4.20909088346718        0.88817565618776        1.71471199207191
H            4.02759825322639       -1.70099903925447       -1.66785389770824
H            1.63575714218252       -1.20584262676804       -1.91622051000986
H            6.16700246664263       -1.37847074233229       -0.45518495870622
H            6.23816107206326       -0.31327907875429        0.95397731089634
H            5.87603497244027        1.66682151424949       -0.53166521519290
H            6.03383924406319       -0.23403334558353       -2.77220706065201
H            7.55263433471003        2.58413475713294       -1.97569938867655
H           -1.48200761988517        1.57667658123803       -0.41563962452660
H            1.16028097108227        2.93767184100351        0.30229215935621
H           -1.49170436690597        4.10821299915088       -0.41669411297007
H           -0.62718648859303        6.13024447915287        0.77215325250748
H            0.81078156101965        5.23173502173953        1.23953896291911
H            1.42286982474327        4.92548753176838       -1.13952562357095
H           -0.07833427565688        5.70232251037316       -1.64146671558296
H            1.82414247385090        7.28988579379471       -1.75138139982437
H            0.65663335175026        7.81749126246162       -0.53600600327856
H            2.15543974151512        7.03503589959893       -0.03714166826174
H           -2.14377812648800        3.17577407620947        4.74837811761284
H           -2.48995417099857        6.20862952736846        2.23975484022290
H           -4.91204224052323        3.67271065394581        4.59105688550218
H           -3.74064430349025        4.61296520335578       -0.16827815625185
H           -6.64188815663750        4.35892334551193        2.96064963612214
H           -6.06064883020777        4.81286769463039        0.62815849419635
H            0.97427843855411        3.38932962362510        2.68846009946455
H            0.41872196767394        3.62793954498333        4.34868798599213
H            0.29014187561552        2.03567713594110        3.59459209233440
H            2.44351882581970        2.48045667049595       -2.53521912469775
H            1.02666156780326        2.82516443627012       -2.01382765383298
O           -2.64766585826657        7.13646610345845        2.44421811807366
H            0.78441963335686        1.02124530565729       -3.27685242519056
H           -3.59948906372144        7.25282246285577        2.44696377109643
N            5.74855027678271        0.59499886107501       -2.27299356632191
C            7.80716120525450        0.80745175472510       -1.00742612574127
O            8.54658499960889       -0.04612761696562       -0.56992225107214
C            4.07285633484802        0.77324600728784       -4.00006379565825
C            4.64031980225691        1.24619979187903       -2.68724461103457
O            4.15651644647844        2.17572275785399       -2.05975228512113
H            3.21922515031805        0.13055617827085       -3.78800378969227
H            4.80205261062823        0.22217966678064       -4.58652315068658
H            3.70764669946505        1.62587858883700       -4.56683777501511
N            8.23235009653386        1.92003769876727       -1.63959818305159
C            9.62803247049082        2.20980467919698       -1.85995447068993
H            9.91050735506980        3.14308992313629       -1.36996224161086
H            9.84384290852742        2.28637793747090       -2.92719000265010
H           10.20181456448856        1.38940647058806       -1.43209107281574
