      -----------------------------------------------------------      
     |                   =====================                   |     
     |                           x T B                           |     
     |                   =====================                   |     
     |                         S. Grimme                         |     
     |          Mulliken Center for Theoretical Chemistry        |     
     |                    University of Bonn                     |     
      -----------------------------------------------------------      

   * xtb version 6.7.1pre (5071a88) compiled by 'Marcel@Raven' on 2024-07-23

   xtb is free software: you can redistribute it and/or modify it under
   the terms of the GNU Lesser General Public License as published by
   the Free Software Foundation, either version 3 of the License, or
   (at your option) any later version.
   
   xtb is distributed in the hope that it will be useful,
   but WITHOUT ANY WARRANTY; without even the implied warranty of
   MERCHANTABILITY or FITNESS FOR A PARTICULAR PURPOSE.  See the
   GNU Lesser General Public License for more details.
   
   Cite this work as:
   * C. Bannwarth, E. Caldeweyher, S. Ehlert, A. Hansen, P. Pracht,
     J. Seibert, S. Spicher, S. Grimme, WIREs Comput. Mol. Sci., 2020, 11,
     e01493. DOI: 10.1002/wcms.1493
   
   for GFN2-xTB:
   * C. Bannwarth, S. Ehlert and S. Grimme., J. Chem. Theory Comput., 2019,
     15, 1652-1671. DOI: 10.1021/acs.jctc.8b01176
   for GFN1-xTB:
   * S. Grimme, C. Bannwarth, P. Shushkov, J. Chem. Theory Comput., 2017,
     13, 1989-2009. DOI: 10.1021/acs.jctc.7b00118
   for GFN0-xTB:
   * P. Pracht, E. Caldeweyher, S. Ehlert, S. Grimme, ChemRxiv, 2019, preprint.
     DOI: 10.26434/chemrxiv.8326202.v1
   for GFN-FF:
   * S. Spicher and S. Grimme, Angew. Chem. Int. Ed., 2020, 59, 15665-15673.
     DOI: 10.1002/anie.202004239
   
   for ALPB and GBSA implicit solvation:
   * S. Ehlert, M. Stahn, S. Spicher, S. Grimme, J. Chem. Theory Comput.,
     2021, 17, 4250-4261. DOI: 10.1021/acs.jctc.1c00471
   
   for ddCOSMO and CPCM-X implicit solvation:
   * M. Stahn, S. Ehlert, S. Grimme, J. Phys. Chem. A,
     2023, XX, XXXX-XXXX. DOI: 10.1021/acs.jpca.3c04382
   
   for DFT-D4:
   * E. Caldeweyher, C. Bannwarth and S. Grimme, J. Chem. Phys., 2017,
     147, 034112. DOI: 10.1063/1.4993215
   * E. Caldeweyher, S. Ehlert, A. Hansen, H. Neugebauer, S. Spicher,
     C. Bannwarth and S. Grimme, J. Chem. Phys., 2019, 150, 154122.
     DOI: 10.1063/1.5090222
   * E. Caldeweyher, J.-M. Mewes, S. Ehlert and S. Grimme, Phys. Chem. Chem. Phys.
     2020, 22, 8499-8512. DOI: 10.1039/D0CP00502A
   
   for sTDA-xTB:
   * S. Grimme and C. Bannwarth, J. Chem. Phys., 2016, 145, 054103.
     DOI: 10.1063/1.4959605
   
   in the mass-spec context:
   * V. Asgeirsson, C. Bauer and S. Grimme, Chem. Sci., 2017, 8, 4879.
     DOI: 10.1039/c7sc00601b
   * J. Koopman and S. Grimme, ACS Omega 2019, 4, 12, 15120-15133.
     DOI: 10.1021/acsomega.9b02011
   
   for metadynamics refer to:
   * S. Grimme, J. Chem. Theory Comput., 2019, 155, 2847-2862
     DOI: 10.1021/acs.jctc.9b00143
   
   for SPH calculations refer to:
   * S. Spicher and S. Grimme, J. Chem. Theory Comput., 2021, 17, 1701-1714
     DOI: 10.1021/acs.jctc.0c01306
   
   for ONIOM refer to:
   * C. Plett, A. Katbashev, S. Ehlert, S. Grimme, M. Bursch,
     Phys. Chem. Chem. Phys., 2023, 25, 17860-17868. DOI: 10.1039/D3CP02178E
   
   for DIPRO refer to:
   * J. Kohn, N. Gildemeister, S. Grimme, D. Fazzi, A. Hansen,
     J. Chem. Phys., 2023, just accepted.
   
   for PTB refer to:
   * S. Grimme, M. Mueller, A. Hansen, J. Chem. Phys., 2023, 158, 124111.
     DOI: 10.1063/5.0137838
   
   with help from (in alphabetical order)
   P. Atkinson, C. Bannwarth, F. Bohle, G. Brandenburg, E. Caldeweyher
   M. Checinski, S. Dohm, S. Ehlert, S. Ehrlich, I. Gerasimov, C. Hölzer
   A. Katbashev, J. Kohn, J. Koopman, C. Lavigne, S. Lehtola, F. März, M. Müller,
   F. Musil, H. Neugebauer, J. Pisarek, C. Plett, P. Pracht, F. Pultar,
   J. Seibert, P. Shushkov, S. Spicher, M. Stahn, M. Steiner, T. Strunk,
   J. Stückrath, T. Rose, and J. Unsleber
   
 * started run on 2026/08/31 at 13:16:12.668     
   ID    Z sym.   atoms
    1    7 N      1, 44, 53
    2    6 C      2-15, 45, 47, 48, 54
    3    8 O      16, 17, 41, 46, 49
    4    1 H      18-40, 42, 43, 50-52, 55-57

           -------------------------------------------------
          |                Calculation Setup                |
           -------------------------------------------------

          program call               : C:\Users\Nayanika\Downloads\xtb-6.7.1pre-windows-x86_64\xtb-6.7.1\bin\xtb.exe D:\PhD_Thesis\LmrR_EVB\charges\fast_lmrr_5QM\xtb_preparation\RS1_2b_to_PS1_3\RS1_2b_to_PS1_3_PS.xyz --gfn 2 --opt tight --chrg 0 --uhf 0 --etemp 0
          coordinate file            : D:\PhD_Thesis\LmrR_EVB\charges\fast_lmrr_5QM\xtb_preparation\RS1_2b_to_PS1_3\RS1_2b_to_PS1_3_PS.xyz
          omp threads                :                     1


molecular fragmentation (1/2 indicates fragments):
111111111111111221211111111111111111112222211111111111111
# atoms in fragment 1/2:    49     8
 fragment masses (1/2) :      316.42       53.04
CMA distance (Bohr)    :  10.684
constraining FC (au)   :  0.0500

           -------------------------------------------------
          |                 G F N 2 - x T B                 |
           -------------------------------------------------

        Reference                      10.1021/acs.jctc.8b01176
      * Hamiltonian:
        H0-scaling (s, p, d)           1.850000    2.230000    2.230000
        zeta-weighting                 0.500000
      * Dispersion:
        s8                             2.700000
        a1                             0.520000
        a2                             5.000000
        s9                             5.000000
      * Repulsion:
        kExp                           1.500000    1.000000
        rExp                           1.000000
      * Coulomb:
        alpha                          2.000000
        third order                    shell-resolved
        anisotropic                    true
        a3                             3.000000
        a5                             4.000000
        cn-shift                       1.200000
        cn-exp                         4.000000
        max-rad                        5.000000


          ...................................................
          :                      SETUP                      :
          :.................................................:
          :  # basis functions                 135          :
          :  # atomic orbitals                 135          :
          :  # shells                           83          :
          :  # electrons                       148          :
          :  max. iterations                   250          :
          :  Hamiltonian                  GFN2-xTB          :
          :  restarted?                      false          :
          :  GBSA solvation                  false          :
          :  PC potential                    false          :
          :  electronic temp.            0.0000000     K    :
          :  accuracy                    1.0000000          :
          :  -> integral cutoff          0.2500000E+02      :
          :  -> integral neglect         0.1000000E-07      :
          :  -> SCF convergence          0.1000000E-05 Eh   :
          :  -> wf. convergence          0.1000000E-03 e    :
          :  Broyden damping             0.4000000          :
          :  net charge                          0          :
          :  unpaired electrons                  0          :
          ...................................................

 iter      E             dE          RMSdq      gap      omega  full diag
   1    -84.0470245 -0.840470E+02  0.440E+00    2.91       0.0  T
   2    -83.5777892  0.469235E+00  0.377E+00    0.01       1.0  T
   3    -84.1781782 -0.600389E+00  0.275E+00    3.35       1.0  T
   4    -84.2596845 -0.815063E-01  0.175E+00    2.80       1.0  T
   5    -84.2681525 -0.846797E-02  0.122E+00    1.32       1.0  T
   6    -83.6163082  0.651844E+00  0.309E+00    0.09       1.0  T
   7    -84.2705002 -0.654192E+00  0.120E+00    1.83       1.0  T
   8    -84.2724636 -0.196348E-02  0.113E+00    1.42       1.0  T
   9    -84.2759272 -0.346356E-02  0.105E+00    0.90       1.0  T
  10    -84.2788000 -0.287276E-02  0.980E-01    0.42       1.0  T
  11    -83.6254937  0.653306E+00  0.306E+00    0.08       1.0  T
  12    -84.2791818 -0.653688E+00  0.966E-01    0.34       1.0  T
  13    -84.2798596 -0.677819E-03  0.950E-01    0.23       1.0  T
  14    -84.2808078 -0.948206E-03  0.926E-01    0.07       1.0  T
  15    -83.6305566  0.650251E+00  0.304E+00    0.01       1.0  T
  16    -84.2792434 -0.648687E+00  0.965E-01    0.33       1.0  T
  17    -84.2805583 -0.131486E-02  0.932E-01    0.11       1.0  T
  18    -84.2808220 -0.263740E-03  0.926E-01    0.07       1.0  T
  19    -84.2803050  0.517068E-03  0.938E-01    0.15       1.0  T
  20    -83.6284560  0.651849E+00  0.304E+00    0.02       1.0  T
  21    -84.2787528 -0.650297E+00  0.978E-01    0.42       1.0  T
  22    -84.2792677 -0.514963E-03  0.965E-01    0.33       1.0  T
  23    -84.2803708 -0.110313E-02  0.936E-01    0.14       1.0  T
  24    -83.6232823  0.657088E+00  0.308E+00    0.09       1.0  T
  25    -84.2750910 -0.651809E+00  0.107E+00    1.03       1.0  T
  26    -84.2790883 -0.399730E-02  0.969E-01    0.36       1.0  T
  27    -84.2810836 -0.199537E-02  0.921E-01    0.04       1.0  T
  28    -83.6215662  0.659517E+00  0.309E+00    0.08       1.0  T
  29    -84.2712902 -0.649724E+00  0.116E+00    1.62       1.0  T
  30    -84.2785803 -0.729005E-02  0.982E-01    0.45       1.0  T
  31    -83.6268489  0.651731E+00  0.305E+00    0.04       1.0  T
  32    -84.2721006 -0.645252E+00  0.114E+00    1.51       1.0  T
  33    -84.2778015 -0.570089E-02  0.100E+00    0.58       1.0  T
  34    -84.2803115 -0.250997E-02  0.938E-01    0.15       1.0  T
  35    -83.6246253  0.655686E+00  0.307E+00    0.09       1.0  T
  36    -84.2690546 -0.644429E+00  0.120E+00    1.95       1.0  T
  37    -84.2774718 -0.841712E-02  0.101E+00    0.64       1.0  T
  38    -84.2801703 -0.269857E-02  0.941E-01    0.17       1.0  T
  39    -83.6235014  0.656669E+00  0.308E+00    0.09       1.0  T
  40    -84.2656434 -0.642142E+00  0.128E+00    2.44       1.0  T
  41    -84.2760969 -0.104534E-01  0.104E+00    0.86       1.0  T
  42    -84.2800541 -0.395724E-02  0.944E-01    0.19       1.0  T
  43    -83.6217018  0.658352E+00  0.309E+00    0.08       1.0  T
  44    -84.2601096 -0.638408E+00  0.138E+00    2.90       1.0  T
  45    -84.2736484 -0.135388E-01  0.110E+00    1.25       1.0  T
  46    -84.2795843 -0.593592E-02  0.957E-01    0.27       1.0  T
  47    -83.6196034  0.659981E+00  0.311E+00    0.08       1.0  T
  48    -84.2516370 -0.632034E+00  0.154E+00    2.97       1.0  T
  49    -84.2702199 -0.185830E-01  0.118E+00    1.77       1.0  T
  50    -84.2786078 -0.838783E-02  0.981E-01    0.44       1.0  T
  51    -83.6180882  0.660520E+00  0.312E+00    0.08       1.0  T
  52    -84.2426971 -0.624609E+00  0.169E+00    3.03       1.0  T
  53    -84.2683089 -0.256118E-01  0.122E+00    2.05       1.0  T
  54    -84.2782842 -0.997538E-02  0.989E-01    0.49       1.0  T
  55    -83.6159534  0.662331E+00  0.314E+00    0.08       1.0  T
  56    -84.2324437 -0.616490E+00  0.185E+00    3.08       1.0  T
  57    -84.2668584 -0.344147E-01  0.125E+00    2.25       1.0  T
  58    -84.2782536 -0.113953E-01  0.990E-01    0.49       1.0  T
  59    -83.6131423  0.665111E+00  0.317E+00    0.08       1.0  T
  60    -84.2210090 -0.607867E+00  0.201E+00    3.08       1.0  T
  61    -84.2658447 -0.448358E-01  0.127E+00    2.38       1.0  T
  62    -84.2785744 -0.127296E-01  0.981E-01    0.43       1.0  T
  63    -83.6094347  0.669140E+00  0.320E+00    0.08       1.0  T
  64    -84.2085387 -0.599104E+00  0.218E+00    2.93       1.0  T
  65    -84.2651540 -0.566153E-01  0.128E+00    2.47       1.0  T
  66    -84.2791766 -0.140226E-01  0.965E-01    0.32       1.0  T
  67    -83.6049417  0.674235E+00  0.323E+00    0.07       1.0  T
  68    -84.1966324 -0.591691E+00  0.234E+00    2.78       1.0  T
  69    -84.2651165 -0.684841E-01  0.128E+00    2.46       1.0  T
  70    -84.2801206 -0.150041E-01  0.940E-01    0.15       1.0  T
  71    -80.7707759  0.350934E+01  0.597E+00    0.02       1.0  T
  72    -83.6046132 -0.283384E+01  0.324E+00    0.07       1.0  T
  73    -84.1973657 -0.592752E+00  0.233E+00    2.79       1.0  T
  74    -84.2686377 -0.712720E-01  0.121E+00    1.97       1.0  T
  75    -83.6222625  0.646375E+00  0.309E+00    0.08       1.0  T
  76    -84.2287028 -0.606440E+00  0.190E+00    3.09       1.0  T
  77    -84.2748464 -0.461436E-01  0.107E+00    1.03       1.0  T
  78    -83.6171178  0.657729E+00  0.313E+00    0.08       1.0  T
  79    -84.2209705 -0.603853E+00  0.201E+00    3.08       1.0  T
  80    -84.2730978 -0.521272E-01  0.111E+00    1.31       1.0  T
  81    -83.6220651  0.651033E+00  0.309E+00    0.08       1.0  T
  82    -84.2281651 -0.606100E+00  0.191E+00    3.09       1.0  T
  83    -84.2735878 -0.454227E-01  0.110E+00    1.24       1.0  T
  84    -83.6234873  0.650101E+00  0.307E+00    0.09       1.0  T
  85    -84.2307334 -0.607246E+00  0.187E+00    3.08       1.0  T
  86    -84.2731227 -0.423894E-01  0.111E+00    1.32       1.0  T
  87    -83.6260878  0.647035E+00  0.305E+00    0.07       1.0  T
  88    -84.2342975 -0.608210E+00  0.182E+00    3.07       1.0  T
  89    -84.2727053 -0.384078E-01  0.112E+00    1.38       1.0  T
  90    -84.2807941 -0.808880E-02  0.925E-01    0.06       1.0  T
  91    -80.7570250  0.352377E+01  0.599E+00    0.06       1.0  T
  92    -84.2543440 -0.349732E+01  0.149E+00    2.95       1.0  T
  93    -83.6263503  0.627994E+00  0.305E+00    0.06       1.0  T
  94    -84.2245683 -0.598218E+00  0.196E+00    3.09       1.0  T
  95    -84.2740972 -0.495289E-01  0.109E+00    1.17       1.0  T
  96    -83.6180141  0.656083E+00  0.312E+00    0.08       1.0  T
  97    -84.2260908 -0.608077E+00  0.194E+00    3.10       1.0  T
  98    -84.2729753 -0.468845E-01  0.111E+00    1.35       1.0  T
  99    -83.6226199  0.650355E+00  0.308E+00    0.08       1.0  T
 100    -84.2273551 -0.604735E+00  0.192E+00    3.09       1.0  T
 101    -84.2727221 -0.453669E-01  0.112E+00    1.38       1.0  T
 102    -83.6246246  0.648098E+00  0.306E+00    0.09       1.0  T
 103    -84.2285294 -0.603905E+00  0.190E+00    3.09       1.0  T
 104    -84.2723358 -0.438064E-01  0.113E+00    1.44       1.0  T
 105    -83.6269606  0.645375E+00  0.305E+00    0.04       1.0  T
 106    -84.2302223 -0.603262E+00  0.188E+00    3.09       1.0  T
 107    -84.2719956 -0.417733E-01  0.114E+00    1.50       1.0  T
 108    -84.2808131 -0.881745E-02  0.925E-01    0.06       1.0  T
 109    -83.5973101  0.683503E+00  0.327E+00    0.04       1.0  T
 110    -84.2288824 -0.631572E+00  0.190E+00    3.09       1.0  T
 111    -84.2738701 -0.449877E-01  0.109E+00    1.21       1.0  T
 112    -83.6203720  0.653498E+00  0.310E+00    0.08       1.0  T
 113    -84.2218034 -0.601431E+00  0.200E+00    3.09       1.0  T
 114    -84.2739523 -0.521488E-01  0.109E+00    1.19       1.0  T
 115    -83.6206180  0.653334E+00  0.310E+00    0.08       1.0  T
 116    -84.2239651 -0.603347E+00  0.197E+00    3.09       1.0  T
 117    -84.2734076 -0.494424E-01  0.110E+00    1.28       1.0  T
 118    -83.6233985  0.650009E+00  0.307E+00    0.09       1.0  T
 119    -84.2223026 -0.598904E+00  0.199E+00    3.09       1.0  T
 120    -84.2730709 -0.507683E-01  0.111E+00    1.33       1.0  T
 121    -83.6247433  0.648328E+00  0.306E+00    0.09       1.0  T
 122    -84.2226775 -0.597934E+00  0.199E+00    3.09       1.0  T
 123    -84.2727852 -0.501078E-01  0.112E+00    1.37       1.0  T
 124    -83.6262925  0.646493E+00  0.305E+00    0.06       1.0  T
 125    -84.2228549 -0.596562E+00  0.198E+00    3.09       1.0  T
 126    -84.2725166 -0.496617E-01  0.113E+00    1.41       1.0  T
 127    -84.2825726 -0.100560E-01  0.907E-01    0.01       1.0  T
 128    -83.5851926  0.697380E+00  0.328E+00    0.02       1.0  T
 129    -84.2540443 -0.668852E+00  0.149E+00    2.96       1.0  T
 130    -84.2741591 -0.201147E-01  0.109E+00    1.17       1.0  T
 131    -83.6250737  0.649085E+00  0.306E+00    0.09       1.0  T
 132    -84.2191661 -0.594092E+00  0.204E+00    3.06       1.0  T
 133    -84.2740544 -0.548883E-01  0.109E+00    1.18       1.0  T
 134    -83.6223667  0.651688E+00  0.308E+00    0.08       1.0  T
 135    -84.2286215 -0.606255E+00  0.190E+00    3.09       1.0  T
 136    -84.2732605 -0.446390E-01  0.111E+00    1.30       1.0  T
 137    -83.6273671  0.645893E+00  0.304E+00    0.03       1.0  T
 138    -84.2212110 -0.593844E+00  0.201E+00    3.08       1.0  T
 139    -84.2730229 -0.518119E-01  0.111E+00    1.34       1.0  T
 140    -83.6281668  0.644856E+00  0.304E+00    0.02       1.0  T
 141    -84.2237125 -0.595546E+00  0.197E+00    3.09       1.0  T
 142    -84.2725939 -0.488815E-01  0.112E+00    1.40       1.0  T
 143    -84.2805678 -0.797381E-02  0.930E-01    0.10       1.0  T
 144    -83.6040964  0.676471E+00  0.324E+00    0.07       1.0  T
 145    -84.2602587 -0.656162E+00  0.138E+00    2.90       1.0  T
 146    -84.2748649 -0.146062E-01  0.107E+00    1.06       1.0  T
 147    -83.6235276  0.651337E+00  0.307E+00    0.09       1.0  T
 148    -84.2227412 -0.599214E+00  0.199E+00    3.09       1.0  T
 149    -84.2736465 -0.509053E-01  0.110E+00    1.24       1.0  T
 150    -83.6237389  0.649908E+00  0.307E+00    0.09       1.0  T
 151    -84.2260470 -0.602308E+00  0.194E+00    3.09       1.0  T
 152    -84.2733130 -0.472660E-01  0.111E+00    1.29       1.0  T
 153    -83.6257622  0.647551E+00  0.305E+00    0.09       1.0  T
 154    -84.2228482 -0.597086E+00  0.198E+00    3.09       1.0  T
 155    -84.2731425 -0.502943E-01  0.111E+00    1.32       1.0  T
 156    -83.6263821  0.646760E+00  0.305E+00    0.06       1.0  T
 157    -84.2235434 -0.597161E+00  0.197E+00    3.09       1.0  T
 158    -84.2728966 -0.493532E-01  0.112E+00    1.36       1.0  T
 159    -84.2815922 -0.869557E-02  0.915E-01    0.02       1.0  T
 160    -83.6019601  0.679632E+00  0.325E+00    0.07       1.0  T
 161    -84.2685810 -0.666621E+00  0.121E+00    2.02       1.0  T
 162    -84.2761552 -0.757418E-02  0.104E+00    0.85       1.0  T
 163    -83.6207539  0.655401E+00  0.310E+00    0.08       1.0  T
 164    -84.2335835 -0.612830E+00  0.183E+00    3.08       1.0  T
 165    -84.2725523 -0.389688E-01  0.112E+00    1.41       1.0  T
 166    -84.2807737 -0.822142E-02  0.925E-01    0.07       1.0  T
 167    -83.6002387  0.680535E+00  0.326E+00    0.06       1.0  T
 168    -84.2589828 -0.658744E+00  0.140E+00    2.92       1.0  T
 169    -84.2754870 -0.165042E-01  0.106E+00    0.96       1.0  T
 170    -83.6195007  0.655986E+00  0.311E+00    0.08       1.0  T
 171    -84.2308472 -0.611347E+00  0.187E+00    3.08       1.0  T
 172    -84.2729619 -0.421147E-01  0.112E+00    1.35       1.0  T
 173    -83.6248189  0.648143E+00  0.306E+00    0.09       1.0  T
 174    -84.2224503 -0.597631E+00  0.199E+00    3.09       1.0  T
 175    -84.2726370 -0.501867E-01  0.112E+00    1.40       1.0  T
 176    -83.6246909  0.647946E+00  0.306E+00    0.09       1.0  T
 177    -84.2255836 -0.600893E+00  0.194E+00    3.09       1.0  T
 178    -84.2724120 -0.468284E-01  0.113E+00    1.43       1.0  T
 179    -83.6266830  0.645729E+00  0.305E+00    0.05       1.0  T
 180    -84.2229868 -0.596304E+00  0.198E+00    3.09       1.0  T
 181    -84.2721669 -0.491801E-01  0.113E+00    1.47       1.0  T
 182    -83.6471390  0.625028E+00  0.300E+00    0.01       1.0  T
 183    -84.2236406 -0.576502E+00  0.197E+00    3.09       1.0  T
 184    -84.2718365 -0.481959E-01  0.114E+00    1.52       1.0  T
 185    -84.2806771 -0.884064E-02  0.927E-01    0.08       1.0  T
 186    -83.6014953  0.679182E+00  0.326E+00    0.07       1.0  T
 187    -84.2664359 -0.664941E+00  0.126E+00    2.32       1.0  T
 188    -84.2760544 -0.961842E-02  0.104E+00    0.87       1.0  T
 189    -83.6193741  0.656680E+00  0.311E+00    0.08       1.0  T
 190    -84.2355498 -0.616176E+00  0.180E+00    3.07       1.0  T
 191    -84.2719200 -0.363702E-01  0.114E+00    1.51       1.0  T
 192    -84.2808957 -0.897574E-02  0.923E-01    0.05       1.0  T
 193    -80.7602792  0.352062E+01  0.598E+00    0.04       1.0  T
 194    -84.2783997 -0.351812E+01  0.987E-01    0.48       1.0  T
 195    -83.6088339  0.669566E+00  0.320E+00    0.08       1.0  T
 196    -84.2504549 -0.641621E+00  0.156E+00    2.99       1.0  T
 197    -84.2731580 -0.227031E-01  0.111E+00    1.33       1.0  T
 198    -83.6256087  0.647549E+00  0.305E+00    0.09       1.0  T
 199    -84.2195046 -0.593896E+00  0.203E+00    3.07       1.0  T
 200    -84.2718596 -0.523550E-01  0.114E+00    1.52       1.0  T
 201    -83.6240144  0.647845E+00  0.307E+00    0.09       1.0  T
 202    -84.2262344 -0.602220E+00  0.194E+00    3.09       1.0  T
 203    -84.2721027 -0.458684E-01  0.113E+00    1.48       1.0  T
 204    -83.6250760  0.647027E+00  0.306E+00    0.09       1.0  T
 205    -84.2244893 -0.599413E+00  0.196E+00    3.10       1.0  T
 206    -84.2719716 -0.474823E-01  0.114E+00    1.50       1.0  T
 207    -83.6254844  0.646487E+00  0.306E+00    0.09       1.0  T
 208    -84.2245991 -0.599115E+00  0.196E+00    3.10       1.0  T
 209    -84.2719451 -0.473460E-01  0.114E+00    1.50       1.0  T
 210    -83.6259446  0.646000E+00  0.305E+00    0.08       1.0  T
 211    -84.2244883 -0.598544E+00  0.196E+00    3.10       1.0  T
 212    -84.2719253 -0.474370E-01  0.114E+00    1.51       1.0  T
 213    -83.6263673  0.645558E+00  0.305E+00    0.06       1.0  T
 214    -84.2245163 -0.598149E+00  0.196E+00    3.10       1.0  T
 215    -84.2719205 -0.474042E-01  0.114E+00    1.51       1.0  T
 216    -83.6268918  0.645029E+00  0.305E+00    0.04       1.0  T
 217    -84.2245391 -0.597647E+00  0.196E+00    3.10       1.0  T
 218    -84.2719261 -0.473870E-01  0.114E+00    1.51       1.0  T
 219    -83.6278282  0.644098E+00  0.304E+00    0.02       1.0  T
 220    -84.2245632 -0.596735E+00  0.196E+00    3.10       1.0  T
 221    -84.2719405 -0.473773E-01  0.114E+00    1.51       1.0  T
 222    -83.6311636  0.640777E+00  0.303E+00    0.01       1.0  T
 223    -84.2245017 -0.593338E+00  0.196E+00    3.10       1.0  T
 224    -84.2719592 -0.474575E-01  0.114E+00    1.50       1.0  T
 225    -83.6673323  0.604627E+00  0.295E+00    0.00       1.0  T
 226    -84.2249050 -0.557573E+00  0.195E+00    3.10       1.0  T
 227    -84.2719586 -0.470536E-01  0.114E+00    1.51       1.0  T
 228    -84.3170239 -0.450652E-01  0.640E-01    0.00       1.0  T
 229    -83.6202505  0.696773E+00  0.310E+00    0.08       1.0  T
 230    -84.2419866 -0.621736E+00  0.170E+00    3.04       1.0  T
 231    -84.2726378 -0.306512E-01  0.112E+00    1.41       1.0  T
 232    -83.6283807  0.644257E+00  0.304E+00    0.02       1.0  T
 233    -84.2251553 -0.596775E+00  0.195E+00    3.10       1.0  T
 234    -84.2730307 -0.478754E-01  0.111E+00    1.35       1.0  T
 235    -83.6234305  0.649600E+00  0.307E+00    0.09       1.0  T
 236    -84.2353230 -0.611892E+00  0.180E+00    3.07       1.0  T
 237    -84.2726967 -0.373737E-01  0.112E+00    1.40       1.0  T
 238    -83.6266316  0.646065E+00  0.305E+00    0.04       1.0  T
 239    -84.2272227 -0.600591E+00  0.192E+00    3.09       1.0  T
 240    -84.2727467 -0.455240E-01  0.112E+00    1.39       1.0  T
 241    -83.6254587  0.647288E+00  0.306E+00    0.09       1.0  T
 242    -84.2303548 -0.604896E+00  0.188E+00    3.09       1.0  T
 243    -84.2725898 -0.422350E-01  0.112E+00    1.41       1.0  T
 244    -83.6281001  0.644490E+00  0.304E+00    0.02       1.0  T
 245    -84.2265539 -0.598454E+00  0.193E+00    3.09       1.0  T
 246    -84.2726496 -0.460957E-01  0.112E+00    1.40       1.0  T
 247    -83.6266619  0.645988E+00  0.305E+00    0.04       1.0  T
 248    -84.2281861 -0.601524E+00  0.191E+00    3.09       1.0  T
 249    -84.2725773 -0.443912E-01  0.112E+00    1.42       1.0  T
 250    -83.8816727  0.390905E+00  0.244E+00    0.00       1.0  T

   *** convergence criteria cannot be satisfied within 250 iterations ***

         #    Occupation            Energy/Eh            Energy/eV
      -------------------------------------------------------------
         1        2.0000           -0.7168566             -19.5067
       ...           ...                  ...                  ...
        68        2.0000           -0.4115283             -11.1983
        69        2.0000           -0.4030187             -10.9667
        70        2.0000           -0.4000507             -10.8859
        71        2.0000           -0.3899475             -10.6110
        72        2.0000           -0.3801780             -10.3452
        73        2.0000           -0.2875050              -7.8234
        74        2.0000           -0.2843273              -7.7369 (HOMO)
        75                         -0.2842649              -7.7352 (LUMO)
        76                         -0.2393114              -6.5120
        77                         -0.2310986              -6.2885
        78                         -0.2231610              -6.0725
        79                         -0.2194035              -5.9703
       ...                                ...                  ...
       135                          0.6413464              17.4519
      -------------------------------------------------------------
                  HL-Gap            0.0000625 Eh            0.0017 eV
             Fermi-level            0.0000000 Eh            0.0000 eV

 SCC (total)                   0 d,  0 h,  0 min,  2.284 sec
 SCC setup                      ...        0 min,  0.001 sec (  0.044%)
 Dispersion                     ...        0 min,  0.001 sec (  0.044%)
 classical contributions        ...        0 min,  0.000 sec (  0.000%)
 integral evaluation            ...        0 min,  0.016 sec (  0.701%)
 iterations                     ...        0 min,  2.212 sec ( 96.848%)
 molecular gradient             ...        0 min,  0.053 sec (  2.320%)
 printout                       ...        0 min,  0.001 sec (  0.044%)

########################################################################
[ERROR] Program stopped due to fatal error
-3- Single point calculation terminated
-2- xtb_calculator_singlepoint: Electronic structure method terminated
-1- scf: Self consistent charge iterator did not converge
########################################################################


===== STDERR =====

abnormal termination of xtb
