      -----------------------------------------------------------      
     |                   =====================                   |     
     |                           x T B                           |     
     |                   =====================                   |     
     |                         S. Grimme                         |     
     |          Mulliken Center for Theoretical Chemistry        |     
     |                    University of Bonn                     |     
      -----------------------------------------------------------      

   * xtb version 6.7.1pre (5071a88) compiled by 'Marcel@Raven' on 2024-07-23

   xtb is free software: you can redistribute it and/or modify it under
   the terms of the GNU Lesser General Public License as published by
   the Free Software Foundation, either version 3 of the License, or
   (at your option) any later version.
   
   xtb is distributed in the hope that it will be useful,
   but WITHOUT ANY WARRANTY; without even the implied warranty of
   MERCHANTABILITY or FITNESS FOR A PARTICULAR PURPOSE.  See the
   GNU Lesser General Public License for more details.
   
   Cite this work as:
   * C. Bannwarth, E. Caldeweyher, S. Ehlert, A. Hansen, P. Pracht,
     J. Seibert, S. Spicher, S. Grimme, WIREs Comput. Mol. Sci., 2020, 11,
     e01493. DOI: 10.1002/wcms.1493
   
   for GFN2-xTB:
   * C. Bannwarth, S. Ehlert and S. Grimme., J. Chem. Theory Comput., 2019,
     15, 1652-1671. DOI: 10.1021/acs.jctc.8b01176
   for GFN1-xTB:
   * S. Grimme, C. Bannwarth, P. Shushkov, J. Chem. Theory Comput., 2017,
     13, 1989-2009. DOI: 10.1021/acs.jctc.7b00118
   for GFN0-xTB:
   * P. Pracht, E. Caldeweyher, S. Ehlert, S. Grimme, ChemRxiv, 2019, preprint.
     DOI: 10.26434/chemrxiv.8326202.v1
   for GFN-FF:
   * S. Spicher and S. Grimme, Angew. Chem. Int. Ed., 2020, 59, 15665-15673.
     DOI: 10.1002/anie.202004239
   
   for ALPB and GBSA implicit solvation:
   * S. Ehlert, M. Stahn, S. Spicher, S. Grimme, J. Chem. Theory Comput.,
     2021, 17, 4250-4261. DOI: 10.1021/acs.jctc.1c00471
   
   for ddCOSMO and CPCM-X implicit solvation:
   * M. Stahn, S. Ehlert, S. Grimme, J. Phys. Chem. A,
     2023, XX, XXXX-XXXX. DOI: 10.1021/acs.jpca.3c04382
   
   for DFT-D4:
   * E. Caldeweyher, C. Bannwarth and S. Grimme, J. Chem. Phys., 2017,
     147, 034112. DOI: 10.1063/1.4993215
   * E. Caldeweyher, S. Ehlert, A. Hansen, H. Neugebauer, S. Spicher,
     C. Bannwarth and S. Grimme, J. Chem. Phys., 2019, 150, 154122.
     DOI: 10.1063/1.5090222
   * E. Caldeweyher, J.-M. Mewes, S. Ehlert and S. Grimme, Phys. Chem. Chem. Phys.
     2020, 22, 8499-8512. DOI: 10.1039/D0CP00502A
   
   for sTDA-xTB:
   * S. Grimme and C. Bannwarth, J. Chem. Phys., 2016, 145, 054103.
     DOI: 10.1063/1.4959605
   
   in the mass-spec context:
   * V. Asgeirsson, C. Bauer and S. Grimme, Chem. Sci., 2017, 8, 4879.
     DOI: 10.1039/c7sc00601b
   * J. Koopman and S. Grimme, ACS Omega 2019, 4, 12, 15120-15133.
     DOI: 10.1021/acsomega.9b02011
   
   for metadynamics refer to:
   * S. Grimme, J. Chem. Theory Comput., 2019, 155, 2847-2862
     DOI: 10.1021/acs.jctc.9b00143
   
   for SPH calculations refer to:
   * S. Spicher and S. Grimme, J. Chem. Theory Comput., 2021, 17, 1701-1714
     DOI: 10.1021/acs.jctc.0c01306
   
   for ONIOM refer to:
   * C. Plett, A. Katbashev, S. Ehlert, S. Grimme, M. Bursch,
     Phys. Chem. Chem. Phys., 2023, 25, 17860-17868. DOI: 10.1039/D3CP02178E
   
   for DIPRO refer to:
   * J. Kohn, N. Gildemeister, S. Grimme, D. Fazzi, A. Hansen,
     J. Chem. Phys., 2023, just accepted.
   
   for PTB refer to:
   * S. Grimme, M. Mueller, A. Hansen, J. Chem. Phys., 2023, 158, 124111.
     DOI: 10.1063/5.0137838
   
   with help from (in alphabetical order)
   P. Atkinson, C. Bannwarth, F. Bohle, G. Brandenburg, E. Caldeweyher
   M. Checinski, S. Dohm, S. Ehlert, S. Ehrlich, I. Gerasimov, C. Hölzer
   A. Katbashev, J. Kohn, J. Koopman, C. Lavigne, S. Lehtola, F. März, M. Müller,
   F. Musil, H. Neugebauer, J. Pisarek, C. Plett, P. Pracht, F. Pultar,
   J. Seibert, P. Shushkov, S. Spicher, M. Stahn, M. Steiner, T. Strunk,
   J. Stückrath, T. Rose, and J. Unsleber
   
 * started run on 2026/08/31 at 13:16:09.110     
   ID    Z sym.   atoms
    1    7 N      1, 44, 53
    2    6 C      2-15, 45, 47, 48, 54
    3    8 O      16, 17, 41, 46, 49
    4    1 H      18-40, 42, 43, 50-52, 55-57

           -------------------------------------------------
          |                Calculation Setup                |
           -------------------------------------------------

          program call               : C:\Users\Nayanika\Downloads\xtb-6.7.1pre-windows-x86_64\xtb-6.7.1\bin\xtb.exe D:\PhD_Thesis\LmrR_EVB\charges\fast_lmrr_5QM\xtb_preparation\RS1_2b_to_PS1_3\RS1_2b_to_PS1_3_TS.xyz --gfn 2 --opt tight --chrg 0 --uhf 0 --etemp 0
          coordinate file            : D:\PhD_Thesis\LmrR_EVB\charges\fast_lmrr_5QM\xtb_preparation\RS1_2b_to_PS1_3\RS1_2b_to_PS1_3_TS.xyz
          omp threads                :                     1


molecular fragmentation (1/2 indicates fragments):
111111111111111221211111111111111111112222211111111111111
# atoms in fragment 1/2:    49     8
 fragment masses (1/2) :      316.42       53.04
CMA distance (Bohr)    :  13.960
constraining FC (au)   :  0.0500

           -------------------------------------------------
          |                 G F N 2 - x T B                 |
           -------------------------------------------------

        Reference                      10.1021/acs.jctc.8b01176
      * Hamiltonian:
        H0-scaling (s, p, d)           1.850000    2.230000    2.230000
        zeta-weighting                 0.500000
      * Dispersion:
        s8                             2.700000
        a1                             0.520000
        a2                             5.000000
        s9                             5.000000
      * Repulsion:
        kExp                           1.500000    1.000000
        rExp                           1.000000
      * Coulomb:
        alpha                          2.000000
        third order                    shell-resolved
        anisotropic                    true
        a3                             3.000000
        a5                             4.000000
        cn-shift                       1.200000
        cn-exp                         4.000000
        max-rad                        5.000000


          ...................................................
          :                      SETUP                      :
          :.................................................:
          :  # basis functions                 135          :
          :  # atomic orbitals                 135          :
          :  # shells                           83          :
          :  # electrons                       148          :
          :  max. iterations                   250          :
          :  Hamiltonian                  GFN2-xTB          :
          :  restarted?                      false          :
          :  GBSA solvation                  false          :
          :  PC potential                    false          :
          :  electronic temp.            0.0000000     K    :
          :  accuracy                    1.0000000          :
          :  -> integral cutoff          0.2500000E+02      :
          :  -> integral neglect         0.1000000E-07      :
          :  -> SCF convergence          0.1000000E-05 Eh   :
          :  -> wf. convergence          0.1000000E-03 e    :
          :  Broyden damping             0.4000000          :
          :  net charge                          0          :
          :  unpaired electrons                  0          :
          ...................................................

 iter      E             dE          RMSdq      gap      omega  full diag
   1    -83.9790835 -0.839791E+02  0.423E+00    2.37       0.0  T
   2    -83.4443410  0.534743E+00  0.374E+00    0.01       1.0  T
   3    -84.0885337 -0.644193E+00  0.247E+00    3.01       1.0  T
   4    -84.1614601 -0.729264E-01  0.151E+00    2.51       1.0  T
   5    -84.1651712 -0.371112E-02  0.106E+00    1.75       1.0  T
   6    -84.1853275 -0.201563E-01  0.819E-01    0.25       1.0  T
   7    -83.4875832  0.697744E+00  0.309E+00    0.07       1.0  T
   8    -84.1789679 -0.691385E+00  0.861E-01    0.72       1.0  T
   9    -84.1832131 -0.424514E-02  0.787E-01    0.30       1.0  T
  10    -83.7905000  0.392713E+00  0.233E+00    0.02       1.0  T
  11    -84.2051256 -0.414626E+00  0.618E-01    0.07       1.0  T
  12    -84.1959747  0.915089E-02  0.683E-01    0.11       1.0  T
  13    -83.5151148  0.680860E+00  0.295E+00    0.07       1.0  T
  14    -84.1849120 -0.669797E+00  0.761E-01    0.25       1.0  T
  15    -84.1930120 -0.809998E-02  0.701E-01    0.13       1.0  T
  16    -84.2117212 -0.187093E-01  0.554E-01    0.06       1.0  T
  17    -84.2244867 -0.127655E-01  0.418E-01    0.04       1.0  T
  18    -84.2275531 -0.306632E-02  0.379E-01    0.04       1.0  T
  19    -84.2340793 -0.652621E-02  0.290E-01    0.03       1.0  T
  20    -84.1908709  0.432084E-01  0.792E-01    0.02       1.0  T
  21    -83.8311752  0.359696E+00  0.224E+00    0.02       1.0  T
  22    -84.2095569 -0.378382E+00  0.574E-01    0.06       1.0  T
  23    -84.2180744 -0.851744E-02  0.492E-01    0.05       1.0  T
  24    -84.2203609 -0.228653E-02  0.466E-01    0.05       1.0  T
  25    -84.2184149  0.194602E-02  0.488E-01    0.05       1.0  T
  26    -84.2168812  0.153373E-02  0.507E-01    0.05       1.0  T
  27    -84.2157867  0.109442E-02  0.519E-01    0.05       1.0  T
  28    -84.2151645  0.622251E-03  0.527E-01    0.05       1.0  T
  29    -84.2213776 -0.621307E-02  0.455E-01    0.04       1.0  T
  30    -84.2215890 -0.211420E-03  0.450E-01    0.04       1.0  T
  31    -84.2281340 -0.654506E-02  0.355E-01    0.04       1.0  T
  32    -84.2265194  0.161466E-02  0.371E-01    0.04       1.0  T
  33    -84.2335225 -0.700311E-02  0.265E-01    0.04       1.0  T
  34    -84.2285009  0.502163E-02  0.320E-01    0.05       1.0  T
  35    -84.2345068 -0.600593E-02  0.237E-01    0.04       1.0  T
  36    -84.2329319  0.157492E-02  0.222E-01    0.06       1.0  T
  37    -84.2343673 -0.143547E-02  0.194E-01    0.06       1.0  T
  38    -84.2330290  0.133832E-02  0.206E-01    0.06       1.0  T
  39    -84.2335955 -0.566524E-03  0.193E-01    0.06       1.0  T
  40    -84.2340340 -0.438446E-03  0.174E-01    0.06       1.0  T
  41    -84.2345862 -0.552267E-03  0.139E-01    0.07       1.0  T
  42    -84.2344518  0.134488E-03  0.134E-01    0.07       1.0  T
  43    -84.2345911 -0.139373E-03  0.784E-02    0.07       1.0  T
  44    -84.2344134  0.177709E-03  0.807E-02    0.07       1.0  T
  45    -84.2346719 -0.258499E-03  0.487E-02    0.07       1.0  T
  46    -84.2344044  0.267508E-03  0.732E-02    0.07       1.0  T
  47    -84.2344846 -0.801944E-04  0.679E-02    0.07       1.0  T
  48    -84.2343229  0.161718E-03  0.824E-02    0.07       1.0  T
  49    -84.2343363 -0.134356E-04  0.804E-02    0.07       1.0  T
  50    -84.2345596 -0.223259E-03  0.474E-02    0.07       1.0  T
  51    -84.2346227 -0.630734E-04  0.283E-02    0.07       1.0  T
  52    -84.2346796 -0.569767E-04  0.805E-03    0.07       1.6  T
  53    -84.2346836 -0.400819E-05  0.483E-03    0.07       2.7  T
  54    -84.2346848 -0.115280E-05  0.265E-03    0.07       5.0  T
  55    -84.2346849 -0.124993E-06  0.109E-03    0.07      12.2  T
  56    -84.2346849  0.365378E-08  0.819E-04    0.07      16.2  T
  57    -84.2346850 -0.544244E-07  0.999E-05    0.07     132.6  T

   *** convergence criteria satisfied after 57 iterations ***

         #    Occupation            Energy/Eh            Energy/eV
      -------------------------------------------------------------
         1        2.0000           -0.7411574             -20.1679
       ...           ...                  ...                  ...
        68        2.0000           -0.3851856             -10.4814
        69        2.0000           -0.3815678             -10.3830
        70        2.0000           -0.3726535             -10.1404
        71        2.0000           -0.3663795              -9.9697
        72        2.0000           -0.3573311              -9.7235
        73        2.0000           -0.2693779              -7.3301
        74        2.0000           -0.2679984              -7.2926 (HOMO)
        75                         -0.2652679              -7.2183 (LUMO)
        76                         -0.2304710              -6.2714
        77                         -0.2152026              -5.8560
        78                         -0.2067249              -5.6253
        79                         -0.2041213              -5.5544
       ...                                ...                  ...
       135                          0.6592364              17.9387
      -------------------------------------------------------------
                  HL-Gap            0.0027306 Eh            0.0743 eV
             Fermi-level            0.0000000 Eh            0.0000 eV

 SCC (total)                   0 d,  0 h,  0 min,  0.637 sec
 SCC setup                      ...        0 min,  0.002 sec (  0.314%)
 Dispersion                     ...        0 min,  0.003 sec (  0.471%)
 classical contributions        ...        0 min,  0.000 sec (  0.000%)
 integral evaluation            ...        0 min,  0.017 sec (  2.669%)
 iterations                     ...        0 min,  0.517 sec ( 81.162%)
 molecular gradient             ...        0 min,  0.096 sec ( 15.071%)
 printout                       ...        0 min,  0.002 sec (  0.314%)

         :::::::::::::::::::::::::::::::::::::::::::::::::::::
         ::                     SUMMARY                     ::
         :::::::::::::::::::::::::::::::::::::::::::::::::::::
         :: total energy             -83.186676731248 Eh    ::
         :: gradient norm              0.147397556095 Eh/a0 ::
         :: HOMO-LUMO gap              0.074303149775 eV    ::
         ::.................................................::
         :: SCC energy               -84.233971392460 Eh    ::
         :: -> isotropic ES            0.244882574816 Eh    ::
         :: -> anisotropic ES          0.008011831316 Eh    ::
         :: -> anisotropic XC          0.033051078139 Eh    ::
         :: -> dispersion             -0.053191416581 Eh    ::
         :: repulsion energy           1.047294661212 Eh    ::
         :: add. restraining           0.000000000000 Eh    ::
         :: total charge               0.000000000000 e     ::
         :::::::::::::::::::::::::::::::::::::::::::::::::::::

      ----------------------------------------------------------- 
     |                   =====================                   |
     |                        A N C O P T                        |
     |                   =====================                   |
     |               Approximate Normal Coordinate               |
     |                Rational Function Optimizer                |
      ----------------------------------------------------------- 
      ----------------------------------------------------------- 
     |                   =====================                   |
     |                        A N C O P T                        |
     |                   =====================                   |
     |               Approximate Normal Coordinate               |
     |                Rational Function Optimizer                |
      ----------------------------------------------------------- 

          ...................................................
          :                      SETUP                      :
          :.................................................:
          :   optimization level             tight          :
          :   max. optcycles                   285          :
          :   ANC micro-cycles                  20          :
          :   degrees of freedom               165          :
          :.................................................:
          :   RF solver                   davidson          :
          :   write xtbopt.log                true          :
          :   linear?                        false          :
          :   energy convergence         0.1000000E-05 Eh   :
          :   grad. convergence          0.8000000E-03 Eh/α :
          :   maxmium RF displ.          1.0000000          :
          :   Hlow (freq-cutoff)         0.1000000E-01      :
          :   Hmax (freq-cutoff)         5.0000000          :
          :   S6 in model hess.         20.0000000          :
          ...................................................

generating ANC from exact Hessian ...
Using Lindh-Hessian (1995)
 Shifting diagonal of input Hessian by   1.023373822998905E-002
 Lowest  eigenvalues of input Hessian
    0.010000    0.010101    0.010211    0.000000    0.000000    0.000000
    0.000000    0.000000    0.000000    0.010250    0.010266    0.010342
    0.010375    0.010436    0.010533    0.010570    0.010710    0.010838
 Highest eigenvalues
    1.899615    1.943737    1.976438    2.026434    2.237089    2.249263
 

........................................................................
.............................. CYCLE    1 ..............................
........................................................................

 iter      E             dE          RMSdq      gap      omega  full diag
   1    -84.2346850 -0.842347E+02  0.147E-05    0.07       0.0  T
   2    -84.2346850  0.299991E-10  0.170E-05    0.07     777.9  T
   3    -84.2346850  0.152642E-07  0.398E-04    0.07      33.3  T
     SCC iter.                  ...        0 min,  0.028 sec
     gradient                   ...        0 min,  0.062 sec
 * total energy  :   -83.1866767 Eh     change        0.1425276E-07 Eh
   gradient norm :     0.1473439 Eh/α   predicted     0.0000000E+00 (-100.00%)
   displ. norm   :     0.5915722 α      lambda       -0.4941276E-01
   maximum displ.:     0.3109086 α      in ANC's #44, #26, #25, ...

........................................................................
.............................. CYCLE    2 ..............................
........................................................................

 iter      E             dE          RMSdq      gap      omega  full diag
   1    -84.2475150 -0.842475E+02  0.710E-01    0.15       0.0  T
   2    -80.6541064  0.359341E+01  0.603E+00    0.20       1.0  T
   3    -83.5262931 -0.287219E+01  0.292E+00    0.03       1.0  T
   4    -84.2450306 -0.718738E+00  0.678E-01    0.17       1.0  T
   5    -84.2670472 -0.220166E-01  0.448E-01    0.10       1.0  T
   6    -84.2655736  0.147364E-02  0.484E-01    0.06       1.0  T
   7    -84.2858479 -0.202743E-01  0.693E-02    0.07       1.0  T
   8    -84.2703281  0.155198E-01  0.423E-01    0.06       1.0  T
   9    -84.2812247 -0.108966E-01  0.243E-01    0.06       1.0  T
  10    -84.2805391  0.685578E-03  0.254E-01    0.06       1.0  T
  11    -84.2845996 -0.406047E-02  0.140E-01    0.07       1.0  T
  12    -84.2847893 -0.189658E-03  0.129E-01    0.07       1.0  T
  13    -84.2858401 -0.105086E-02  0.706E-02    0.07       1.0  T
  14    -84.2858835 -0.433423E-04  0.668E-02    0.07       1.0  T
  15    -84.2859556 -0.721867E-04  0.604E-02    0.07       1.0  T
  16    -84.2860808 -0.125112E-03  0.474E-02    0.07       1.0  T
  17    -84.2862059 -0.125120E-03  0.293E-02    0.07       1.0  T
  18    -84.2862787 -0.727785E-04  0.629E-03    0.07       2.1  T
  19    -84.2862821 -0.348124E-05  0.217E-04    0.07      61.0  T
  20    -84.2862821  0.206830E-07  0.506E-04    0.07      26.2  T
  21    -84.2862821 -0.204788E-07  0.231E-04    0.07      57.3  T
     SCC iter.                  ...        0 min,  0.142 sec
     gradient                   ...        0 min,  0.059 sec
 * total energy  :   -83.2224179 Eh     change       -0.3574122E-01 Eh
   gradient norm :     0.1261666 Eh/α   predicted    -0.3336019E-01 (  -6.66%)
   displ. norm   :     0.6702968 α      lambda       -0.5974143E-01
   maximum displ.:     0.2722146 α      in ANC's #44, #120, #121, ...

........................................................................
.............................. CYCLE    3 ..............................
........................................................................

 iter      E             dE          RMSdq      gap      omega  full diag
   1    -83.6558898 -0.836559E+02  0.282E+00    0.05       0.0  T
   2    -84.0528704 -0.396981E+00  0.263E+00    2.00       1.0  T
   3    -84.2483206 -0.195450E+00  0.166E+00    2.80       1.0  T
   4    -84.2670640 -0.187434E-01  0.138E+00    2.82       1.0  T
   5    -84.2893099 -0.222459E-01  0.103E+00    1.38       1.0  T
   6    -83.5975420  0.691768E+00  0.311E+00    0.04       1.0  T
   7    -83.6140789 -0.165370E-01  0.299E+00    0.05       1.0  T
   8    -83.6119160  0.216298E-02  0.300E+00    0.05       1.0  T
   9    -84.2948868 -0.682971E+00  0.887E-01    0.52       1.0  T
  10    -83.6358900  0.658997E+00  0.287E+00    0.06       1.0  T
  11    -84.2945398 -0.658650E+00  0.893E-01    0.56       1.0  T
  12    -84.3013893 -0.684948E-02  0.812E-01    0.21       1.0  T
  13    -83.7133427  0.588047E+00  0.270E+00    0.07       1.0  T
  14    -84.2956566 -0.582314E+00  0.872E-01    0.44       1.0  T
  15    -84.3060295 -0.103729E-01  0.776E-01    0.15       1.0  T
  16    -84.0420212  0.264008E+00  0.188E+00    0.04       1.0  T
  17    -84.2942115 -0.252190E+00  0.896E-01    0.60       1.0  T
  18    -84.2974253 -0.321378E-02  0.849E-01    0.33       1.0  T
  19    -84.3101764 -0.127511E-01  0.743E-01    0.13       1.0  T
  20    -84.3122111 -0.203471E-02  0.728E-01    0.12       1.0  T
  21    -84.3126210 -0.409939E-03  0.725E-01    0.12       1.0  T
  22    -84.2031302  0.109491E+00  0.132E+00    0.04       1.0  T
  23    -84.2912250 -0.880948E-01  0.954E-01    0.99       1.0  T
  24    -84.2941456 -0.292059E-02  0.898E-01    0.61       1.0  T
  25    -84.2986097 -0.446414E-02  0.836E-01    0.28       1.0  T
  26    -84.3052547 -0.664502E-02  0.780E-01    0.16       1.0  T
  27    -84.3129208 -0.766609E-02  0.722E-01    0.12       1.0  T
  28    -84.3179904 -0.506962E-02  0.683E-01    0.10       1.0  T
  29    -84.3145555  0.343495E-02  0.709E-01    0.11       1.0  T
  30    -84.3249259 -0.103704E-01  0.625E-01    0.09       1.0  T
  31    -84.3566936 -0.317677E-01  0.226E-01    0.05       1.0  T
  32    -84.3143958  0.422978E-01  0.710E-01    0.11       1.0  T
  33    -83.9296891  0.384707E+00  0.219E+00    0.05       1.0  T
  34    -84.2924921 -0.362803E+00  0.928E-01    0.82       1.0  T
  35    -84.3191258 -0.266338E-01  0.673E-01    0.10       1.0  T
  36    -84.3367061 -0.175802E-01  0.517E-01    0.04       1.0  T
  37    -84.2984753  0.382308E-01  0.836E-01    0.28       1.0  T
  38    -84.3604157 -0.619404E-01  0.107E-01    0.05       1.0  T
  39    -84.3102313  0.501844E-01  0.742E-01    0.13       1.0  T
  40    -83.9680237  0.342208E+00  0.209E+00    0.05       1.0  T
  41    -84.2939450 -0.325921E+00  0.900E-01    0.63       1.0  T
  42    -84.3301032 -0.361582E-01  0.579E-01    0.08       1.0  T
  43    -84.3581687 -0.280655E-01  0.188E-01    0.05       1.0  T
  44    -84.3210515  0.371171E-01  0.657E-01    0.09       1.0  T
  45    -84.2853927  0.356588E-01  0.909E-01    0.04       1.0  T
  46    -84.2982044 -0.128117E-01  0.839E-01    0.29       1.0  T
  47    -84.3307142 -0.325099E-01  0.576E-01    0.04       1.0  T
  48    -84.3014407  0.292735E-01  0.810E-01    0.20       1.0  T
  49    -84.2968196  0.462118E-02  0.838E-01    0.04       1.0  T
  50    -84.2993389 -0.251936E-02  0.828E-01    0.25       1.0  T
  51    -84.3423624 -0.430235E-01  0.454E-01    0.04       1.0  T
  52    -84.3039318  0.384306E-01  0.790E-01    0.17       1.0  T
  53    -84.3142941 -0.103623E-01  0.715E-01    0.04       1.0  T
  54    -84.3008918  0.134024E-01  0.814E-01    0.22       1.0  T
  55    -84.3374117 -0.365199E-01  0.509E-01    0.04       1.0  T
  56    -84.3036704  0.337413E-01  0.792E-01    0.17       1.0  T
  57    -84.3322380 -0.285676E-01  0.562E-01    0.04       1.0  T
  58    -84.3030972  0.291408E-01  0.796E-01    0.18       1.0  T
  59    -84.3367749 -0.336777E-01  0.516E-01    0.04       1.0  T
  60    -84.3038850  0.328899E-01  0.790E-01    0.17       1.0  T
  61    -84.3413533 -0.374683E-01  0.466E-01    0.04       1.0  T
  62    -84.3047650  0.365882E-01  0.783E-01    0.16       1.0  T
  63    -84.3455482 -0.407832E-01  0.414E-01    0.04       1.0  T
  64    -84.3056950  0.398533E-01  0.776E-01    0.15       1.0  T
  65    -84.3500585 -0.443635E-01  0.350E-01    0.04       1.0  T
  66    -84.3068835  0.431749E-01  0.767E-01    0.15       1.0  T
  67    -84.3550629 -0.481794E-01  0.262E-01    0.04       1.0  T
  68    -84.3086848  0.463782E-01  0.754E-01    0.13       1.0  T
  69    -84.3596529 -0.509682E-01  0.140E-01    0.04       1.0  T
  70    -84.3115942  0.480587E-01  0.732E-01    0.12       1.0  T
  71    -84.3613959 -0.498017E-01  0.306E-02    0.05       1.0  T
  72    -84.3163387  0.450572E-01  0.695E-01    0.10       1.0  T
  73    -84.3554964 -0.391577E-01  0.253E-01    0.05       1.0  T
  74    -84.3224868  0.330096E-01  0.646E-01    0.09       1.0  T
  75    -84.3387637 -0.162769E-01  0.493E-01    0.07       1.0  T
  76    -84.3226992  0.160645E-01  0.644E-01    0.09       1.0  T
  77    -84.3202138  0.248534E-02  0.665E-01    0.10       1.0  T
  78    -84.3238766 -0.366276E-02  0.635E-01    0.09       1.0  T
  79    -84.3307907 -0.691412E-02  0.573E-01    0.08       1.0  T
  80    -84.3419888 -0.111980E-01  0.457E-01    0.07       1.0  T
  81    -84.3497260 -0.773724E-02  0.355E-01    0.06       1.0  T
  82    -84.3555317 -0.580567E-02  0.252E-01    0.05       1.0  T
  83    -84.3570714 -0.153977E-02  0.217E-01    0.05       1.0  T
  84    -84.3613830 -0.431162E-02  0.324E-02    0.05       1.0  T
  85    -84.3480662  0.133168E-01  0.378E-01    0.06       1.0  T
  86    -84.1983287  0.149738E+00  0.134E+00    0.04       1.0  T
  87    -84.2979227 -0.995940E-01  0.842E-01    0.30       1.0  T
  88    -84.3614558 -0.635331E-01  0.165E-02    0.05       1.0  T
  89    -84.3162937  0.451622E-01  0.696E-01    0.10       1.0  T
  90    -84.3414112 -0.251175E-01  0.465E-01    0.04       1.0  T
  91    -84.3077597  0.336514E-01  0.761E-01    0.14       1.0  T
  92    -84.3268336 -0.190739E-01  0.612E-01    0.04       1.0  T
  93    -84.3062057  0.206279E-01  0.773E-01    0.15       1.0  T
  94    -84.3416182 -0.354125E-01  0.463E-01    0.04       1.0  T
  95    -84.3112319  0.303863E-01  0.734E-01    0.12       1.0  T
  96    -84.3183008 -0.706892E-02  0.684E-01    0.04       1.0  T
  97    -84.3063858  0.119150E-01  0.771E-01    0.15       1.0  T
  98    -84.3580313 -0.516455E-01  0.192E-01    0.04       1.0  T
  99    -84.3320664  0.259649E-01  0.560E-01    0.08       1.0  T
 100    -84.2462074  0.858590E-01  0.112E+00    0.04       1.0  T
 101    -84.3012019 -0.549945E-01  0.812E-01    0.21       1.0  T
 102    -84.3450259 -0.438239E-01  0.419E-01    0.06       1.0  T
 103    -84.3302084  0.148174E-01  0.581E-01    0.04       1.0  T
 104    -84.3097550  0.204534E-01  0.746E-01    0.13       1.0  T
 105    -84.3613439 -0.515888E-01  0.382E-02    0.05       1.0  T
 106    -84.3612874  0.564624E-04  0.454E-02    0.05       1.0  T
 107    -84.3535772  0.771018E-02  0.290E-01    0.06       1.0  T
 108    -84.3061437  0.474335E-01  0.775E-01    0.04       1.0  T
 109    -84.3096382 -0.349441E-02  0.747E-01    0.13       1.0  T
 110    -84.3613498 -0.517116E-01  0.373E-02    0.05       1.0  T
 111    -84.3533705  0.797929E-02  0.295E-01    0.04       1.0  T
 112    -84.3309619  0.224086E-01  0.571E-01    0.08       1.0  T
 113    -84.3003294  0.306324E-01  0.815E-01    0.04       1.0  T
 114    -84.3105492 -0.102198E-01  0.740E-01    0.13       1.0  T
 115    -84.3585182 -0.479690E-01  0.178E-01    0.05       1.0  T
 116    -84.2974527  0.610655E-01  0.834E-01    0.04       1.0  T
 117    -84.3080335 -0.105808E-01  0.759E-01    0.14       1.0  T
 118    -84.3493938 -0.413603E-01  0.359E-01    0.06       1.0  T
 119    -84.2300955  0.119298E+00  0.120E+00    0.04       1.0  T
 120    -84.3028732 -0.727777E-01  0.798E-01    0.18       1.0  T
 121    -84.3261428 -0.232696E-01  0.614E-01    0.08       1.0  T
 122    -84.3154424  0.107004E-01  0.706E-01    0.04       1.0  T
 123    -84.3120693  0.337309E-02  0.728E-01    0.12       1.0  T
 124    -84.3510252 -0.389559E-01  0.334E-01    0.06       1.0  T
 125    -84.1913971  0.159628E+00  0.137E+00    0.04       1.0  T
 126    -84.3018359 -0.110439E+00  0.807E-01    0.20       1.0  T
 127    -84.3190656 -0.172297E-01  0.673E-01    0.10       1.0  T
 128    -84.3378563 -0.187907E-01  0.505E-01    0.04       1.0  T
 129    -84.3197833  0.180730E-01  0.668E-01    0.10       1.0  T
 130    -84.3611955 -0.414122E-01  0.550E-02    0.05       1.0  T
 131    -84.3140636  0.471319E-01  0.717E-01    0.04       1.0  T
 132    -84.3126923  0.137129E-02  0.723E-01    0.12       1.0  T
 133    -84.3581435 -0.454512E-01  0.189E-01    0.05       1.0  T
 134    -84.1902565  0.167887E+00  0.137E+00    0.04       1.0  T
 135    -84.3016555 -0.111399E+00  0.808E-01    0.20       1.0  T
 136    -84.3180848 -0.164293E-01  0.681E-01    0.10       1.0  T
 137    -84.3360715 -0.179867E-01  0.524E-01    0.04       1.0  T
 138    -84.3181504  0.179211E-01  0.681E-01    0.10       1.0  T
 139    -84.3611567 -0.430063E-01  0.586E-02    0.05       1.0  T
 140    -84.3076445  0.535122E-01  0.764E-01    0.04       1.0  T
 141    -84.3103235 -0.267895E-02  0.742E-01    0.13       1.0  T
 142    -84.3562647 -0.459412E-01  0.236E-01    0.05       1.0  T
 143    -84.1566469  0.199618E+00  0.150E+00    0.04       1.0  T
 144    -84.3001934 -0.143546E+00  0.821E-01    0.23       1.0  T
 145    -84.3143298 -0.141364E-01  0.711E-01    0.11       1.0  T
 146    -84.3589344 -0.446045E-01  0.166E-01    0.04       1.0  T
 147    -84.3412000  0.177344E-01  0.465E-01    0.07       1.0  T
 148    -84.3152188  0.259812E-01  0.708E-01    0.04       1.0  T
 149    -84.3124515  0.276729E-02  0.725E-01    0.12       1.0  T
 150    -84.3612338 -0.487823E-01  0.516E-02    0.05       1.0  T
 151    -84.3432284  0.180054E-01  0.444E-01    0.04       1.0  T
 152    -84.3217167  0.215117E-01  0.652E-01    0.09       1.0  T
 153    -84.3097599  0.119568E-01  0.749E-01    0.04       1.0  T
 154    -84.3139959 -0.423600E-02  0.714E-01    0.11       1.0  T
 155    -84.3614263 -0.474303E-01  0.242E-02    0.05       1.0  T
 156    -84.3393110  0.221152E-01  0.489E-01    0.04       1.0  T
 157    -84.3199646  0.193464E-01  0.666E-01    0.10       1.0  T
 158    -84.3385216 -0.185570E-01  0.498E-01    0.04       1.0  T
 159    -84.3313543  0.716731E-02  0.567E-01    0.08       1.0  T
 160    -84.3131285  0.182258E-01  0.724E-01    0.04       1.0  T
 161    -84.3159735 -0.284501E-02  0.698E-01    0.11       1.0  T
 162    -84.3612620 -0.452885E-01  0.485E-02    0.05       1.0  T
 163    -84.3445617  0.167002E-01  0.427E-01    0.04       1.0  T
 164    -84.3254881  0.190737E-01  0.620E-01    0.09       1.0  T
 165    -84.3203072  0.518081E-02  0.668E-01    0.04       1.0  T
 166    -84.3207756 -0.468318E-03  0.660E-01    0.09       1.0  T
 167    -84.3561142 -0.353387E-01  0.240E-01    0.04       1.0  T
 168    -84.3590044 -0.289014E-02  0.163E-01    0.05       1.0  T
 169    -84.3532462  0.575815E-02  0.298E-01    0.04       1.0  T
 170    -84.3459086  0.733758E-02  0.408E-01    0.06       1.0  T
 171    -84.2806959  0.652127E-01  0.938E-01    0.04       1.0  T
 172    -84.3099463 -0.292504E-01  0.745E-01    0.13       1.0  T
 173    -84.3525836 -0.426373E-01  0.308E-01    0.06       1.0  T
 174    -84.1842389  0.168345E+00  0.139E+00    0.04       1.0  T
 175    -84.3014485 -0.117210E+00  0.810E-01    0.20       1.0  T
 176    -84.3195185 -0.180699E-01  0.670E-01    0.10       1.0  T
 177    -84.3584103 -0.388918E-01  0.182E-01    0.04       1.0  T
 178    -84.3473098  0.111005E-01  0.389E-01    0.06       1.0  T
 179    -84.3245240  0.227858E-01  0.633E-01    0.04       1.0  T
 180    -84.3198421  0.468194E-02  0.667E-01    0.10       1.0  T
 181    -84.3501265 -0.302844E-01  0.350E-01    0.04       1.0  T
 182    -84.3495155  0.610976E-03  0.357E-01    0.06       1.0  T
 183    -84.3065821  0.429334E-01  0.772E-01    0.04       1.0  T
 184    -84.3144287 -0.784659E-02  0.710E-01    0.11       1.0  T
 185    -84.3614338 -0.470052E-01  0.222E-02    0.05       1.0  T
 186    -84.3220012  0.394326E-01  0.654E-01    0.04       1.0  T
 187    -84.3158559  0.614529E-02  0.699E-01    0.11       1.0  T
 188    -84.3610963 -0.452404E-01  0.644E-02    0.05       1.0  T
 189    -84.3503463  0.107500E-01  0.346E-01    0.04       1.0  T
 190    -84.3353747  0.149716E-01  0.528E-01    0.07       1.0  T
 191    -84.2949404  0.404343E-01  0.851E-01    0.04       1.0  T
 192    -84.3139315 -0.189911E-01  0.714E-01    0.11       1.0  T
 193    -84.3599398 -0.460082E-01  0.128E-01    0.05       1.0  T
 194    -84.2831687  0.767711E-01  0.923E-01    0.04       1.0  T
 195    -84.3087408 -0.255720E-01  0.754E-01    0.13       1.0  T
 196    -84.3477070 -0.389662E-01  0.383E-01    0.06       1.0  T
 197    -84.2036756  0.144031E+00  0.132E+00    0.04       1.0  T
 198    -84.3029176 -0.992420E-01  0.798E-01    0.18       1.0  T
 199    -84.3241043 -0.211867E-01  0.632E-01    0.09       1.0  T
 200    -84.3460406 -0.219364E-01  0.408E-01    0.04       1.0  T
 201    -84.3311822  0.148584E-01  0.569E-01    0.08       1.0  T
 202    -84.3407510 -0.956873E-02  0.473E-01    0.04       1.0  T
 203    -84.3360258  0.472519E-02  0.521E-01    0.07       1.0  T
 204    -84.3078262  0.281996E-01  0.763E-01    0.04       1.0  T
 205    -84.3176251 -0.979895E-02  0.685E-01    0.10       1.0  T
 206    -84.3610546 -0.434295E-01  0.678E-02    0.05       1.0  T
 207    -84.3519226  0.913197E-02  0.321E-01    0.04       1.0  T
 208    -84.3386436  0.132790E-01  0.494E-01    0.07       1.0  T
 209    -84.2924716  0.461721E-01  0.866E-01    0.04       1.0  T
 210    -84.3142810 -0.218094E-01  0.711E-01    0.11       1.0  T
 211    -84.3599675 -0.456865E-01  0.127E-01    0.05       1.0  T
 212    -84.2892589  0.707086E-01  0.886E-01    0.04       1.0  T
 213    -84.3105636 -0.213047E-01  0.740E-01    0.12       1.0  T
 214    -84.3521543 -0.415907E-01  0.315E-01    0.06       1.0  T
 215    -84.2216373  0.130517E+00  0.124E+00    0.04       1.0  T
 216    -84.3044387 -0.828014E-01  0.787E-01    0.17       1.0  T
 217    -84.3293546 -0.249159E-01  0.585E-01    0.08       1.0  T
 218    -84.3207702  0.858445E-02  0.664E-01    0.04       1.0  T
 219    -84.3184918  0.227840E-02  0.678E-01    0.10       1.0  T
 220    -84.3614472 -0.429555E-01  0.188E-02    0.05       1.0  T
 221    -84.3315161  0.299311E-01  0.569E-01    0.04       1.0  T
 222    -84.3232025  0.831367E-02  0.640E-01    0.09       1.0  T
 223    -84.3495509 -0.263484E-01  0.359E-01    0.04       1.0  T
 224    -84.3513825 -0.183165E-02  0.328E-01    0.06       1.0  T
 225    -84.3230772  0.283053E-01  0.645E-01    0.04       1.0  T
 226    -84.3241689 -0.109172E-02  0.631E-01    0.09       1.0  T
 227    -84.3516844 -0.275155E-01  0.325E-01    0.04       1.0  T
 228    -84.3543763 -0.269191E-02  0.275E-01    0.05       1.0  T
 229    -84.3343298  0.200465E-01  0.542E-01    0.04       1.0  T
 230    -84.3308765  0.345330E-02  0.572E-01    0.08       1.0  T
 231    -84.3332612 -0.238471E-02  0.553E-01    0.04       1.0  T
 232    -84.3343205 -0.105927E-02  0.538E-01    0.07       1.0  T
 233    -84.3332792  0.104124E-02  0.552E-01    0.04       1.0  T
 234    -84.3333699 -0.906828E-04  0.548E-01    0.07       1.0  T
 235    -84.3370541 -0.368418E-02  0.514E-01    0.04       1.0  T
 236    -84.3367500  0.304113E-03  0.514E-01    0.07       1.0  T
 237    -84.3314854  0.526457E-02  0.570E-01    0.04       1.0  T
 238    -84.3323553 -0.869892E-03  0.558E-01    0.08       1.0  T
 239    -84.3404418 -0.808645E-02  0.477E-01    0.04       1.0  T
 240    -84.3404188  0.229597E-04  0.474E-01    0.07       1.0  T
 241    -84.3286150  0.118038E-01  0.596E-01    0.04       1.0  T
 242    -84.3305005 -0.188551E-02  0.575E-01    0.08       1.0  T
 243    -84.3453477 -0.148473E-01  0.417E-01    0.04       1.0  T
 244    -84.3461619 -0.814196E-03  0.404E-01    0.06       1.0  T
 245    -84.3281541  0.180078E-01  0.601E-01    0.04       1.0  T
 246    -84.3299229 -0.176881E-02  0.580E-01    0.08       1.0  T
 247    -84.3467140 -0.167911E-01  0.399E-01    0.04       1.0  T
 248    -84.3482351 -0.152114E-02  0.376E-01    0.06       1.0  T
 249    -84.3303642  0.178710E-01  0.580E-01    0.04       1.0  T
 250    -84.3313539 -0.989793E-03  0.567E-01    0.08       1.0  T
     SCC iter.                  ...        0 min,  2.169 sec
     gradient                   ...        0 min,  0.047 sec
================
 final structure:
================
57
 xtb: 6.7.1pre (5071a88)
N            0.00000000000000        0.00000000000000        0.00000000000000
C            1.46000000000000        0.00000000000000        0.00000000000000
C            2.15500000000000        0.77400000000000        0.92200000000000
C            3.54500000000000        0.77400000000000        0.92200000000000
C            4.24000000000000        0.00000000000000        0.00000000000000
C            3.54500000000000       -0.77400000000000       -0.92200000000000
C            2.15500000000000       -0.77400000000000       -0.92200000000000
C            5.74000000000000        0.00000000000000        0.00000000000000
C            6.24000000000000        1.08300000000000       -0.90900000000000
C           -0.71700000000000        1.17900000000000        0.00000000000000
C            0.03600000000000        2.47700000000000        0.00000000000000
C           -0.61100000000000        3.65100000000000        0.00000000000000
C            0.14200000000000        4.94900000000000        0.00000000000000
C            0.39200000000000        5.38200000000000       -1.41400000000000
C            1.14400000000000        6.67900000000000       -1.41400000000000
O           -1.99000000000000        1.16600000000000        1.47700000000000
O           -3.68700000000000        1.14900000000000        3.44700000000000
H           -0.34000000000000       -0.60500000000000        0.74800000000000
H           -2.83800000000000        1.15700000000000        2.46200000000000
H            1.61400000000000        1.37600000000000        1.64000000000000
H            4.08600000000000        1.37600000000000        1.64000000000000
H            4.08600000000000       -1.37600000000000       -1.64000000000000
H            1.61400000000000       -1.37600000000000       -1.64000000000000
H            6.10300000000000       -0.96600000000000       -0.35100000000000
H            6.10300000000000        0.17800000000000        1.01200000000000
H            5.87600000000000        2.04900000000000       -0.55800000000000
H            6.37400000000000        0.46000000000000       -2.96300000000000
H            7.93000000000000        3.09600000000000       -1.26500000000000
H           -1.42800000000000        1.17200000000000       -0.82600000000000
H            1.11500000000000        2.43400000000000        0.00000000000000
H           -1.69000000000000        3.69400000000000        0.00000000000000
H           -0.44600000000000        5.71000000000000        0.51400000000000
H            1.09400000000000        4.81700000000000        0.51400000000000
H            0.98000000000000        4.62100000000000       -1.92800000000000
H           -0.56000000000000        5.51400000000000       -1.92800000000000
H            1.32700000000000        6.99400000000000       -2.44200000000000
H            0.55700000000000        7.44000000000000       -0.90000000000000
H            2.09700000000000        6.54800000000000       -0.90000000000000
H           -4.64900000000000        1.26800000000000        3.41800000000000
H           -3.49300000000000        0.96000000000000        4.37900000000000
O           -3.47300000000000       -1.39700000000000        0.79600000000000
H           -2.67100000000000        1.56100000000000        0.89400000000000
H           -4.09900000000000       -2.11400000000000        0.61100000000000
N            5.75400000000000        0.84400000000000       -2.26500000000000
C            7.76000000000000        1.08300000000000       -0.90900000000000
O            8.37500000000000        0.03400000000000       -0.72400000000000
C            3.97200000000000        0.88900000000000       -3.98700000000000
C            4.47500000000000        1.13700000000000       -2.58500000000000
O            3.72000000000000        1.60500000000000       -1.73400000000000
H            4.30500000000000       -0.09200000000000       -4.32400000000000
H            4.36600000000000        1.65600000000000       -4.65500000000000
H            2.88300000000000        0.92600000000000       -3.99400000000000
N            8.43500000000000        2.23400000000000       -1.11200000000000
C            9.88500000000000        2.23400000000000       -1.11200000000000
H           10.24800000000000        3.26200000000000       -1.11200000000000
H           10.24800000000000        1.72000000000000       -2.00200000000000
H           10.24800000000000        1.72000000000000       -0.22200000000000
 
 Bond Distances (Angstroems)
 ---------------------------
N1-C2=1.4600         N1-C10=1.3799        N1-H18=1.0204        C2-N1=1.4600         C2-C3=1.3900         C2-C7=1.3900         
C3-C2=1.3900         C3-C4=1.3900         C3-H20=1.0819        C4-C3=1.3900         C4-C5=1.3900         C4-H21=1.0819        
C5-C4=1.3900         C5-C6=1.3900         C5-C8=1.5000         C6-C5=1.3900         C6-C7=1.3900         C6-H22=1.0819        
C7-C2=1.3900         C7-C6=1.3900         C7-H23=1.0819        C8-C5=1.5000         C8-C9=1.4997         C8-H24=1.0900        
C8-H25=1.0898        C9-C8=1.4997         C9-H26=1.0903        C9-N44=1.4602        C9-C45=1.5200        C10-N1=1.3799        
C10-C11=1.5006       C10-H29=1.0899       C11-C10=1.5006       C11-C12=1.3405       C11-H30=1.0799       C12-C11=1.3405       
C12-C13=1.5006       C12-H31=1.0799       C13-C12=1.5006       C13-C14=1.4998       C13-H32=1.0904       C13-H33=1.0899       
C14-C13=1.4998       C14-C15=1.4992       C14-H34=1.0904       C14-H35=1.0899       C15-C14=1.4992       C15-H36=1.0906       
C15-H37=1.0899       C15-H38=1.0907       O16-H42=0.9796       O17-H39=0.9698       O17-H40=0.9706       H18-N1=1.0204        
H20-C3=1.0819        H21-C4=1.0819        H22-C6=1.0819        H23-C7=1.0819        H24-C8=1.0900        H25-C8=1.0898        
H26-C9=1.0903        H27-N44=1.0095       H28-N53=1.0107       H29-C10=1.0899       H30-C11=1.0799       H31-C12=1.0799       
H32-C13=1.0904       H33-C13=1.0899       H34-C14=1.0904       H35-C14=1.0899       H36-C15=1.0906       H37-C15=1.0899       
H38-C15=1.0907       H39-O17=0.9698       H40-O17=0.9706       O41-H43=0.9696       H42-O16=0.9796       H43-O41=0.9696       
N44-C9=1.4602        N44-H27=1.0095       N44-C48=1.3506       C45-C9=1.5200        C45-O46=1.2300       C45-N53=1.3497       
O46-C45=1.2300       C47-C48=1.5100       C47-H50=1.0894       C47-H51=1.0908       C47-H52=1.0897       C48-N44=1.3506       
C48-C47=1.5100       C48-O49=1.2301       O49-C48=1.2301       H50-C47=1.0894       H51-C47=1.0908       H52-C47=1.0897       
N53-H28=1.0107       N53-C45=1.3497       N53-C54=1.4500       C54-N53=1.4500       C54-H55=1.0902       C54-H56=1.0900       
C54-H57=1.0900       H55-C54=1.0902       H56-C54=1.0900       H57-C54=1.0900       
 C  H  Rav=1.0878 sigma=0.0039  Rmin=1.0799  Rmax=1.0908    23
 C  C  Rav=1.4474 sigma=0.0616  Rmin=1.3405  Rmax=1.5200    15
 N  H  Rav=1.0135 sigma=0.0049  Rmin=1.0095  Rmax=1.0204     3
 N  C  Rav=1.4084 sigma=0.0495  Rmin=1.3497  Rmax=1.4602     6
 O  H  Rav=0.9724 sigma=0.0042  Rmin=0.9696  Rmax=0.9796     4
 O  C  Rav=1.2301 sigma=0.0001  Rmin=1.2300  Rmax=1.2301     2
 
 selected bond angles (degree)
 --------------------
C10-N1-C2=121.31               H18-N1-C2=109.46               H18-N1-C10=109.48              C3-C2-N1=120.00                
C7-C2-N1=120.00                C7-C2-C3=120.00                C4-C3-C2=120.00                H20-C3-C2=120.00               
H20-C3-C4=120.00               C5-C4-C3=120.00                H21-C4-C3=120.00               H21-C4-C5=120.00               
C6-C5-C4=120.00                C8-C5-C4=120.00                C8-C5-C6=120.00                C7-C6-C5=120.00                
H22-C6-C5=120.00               H22-C6-C7=120.00               C6-C7-C2=120.00                H23-C7-C2=120.00               
H23-C7-C6=120.00               C9-C8-C5=109.47                H24-C8-C5=109.45               H24-C8-C9=109.50               
H25-C8-C5=109.46               H25-C8-C9=109.50               H25-C8-H24=109.44              H26-C9-C8=109.47               
N44-C9-C8=109.49               N44-C9-H26=109.44              C45-C9-C8=109.47               C45-C9-H26=109.50              
C45-C9-N44=109.44              C11-C10-N1=118.58              H29-C10-N1=109.48              H29-C10-C11=109.45             
 
 selected dihedral angles (degree)
 ---------------------------------
C3-C2-N1-C10= 49.99           C3-C2-N1-H18=281.02           C7-C2-N1-C10=229.99           C7-C2-N1-H18=101.02           
C4-C3-C2-N1=180.00            C4-C3-C2-C7=  0.00            H20-C3-C2-N1=  0.03           H20-C3-C2-C7=180.03           
C5-C4-C3-C2=  0.00            C5-C4-C3-H20=179.97           H21-C4-C3-C2=180.03           H21-C4-C3-H20=  0.00          
C6-C5-C4-C3=  0.00            C6-C5-C4-H21=179.97           C8-C5-C4-C3=180.00            C8-C5-C4-H21=359.97           
C7-C6-C5-C4=  0.00            C7-C6-C5-C8=180.00            H22-C6-C5-C4=179.97           H22-C6-C5-C8=359.97           
C6-C7-C2-N1=180.00            C6-C7-C2-C3=  0.00            H23-C7-C2-N1=  0.03           H23-C7-C2-C3=180.03           
C2-C7-C6-C5=  0.00            C2-C7-C6-H22=180.03           H23-C7-C6-C5=179.97           H23-C7-C6-H22=  0.00          
C9-C8-C5-C4=270.00            C9-C8-C5-C6= 90.00            H24-C8-C5-C4=149.98           H24-C8-C5-C6=329.98           
H25-C8-C5-C4= 30.04           H25-C8-C5-C6=210.04           H26-C9-C8-C5= 59.96           H26-C9-C8-H24=179.95          
H26-C9-C8-H25=299.95          N44-C9-C8-C5=299.98           N44-C9-C8-H24= 59.98          N44-C9-C8-H25=179.98          
C45-C9-C8-C5=180.00           C45-C9-C8-H24=300.00          C45-C9-C8-H25= 60.00          C11-C10-N1-C2=  0.00          
C11-C10-N1-H18=128.96         H29-C10-N1-C2=126.50          H29-C10-N1-H18=255.46         
 
 CMA Distance (Angstroems)
 ---------------------------
R(CMA):  7.3873
           -------------------------------------------------
          |                Final Singlepoint                |
           -------------------------------------------------

          ...................................................
          :                      SETUP                      :
          :.................................................:
          :  # basis functions                 135          :
          :  # atomic orbitals                 135          :
          :  # shells                           83          :
          :  # electrons                       148          :
          :  max. iterations                   250          :
          :  Hamiltonian                  GFN2-xTB          :
          :  restarted?                      false          :
          :  GBSA solvation                  false          :
          :  PC potential                    false          :
          :  electronic temp.            0.0000000     K    :
          :  accuracy                    1.0000000          :
          :  -> integral cutoff          0.2500000E+02      :
          :  -> integral neglect         0.1000000E-07      :
          :  -> SCF convergence          0.1000000E-05 Eh   :
          :  -> wf. convergence          0.1000000E-03 e    :
          :  Broyden damping             0.4000000          :
          :  net charge                          0          :
          :  unpaired electrons                  0          :
          ...................................................

 iter      E             dE          RMSdq      gap      omega  full diag
   1    -84.1862388 -0.841862E+02  0.945E-01    0.20       0.0  T
   2    -80.5868697  0.359937E+01  0.609E+00    0.34       1.0  T
   3    -83.4790161 -0.289215E+01  0.294E+00    0.03       1.0  T
   4    -84.1916832 -0.712667E+00  0.730E-01    0.20       1.0  T
   5    -84.2254637 -0.337805E-01  0.376E-01    0.07       1.0  T
   6    -84.2142947  0.111690E-01  0.473E-01    0.06       1.0  T
   7    -84.2274602 -0.131655E-01  0.266E-01    0.09       1.0  T
   8    -84.2137671  0.136931E-01  0.471E-01    0.06       1.0  T
   9    -84.2346760 -0.209089E-01  0.173E-02    0.07       1.0  T
  10    -84.2345609  0.115121E-03  0.405E-02    0.07       1.0  T
  11    -84.2320583  0.250255E-02  0.166E-01    0.07       1.0  T
  12    -84.2337960 -0.173770E-02  0.974E-02    0.07       1.0  T
  13    -84.2341571 -0.361081E-03  0.750E-02    0.07       1.0  T
  14    -84.2345526 -0.395492E-03  0.378E-02    0.07       1.0  T
  15    -84.2346386 -0.860238E-04  0.226E-02    0.07       1.0  T
  16    -84.2346421 -0.350652E-05  0.217E-02    0.07       1.0  T
  17    -84.2346595 -0.174216E-04  0.168E-02    0.07       1.0  T
  18    -84.2346752 -0.156261E-04  0.105E-02    0.07       1.3  T
  19    -84.2346830 -0.783963E-05  0.471E-03    0.07       2.8  T
  20    -84.2346850 -0.195933E-05  0.113E-04    0.07     117.2  T
  21    -84.2346850 -0.349928E-09  0.864E-05    0.07     153.3  T
  22    -84.2346850 -0.668166E-09  0.158E-05    0.07     838.6  T

   *** convergence criteria satisfied after 22 iterations ***

         #    Occupation            Energy/Eh            Energy/eV
      -------------------------------------------------------------
         1        2.0000           -0.7411569             -20.1679
       ...           ...                  ...                  ...
        68        2.0000           -0.3851854             -10.4814
        69        2.0000           -0.3815674             -10.3830
        70        2.0000           -0.3726530             -10.1404
        71        2.0000           -0.3663794              -9.9697
        72        2.0000           -0.3573306              -9.7235
        73        2.0000           -0.2693773              -7.3301
        74        2.0000           -0.2679980              -7.2926 (HOMO)
        75                         -0.2652672              -7.2183 (LUMO)
        76                         -0.2304720              -6.2715
        77                         -0.2152027              -5.8560
        78                         -0.2067248              -5.6253
        79                         -0.2041213              -5.5544
       ...                                ...                  ...
       135                          0.6592365              17.9387
      -------------------------------------------------------------
                  HL-Gap            0.0027308 Eh            0.0743 eV
             Fermi-level            0.0000000 Eh            0.0000 eV

 SCC (total)                   0 d,  0 h,  0 min,  0.212 sec
 SCC setup                      ...        0 min,  0.001 sec (  0.472%)
 Dispersion                     ...        0 min,  0.000 sec (  0.000%)
 classical contributions        ...        0 min,  0.000 sec (  0.000%)
 integral evaluation            ...        0 min,  0.016 sec (  7.547%)
 iterations                     ...        0 min,  0.143 sec ( 67.453%)
 molecular gradient             ...        0 min,  0.050 sec ( 23.585%)
 printout                       ...        0 min,  0.002 sec (  0.943%)

         :::::::::::::::::::::::::::::::::::::::::::::::::::::
         ::                     SUMMARY                     ::
         :::::::::::::::::::::::::::::::::::::::::::::::::::::
         :: total energy             -83.186676732280 Eh    ::
         :: gradient norm              0.147395041493 Eh/a0 ::
         :: HOMO-LUMO gap              0.074307984208 eV    ::
         ::.................................................::
         :: SCC energy               -84.233971393492 Eh    ::
         :: -> isotropic ES            0.244899073836 Eh    ::
         :: -> anisotropic ES          0.008010677881 Eh    ::
         :: -> anisotropic XC          0.033051201162 Eh    ::
         :: -> dispersion             -0.053191373808 Eh    ::
         :: repulsion energy           1.047294661212 Eh    ::
         :: add. restraining           0.000000000000 Eh    ::
         :: total charge               0.000000000000 e     ::
         :::::::::::::::::::::::::::::::::::::::::::::::::::::


last geometry written to: xtblast.xyz

########################################################################
[ERROR] Program stopped due to fatal error
-7- Geometry optimization failed
-6- xtb_geoopt: Trying to recover from failed geometry optimization
-5- xtb_geoopt: Geometry optimization did not converge
-4- optimizer_ancopt: Could not relax/optimize structure
-3- optimizer_relax: SCF not converged, aborting...
-2- xtb_calculator_singlepoint: Electronic structure method terminated
-1- scf: Self consistent charge iterator did not converge
########################################################################


===== STDERR =====

abnormal termination of xtb
