      -----------------------------------------------------------      
     |                   =====================                   |     
     |                           x T B                           |     
     |                   =====================                   |     
     |                         S. Grimme                         |     
     |          Mulliken Center for Theoretical Chemistry        |     
     |                    University of Bonn                     |     
      -----------------------------------------------------------      

   * xtb version 6.7.1pre (5071a88) compiled by 'Marcel@Raven' on 2024-07-23

   xtb is free software: you can redistribute it and/or modify it under
   the terms of the GNU Lesser General Public License as published by
   the Free Software Foundation, either version 3 of the License, or
   (at your option) any later version.
   
   xtb is distributed in the hope that it will be useful,
   but WITHOUT ANY WARRANTY; without even the implied warranty of
   MERCHANTABILITY or FITNESS FOR A PARTICULAR PURPOSE.  See the
   GNU Lesser General Public License for more details.
   
   Cite this work as:
   * C. Bannwarth, E. Caldeweyher, S. Ehlert, A. Hansen, P. Pracht,
     J. Seibert, S. Spicher, S. Grimme, WIREs Comput. Mol. Sci., 2020, 11,
     e01493. DOI: 10.1002/wcms.1493
   
   for GFN2-xTB:
   * C. Bannwarth, S. Ehlert and S. Grimme., J. Chem. Theory Comput., 2019,
     15, 1652-1671. DOI: 10.1021/acs.jctc.8b01176
   for GFN1-xTB:
   * S. Grimme, C. Bannwarth, P. Shushkov, J. Chem. Theory Comput., 2017,
     13, 1989-2009. DOI: 10.1021/acs.jctc.7b00118
   for GFN0-xTB:
   * P. Pracht, E. Caldeweyher, S. Ehlert, S. Grimme, ChemRxiv, 2019, preprint.
     DOI: 10.26434/chemrxiv.8326202.v1
   for GFN-FF:
   * S. Spicher and S. Grimme, Angew. Chem. Int. Ed., 2020, 59, 15665-15673.
     DOI: 10.1002/anie.202004239
   
   for ALPB and GBSA implicit solvation:
   * S. Ehlert, M. Stahn, S. Spicher, S. Grimme, J. Chem. Theory Comput.,
     2021, 17, 4250-4261. DOI: 10.1021/acs.jctc.1c00471
   
   for ddCOSMO and CPCM-X implicit solvation:
   * M. Stahn, S. Ehlert, S. Grimme, J. Phys. Chem. A,
     2023, XX, XXXX-XXXX. DOI: 10.1021/acs.jpca.3c04382
   
   for DFT-D4:
   * E. Caldeweyher, C. Bannwarth and S. Grimme, J. Chem. Phys., 2017,
     147, 034112. DOI: 10.1063/1.4993215
   * E. Caldeweyher, S. Ehlert, A. Hansen, H. Neugebauer, S. Spicher,
     C. Bannwarth and S. Grimme, J. Chem. Phys., 2019, 150, 154122.
     DOI: 10.1063/1.5090222
   * E. Caldeweyher, J.-M. Mewes, S. Ehlert and S. Grimme, Phys. Chem. Chem. Phys.
     2020, 22, 8499-8512. DOI: 10.1039/D0CP00502A
   
   for sTDA-xTB:
   * S. Grimme and C. Bannwarth, J. Chem. Phys., 2016, 145, 054103.
     DOI: 10.1063/1.4959605
   
   in the mass-spec context:
   * V. Asgeirsson, C. Bauer and S. Grimme, Chem. Sci., 2017, 8, 4879.
     DOI: 10.1039/c7sc00601b
   * J. Koopman and S. Grimme, ACS Omega 2019, 4, 12, 15120-15133.
     DOI: 10.1021/acsomega.9b02011
   
   for metadynamics refer to:
   * S. Grimme, J. Chem. Theory Comput., 2019, 155, 2847-2862
     DOI: 10.1021/acs.jctc.9b00143
   
   for SPH calculations refer to:
   * S. Spicher and S. Grimme, J. Chem. Theory Comput., 2021, 17, 1701-1714
     DOI: 10.1021/acs.jctc.0c01306
   
   for ONIOM refer to:
   * C. Plett, A. Katbashev, S. Ehlert, S. Grimme, M. Bursch,
     Phys. Chem. Chem. Phys., 2023, 25, 17860-17868. DOI: 10.1039/D3CP02178E
   
   for DIPRO refer to:
   * J. Kohn, N. Gildemeister, S. Grimme, D. Fazzi, A. Hansen,
     J. Chem. Phys., 2023, just accepted.
   
   for PTB refer to:
   * S. Grimme, M. Mueller, A. Hansen, J. Chem. Phys., 2023, 158, 124111.
     DOI: 10.1063/5.0137838
   
   with help from (in alphabetical order)
   P. Atkinson, C. Bannwarth, F. Bohle, G. Brandenburg, E. Caldeweyher
   M. Checinski, S. Dohm, S. Ehlert, S. Ehrlich, I. Gerasimov, C. Hölzer
   A. Katbashev, J. Kohn, J. Koopman, C. Lavigne, S. Lehtola, F. März, M. Müller,
   F. Musil, H. Neugebauer, J. Pisarek, C. Plett, P. Pracht, F. Pultar,
   J. Seibert, P. Shushkov, S. Spicher, M. Stahn, M. Steiner, T. Strunk,
   J. Stückrath, T. Rose, and J. Unsleber
   
 * started run on 2026/08/31 at 13:15:50.633     
   ID    Z sym.   atoms
    1    7 N      1, 17, 63, 72
    2    6 C      2-15, 18-26, 64, 66, 67, 73
    3    8 O      16, 27, 60, 65, 68
    4    1 H      28-59, 61, 62, 69-71, 74-76

           -------------------------------------------------
          |                Calculation Setup                |
           -------------------------------------------------

          program call               : C:\Users\Nayanika\Downloads\xtb-6.7.1pre-windows-x86_64\xtb-6.7.1\bin\xtb.exe D:\PhD_Thesis\LmrR_EVB\charges\fast_lmrr_5QM\xtb_preparation\RS2_1_to_TS2_1a\RS2_1_to_TS2_1a_TS.xyz --gfn 1 --opt tight --chrg 0 --uhf 0 --etemp 0
          coordinate file            : D:\PhD_Thesis\LmrR_EVB\charges\fast_lmrr_5QM\xtb_preparation\RS2_1_to_TS2_1a\RS2_1_to_TS2_1a_TS.xyz
          omp threads                :                     1


molecular fragmentation (1/2 indicates fragments):
111111111111111222222222222121111111111111111111222222222222221111111111
1111
# atoms in fragment 1/2:    49    27
 fragment masses (1/2) :      316.42      184.21
CMA distance (Bohr)    :  11.887
constraining FC (au)   :  0.0500

           -------------------------------------------------
          |                 G F N 1 - x T B                 |
           -------------------------------------------------

        Reference                      10.1021/acs.jctc.7b00118
      * Hamiltonian:
        H0-scaling (s, p, d)           1.850000    2.250000    2.000000
        zeta-weighting                 0.000000
      * Dispersion:
        s8                             2.400000
        a1                             0.630000
        a2                             5.000000
        s9                             0.000000
      * Repulsion:
        kExp                           1.500000
        rExp                           1.000000
      * Coulomb:
        alpha                          2.000000
        third order                    atomic
        anisotropic                    false
      * Halogen bond correction:
        rad-scale                      1.300000
        damping                        0.440000


          ...................................................
          :                      SETUP                      :
          :.................................................:
          :  # basis functions                 224          :
          :  # atomic orbitals                 224          :
          :  # shells                          152          :
          :  # electrons                       198          :
          :  # halogen bonds                     0          :
          :  max. iterations                   250          :
          :  Hamiltonian                  GFN1-xTB          :
          :  restarted?                      false          :
          :  GBSA solvation                  false          :
          :  PC potential                    false          :
          :  electronic temp.            0.0000000     K    :
          :  accuracy                    1.0000000          :
          :  -> integral cutoff          0.2500000E+02      :
          :  -> integral neglect         0.1000000E-07      :
          :  -> SCF convergence          0.1000000E-05 Eh   :
          :  -> wf. convergence          0.2000000E-04 e    :
          :  Broyden damping             0.4000000          :
          :  net charge                          0          :
          :  unpaired electrons                  0          :
          ...................................................

 iter      E             dE          RMSdq      gap      omega  full diag
   1   -115.7085279 -0.115709E+03  0.860E+00    2.05       0.0  T
   2   -115.1500167  0.558511E+00  0.565E+00    0.00       1.0  T
   3   -113.1900600  0.195996E+01  0.355E+00    0.12       1.0  T
   4   -115.8986905 -0.270863E+01  0.204E+00    2.13       1.0  T
   5   -115.9846921 -0.860015E-01  0.138E+00    2.08       1.0  T
   6   -116.0136738 -0.289817E-01  0.103E+00    2.00       1.0  T
   7   -116.0375876 -0.239138E-01  0.518E-01    0.81       1.0  T
   8   -111.6886811  0.434891E+01  0.454E+00    0.27       1.0  T
   9   -116.0384754 -0.434979E+01  0.541E-01    0.84       1.0  T
  10   -116.0391834 -0.708029E-03  0.504E-01    0.49       1.0  T
  11   -116.0396577 -0.474294E-03  0.489E-01    0.37       1.0  T
  12   -116.0406406 -0.982830E-03  0.463E-01    0.16       1.0  T
  13   -115.1994672  0.841173E+00  0.205E+00    0.00       1.0  T
  14   -116.0420436 -0.842576E+00  0.445E-01    0.01       1.0  T
  15   -115.1955227  0.846521E+00  0.207E+00    0.00       1.0  T
  16   -115.1947942  0.728473E-03  0.207E+00    0.00       1.0  T
  17   -115.1930562  0.173800E-02  0.208E+00    0.00       1.0  T
  18   -111.7207231  0.347233E+01  0.446E+00    0.12       1.0  T
  19   -115.1882800 -0.346756E+01  0.210E+00    0.00       1.0  T
  20   -116.0388008 -0.850521E+00  0.498E-01    0.55       1.0  T
  21   -116.0407662 -0.196541E-02  0.461E-01    0.08       1.0  T
  22   -116.0396329  0.113327E-02  0.483E-01    0.37       1.0  T
  23   -116.0407580 -0.112501E-02  0.460E-01    0.11       1.0  T
  24   -115.1984344  0.842324E+00  0.205E+00    0.00       1.0  T
  25   -116.0375875 -0.839153E+00  0.526E-01    0.84       1.0  T
  26   -116.0404389 -0.285140E-02  0.467E-01    0.19       1.0  T
  27   -116.0410100 -0.571103E-03  0.455E-01    0.06       1.0  T
  28   -115.1992032  0.841807E+00  0.205E+00    0.00       1.0  T
  29   -116.0373952 -0.838192E+00  0.531E-01    0.89       1.0  T
  30   -116.0407430 -0.334775E-02  0.460E-01    0.12       1.0  T
  31   -116.0411179 -0.374915E-03  0.453E-01    0.04       1.0  T
  32   -115.1969739  0.844144E+00  0.206E+00    0.00       1.0  T
  33   -116.0364462 -0.839472E+00  0.550E-01    1.12       1.0  T
  34   -116.0397509 -0.330478E-02  0.482E-01    0.37       1.0  T
  35   -116.0410512 -0.130030E-02  0.454E-01    0.05       1.0  T
  36   -115.1953728  0.845678E+00  0.207E+00    0.00       1.0  T
  37   -116.0354210 -0.840048E+00  0.570E-01    1.36       1.0  T
  38   -116.0390890 -0.366795E-02  0.496E-01    0.53       1.0  T
  39   -115.1994985  0.839591E+00  0.205E+00    0.00       1.0  T
  40   -116.0323832 -0.832885E+00  0.625E-01    1.92       1.0  T
  41   -116.0387030 -0.631977E-02  0.504E-01    0.62       1.0  T
  42   -116.0404808 -0.177778E-02  0.466E-01    0.18       1.0  T
  43   -115.1896119  0.850869E+00  0.210E+00    0.00       1.0  T
  44   -116.0346444 -0.845033E+00  0.585E-01    1.53       1.0  T
  45   -116.0397239 -0.507943E-02  0.482E-01    0.37       1.0  T
  46   -115.1877252  0.851999E+00  0.211E+00    0.00       1.0  T
  47   -116.0335573 -0.845832E+00  0.605E-01    1.76       1.0  T
  48   -116.0403769 -0.681955E-02  0.468E-01    0.21       1.0  T
  49   -115.1843066  0.856070E+00  0.213E+00    0.00       1.0  T
  50   -116.0340608 -0.849754E+00  0.596E-01    1.66       1.0  T
  51   -115.2001900  0.833871E+00  0.205E+00    0.00       1.0  T
  52   -116.0277117 -0.827522E+00  0.704E-01    1.93       1.0  T
  53   -116.0400633 -0.123516E-01  0.476E-01    0.29       1.0  T
  54   -115.1887364  0.851327E+00  0.210E+00    0.00       1.0  T
  55   -116.0331813 -0.844445E+00  0.612E-01    1.84       1.0  T
  56   -115.1987035  0.834478E+00  0.206E+00    0.00       1.0  T
  57   -116.0287918 -0.830088E+00  0.686E-01    1.93       1.0  T
  58   -115.2007882  0.828004E+00  0.205E+00    0.00       1.0  T
  59   -116.0278145 -0.827026E+00  0.702E-01    1.93       1.0  T
  60   -116.0411547 -0.133402E-01  0.453E-01    0.04       1.0  T
  61   -115.1863710  0.854784E+00  0.212E+00    0.00       1.0  T
  62   -116.0355452 -0.849174E+00  0.568E-01    1.34       1.0  T
  63   -115.1951845  0.840361E+00  0.207E+00    0.00       1.0  T
  64   -116.0316551 -0.836471E+00  0.638E-01    1.92       1.0  T
  65   -115.1959006  0.835754E+00  0.207E+00    0.00       1.0  T
  66   -116.0311654 -0.835265E+00  0.647E-01    1.92       1.0  T
  67   -115.1964465  0.834719E+00  0.207E+00    0.00       1.0  T
  68   -116.0311170 -0.834671E+00  0.648E-01    1.92       1.0  T
  69   -115.1962903  0.834827E+00  0.207E+00    0.00       1.0  T
  70   -116.0314286 -0.835138E+00  0.643E-01    1.92       1.0  T
  71   -115.1959158  0.835513E+00  0.207E+00    0.00       1.0  T
  72   -116.0318657 -0.835950E+00  0.635E-01    1.92       1.0  T
  73   -115.1953705  0.836495E+00  0.207E+00    0.00       1.0  T
  74   -116.0323796 -0.837009E+00  0.626E-01    1.92       1.0  T
  75   -115.1947254  0.837654E+00  0.208E+00    0.00       1.0  T
  76   -116.0329278 -0.838202E+00  0.616E-01    1.90       1.0  T
  77   -115.1940190  0.838909E+00  0.208E+00    0.00       1.0  T
  78   -116.0334860 -0.839467E+00  0.606E-01    1.78       1.0  T
  79   -115.1932807  0.840205E+00  0.209E+00    0.00       1.0  T
  80   -116.0340376 -0.840757E+00  0.596E-01    1.67       1.0  T
  81   -115.1925311  0.841506E+00  0.209E+00    0.00       1.0  T
  82   -116.0345717 -0.842041E+00  0.587E-01    1.55       1.0  T
  83   -115.1917850  0.842787E+00  0.209E+00    0.00       1.0  T
  84   -116.0350816 -0.843297E+00  0.577E-01    1.44       1.0  T
  85   -115.1910530  0.844029E+00  0.210E+00    0.00       1.0  T
  86   -116.0355631 -0.844510E+00  0.568E-01    1.34       1.0  T
  87   -115.1903423  0.845221E+00  0.210E+00    0.00       1.0  T
  88   -116.0360143 -0.845672E+00  0.559E-01    1.24       1.0  T
  89   -115.1896580  0.846356E+00  0.210E+00    0.00       1.0  T
  90   -116.0364345 -0.846776E+00  0.551E-01    1.14       1.0  T
  91   -115.1890032  0.847431E+00  0.211E+00    0.00       1.0  T
  92   -116.0368237 -0.847821E+00  0.544E-01    1.05       1.0  T
  93   -115.1883797  0.848444E+00  0.211E+00    0.00       1.0  T
  94   -116.0371828 -0.848803E+00  0.536E-01    0.97       1.0  T
  95   -115.1877883  0.849395E+00  0.211E+00    0.00       1.0  T
  96   -116.0375132 -0.849725E+00  0.530E-01    0.89       1.0  T
  97   -115.1872256  0.850288E+00  0.212E+00    0.00       1.0  T
  98   -116.0378161 -0.850591E+00  0.524E-01    0.82       1.0  T
  99   -111.7304624  0.430735E+01  0.445E+00    0.01       1.0  T
 100   -115.9565872 -0.422612E+01  0.149E+00    1.82       1.0  T
 101   -116.0286418 -0.720546E-01  0.689E-01    1.93       1.0  T
 102   -116.0323921 -0.375025E-02  0.624E-01    1.92       1.0  T
 103   -116.0317464  0.645655E-03  0.636E-01    1.92       1.0  T
 104   -116.0374148 -0.566842E-02  0.531E-01    0.92       1.0  T
 105   -115.1996620  0.837753E+00  0.205E+00    0.00       1.0  T
 106   -116.0309554 -0.831293E+00  0.651E-01    1.93       1.0  T
 107   -115.1947209  0.836234E+00  0.208E+00    0.00       1.0  T
 108   -116.0335765 -0.838856E+00  0.605E-01    1.76       1.0  T
 109   -115.1908441  0.842732E+00  0.210E+00    0.00       1.0  T
 110   -116.0358189 -0.844975E+00  0.563E-01    1.28       1.0  T
 111   -115.1880071  0.847812E+00  0.211E+00    0.00       1.0  T
 112   -116.0373491 -0.849342E+00  0.533E-01    0.93       1.0  T
 113   -111.7282867  0.430906E+01  0.445E+00    0.06       1.0  T
 114   -114.3888281 -0.266054E+01  0.235E+00    0.03       1.0  T
 115   -113.5255503  0.863278E+00  0.301E+00    0.86       1.0  T
 116   -113.4971927  0.283576E-01  0.311E+00    0.82       1.0  T
 117   -115.9539188 -0.245673E+01  0.158E+00    1.98       1.0  T
 118   -115.9744211 -0.205022E-01  0.141E+00    2.00       1.0  T
 119   -115.9730408  0.138026E-02  0.144E+00    2.01       1.0  T
 120   -115.9729822  0.586188E-04  0.145E+00    2.01       1.0  T
 121   -115.9728915  0.906393E-04  0.145E+00    2.01       1.0  T
 122   -115.9845378 -0.116462E-01  0.135E+00    2.02       1.0  T
 123   -116.0103136 -0.257759E-01  0.104E+00    1.99       1.0  T
 124   -116.0273779 -0.170642E-01  0.758E-01    1.95       1.0  T
 125   -116.0362845 -0.890666E-02  0.576E-01    0.85       1.0  T
 126   -115.1985216  0.837763E+00  0.205E+00    0.00       1.0  T
 127   -116.0326913 -0.834170E+00  0.627E-01    1.85       1.0  T
 128   -115.1889389  0.843752E+00  0.211E+00    0.00       1.0  T
 129   -116.0362187 -0.847280E+00  0.558E-01    1.15       1.0  T
 130   -111.7208257  0.431539E+01  0.447E+00    0.16       1.0  T
 131   -113.6084742 -0.188765E+01  0.276E+00    0.42       1.0  T
 132   -115.9532599 -0.234479E+01  0.191E+00    2.12       1.0  T
 133   -116.0002257 -0.469658E-01  0.122E+00    2.02       1.0  T
 134   -116.0314685 -0.312428E-01  0.734E-01    0.48       1.0  T
 135   -115.2085015  0.822967E+00  0.197E+00    0.00       1.0  T
 136   -116.0271326 -0.818631E+00  0.734E-01    1.94       1.0  T
 137   -115.1913561  0.835777E+00  0.210E+00    0.00       1.0  T
 138   -116.0352202 -0.843864E+00  0.577E-01    1.38       1.0  T
 139   -111.7227347  0.431249E+01  0.447E+00    0.10       1.0  T
 140   -115.9014639 -0.417873E+01  0.194E+00    0.21       1.0  T
 141   -115.9894274 -0.879635E-01  0.125E+00    2.01       1.0  T
 142   -116.0170073 -0.275800E-01  0.866E-01    1.96       1.0  T
 143   -116.0304443 -0.134370E-01  0.644E-01    1.92       1.0  T
 144   -116.0362383 -0.579397E-02  0.536E-01    1.46       1.0  T
 145   -116.0404580 -0.421973E-02  0.449E-01    0.42       1.0  T
 146   -115.1884216  0.852036E+00  0.213E+00    0.00       1.0  T
 147   -116.0362875 -0.847866E+00  0.543E-01    1.32       1.0  T
 148   -115.1878597  0.848428E+00  0.213E+00    0.00       1.0  T
 149   -116.0369237 -0.849064E+00  0.532E-01    1.16       1.0  T
 150   -111.7227640  0.431416E+01  0.447E+00    0.06       1.0  T
 151   -113.5623341 -0.183957E+01  0.291E+00    0.78       1.0  T
 152   -115.9140592 -0.235173E+01  0.220E+00    2.13       1.0  T
 153   -116.0082323 -0.941731E-01  0.114E+00    1.76       1.0  T
 154   -116.0315452 -0.233129E-01  0.711E-01    0.96       1.0  T
 155   -115.1975359  0.834009E+00  0.203E+00    0.00       1.0  T
 156   -116.0327111 -0.835175E+00  0.640E-01    1.68       1.0  T
 157   -111.7206332  0.431208E+01  0.447E+00    0.23       1.0  T
 158   -113.5923584 -0.187173E+01  0.284E+00    0.46       1.0  T
 159   -115.8981840 -0.230583E+01  0.232E+00    2.12       1.0  T
 160   -116.0109929 -0.112809E+00  0.110E+00    1.55       1.0  T
 161   -116.0367904 -0.257976E-01  0.603E-01    0.13       1.0  T
 162   -111.7299102  0.430688E+01  0.443E+00    0.24       1.0  T
 163   -115.8641529 -0.413424E+01  0.227E+00    0.18       1.0  T
 164   -115.9839110 -0.119758E+00  0.130E+00    2.01       1.0  T
 165   -116.0183159 -0.344049E-01  0.839E-01    1.95       1.0  T
 166   -116.0328836 -0.145677E-01  0.593E-01    1.92       1.0  T
 167   -116.0397910 -0.690743E-02  0.457E-01    0.68       1.0  T
 168   -115.1895091  0.850282E+00  0.213E+00    0.00       1.0  T
 169   -116.0357979 -0.846289E+00  0.545E-01    1.53       1.0  T
 170   -115.1914198  0.844378E+00  0.212E+00    0.00       1.0  T
 171   -116.0356523 -0.844233E+00  0.550E-01    1.54       1.0  T
 172   -115.1890432  0.846609E+00  0.213E+00    0.00       1.0  T
 173   -116.0367895 -0.847746E+00  0.530E-01    1.25       1.0  T
 174   -115.1869037  0.849886E+00  0.214E+00    0.00       1.0  T
 175   -116.0376768 -0.850773E+00  0.514E-01    1.02       1.0  T
 176   -115.1853859  0.852291E+00  0.214E+00    0.00       1.0  T
 177   -116.0382916 -0.852906E+00  0.503E-01    0.87       1.0  T
 178   -111.7225893  0.431570E+01  0.448E+00    0.05       1.0  T
 179   -113.5708486 -0.184826E+01  0.290E+00    0.73       1.0  T
 180   -115.8878430 -0.231699E+01  0.238E+00    2.11       1.0  T
 181   -116.0101048 -0.122262E+00  0.110E+00    2.00       1.0  T
 182   -115.2113702  0.798735E+00  0.194E+00    0.00       1.0  T
 183   -116.0282298 -0.816860E+00  0.723E-01    1.94       1.0  T
 184   -111.7221439  0.430609E+01  0.446E+00    0.17       1.0  T
 185   -113.5951156 -0.187297E+01  0.286E+00    0.28       1.0  T
 186   -115.8885214 -0.229341E+01  0.236E+00    2.11       1.0  T
 187   -116.0121154 -0.123594E+00  0.107E+00    1.89       1.0  T
 188   -115.2091229  0.802993E+00  0.195E+00    0.00       1.0  T
 189   -116.0295834 -0.820461E+00  0.706E-01    1.94       1.0  T
 190   -111.7198098  0.430977E+01  0.447E+00    0.25       1.0  T
 191   -115.8731570 -0.415335E+01  0.225E+00    0.37       1.0  T
 192   -115.9823051 -0.109148E+00  0.131E+00    2.01       1.0  T
 193   -116.0182878 -0.359827E-01  0.836E-01    1.95       1.0  T
 194   -116.0332866 -0.149988E-01  0.585E-01    1.91       1.0  T
 195   -116.0404150 -0.712841E-02  0.442E-01    0.54       1.0  T
 196   -115.1870246  0.853390E+00  0.215E+00    0.00       1.0  T
 197   -116.0370175 -0.849993E+00  0.519E-01    1.28       1.0  T
 198   -115.1910192  0.845998E+00  0.212E+00    0.00       1.0  T
 199   -116.0359303 -0.844911E+00  0.542E-01    1.51       1.0  T
 200   -115.1902183  0.845712E+00  0.212E+00    0.00       1.0  T
 201   -116.0365006 -0.846282E+00  0.533E-01    1.36       1.0  T
 202   -115.1889199  0.847581E+00  0.213E+00    0.00       1.0  T
 203   -116.0371057 -0.848186E+00  0.522E-01    1.20       1.0  T
 204   -115.1879055  0.849200E+00  0.213E+00    0.00       1.0  T
 205   -116.0375808 -0.849675E+00  0.513E-01    1.08       1.0  T
 206   -115.1870933  0.850487E+00  0.214E+00    0.00       1.0  T
 207   -116.0379498 -0.850857E+00  0.507E-01    0.99       1.0  T
 208   -115.1864876  0.851462E+00  0.214E+00    0.00       1.0  T
 209   -116.0382276 -0.851740E+00  0.501E-01    0.91       1.0  T
 210   -115.1860421  0.852186E+00  0.214E+00    0.00       1.0  T
 211   -116.0384369 -0.852395E+00  0.497E-01    0.86       1.0  T
 212   -115.1857062  0.852731E+00  0.214E+00    0.00       1.0  T
 213   -116.0385953 -0.852889E+00  0.494E-01    0.82       1.0  T
 214   -111.7257750  0.431282E+01  0.447E+00    0.01       1.0  T
 215   -113.5609391 -0.183516E+01  0.294E+00    0.71       1.0  T
 216   -115.8902946 -0.232936E+01  0.232E+00    2.10       1.0  T
 217   -116.0104177 -0.120123E+00  0.108E+00    2.00       1.0  T
 218   -116.0371040 -0.266863E-01  0.593E-01    0.11       1.0  T
 219   -111.7244034  0.431270E+01  0.444E+00    0.38       1.0  T
 220   -115.8501838 -0.412578E+01  0.240E+00    0.19       1.0  T
 221   -115.9822533 -0.132069E+00  0.131E+00    2.01       1.0  T
 222   -116.0201892 -0.379359E-01  0.809E-01    1.95       1.0  T
 223   -116.0349346 -0.147454E-01  0.555E-01    1.81       1.0  T
 224   -116.0416084 -0.667379E-02  0.416E-01    0.21       1.0  T
 225   -111.7214915  0.432012E+01  0.449E+00    0.00       1.0  T
 226   -113.5511805 -0.182969E+01  0.297E+00    0.70       1.0  T
 227   -115.8841096 -0.233293E+01  0.235E+00    2.09       1.0  T
 228   -116.0089331 -0.124823E+00  0.110E+00    2.00       1.0  T
 229   -116.0376871 -0.287540E-01  0.575E-01    0.09       1.0  T
 230   -111.7200922  0.431759E+01  0.445E+00    0.44       1.0  T
 231   -115.2952811 -0.357519E+01  0.246E+00    0.03       1.0  T
 232   -115.9530227 -0.657742E+00  0.165E+00    2.04       1.0  T
 233   -116.0113641 -0.583414E-01  0.980E-01    1.98       1.0  T
 234   -116.0339959 -0.226317E-01  0.603E-01    1.58       1.0  T
 235   -115.1956971  0.838299E+00  0.209E+00    0.00       1.0  T
 236   -116.0358241 -0.840127E+00  0.554E-01    1.42       1.0  T
 237   -115.1882113  0.847613E+00  0.213E+00    0.00       1.0  T
 238   -116.0378477 -0.849636E+00  0.511E-01    0.99       1.0  T
 239   -115.1878235  0.850024E+00  0.213E+00    0.00       1.0  T
 240   -116.0380127 -0.850189E+00  0.506E-01    0.97       1.0  T
 241   -115.1879815  0.850031E+00  0.213E+00    0.00       1.0  T
 242   -116.0379967 -0.850015E+00  0.505E-01    0.99       1.0  T
 243   -115.1883223  0.849674E+00  0.213E+00    0.00       1.0  T
 244   -116.0379283 -0.849606E+00  0.506E-01    1.01       1.0  T
 245   -115.1886276  0.849301E+00  0.213E+00    0.00       1.0  T
 246   -116.0378759 -0.849248E+00  0.506E-01    1.02       1.0  T
 247   -115.1888604  0.849015E+00  0.213E+00    0.00       1.0  T
 248   -116.0378477 -0.848987E+00  0.507E-01    1.03       1.0  T
 249   -115.1890292  0.848818E+00  0.213E+00    0.00       1.0  T
 250   -116.0378408 -0.848812E+00  0.507E-01    1.03       1.0  T

   *** convergence criteria cannot be satisfied within 250 iterations ***

         #    Occupation            Energy/Eh            Energy/eV
      -------------------------------------------------------------
         1        2.0000           -0.8199430             -22.3118
       ...           ...                  ...                  ...
        93        2.0000           -0.4183970             -11.3852
        94        2.0000           -0.4166566             -11.3378
        95        2.0000           -0.4121412             -11.2149
        96        2.0000           -0.4089009             -11.1268
        97        2.0000           -0.3747838             -10.1984
        98        2.0000           -0.3427791              -9.3275
        99        2.0000           -0.3427299              -9.3262 (HOMO)
       100                         -0.3047802              -8.2935 (LUMO)
       101                         -0.2728129              -7.4236
       102                         -0.2590727              -7.0497
       103                         -0.2575798              -7.0091
       104                         -0.2506994              -6.8219
       ...                                ...                  ...
       224                          1.4548524              39.5886
      -------------------------------------------------------------
                  HL-Gap            0.0379496 Eh            1.0327 eV
             Fermi-level            0.0000000 Eh            0.0000 eV

 SCC (total)                   0 d,  0 h,  0 min,  4.360 sec
 SCC setup                      ...        0 min,  0.004 sec (  0.092%)
 Dispersion                     ...        0 min,  0.001 sec (  0.023%)
 classical contributions        ...        0 min,  0.000 sec (  0.000%)
 integral evaluation            ...        0 min,  0.082 sec (  1.881%)
 iterations                     ...        0 min,  4.031 sec ( 92.454%)
 molecular gradient             ...        0 min,  0.236 sec (  5.413%)
 printout                       ...        0 min,  0.005 sec (  0.115%)

########################################################################
[ERROR] Program stopped due to fatal error
-3- Single point calculation terminated
-2- xtb_calculator_singlepoint: Electronic structure method terminated
-1- scf: Self consistent charge iterator did not converge
########################################################################


===== STDERR =====

abnormal termination of xtb
