      -----------------------------------------------------------      
     |                   =====================                   |     
     |                           x T B                           |     
     |                   =====================                   |     
     |                         S. Grimme                         |     
     |          Mulliken Center for Theoretical Chemistry        |     
     |                    University of Bonn                     |     
      -----------------------------------------------------------      

   * xtb version 6.7.1pre (5071a88) compiled by 'Marcel@Raven' on 2024-07-23

   xtb is free software: you can redistribute it and/or modify it under
   the terms of the GNU Lesser General Public License as published by
   the Free Software Foundation, either version 3 of the License, or
   (at your option) any later version.
   
   xtb is distributed in the hope that it will be useful,
   but WITHOUT ANY WARRANTY; without even the implied warranty of
   MERCHANTABILITY or FITNESS FOR A PARTICULAR PURPOSE.  See the
   GNU Lesser General Public License for more details.
   
   Cite this work as:
   * C. Bannwarth, E. Caldeweyher, S. Ehlert, A. Hansen, P. Pracht,
     J. Seibert, S. Spicher, S. Grimme, WIREs Comput. Mol. Sci., 2020, 11,
     e01493. DOI: 10.1002/wcms.1493
   
   for GFN2-xTB:
   * C. Bannwarth, S. Ehlert and S. Grimme., J. Chem. Theory Comput., 2019,
     15, 1652-1671. DOI: 10.1021/acs.jctc.8b01176
   for GFN1-xTB:
   * S. Grimme, C. Bannwarth, P. Shushkov, J. Chem. Theory Comput., 2017,
     13, 1989-2009. DOI: 10.1021/acs.jctc.7b00118
   for GFN0-xTB:
   * P. Pracht, E. Caldeweyher, S. Ehlert, S. Grimme, ChemRxiv, 2019, preprint.
     DOI: 10.26434/chemrxiv.8326202.v1
   for GFN-FF:
   * S. Spicher and S. Grimme, Angew. Chem. Int. Ed., 2020, 59, 15665-15673.
     DOI: 10.1002/anie.202004239
   
   for ALPB and GBSA implicit solvation:
   * S. Ehlert, M. Stahn, S. Spicher, S. Grimme, J. Chem. Theory Comput.,
     2021, 17, 4250-4261. DOI: 10.1021/acs.jctc.1c00471
   
   for ddCOSMO and CPCM-X implicit solvation:
   * M. Stahn, S. Ehlert, S. Grimme, J. Phys. Chem. A,
     2023, XX, XXXX-XXXX. DOI: 10.1021/acs.jpca.3c04382
   
   for DFT-D4:
   * E. Caldeweyher, C. Bannwarth and S. Grimme, J. Chem. Phys., 2017,
     147, 034112. DOI: 10.1063/1.4993215
   * E. Caldeweyher, S. Ehlert, A. Hansen, H. Neugebauer, S. Spicher,
     C. Bannwarth and S. Grimme, J. Chem. Phys., 2019, 150, 154122.
     DOI: 10.1063/1.5090222
   * E. Caldeweyher, J.-M. Mewes, S. Ehlert and S. Grimme, Phys. Chem. Chem. Phys.
     2020, 22, 8499-8512. DOI: 10.1039/D0CP00502A
   
   for sTDA-xTB:
   * S. Grimme and C. Bannwarth, J. Chem. Phys., 2016, 145, 054103.
     DOI: 10.1063/1.4959605
   
   in the mass-spec context:
   * V. Asgeirsson, C. Bauer and S. Grimme, Chem. Sci., 2017, 8, 4879.
     DOI: 10.1039/c7sc00601b
   * J. Koopman and S. Grimme, ACS Omega 2019, 4, 12, 15120-15133.
     DOI: 10.1021/acsomega.9b02011
   
   for metadynamics refer to:
   * S. Grimme, J. Chem. Theory Comput., 2019, 155, 2847-2862
     DOI: 10.1021/acs.jctc.9b00143
   
   for SPH calculations refer to:
   * S. Spicher and S. Grimme, J. Chem. Theory Comput., 2021, 17, 1701-1714
     DOI: 10.1021/acs.jctc.0c01306
   
   for ONIOM refer to:
   * C. Plett, A. Katbashev, S. Ehlert, S. Grimme, M. Bursch,
     Phys. Chem. Chem. Phys., 2023, 25, 17860-17868. DOI: 10.1039/D3CP02178E
   
   for DIPRO refer to:
   * J. Kohn, N. Gildemeister, S. Grimme, D. Fazzi, A. Hansen,
     J. Chem. Phys., 2023, just accepted.
   
   for PTB refer to:
   * S. Grimme, M. Mueller, A. Hansen, J. Chem. Phys., 2023, 158, 124111.
     DOI: 10.1063/5.0137838
   
   with help from (in alphabetical order)
   P. Atkinson, C. Bannwarth, F. Bohle, G. Brandenburg, E. Caldeweyher
   M. Checinski, S. Dohm, S. Ehlert, S. Ehrlich, I. Gerasimov, C. Hölzer
   A. Katbashev, J. Kohn, J. Koopman, C. Lavigne, S. Lehtola, F. März, M. Müller,
   F. Musil, H. Neugebauer, J. Pisarek, C. Plett, P. Pracht, F. Pultar,
   J. Seibert, P. Shushkov, S. Spicher, M. Stahn, M. Steiner, T. Strunk,
   J. Stückrath, T. Rose, and J. Unsleber
   
 * started run on 2026/08/20 at 20:21:24.604     
   ID    Z sym.   atoms
    1    7 N      1, 44, 53
    2    6 C      2-15, 45, 47, 48, 54
    3    8 O      16, 17, 41, 46, 49
    4    1 H      18-40, 42, 43, 50-52, 55-57

           -------------------------------------------------
          |                Calculation Setup                |
           -------------------------------------------------

          program call               : C:\Users\Nayanika\Downloads\xtb-6.7.1pre-windows-x86_64\xtb-6.7.1\bin\xtb.exe D:\PhD_Thesis\LmrR_EVB\charges\fast_lmrr_5QM\xtb_preparation\stage2_five_xtb_protocols\GFN1_tight\TS1_2_to_PS1_2b\TS1_2_to_PS1_2b_RS_xtbopt.xyz --gfn 1 --chrg 0 --uhf 0 --hess --etemp 0
          coordinate file            : D:\PhD_Thesis\LmrR_EVB\charges\fast_lmrr_5QM\xtb_preparation\stage2_five_xtb_protocols\GFN1_tight\TS1_2_to_PS1_2b\TS1_2_to_PS1_2b_RS_xtbopt.xyz
          omp threads                :                     8


molecular fragmentation (1/2 indicates fragments):
111111111222222221111111111122222222222222211111111111111
# atoms in fragment 1/2:    34    23
 fragment masses (1/2) :      235.28      134.17
CMA distance (Bohr)    :   8.903
constraining FC (au)   :  0.0500

           -------------------------------------------------
          |                 G F N 1 - x T B                 |
           -------------------------------------------------

        Reference                      10.1021/acs.jctc.7b00118
      * Hamiltonian:
        H0-scaling (s, p, d)           1.850000    2.250000    2.000000
        zeta-weighting                 0.000000
      * Dispersion:
        s8                             2.400000
        a1                             0.630000
        a2                             5.000000
        s9                             0.000000
      * Repulsion:
        kExp                           1.500000
        rExp                           1.000000
      * Coulomb:
        alpha                          2.000000
        third order                    atomic
        anisotropic                    false
      * Halogen bond correction:
        rad-scale                      1.300000
        damping                        0.440000

q/qsh data taken from xtbrestart

          ...................................................
          :                      SETUP                      :
          :.................................................:
          :  # basis functions                 166          :
          :  # atomic orbitals                 166          :
          :  # shells                          114          :
          :  # electrons                       148          :
          :  # halogen bonds                     0          :
          :  max. iterations                   250          :
          :  Hamiltonian                  GFN1-xTB          :
          :  restarted?                       true          :
          :  GBSA solvation                  false          :
          :  PC potential                    false          :
          :  electronic temp.            0.0000000     K    :
          :  accuracy                    1.0000000          :
          :  -> integral cutoff          0.2500000E+02      :
          :  -> integral neglect         0.1000000E-07      :
          :  -> SCF convergence          0.1000000E-05 Eh   :
          :  -> wf. convergence          0.2000000E-04 e    :
          :  Broyden damping             0.4000000          :
          :  net charge                          0          :
          :  unpaired electrons                  0          :
          ...................................................

 iter      E             dE          RMSdq      gap      omega  full diag
   1    -88.9234601 -0.889235E+02  0.477E-08    1.89       0.0  T
   2    -88.9234601 -0.568434E-13  0.249E-08    1.89  100000.0  T
   3    -88.9234601  0.000000E+00  0.138E-08    1.89  100000.0  T

   *** convergence criteria satisfied after 3 iterations ***

         #    Occupation            Energy/Eh            Energy/eV
      -------------------------------------------------------------
         1        2.0000           -0.8183796             -22.2692
       ...           ...                  ...                  ...
        68        2.0000           -0.4581156             -12.4660
        69        2.0000           -0.4542964             -12.3620
        70        2.0000           -0.4478261             -12.1860
        71        2.0000           -0.4359587             -11.8630
        72        2.0000           -0.4352230             -11.8430
        73        2.0000           -0.4289840             -11.6732
        74        2.0000           -0.3932545             -10.7010 (HOMO)
        75                         -0.3238506              -8.8124 (LUMO)
        76                         -0.2570183              -6.9938
        77                         -0.2549350              -6.9371
        78                         -0.2458995              -6.6913
        79                         -0.2394889              -6.5168
       ...                                ...                  ...
       166                          0.7176467              19.5282
      -------------------------------------------------------------
                  HL-Gap            0.0694039 Eh            1.8886 eV
             Fermi-level            0.0000000 Eh            0.0000 eV

 SCC (total)                   0 d,  0 h,  0 min,  0.074 sec
 SCC setup                      ...        0 min,  0.000 sec (  0.000%)
 Dispersion                     ...        0 min,  0.001 sec (  1.351%)
 classical contributions        ...        0 min,  0.001 sec (  1.352%)
 integral evaluation            ...        0 min,  0.007 sec (  9.459%)
 iterations                     ...        0 min,  0.048 sec ( 64.865%)
 molecular gradient             ...        0 min,  0.017 sec ( 22.973%)
 printout                       ...        0 min,  0.000 sec (  0.000%)

         :::::::::::::::::::::::::::::::::::::::::::::::::::::
         ::                     SUMMARY                     ::
         :::::::::::::::::::::::::::::::::::::::::::::::::::::
         :: total energy             -87.899012319350 Eh    ::
         :: gradient norm              0.000168239747 Eh/a0 ::
         :: HOMO-LUMO gap              1.888575655837 eV    ::
         ::.................................................::
         :: SCC energy               -88.923460134193 Eh    ::
         :: -> electrostatic           0.298807054047 Eh    ::
         :: repulsion energy           1.064457415864 Eh    ::
         :: dispersion energy         -0.040009601021 Eh    ::
         :: halogen bond corr.         0.000000000000 Eh    ::
         :: add. restraining           0.000000000000 Eh    ::
         :: total charge               0.000000000000 e     ::
         :::::::::::::::::::::::::::::::::::::::::::::::::::::

           ------------------------------------------------- 
          |                Numerical Hessian                |
           ------------------------------------------------- 
step length          :   0.00500
SCC accuracy         :   0.30000
Hessian scale factor :   1.00000
frozen atoms in %    :   0.00000    0
RMS gradient         :   0.00017
estimated CPU  time     10.42 min
estimated wall time      1.48 min

writing file <hessian>.

 projected vibrational frequencies (cm⁻¹)
eigval :       -0.00    -0.00    -0.00     0.00     0.00     0.00
eigval :       16.80    19.27    27.93    28.89    35.29    43.72
eigval :       50.32    51.03    56.82    59.98    62.75    69.33
eigval :       77.38    82.90    92.19    93.34   100.87   107.33
eigval :      116.50   119.24   123.91   127.90   136.89   155.50
eigval :      172.74   176.59   187.35   206.99   212.16   216.32
eigval :      235.60   271.39   275.69   280.98   292.64   300.76
eigval :      309.73   329.51   342.80   345.02   350.68   373.34
eigval :      377.76   397.73   409.36   428.47   449.16   459.43
eigval :      473.77   480.45   511.86   525.04   533.09   569.30
eigval :      608.17   610.75   655.04   669.18   678.24   717.80
eigval :      730.86   751.68   767.34   775.38   792.21   839.72
eigval :      866.59   877.46   878.06   891.83   911.77   919.34
eigval :      927.39   935.89   971.25   984.80   986.72   990.80
eigval :      993.71  1014.42  1019.77  1044.26  1057.56  1066.31
eigval :     1068.19  1097.84  1102.56  1118.24  1120.03  1133.65
eigval :     1148.56  1161.11  1163.43  1191.33  1209.89  1215.49
eigval :     1223.75  1246.86  1248.05  1262.20  1280.40  1281.42
eigval :     1283.04  1284.04  1300.85  1315.31  1328.76  1333.80
eigval :     1347.86  1385.50  1394.43  1411.07  1423.80  1426.72
eigval :     1435.44  1441.91  1445.01  1446.00  1448.29  1454.06
eigval :     1456.12  1464.99  1467.24  1474.97  1475.75  1480.99
eigval :     1491.68  1518.23  1581.89  1608.61  1620.88  1704.52
eigval :     1715.10  1758.65  2881.61  2992.15  3010.04  3014.93
eigval :     3015.87  3022.63  3032.78  3039.46  3039.76  3048.70
eigval :     3049.99  3051.61  3075.01  3084.37  3085.05  3085.82
eigval :     3086.50  3086.68  3099.60  3103.67  3105.30  3109.28
eigval :     3125.86  3474.16  3476.15  3492.77  3520.19  3571.69
eigval :     3582.98  3672.49  3733.57
           -------------------------------------------------
          |                Property Printout                |
           -------------------------------------------------

    * Orbital Energies and Occupations

         #    Occupation            Energy/Eh            Energy/eV
      -------------------------------------------------------------
         1        2.0000           -0.8183796             -22.2692
       ...           ...                  ...                  ...
        62        2.0000           -0.4807684             -13.0824
        63        2.0000           -0.4748210             -12.9205
        64        2.0000           -0.4727927             -12.8653
        65        2.0000           -0.4719058             -12.8412
        66        2.0000           -0.4644959             -12.6396
        67        2.0000           -0.4596629             -12.5081
        68        2.0000           -0.4581156             -12.4660
        69        2.0000           -0.4542964             -12.3620
        70        2.0000           -0.4478261             -12.1860
        71        2.0000           -0.4359587             -11.8630
        72        2.0000           -0.4352230             -11.8430
        73        2.0000           -0.4289840             -11.6732
        74        2.0000           -0.3932545             -10.7010 (HOMO)
        75                         -0.3238506              -8.8124 (LUMO)
        76                         -0.2570183              -6.9938
        77                         -0.2549350              -6.9371
        78                         -0.2458995              -6.6913
        79                         -0.2394889              -6.5168
        80                         -0.2106512              -5.7321
        81                         -0.1586901              -4.3182
        82                         -0.1432032              -3.8968
        83                         -0.1413963              -3.8476
        84                         -0.1378932              -3.7523
        85                         -0.1313679              -3.5747
       ...                                ...                  ...
       166                          0.7176467              19.5282
      -------------------------------------------------------------
                  HL-Gap            0.0694039 Eh            1.8886 eV
             Fermi-level            0.0000000 Eh            0.0000 eV

  Mulliken/CM5 charges         n(s)   n(p)   n(d)
     1N    -0.43464 -0.90201   1.436  3.999  0.000
     2C     0.14975  0.20005   1.043  2.808  0.000
     3C    -0.07278 -0.12184   1.061  3.012  0.000
     4C    -0.03709 -0.09097   1.059  2.978  0.000
     5C    -0.02387 -0.03771   1.078  2.946  0.000
     6C    -0.04226 -0.09516   1.057  2.985  0.000
     7C    -0.08353 -0.13218   1.053  3.030  0.000
     8C    -0.05225 -0.14753   1.033  3.019  0.000
     9C     0.08601  0.08994   1.050  2.864  0.000
    10C     0.38580  0.37150   1.037  2.577  0.000
    11C    -0.09268 -0.14749   1.065  3.028  0.000
    12C     0.04919 -0.01192   1.094  2.857  0.000
    13C    -0.04652 -0.15355   1.032  3.015  0.000
    14C    -0.02323 -0.13502   1.029  2.994  0.000
    15C    -0.08136 -0.23276   1.007  3.074  0.000
    16O    -0.53091 -0.61793   1.733  4.798  0.000
    17O    -0.69166 -1.03933   1.707  4.985  0.000
    18H     0.23746  0.44123   0.763  0.000  0.000
    19H     0.21732  0.40975   0.783  0.000  0.000
    20H     0.04918  0.11298   0.951  0.000  0.000
    21H     0.02739  0.08454   0.973  0.000  0.000
    22H     0.01775  0.07575   0.982  0.000  0.000
    23H     0.02591  0.08488   0.974  0.000  0.000
    24H     0.04511  0.10655   0.955  0.000  0.000
    25H     0.04918  0.10795   0.951  0.000  0.000
    26H     0.05100  0.12997   0.949  0.000  0.000
    27H     0.23049  0.42892   0.770  0.000  0.000
    28H     0.24395  0.44996   0.756  0.000  0.000
    29H     0.00714  0.07211   0.993  0.000  0.000
    30H     0.03454  0.09395   0.965  0.000  0.000
    31H     0.05209  0.11331   0.948  0.000  0.000
    32H     0.03849  0.09432   0.962  0.000  0.000
    33H     0.03976  0.10115   0.960  0.000  0.000
    34H     0.03546  0.09322   0.965  0.000  0.000
    35H     0.02051  0.07554   0.979  0.000  0.000
    36H     0.03082  0.08231   0.969  0.000  0.000
    37H     0.02272  0.07453   0.977  0.000  0.000
    38H     0.03728  0.09353   0.963  0.000  0.000
    39H     0.35311  0.53940   0.647  0.000  0.000
    40H     0.33576  0.50465   0.664  0.000  0.000
    41O    -0.68668 -1.03129   1.709  4.977  0.000
    42H     0.33745  0.51917   0.663  0.000  0.000
    43H     0.33481  0.51132   0.665  0.000  0.000
    44N    -0.34414 -0.70848   1.424  3.920  0.000
    45C     0.46156  0.56499   0.991  2.547  0.000
    46O    -0.55605 -0.60349   1.724  4.832  0.000
    47C    -0.13271 -0.27078   1.021  3.112  0.000
    48C     0.47660  0.56856   0.991  2.533  0.000
    49O    -0.56855 -0.63275   1.725  4.844  0.000
    50H     0.04975  0.10502   0.950  0.000  0.000
    51H     0.05061  0.10582   0.949  0.000  0.000
    52H     0.06301  0.11877   0.937  0.000  0.000
    53N    -0.34095 -0.70858   1.424  3.917  0.000
    54C     0.06671 -0.02223   0.979  2.954  0.000
    55H     0.03257  0.09324   0.967  0.000  0.000
    56H     0.03165  0.09228   0.968  0.000  0.000
    57H     0.06398  0.13186   0.936  0.000  0.000

Wiberg/Mayer (AO) data.
largest (>0.10) Wiberg bond orders for each atom

 ---------------------------------------------------------------------------
     #   Z sym  total        # sym  WBO       # sym  WBO       # sym  WBO
 ---------------------------------------------------------------------------
     1   7 N    3.192 --     2 C    1.121    19 H    0.930    18 H    0.907
     2   6 C    3.959 --     7 C    1.356     3 C    1.347     1 N    1.121
     3   6 C    3.991 --     4 C    1.471     2 C    1.347    20 H    0.967
                             6 C    0.102
     4   6 C    3.995 --     3 C    1.471     5 C    1.396    21 H    0.973
                             7 C    0.100
     5   6 C    3.985 --     6 C    1.408     4 C    1.396     8 C    1.008
     6   6 C    3.995 --     7 C    1.457     5 C    1.408    22 H    0.971
                             3 C    0.102
     7   6 C    3.990 --     6 C    1.457     2 C    1.356    23 H    0.973
                             4 C    0.100
     8   6 C    3.993 --     5 C    1.008     9 C    0.981    24 H    0.973
                            25 H    0.971
     9   6 C    3.936 --     8 C    0.981    26 H    0.960    44 N    0.930
                            45 C    0.924
    10   6 C    3.862 --    16 O    1.681    11 C    1.107    29 H    0.948
    11   6 C    3.990 --    12 C    1.788    10 C    1.107    30 H    0.971
    12   6 C    3.968 --    11 C    1.788    13 C    1.045    31 H    0.968
    13   6 C    3.995 --    12 C    1.045    33 H    0.967    32 H    0.967
                            14 C    0.966
    14   6 C    3.993 --    15 C    1.017    35 H    0.982    34 H    0.979
                            13 C    0.966
    15   6 C    3.995 --    14 C    1.017    37 H    0.988    36 H    0.985
                            38 H    0.984
    16   8 O    1.991 --    10 C    1.681
    17   8 O    1.809 --    40 H    0.890    39 H    0.841
    18   1 H    0.968 --     1 N    0.907
    19   1 H    0.961 --     1 N    0.930
    20   1 H    1.014 --     3 C    0.967
    21   1 H    1.002 --     4 C    0.973
    22   1 H    1.004 --     6 C    0.971
    23   1 H    1.000 --     7 C    0.973
    24   1 H    1.006 --     8 C    0.973
    25   1 H    1.005 --     8 C    0.971
    26   1 H    1.016 --     9 C    0.960
    27   1 H    0.957 --    44 N    0.913
    28   1 H    0.957 --    53 N    0.895
    29   1 H    1.026 --    10 C    0.948
    30   1 H    1.006 --    11 C    0.971
    31   1 H    1.007 --    12 C    0.968
    32   1 H    1.007 --    13 C    0.967
    33   1 H    1.018 --    13 C    0.967
    34   1 H    1.014 --    14 C    0.979
    35   1 H    1.006 --    14 C    0.982
    36   1 H    1.004 --    15 C    0.985
    37   1 H    1.005 --    15 C    0.988
    38   1 H    1.015 --    15 C    0.984
    39   1 H    0.897 --    17 O    0.841
    40   1 H    0.894 --    17 O    0.890
    41   8 O    1.814 --    43 H    0.873    42 H    0.868
    42   1 H    0.909 --    41 O    0.868
    43   1 H    0.910 --    41 O    0.873
    44   7 N    3.335 --    48 C    1.265     9 C    0.930    27 H    0.913
                            49 O    0.162
    45   6 C    3.905 --    46 O    1.632    53 N    1.274     9 C    0.924
    46   8 O    1.935 --    45 C    1.632    53 N    0.177
    47   6 C    3.994 --    52 H    0.984    48 C    0.983    51 H    0.974
                            50 H    0.973
    48   6 C    3.895 --    49 O    1.588    44 N    1.265    47 C    0.983
    49   8 O    1.935 --    48 C    1.588    44 N    0.162
    50   1 H    1.003 --    47 C    0.973
    51   1 H    1.001 --    47 C    0.974
    52   1 H    1.004 --    47 C    0.984
    53   7 N    3.339 --    45 C    1.274    54 C    0.955    28 H    0.895
                            46 O    0.177
    54   6 C    3.948 --    55 H    0.986    56 H    0.985    57 H    0.982
                            53 N    0.955
    55   1 H    1.006 --    54 C    0.986
    56   1 H    1.006 --    54 C    0.985
    57   1 H    1.008 --    54 C    0.982
 ---------------------------------------------------------------------------

Topologies differ in total number of bonds
Writing topology from bond orders to xtbtopo.mol

 dipole moment from electron density (au)
     X       Y       Z   
  -0.9151  -0.1696  -2.3930  total (Debye):    6.526

           -------------------------------------------------
          |               Frequency Printout                |
           -------------------------------------------------
 projected vibrational frequencies (cm⁻¹)
eigval :       -0.00    -0.00    -0.00     0.00     0.00     0.00
eigval :       16.80    19.27    27.93    28.89    35.29    43.72
eigval :       50.32    51.03    56.82    59.98    62.75    69.33
eigval :       77.38    82.90    92.19    93.34   100.87   107.33
eigval :      116.50   119.24   123.91   127.90   136.89   155.50
eigval :      172.74   176.59   187.35   206.99   212.16   216.32
eigval :      235.60   271.39   275.69   280.98   292.64   300.76
eigval :      309.73   329.51   342.80   345.02   350.68   373.34
eigval :      377.76   397.73   409.36   428.47   449.16   459.43
eigval :      473.77   480.45   511.86   525.04   533.09   569.30
eigval :      608.17   610.75   655.04   669.18   678.24   717.80
eigval :      730.86   751.68   767.34   775.38   792.21   839.72
eigval :      866.59   877.46   878.06   891.83   911.77   919.34
eigval :      927.39   935.89   971.25   984.80   986.72   990.80
eigval :      993.71  1014.42  1019.77  1044.26  1057.56  1066.31
eigval :     1068.19  1097.84  1102.56  1118.24  1120.03  1133.65
eigval :     1148.56  1161.11  1163.43  1191.33  1209.89  1215.49
eigval :     1223.75  1246.86  1248.05  1262.20  1280.40  1281.42
eigval :     1283.04  1284.04  1300.85  1315.31  1328.76  1333.80
eigval :     1347.86  1385.50  1394.43  1411.07  1423.80  1426.72
eigval :     1435.44  1441.91  1445.01  1446.00  1448.29  1454.06
eigval :     1456.12  1464.99  1467.24  1474.97  1475.75  1480.99
eigval :     1491.68  1518.23  1581.89  1608.61  1620.88  1704.52
eigval :     1715.10  1758.65  2881.61  2992.15  3010.04  3014.93
eigval :     3015.87  3022.63  3032.78  3039.46  3039.76  3048.70
eigval :     3049.99  3051.61  3075.01  3084.37  3085.05  3085.82
eigval :     3086.50  3086.68  3099.60  3103.67  3105.30  3109.28
eigval :     3125.86  3474.16  3476.15  3492.77  3520.19  3571.69
eigval :     3582.98  3672.49  3733.57
 reduced masses (amu)
   1: 11.43   2: 12.77   3: 12.20   4: 11.98   5: 12.24   6: 12.32   7: 11.70   8: 11.68
   9: 12.46  10: 10.95  11: 12.63  12: 12.75  13: 11.49  14:  6.10  15: 12.85  16:  5.78
  17:  9.62  18:  9.02  19: 10.66  20: 10.16  21:  8.55  22:  9.16  23: 12.39  24: 11.70
  25:  9.84  26:  9.67  27: 12.69  28: 10.87  29: 11.22  30:  4.41  31: 11.11  32: 11.80
  33: 11.44  34:  8.29  35:  7.40  36: 11.49  37: 12.28  38:  2.40  39: 12.37  40:  4.57
  41:  8.90  42:  8.01  43:  7.28  44:  9.55  45:  5.36  46:  6.20  47: 10.72  48:  8.53
  49:  6.29  50:  6.80  51:  6.62  52:  5.08  53:  9.41  54:  6.53  55:  7.64  56:  9.02
  57:  3.69  58:  9.18  59:  1.81  60:  8.55  61: 10.79  62: 11.05  63:  6.85  64:  8.42
  65: 10.40  66:  9.83  67: 11.37  68:  3.18  69:  6.18  70:  8.88  71:  6.82  72:  3.34
  73:  7.35  74:  9.38  75:  4.87  76:  2.98  77:  3.80  78:  5.92  79:  9.51  80:  5.82
  81: 10.35  82:  6.44  83:  5.75  84:  2.95  85:  5.66  86:  8.24  87:  8.40  88:  4.54
  89:  5.80  90:  6.14  91:  7.30  92:  7.42  93:  8.62  94:  3.67  95:  2.56  96:  6.58
  97:  7.68  98:  2.47  99:  5.41 100:  5.14 101:  6.10 102:  4.68 103:  4.90 104:  5.38
 105:  3.44 106:  2.64 107:  3.56 108:  3.61 109:  4.41 110:  5.00 111:  8.83 112:  7.55
 113: 10.82 114:  5.15 115:  3.59 116:  3.10 117:  3.47 118:  3.67 119:  9.50 120:  9.79
 121:  7.39 122:  1.75 123:  1.54 124:  2.09 125:  1.49 126:  2.21 127:  2.30 128:  2.18
 129:  1.95 130:  3.19 131:  1.54 132:  1.70 133:  6.16 134:  6.60 135: 11.48 136: 11.51
 137: 11.76 138: 12.65 139: 13.14 140: 13.27 141:  1.74 142:  1.77 143:  1.53 144:  1.59
 145:  1.27 146:  1.54 147:  1.32 148:  1.88 149:  1.30 150:  1.99 151:  1.99 152:  2.01
 153:  1.99 154:  1.99 155:  1.86 156:  1.97 157:  1.82 158:  1.97 159:  1.83 160:  1.86
 161:  1.88 162:  1.99 163:  1.88 164:  1.89 165:  1.51 166:  1.76 167:  1.87 168:  2.12
 169:  1.64 170:  2.10 171:  1.97
 IR intensities (km·mol⁻¹)
   1:  0.50   2:  0.41   3:  0.05   4:  0.24   5:  0.31   6:  0.00   7:  1.62   8:  0.06
   9:  2.30  10:  1.44  11:  4.33  12:  3.43  13:  4.38  14:  8.61  15:  7.30  16:  3.56
  17:  2.29  18:  1.33  19:  8.40  20:  1.20  21:  3.70  22:  1.56  23: 15.33  24:  1.68
  25: 13.72  26:  2.18  27:  3.49  28: 12.32  29:  9.48  30:115.49  31:  9.01  32: 29.55
  33: 17.82  34:  6.76  35:  5.15  36:  5.03  37:  1.07  38:167.91  39: 16.02  40: 76.68
  41: 25.72  42: 52.10  43: 40.47  44: 21.33  45: 23.60  46: 13.17  47:  9.34  48: 13.49
  49: 29.93  50: 73.87  51:201.28  52: 94.69  53: 29.48  54:345.09  55:336.46  56: 48.92
  57:124.14  58: 55.97  59:317.43  60:  3.24  61:  7.95  62:  1.13  63:151.15  64: 82.20
  65: 82.54  66: 36.09  67: 25.26  68: 16.46  69: 26.80  70: 38.57  71: 57.72  72:  4.08
  73:  4.84  74:  1.07  75:  8.19  76:  0.26  77:  0.16  78:  2.58  79:  2.81  80: 31.63
  81: 13.63  82:  5.55  83: 30.20  84: 38.87  85: 42.29  86:  3.64  87: 27.89  88:  5.76
  89:  4.72  90:  8.68  91:  1.14  92: 23.49  93:  8.59  94:  2.82  95: 11.98  96: 37.85
  97:  1.47  98:  1.41  99:  2.45 100:  8.48 101:  2.51 102:  5.88 103:  6.56 104: 38.61
 105: 58.46 106:  5.34 107:  3.10 108:  5.59 109:  6.00 110: 29.16 111: 49.39 112:  6.91
 113:  7.48 114: 12.53 115: 49.08 116:  4.97 117:  9.20 118: 28.59 119:312.79 120:  7.34
 121:225.46 122: 14.49 123: 14.76 124:263.12 125: 16.30 126:  7.59 127:  2.47 128:157.86
 129:  4.97 130: 73.81 131: 11.59 132: 10.17 133:  8.22 134:292.40 135:  4.36 136: 14.98
 137:668.50 138:337.32 139:439.23 140:653.84 141: 79.50 142:  5.96 143:  5.07 144: 24.69
 145: 25.58 146: 11.86 147: 13.99 148:  5.14 149:  0.34 150: 15.68 151: 17.08 152:  8.65
 153: 22.77 154:  4.81 155:  3.32 156: 19.20 157: 17.49 158:  2.69 159: 14.14 160: 10.63
 161: 16.68 162:  2.82 163:  0.32 164: 53.82 165: 26.83 166:315.10 167: 21.30 168: 19.57
 169: 94.62 170:149.83 171:119.77
 Raman intensities (Ä⁴*amu⁻¹)
   1:  0.00   2:  0.00   3:  0.00   4:  0.00   5:  0.00   6:  0.00   7:  0.00   8:  0.00
   9:  0.00  10:  0.00  11:  0.00  12:  0.00  13:  0.00  14:  0.00  15:  0.00  16:  0.00
  17:  0.00  18:  0.00  19:  0.00  20:  0.00  21:  0.00  22:  0.00  23:  0.00  24:  0.00
  25:  0.00  26:  0.00  27:  0.00  28:  0.00  29:  0.00  30:  0.00  31:  0.00  32:  0.00
  33:  0.00  34:  0.00  35:  0.00  36:  0.00  37:  0.00  38:  0.00  39:  0.00  40:  0.00
  41:  0.00  42:  0.00  43:  0.00  44:  0.00  45:  0.00  46:  0.00  47:  0.00  48:  0.00
  49:  0.00  50:  0.00  51:  0.00  52:  0.00  53:  0.00  54:  0.00  55:  0.00  56:  0.00
  57:  0.00  58:  0.00  59:  0.00  60:  0.00  61:  0.00  62:  0.00  63:  0.00  64:  0.00
  65:  0.00  66:  0.00  67:  0.00  68:  0.00  69:  0.00  70:  0.00  71:  0.00  72:  0.00
  73:  0.00  74:  0.00  75:  0.00  76:  0.00  77:  0.00  78:  0.00  79:  0.00  80:  0.00
  81:  0.00  82:  0.00  83:  0.00  84:  0.00  85:  0.00  86:  0.00  87:  0.00  88:  0.00
  89:  0.00  90:  0.00  91:  0.00  92:  0.00  93:  0.00  94:  0.00  95:  0.00  96:  0.00
  97:  0.00  98:  0.00  99:  0.00 100:  0.00 101:  0.00 102:  0.00 103:  0.00 104:  0.00
 105:  0.00 106:  0.00 107:  0.00 108:  0.00 109:  0.00 110:  0.00 111:  0.00 112:  0.00
 113:  0.00 114:  0.00 115:  0.00 116:  0.00 117:  0.00 118:  0.00 119:  0.00 120:  0.00
 121:  0.00 122:  0.00 123:  0.00 124:  0.00 125:  0.00 126:  0.00 127:  0.00 128:  0.00
 129:  0.00 130:  0.00 131:  0.00 132:  0.00 133:  0.00 134:  0.00 135:  0.00 136:  0.00
 137:  0.00 138:  0.00 139:  0.00 140:  0.00 141:  0.00 142:  0.00 143:  0.00 144:  0.00
 145:  0.00 146:  0.00 147:  0.00 148:  0.00 149:  0.00 150:  0.00 151:  0.00 152:  0.00
 153:  0.00 154:  0.00 155:  0.00 156:  0.00 157:  0.00 158:  0.00 159:  0.00 160:  0.00
 161:  0.00 162:  0.00 163:  0.00 164:  0.00 165:  0.00 166:  0.00 167:  0.00 168:  0.00
 169:  0.00 170:  0.00 171:  0.00
 output can be read by thermo (or use thermo option).
 writing <g98.out> molden fake output.
 recommended (thermochemical) frequency scaling factor: 1.0
           -------------------------------------------------
          |             Thermodynamic Functions             |
           -------------------------------------------------

Refinement of some symmetry elements was terminated before convergence was reached.
Some symmetry elements may remain unidentified.
Molecule has no symmetry elements
It seems to be the C1 point group
c1  symmetry found (for desy threshold:  0.10E+00) used in thermo

          ...................................................
          :                      SETUP                      :
          :.................................................:
          :  # frequencies                         165      :
          :  # imaginary freq.                       0      :
          :  linear?                             false      :
          :  only rotor calc.                    false      :
          :  symmetry                               c1      :
          :  rotational number                       1      :
          :  scaling factor                  1.0000000      :
          :  rotor cutoff                   50.0000000 cm⁻¹ :
          :  imag. cutoff                  -20.0000000 cm⁻¹ :
          :.................................................:

    mode    ω/cm⁻¹     T·S(HO)/kcal·mol⁻¹    T·S(FR)/kcal·mol⁻¹   T·S(vib)
   ------------------------------------------------------------------------
       1     16.80    -2.08124 (  1.26%)    -1.37957 ( 98.74%)    -1.38840
       2     19.27    -2.00012 (  2.16%)    -1.33900 ( 97.84%)    -1.35326
       3     27.93    -1.78026 (  8.88%)    -1.22897 ( 91.12%)    -1.27791
       4     28.89    -1.76027 ( 10.03%)    -1.21896 ( 89.97%)    -1.27327
       5     35.29    -1.64200 ( 19.88%)    -1.15972 ( 80.12%)    -1.25562
       6     43.72    -1.51549 ( 36.89%)    -1.09628 ( 63.11%)    -1.25093
       7     50.32    -1.43251 ( 50.64%)    -1.05462 ( 49.36%)    -1.24599
       8     51.03    -1.42433 ( 52.03%)    -1.05051 ( 47.97%)    -1.24501
       9     56.82    -1.36095 ( 62.52%)    -1.01864 ( 37.48%)    -1.23264
      10     59.98    -1.32912 ( 67.43%)    -1.00262 ( 32.57%)    -1.22279
      11     62.75    -1.30255 ( 71.27%)    -0.98924 ( 28.73%)    -1.21254
      12     69.33    -1.24392 ( 78.71%)    -0.95968 ( 21.29%)    -1.18342
      13     77.38    -1.17956 ( 85.16%)    -0.92716 ( 14.84%)    -1.14209
      14     82.90    -1.13923 ( 88.31%)    -0.90675 ( 11.69%)    -1.11207
      15     92.19    -1.07725 ( 92.04%)    -0.87530 (  7.96%)    -1.06117
      16     93.34    -1.07003 ( 92.39%)    -0.87162 (  7.61%)    -1.05493
      17    100.87    -1.02485 ( 94.31%)    -0.84862 (  5.69%)    -1.01482
      18    107.33    -0.98887 ( 95.50%)    -0.83025 (  4.50%)    -0.98174
      19    116.50    -0.94147 ( 96.72%)    -0.80597 (  3.28%)    -0.93702
      20    119.24    -0.92803 ( 97.00%)    -0.79907 (  3.00%)    -0.92416
      21    123.91    -0.90592 ( 97.42%)    -0.78769 (  2.58%)    -0.90287
      22    127.90    -0.88769 ( 97.72%)    -0.77829 (  2.28%)    -0.88519
      23    136.89    -0.84879 ( 98.25%)    -0.75817 (  1.75%)    -0.84720
      24    155.50    -0.77631 ( 98.94%)    -0.72041 (  1.06%)    -0.77572
      25    172.74    -0.71720 ( 99.30%)    -0.68928 (  0.70%)    -0.71700
      26    176.59    -0.70488 ( 99.36%)    -0.68275 (  0.64%)    -0.70474
      27    187.35    -0.67200 ( 99.50%)    -0.66522 (  0.50%)    -0.67197
      28    206.99    -0.61720 ( 99.66%)    -0.63569 (  0.34%)    -0.61726
      29    212.16    -0.60377 ( 99.69%)    -0.62839 (  0.31%)    -0.60384
      30    216.32    -0.59322 ( 99.72%)    -0.62262 (  0.28%)    -0.59330
      31    235.60    -0.54736 ( 99.80%)    -0.59734 (  0.20%)    -0.54746
      32    271.39    -0.47326 ( 99.88%)    -0.55544 (  0.12%)    -0.47335
      33    275.69    -0.46519 ( 99.89%)    -0.55078 (  0.11%)    -0.46528
      34    280.98    -0.45549 ( 99.90%)    -0.54516 (  0.10%)    -0.45558
      35    292.64    -0.43489 ( 99.91%)    -0.53311 (  0.09%)    -0.43497
   ------------------------------------------------------------------------

   temp. (K)  partition function   enthalpy   heat capacity  entropy
                                   cal/mol     cal/K/mol   cal/K/mol   J/K/mol
 298.15  VIB  0.245E+18            20566.537    110.053    135.604
         ROT  0.143E+08              888.752      2.981     35.725
         INT  0.350E+25            21455.290    113.034    171.329
         TR   0.687E+28             1481.254      4.968     43.594
         TOT                       22936.5437   118.0023   214.9230   899.2379

       T/K    H(0)-H(T)+PV         H(T)/Eh          T*S/Eh         G(T)/Eh
   ------------------------------------------------------------------------
    298.15    0.365517E-01    0.503702E+00    0.102117E+00    0.401585E+00
   ------------------------------------------------------------------------

         :::::::::::::::::::::::::::::::::::::::::::::::::::::
         ::                  THERMODYNAMIC                  ::
         :::::::::::::::::::::::::::::::::::::::::::::::::::::
         :: total free energy         -87.497427170366 Eh   ::
         ::.................................................::
         :: total energy              -87.899012319350 Eh   ::
         :: zero point energy           0.467150297234 Eh   ::
         :: G(RRHO) w/o ZPVE           -0.065565148250 Eh   ::
         :: G(RRHO) contrib.            0.401585148984 Eh   ::
         :::::::::::::::::::::::::::::::::::::::::::::::::::::

           -------------------------------------------------
          | TOTAL ENERGY              -87.899012319350 Eh   |
          | TOTAL ENTHALPY            -87.395310313083 Eh   |
          | TOTAL FREE ENERGY         -87.497427170366 Eh   |
          | GRADIENT NORM               0.000168239781 Eh/α |
          | HOMO-LUMO GAP               1.888575654474 eV   |
           -------------------------------------------------

------------------------------------------------------------------------
 * finished run on 2026/08/20 at 20:21:35.788     
------------------------------------------------------------------------
 total:
 * wall-time:     0 d,  0 h,  0 min, 11.184 sec
 *  cpu-time:     0 d,  0 h,  1 min, 15.469 sec
 * ratio c/w:     6.748 speedup
 SCF:
 * wall-time:     0 d,  0 h,  0 min,  0.074 sec
 *  cpu-time:     0 d,  0 h,  0 min,  0.281 sec
 * ratio c/w:     3.801 speedup
 analytical hessian:
 * wall-time:     0 d,  0 h,  0 min, 11.041 sec
 *  cpu-time:     0 d,  0 h,  1 min, 15.141 sec
 * ratio c/w:     6.806 speedup



===== STDERR =====

normal termination of xtb
