57
 energy: -87.899012319349 gnorm: 0.000168250585 xtb: 6.7.1pre (5071a88)
N           -0.13383862997125       -1.05260284291527       -0.19027698168081
C            1.21576208753835       -0.82896251974926        0.00212451007177
C            1.63986244526811        0.04401058513601        1.00918130092852
C            2.97555621735065        0.38868806483433        1.10832483816468
C            3.91642374116196       -0.13196419316920        0.21961252193466
C            3.49400781605859       -1.03332921114110       -0.75457321665796
C            2.15772267113369       -1.38278374652284       -0.86833077260672
C            5.33401401722362        0.37975116508327        0.23028109733899
C            5.39349401351193        1.68185549173643       -0.57771787840499
C           -0.91900839575758        1.05870638407227       -1.54098077216553
C            0.31260915178720        1.79303778754912       -1.28514687864803
C            0.36967539260986        2.76202162778087       -0.35831598598065
C            1.59595174364575        3.53116685396657       -0.01358160303345
C            1.62489393403834        4.87408086389290       -0.76820082155203
C            2.80096004086524        5.73020270276888       -0.30832401442260
O           -1.97030235523924        1.25149070683659       -0.94825285059191
O           -3.08390142413551       -0.96772078302214        0.32815004183275
H           -0.71951243740572       -0.83009670224631        0.60189885808498
H           -0.38371589941511       -1.91724072916003       -0.64295840666429
H            0.90883624522249        0.46288515328557        1.69096067452403
H            3.29318228463625        1.08125923761859        1.88100438165193
H            4.21655169018424       -1.46142221394399       -1.44301922883059
H            1.83671577933127       -2.06939716876404       -1.64426080857923
H            6.02501911512908       -0.34626146831075       -0.20700422610641
H            5.66968139456824        0.59574850880277        1.24763094981057
H            4.70501005300914        2.42515838288460       -0.15513442796625
H            5.18466024263109        0.52348334254930       -2.34139796466095
H            5.98916318902218        3.95184902332537       -1.43176084600574
H           -0.85403138917556        0.30998928851971       -2.35278010850941
H            1.19185302968592        1.49985557099570       -1.84891503119512
H           -0.53855087243058        3.03359573468766        0.17461688389608
H            1.60826908396179        3.72542977228679        1.06318713964364
H            2.49192302051538        2.96155901604604       -0.27534453041696
H            1.71443453343629        4.67193276178719       -1.83933789918951
H            0.68515119258268        5.40907078888520       -0.59810245351177
H            2.81440487830854        6.66948183589172       -0.86209648608929
H            2.72295330027256        5.95382477721390        0.75676381140865
H            3.74103291299816        5.20794156617283       -0.48739647152888
H           -2.82792983877128       -0.24240465216427       -0.26448760616809
H           -4.03804892500065       -0.92192410400291        0.40467619299996
O           -1.54285067880456        0.82901062100097        1.89282184089163
H           -1.74675932370447        1.27983621332996        1.06349164221647
H           -2.17415709602926        0.10057293601064        1.92507734209698
N            4.96776620986129        1.42590792480670       -1.94944969730851
C            6.81438438327767        2.27507245737131       -0.60334336465778
O            7.78586748963681        1.65633933736027       -0.21874968375541
C            3.85419233958450        1.87210623556498       -4.02916863986633
C            4.29978409350121        2.34829854214617       -2.66401923785428
O            4.07059719699638        3.47315489533938       -2.24615118080310
H            3.16782584832419        1.03311844298397       -3.91883737344057
H            4.71340062983685        1.54443253811902       -4.61277335157205
H            3.35135177526928        2.68655932722182       -4.54527850845446
N            6.83987162879421        3.52848027458771       -1.08612163492653
C            8.08882501768638        4.24869168144675       -1.25883465386428
H            8.04559027602248        5.20095296167754       -0.72559342996320
H            8.26988086633529        4.43769579202452       -2.31998371035199
H            8.89449429315143        3.63680315948243       -0.85280128941245
