      -----------------------------------------------------------      
     |                   =====================                   |     
     |                           x T B                           |     
     |                   =====================                   |     
     |                         S. Grimme                         |     
     |          Mulliken Center for Theoretical Chemistry        |     
     |                    University of Bonn                     |     
      -----------------------------------------------------------      

   * xtb version 6.7.1pre (5071a88) compiled by 'Marcel@Raven' on 2024-07-23

   xtb is free software: you can redistribute it and/or modify it under
   the terms of the GNU Lesser General Public License as published by
   the Free Software Foundation, either version 3 of the License, or
   (at your option) any later version.
   
   xtb is distributed in the hope that it will be useful,
   but WITHOUT ANY WARRANTY; without even the implied warranty of
   MERCHANTABILITY or FITNESS FOR A PARTICULAR PURPOSE.  See the
   GNU Lesser General Public License for more details.
   
   Cite this work as:
   * C. Bannwarth, E. Caldeweyher, S. Ehlert, A. Hansen, P. Pracht,
     J. Seibert, S. Spicher, S. Grimme, WIREs Comput. Mol. Sci., 2020, 11,
     e01493. DOI: 10.1002/wcms.1493
   
   for GFN2-xTB:
   * C. Bannwarth, S. Ehlert and S. Grimme., J. Chem. Theory Comput., 2019,
     15, 1652-1671. DOI: 10.1021/acs.jctc.8b01176
   for GFN1-xTB:
   * S. Grimme, C. Bannwarth, P. Shushkov, J. Chem. Theory Comput., 2017,
     13, 1989-2009. DOI: 10.1021/acs.jctc.7b00118
   for GFN0-xTB:
   * P. Pracht, E. Caldeweyher, S. Ehlert, S. Grimme, ChemRxiv, 2019, preprint.
     DOI: 10.26434/chemrxiv.8326202.v1
   for GFN-FF:
   * S. Spicher and S. Grimme, Angew. Chem. Int. Ed., 2020, 59, 15665-15673.
     DOI: 10.1002/anie.202004239
   
   for ALPB and GBSA implicit solvation:
   * S. Ehlert, M. Stahn, S. Spicher, S. Grimme, J. Chem. Theory Comput.,
     2021, 17, 4250-4261. DOI: 10.1021/acs.jctc.1c00471
   
   for ddCOSMO and CPCM-X implicit solvation:
   * M. Stahn, S. Ehlert, S. Grimme, J. Phys. Chem. A,
     2023, XX, XXXX-XXXX. DOI: 10.1021/acs.jpca.3c04382
   
   for DFT-D4:
   * E. Caldeweyher, C. Bannwarth and S. Grimme, J. Chem. Phys., 2017,
     147, 034112. DOI: 10.1063/1.4993215
   * E. Caldeweyher, S. Ehlert, A. Hansen, H. Neugebauer, S. Spicher,
     C. Bannwarth and S. Grimme, J. Chem. Phys., 2019, 150, 154122.
     DOI: 10.1063/1.5090222
   * E. Caldeweyher, J.-M. Mewes, S. Ehlert and S. Grimme, Phys. Chem. Chem. Phys.
     2020, 22, 8499-8512. DOI: 10.1039/D0CP00502A
   
   for sTDA-xTB:
   * S. Grimme and C. Bannwarth, J. Chem. Phys., 2016, 145, 054103.
     DOI: 10.1063/1.4959605
   
   in the mass-spec context:
   * V. Asgeirsson, C. Bauer and S. Grimme, Chem. Sci., 2017, 8, 4879.
     DOI: 10.1039/c7sc00601b
   * J. Koopman and S. Grimme, ACS Omega 2019, 4, 12, 15120-15133.
     DOI: 10.1021/acsomega.9b02011
   
   for metadynamics refer to:
   * S. Grimme, J. Chem. Theory Comput., 2019, 155, 2847-2862
     DOI: 10.1021/acs.jctc.9b00143
   
   for SPH calculations refer to:
   * S. Spicher and S. Grimme, J. Chem. Theory Comput., 2021, 17, 1701-1714
     DOI: 10.1021/acs.jctc.0c01306
   
   for ONIOM refer to:
   * C. Plett, A. Katbashev, S. Ehlert, S. Grimme, M. Bursch,
     Phys. Chem. Chem. Phys., 2023, 25, 17860-17868. DOI: 10.1039/D3CP02178E
   
   for DIPRO refer to:
   * J. Kohn, N. Gildemeister, S. Grimme, D. Fazzi, A. Hansen,
     J. Chem. Phys., 2023, just accepted.
   
   for PTB refer to:
   * S. Grimme, M. Mueller, A. Hansen, J. Chem. Phys., 2023, 158, 124111.
     DOI: 10.1063/5.0137838
   
   with help from (in alphabetical order)
   P. Atkinson, C. Bannwarth, F. Bohle, G. Brandenburg, E. Caldeweyher
   M. Checinski, S. Dohm, S. Ehlert, S. Ehrlich, I. Gerasimov, C. Hölzer
   A. Katbashev, J. Kohn, J. Koopman, C. Lavigne, S. Lehtola, F. März, M. Müller,
   F. Musil, H. Neugebauer, J. Pisarek, C. Plett, P. Pracht, F. Pultar,
   J. Seibert, P. Shushkov, S. Spicher, M. Stahn, M. Steiner, T. Strunk,
   J. Stückrath, T. Rose, and J. Unsleber
   
 * started run on 2026/08/20 at 20:22:02.916     
   ID    Z sym.   atoms
    1    7 N      1, 44, 53
    2    6 C      2-15, 45, 47, 48, 54
    3    8 O      16, 17, 41, 46, 49
    4    1 H      18-40, 42, 43, 50-52, 55-57

           -------------------------------------------------
          |                Calculation Setup                |
           -------------------------------------------------

          program call               : C:\Users\Nayanika\Downloads\xtb-6.7.1pre-windows-x86_64\xtb-6.7.1\bin\xtb.exe D:\PhD_Thesis\LmrR_EVB\charges\fast_lmrr_5QM\xtb_preparation\stage2_five_xtb_protocols\GFN1_tight\TS1_2_to_PS1_2b\TS1_2_to_PS1_2b_TS_xtbopt.xyz --gfn 1 --chrg 0 --uhf 0 --hess --etemp 0
          coordinate file            : D:\PhD_Thesis\LmrR_EVB\charges\fast_lmrr_5QM\xtb_preparation\stage2_five_xtb_protocols\GFN1_tight\TS1_2_to_PS1_2b\TS1_2_to_PS1_2b_TS_xtbopt.xyz
          omp threads                :                     8


molecular fragmentation (1/2 indicates fragments):
111111111222222221111111111122222222222222211111111111111
# atoms in fragment 1/2:    34    23
 fragment masses (1/2) :      235.28      134.17
CMA distance (Bohr)    :   8.934
constraining FC (au)   :  0.0500

           -------------------------------------------------
          |                 G F N 1 - x T B                 |
           -------------------------------------------------

        Reference                      10.1021/acs.jctc.7b00118
      * Hamiltonian:
        H0-scaling (s, p, d)           1.850000    2.250000    2.000000
        zeta-weighting                 0.000000
      * Dispersion:
        s8                             2.400000
        a1                             0.630000
        a2                             5.000000
        s9                             0.000000
      * Repulsion:
        kExp                           1.500000
        rExp                           1.000000
      * Coulomb:
        alpha                          2.000000
        third order                    atomic
        anisotropic                    false
      * Halogen bond correction:
        rad-scale                      1.300000
        damping                        0.440000

q/qsh data taken from xtbrestart

          ...................................................
          :                      SETUP                      :
          :.................................................:
          :  # basis functions                 166          :
          :  # atomic orbitals                 166          :
          :  # shells                          114          :
          :  # electrons                       148          :
          :  # halogen bonds                     0          :
          :  max. iterations                   250          :
          :  Hamiltonian                  GFN1-xTB          :
          :  restarted?                       true          :
          :  GBSA solvation                  false          :
          :  PC potential                    false          :
          :  electronic temp.            0.0000000     K    :
          :  accuracy                    1.0000000          :
          :  -> integral cutoff          0.2500000E+02      :
          :  -> integral neglect         0.1000000E-07      :
          :  -> SCF convergence          0.1000000E-05 Eh   :
          :  -> wf. convergence          0.2000000E-04 e    :
          :  Broyden damping             0.4000000          :
          :  net charge                          0          :
          :  unpaired electrons                  0          :
          ...................................................

 iter      E             dE          RMSdq      gap      omega  full diag
   1    -88.9234869 -0.889235E+02  0.413E-08    1.90       0.0  T
   2    -88.9234869 -0.113687E-12  0.231E-08    1.90  100000.0  T
   3    -88.9234869 -0.568434E-13  0.900E-09    1.90  100000.0  T

   *** convergence criteria satisfied after 3 iterations ***

         #    Occupation            Energy/Eh            Energy/eV
      -------------------------------------------------------------
         1        2.0000           -0.8183928             -22.2696
       ...           ...                  ...                  ...
        68        2.0000           -0.4581828             -12.4678
        69        2.0000           -0.4543691             -12.3640
        70        2.0000           -0.4478348             -12.1862
        71        2.0000           -0.4358587             -11.8603
        72        2.0000           -0.4354168             -11.8483
        73        2.0000           -0.4290285             -11.6745
        74        2.0000           -0.3935533             -10.7091 (HOMO)
        75                         -0.3237403              -8.8094 (LUMO)
        76                         -0.2571826              -6.9983
        77                         -0.2549875              -6.9386
        78                         -0.2461542              -6.6982
        79                         -0.2393930              -6.5142
       ...                                ...                  ...
       166                          0.7173578              19.5203
      -------------------------------------------------------------
                  HL-Gap            0.0698130 Eh            1.8997 eV
             Fermi-level            0.0000000 Eh            0.0000 eV

 SCC (total)                   0 d,  0 h,  0 min,  0.083 sec
 SCC setup                      ...        0 min,  0.000 sec (  0.000%)
 Dispersion                     ...        0 min,  0.007 sec (  8.434%)
 classical contributions        ...        0 min,  0.000 sec (  0.000%)
 integral evaluation            ...        0 min,  0.007 sec (  8.434%)
 iterations                     ...        0 min,  0.052 sec ( 62.651%)
 molecular gradient             ...        0 min,  0.016 sec ( 19.277%)
 printout                       ...        0 min,  0.001 sec (  1.205%)

         :::::::::::::::::::::::::::::::::::::::::::::::::::::
         ::                     SUMMARY                     ::
         :::::::::::::::::::::::::::::::::::::::::::::::::::::
         :: total energy             -87.899016043733 Eh    ::
         :: gradient norm              0.000197869714 Eh/a0 ::
         :: HOMO-LUMO gap              1.899709107671 eV    ::
         ::.................................................::
         :: SCC energy               -88.923486925288 Eh    ::
         :: -> electrostatic           0.298818687506 Eh    ::
         :: repulsion energy           1.064429082447 Eh    ::
         :: dispersion energy         -0.039958200892 Eh    ::
         :: halogen bond corr.         0.000000000000 Eh    ::
         :: add. restraining           0.000000000000 Eh    ::
         :: total charge               0.000000000000 e     ::
         :::::::::::::::::::::::::::::::::::::::::::::::::::::

           ------------------------------------------------- 
          |                Numerical Hessian                |
           ------------------------------------------------- 
step length          :   0.00500
SCC accuracy         :   0.30000
Hessian scale factor :   1.00000
frozen atoms in %    :   0.00000    0
RMS gradient         :   0.00020
estimated CPU  time     10.09 min
estimated wall time      1.46 min

writing file <hessian>.

 projected vibrational frequencies (cm⁻¹)
eigval :       -0.00    -0.00    -0.00     0.00     0.00     0.00
eigval :       16.62    19.00    27.41    28.56    35.20    43.61
eigval :       49.71    50.71    55.60    57.84    61.28    67.91
eigval :       77.68    82.64    91.33    93.37    99.87   107.30
eigval :      116.91   119.36   123.82   129.59   137.07   155.75
eigval :      172.25   177.14   187.58   206.34   212.02   216.42
eigval :      235.62   271.04   275.64   281.96   292.71   300.47
eigval :      310.84   329.49   344.08   346.56   351.34   373.44
eigval :      378.40   397.18   408.61   429.92   448.43   459.39
eigval :      474.20   480.47   512.26   525.00   534.55   569.14
eigval :      608.14   610.67   655.28   668.99   678.16   717.74
eigval :      730.87   751.01   767.40   775.44   792.27   839.75
eigval :      866.18   877.41   877.92   891.81   911.76   919.46
eigval :      927.13   935.79   971.14   984.89   986.66   991.09
eigval :      993.67  1014.44  1019.93  1043.97  1057.20  1066.31
eigval :     1068.33  1097.83  1102.67  1118.28  1119.94  1133.63
eigval :     1148.88  1161.08  1163.46  1191.42  1210.08  1215.22
eigval :     1223.84  1246.64  1247.70  1262.24  1280.36  1281.33
eigval :     1283.69  1284.29  1300.75  1315.30  1328.74  1334.18
eigval :     1347.87  1385.52  1394.23  1410.64  1423.63  1426.70
eigval :     1435.59  1441.85  1444.97  1446.11  1448.31  1453.97
eigval :     1456.16  1464.73  1467.07  1475.02  1475.59  1480.76
eigval :     1491.43  1517.89  1581.87  1608.59  1621.22  1703.94
eigval :     1714.88  1758.34  2881.73  2991.69  3009.61  3014.62
eigval :     3015.93  3022.56  3033.52  3039.22  3039.65  3048.71
eigval :     3050.36  3051.46  3075.53  3084.31  3084.62  3086.56
eigval :     3086.66  3087.70  3099.64  3103.45  3105.38  3109.32
eigval :     3125.49  3473.87  3475.40  3491.06  3520.47  3571.41
eigval :     3583.73  3672.00  3733.61
           -------------------------------------------------
          |                Property Printout                |
           -------------------------------------------------

    * Orbital Energies and Occupations

         #    Occupation            Energy/Eh            Energy/eV
      -------------------------------------------------------------
         1        2.0000           -0.8183928             -22.2696
       ...           ...                  ...                  ...
        62        2.0000           -0.4808773             -13.0853
        63        2.0000           -0.4749549             -12.9242
        64        2.0000           -0.4729741             -12.8703
        65        2.0000           -0.4718439             -12.8395
        66        2.0000           -0.4647036             -12.6452
        67        2.0000           -0.4598554             -12.5133
        68        2.0000           -0.4581828             -12.4678
        69        2.0000           -0.4543691             -12.3640
        70        2.0000           -0.4478348             -12.1862
        71        2.0000           -0.4358587             -11.8603
        72        2.0000           -0.4354168             -11.8483
        73        2.0000           -0.4290285             -11.6745
        74        2.0000           -0.3935533             -10.7091 (HOMO)
        75                         -0.3237403              -8.8094 (LUMO)
        76                         -0.2571826              -6.9983
        77                         -0.2549875              -6.9386
        78                         -0.2461542              -6.6982
        79                         -0.2393930              -6.5142
        80                         -0.2106624              -5.7324
        81                         -0.1589352              -4.3248
        82                         -0.1431399              -3.8950
        83                         -0.1413036              -3.8451
        84                         -0.1378151              -3.7501
        85                         -0.1314368              -3.5766
       ...                                ...                  ...
       166                          0.7173578              19.5203
      -------------------------------------------------------------
                  HL-Gap            0.0698130 Eh            1.8997 eV
             Fermi-level            0.0000000 Eh            0.0000 eV

  Mulliken/CM5 charges         n(s)   n(p)   n(d)
     1N    -0.43419 -0.90178   1.436  3.998  0.000
     2C     0.14975  0.20004   1.043  2.808  0.000
     3C    -0.07263 -0.12169   1.061  3.012  0.000
     4C    -0.03704 -0.09090   1.059  2.978  0.000
     5C    -0.02373 -0.03757   1.078  2.946  0.000
     6C    -0.04229 -0.09521   1.057  2.985  0.000
     7C    -0.08347 -0.13212   1.053  3.030  0.000
     8C    -0.05235 -0.14761   1.033  3.019  0.000
     9C     0.08606  0.08997   1.050  2.864  0.000
    10C     0.38568  0.37143   1.037  2.577  0.000
    11C    -0.09270 -0.14747   1.065  3.028  0.000
    12C     0.04858 -0.01252   1.094  2.858  0.000
    13C    -0.04673 -0.15375   1.032  3.015  0.000
    14C    -0.02330 -0.13509   1.029  2.995  0.000
    15C    -0.08171 -0.23314   1.007  3.075  0.000
    16O    -0.53129 -0.61831   1.733  4.798  0.000
    17O    -0.69191 -1.03954   1.707  4.985  0.000
    18H     0.23787  0.44177   0.762  0.000  0.000
    19H     0.21749  0.40996   0.783  0.000  0.000
    20H     0.04918  0.11292   0.951  0.000  0.000
    21H     0.02747  0.08463   0.973  0.000  0.000
    22H     0.01795  0.07592   0.982  0.000  0.000
    23H     0.02598  0.08495   0.974  0.000  0.000
    24H     0.04534  0.10684   0.955  0.000  0.000
    25H     0.04920  0.10798   0.951  0.000  0.000
    26H     0.05108  0.12991   0.949  0.000  0.000
    27H     0.23043  0.42888   0.770  0.000  0.000
    28H     0.24434  0.45052   0.756  0.000  0.000
    29H     0.00704  0.07206   0.993  0.000  0.000
    30H     0.03395  0.09333   0.966  0.000  0.000
    31H     0.05194  0.11317   0.948  0.000  0.000
    32H     0.03886  0.09472   0.961  0.000  0.000
    33H     0.03977  0.10123   0.960  0.000  0.000
    34H     0.03480  0.09231   0.965  0.000  0.000
    35H     0.02060  0.07564   0.979  0.000  0.000
    36H     0.03077  0.08225   0.969  0.000  0.000
    37H     0.02271  0.07453   0.977  0.000  0.000
    38H     0.03820  0.09452   0.962  0.000  0.000
    39H     0.35315  0.53957   0.647  0.000  0.000
    40H     0.33570  0.50459   0.664  0.000  0.000
    41O    -0.68659 -1.03131   1.709  4.977  0.000
    42H     0.33732  0.51884   0.663  0.000  0.000
    43H     0.33510  0.51170   0.665  0.000  0.000
    44N    -0.34426 -0.70854   1.424  3.920  0.000
    45C     0.46150  0.56494   0.991  2.547  0.000
    46O    -0.55620 -0.60372   1.724  4.832  0.000
    47C    -0.13264 -0.27072   1.021  3.112  0.000
    48C     0.47657  0.56851   0.991  2.533  0.000
    49O    -0.56865 -0.63284   1.725  4.844  0.000
    50H     0.05002  0.10526   0.950  0.000  0.000
    51H     0.05016  0.10541   0.950  0.000  0.000
    52H     0.06309  0.11885   0.937  0.000  0.000
    53N    -0.34089 -0.70848   1.424  3.917  0.000
    54C     0.06673 -0.02221   0.979  2.954  0.000
    55H     0.03259  0.09326   0.967  0.000  0.000
    56H     0.03164  0.09228   0.968  0.000  0.000
    57H     0.06396  0.13184   0.936  0.000  0.000

Wiberg/Mayer (AO) data.
largest (>0.10) Wiberg bond orders for each atom

 ---------------------------------------------------------------------------
     #   Z sym  total        # sym  WBO       # sym  WBO       # sym  WBO
 ---------------------------------------------------------------------------
     1   7 N    3.194 --     2 C    1.121    19 H    0.930    18 H    0.907
     2   6 C    3.959 --     7 C    1.356     3 C    1.347     1 N    1.121
     3   6 C    3.991 --     4 C    1.471     2 C    1.347    20 H    0.967
                             6 C    0.102
     4   6 C    3.995 --     3 C    1.471     5 C    1.396    21 H    0.973
                             7 C    0.101
     5   6 C    3.985 --     6 C    1.408     4 C    1.396     8 C    1.008
     6   6 C    3.995 --     7 C    1.457     5 C    1.408    22 H    0.971
                             3 C    0.102
     7   6 C    3.990 --     6 C    1.457     2 C    1.356    23 H    0.973
                             4 C    0.101
     8   6 C    3.993 --     5 C    1.008     9 C    0.981    24 H    0.973
                            25 H    0.971
     9   6 C    3.936 --     8 C    0.981    26 H    0.960    44 N    0.930
                            45 C    0.924
    10   6 C    3.863 --    16 O    1.680    11 C    1.106    29 H    0.948
    11   6 C    3.990 --    12 C    1.789    10 C    1.106    30 H    0.971
    12   6 C    3.968 --    11 C    1.789    13 C    1.045    31 H    0.968
    13   6 C    3.995 --    12 C    1.045    33 H    0.968    32 H    0.966
                            14 C    0.966
    14   6 C    3.993 --    15 C    1.017    35 H    0.982    34 H    0.979
                            13 C    0.966
    15   6 C    3.995 --    14 C    1.017    37 H    0.988    36 H    0.985
                            38 H    0.984
    16   8 O    1.991 --    10 C    1.680
    17   8 O    1.809 --    40 H    0.890    39 H    0.840
    18   1 H    0.967 --     1 N    0.907
    19   1 H    0.960 --     1 N    0.930
    20   1 H    1.014 --     3 C    0.967
    21   1 H    1.002 --     4 C    0.973
    22   1 H    1.004 --     6 C    0.971
    23   1 H    1.000 --     7 C    0.973
    24   1 H    1.006 --     8 C    0.973
    25   1 H    1.005 --     8 C    0.971
    26   1 H    1.015 --     9 C    0.960
    27   1 H    0.957 --    44 N    0.913
    28   1 H    0.957 --    53 N    0.895
    29   1 H    1.026 --    10 C    0.948
    30   1 H    1.006 --    11 C    0.971
    31   1 H    1.007 --    12 C    0.968
    32   1 H    1.007 --    13 C    0.966
    33   1 H    1.018 --    13 C    0.968
    34   1 H    1.014 --    14 C    0.979
    35   1 H    1.006 --    14 C    0.982
    36   1 H    1.004 --    15 C    0.985
    37   1 H    1.005 --    15 C    0.988
    38   1 H    1.015 --    15 C    0.984
    39   1 H    0.897 --    17 O    0.840
    40   1 H    0.894 --    17 O    0.890
    41   8 O    1.814 --    43 H    0.873    42 H    0.868
    42   1 H    0.909 --    41 O    0.868
    43   1 H    0.910 --    41 O    0.873
    44   7 N    3.334 --    48 C    1.265     9 C    0.930    27 H    0.913
                            49 O    0.163
    45   6 C    3.905 --    46 O    1.631    53 N    1.275     9 C    0.924
    46   8 O    1.935 --    45 C    1.631    53 N    0.177
    47   6 C    3.994 --    52 H    0.984    48 C    0.983    51 H    0.974
                            50 H    0.972
    48   6 C    3.895 --    49 O    1.587    44 N    1.265    47 C    0.983
    49   8 O    1.935 --    48 C    1.587    44 N    0.163
    50   1 H    1.003 --    47 C    0.972
    51   1 H    1.001 --    47 C    0.974
    52   1 H    1.004 --    47 C    0.984
    53   7 N    3.339 --    45 C    1.275    54 C    0.955    28 H    0.895
                            46 O    0.177
    54   6 C    3.948 --    55 H    0.986    56 H    0.985    57 H    0.982
                            53 N    0.955
    55   1 H    1.006 --    54 C    0.986
    56   1 H    1.006 --    54 C    0.985
    57   1 H    1.008 --    54 C    0.982
 ---------------------------------------------------------------------------

Topologies differ in total number of bonds
Writing topology from bond orders to xtbtopo.mol

 dipole moment from electron density (au)
     X       Y       Z   
  -1.1040   0.0778  -2.3260  total (Debye):    6.547

           -------------------------------------------------
          |               Frequency Printout                |
           -------------------------------------------------
 projected vibrational frequencies (cm⁻¹)
eigval :       -0.00    -0.00    -0.00     0.00     0.00     0.00
eigval :       16.62    19.00    27.41    28.56    35.20    43.61
eigval :       49.71    50.71    55.60    57.84    61.28    67.91
eigval :       77.68    82.64    91.33    93.37    99.87   107.30
eigval :      116.91   119.36   123.82   129.59   137.07   155.75
eigval :      172.25   177.14   187.58   206.34   212.02   216.42
eigval :      235.62   271.04   275.64   281.96   292.71   300.47
eigval :      310.84   329.49   344.08   346.56   351.34   373.44
eigval :      378.40   397.18   408.61   429.92   448.43   459.39
eigval :      474.20   480.47   512.26   525.00   534.55   569.14
eigval :      608.14   610.67   655.28   668.99   678.16   717.74
eigval :      730.87   751.01   767.40   775.44   792.27   839.75
eigval :      866.18   877.41   877.92   891.81   911.76   919.46
eigval :      927.13   935.79   971.14   984.89   986.66   991.09
eigval :      993.67  1014.44  1019.93  1043.97  1057.20  1066.31
eigval :     1068.33  1097.83  1102.67  1118.28  1119.94  1133.63
eigval :     1148.88  1161.08  1163.46  1191.42  1210.08  1215.22
eigval :     1223.84  1246.64  1247.70  1262.24  1280.36  1281.33
eigval :     1283.69  1284.29  1300.75  1315.30  1328.74  1334.18
eigval :     1347.87  1385.52  1394.23  1410.64  1423.63  1426.70
eigval :     1435.59  1441.85  1444.97  1446.11  1448.31  1453.97
eigval :     1456.16  1464.73  1467.07  1475.02  1475.59  1480.76
eigval :     1491.43  1517.89  1581.87  1608.59  1621.22  1703.94
eigval :     1714.88  1758.34  2881.73  2991.69  3009.61  3014.62
eigval :     3015.93  3022.56  3033.52  3039.22  3039.65  3048.71
eigval :     3050.36  3051.46  3075.53  3084.31  3084.62  3086.56
eigval :     3086.66  3087.70  3099.64  3103.45  3105.38  3109.32
eigval :     3125.49  3473.87  3475.40  3491.06  3520.47  3571.41
eigval :     3583.73  3672.00  3733.61
 reduced masses (amu)
   1: 11.92   2: 12.41   3: 11.91   4: 12.72   5: 11.63   6: 12.36   7: 11.70   8: 11.65
   9: 12.05  10: 11.35  11: 12.73  12: 12.71  13: 11.67  14:  6.45  15: 12.71  16:  5.41
  17:  8.88  18:  9.43  19: 10.57  20: 10.15  21:  7.67  22: 10.32  23: 11.83  24: 11.77
  25: 10.04  26:  9.62  27: 13.11  28: 10.89  29: 11.30  30:  4.29  31: 11.10  32: 11.82
  33: 11.47  34:  7.09  35:  8.03  36: 12.04  37: 12.30  38:  2.12  39: 12.36  40:  4.74
  41:  8.89  42:  7.99  43:  7.49  44:  9.56  45:  4.54  46:  7.34  47: 10.44  48:  8.59
  49:  6.31  50:  6.51  51:  6.92  52:  4.93  53:  9.41  54:  6.60  55:  7.50  56:  9.09
  57:  3.74  58:  9.16  59:  1.78  60:  8.57  61: 10.76  62: 11.06  63:  7.04  64:  8.34
  65: 10.28  66:  9.84  67: 11.36  68:  3.19  69:  6.15  70:  8.85  71:  6.86  72:  3.34
  73:  7.36  74:  8.45  75:  5.84  76:  2.98  77:  3.80  78:  5.92  79:  9.48  80:  5.78
  81: 10.36  82:  6.40  83:  5.82  84:  2.86  85:  5.69  86:  8.24  87:  8.39  88:  4.54
  89:  5.77  90:  6.17  91:  7.34  92:  7.42  93:  8.62  94:  3.65  95:  2.58  96:  6.58
  97:  7.69  98:  2.42  99:  5.44 100:  5.14 101:  6.10 102:  4.68 103:  4.90 104:  5.37
 105:  3.44 106:  2.68 107:  3.55 108:  3.57 109:  4.42 110:  5.01 111:  8.81 112:  7.58
 113: 10.78 114:  5.16 115:  3.59 116:  3.10 117:  3.47 118:  3.67 119:  9.49 120:  9.78
 121:  7.39 122:  1.75 123:  1.55 124:  2.09 125:  1.49 126:  2.20 127:  2.29 128:  2.18
 129:  1.94 130:  3.18 131:  1.57 132:  1.70 133:  6.10 134:  6.67 135: 11.48 136: 11.51
 137: 11.77 138: 12.64 139: 13.14 140: 13.27 141:  1.74 142:  1.78 143:  1.53 144:  1.59
 145:  1.27 146:  1.54 147:  1.34 148:  1.87 149:  1.29 150:  1.99 151:  1.99 152:  2.01
 153:  1.99 154:  1.99 155:  1.85 156:  1.82 157:  1.97 158:  1.98 159:  1.83 160:  1.86
 161:  1.88 162:  1.99 163:  1.88 164:  1.89 165:  1.51 166:  1.76 167:  1.87 168:  2.12
 169:  1.63 170:  2.10 171:  1.97
 IR intensities (km·mol⁻¹)
   1:  0.16   2:  0.12   3:  0.37   4:  0.00   5:  0.57   6:  0.30   7:  1.54   8:  0.09
   9:  2.44  10:  1.12  11:  4.30  12:  3.35  13:  4.97  14:  9.27  15:  6.39  16:  0.35
  17:  4.74  18:  2.20  19:  7.85  20:  1.31  21:  4.50  22:  1.86  23: 12.02  24:  2.72
  25: 14.88  26:  0.32  27:  4.28  28: 13.19  29: 10.09  30:112.58  31: 10.50  32: 28.38
  33: 16.85  34:  5.86  35:  6.80  36:  5.62  37:  1.05  38:148.61  39: 16.86  40: 95.02
  41: 24.68  42: 54.76  43: 38.19  44: 20.38  45: 30.08  46: 10.92  47:  8.03  48: 13.45
  49: 26.44  50: 83.25  51:187.55  52:102.58  53: 28.11  54:335.37  55:349.30  56: 47.35
  57:121.52  58: 54.06  59:319.18  60:  3.36  61:  8.15  62:  0.99  63:144.41  64: 82.64
  65: 89.28  66: 35.50  67: 24.95  68: 16.23  69: 27.04  70: 38.86  71: 57.62  72:  4.03
  73:  4.94  74:  1.85  75:  7.90  76:  0.27  77:  0.17  78:  2.52  79:  2.80  80: 33.12
  81: 13.74  82:  5.43  83: 30.64  84: 38.70  85: 42.48  86:  3.57  87: 27.88  88:  5.96
  89:  4.39  90:  8.76  91:  1.12  92: 23.34  93:  8.47  94:  2.74  95: 12.06  96: 38.08
  97:  1.52  98:  1.49  99:  2.32 100:  8.53 101:  2.36 102:  5.63 103:  6.62 104: 37.78
 105: 59.50 106:  5.29 107:  2.76 108:  4.59 109:  6.65 110: 29.23 111: 49.93 112:  6.94
 113:  7.32 114: 12.04 115: 48.97 116:  4.92 117:  9.76 118: 28.69 119:313.45 120:  7.46
 121:225.38 122: 14.37 123: 15.42 124:261.99 125: 16.07 126:  7.88 127:  2.61 128:159.15
 129:  4.74 130: 73.45 131: 13.87 132: 10.07 133:  8.02 134:290.59 135:  4.45 136: 15.96
 137:667.23 138:334.63 139:439.67 140:654.22 141: 79.53 142:  6.02 143:  4.70 144: 24.81
 145: 25.74 146: 11.80 147: 13.49 148:  7.15 149:  0.37 150: 16.02 151: 16.77 152:  8.30
 153: 22.53 154:  5.17 155:  6.12 156: 17.75 157:  2.85 158: 14.52 159: 13.90 160: 10.95
 161: 16.54 162:  2.82 163:  0.35 164: 54.44 165: 26.25 166:323.41 167: 21.29 168: 20.17
 169: 93.22 170:150.28 171:120.13
 Raman intensities (Ä⁴*amu⁻¹)
   1:  0.00   2:  0.00   3:  0.00   4:  0.00   5:  0.00   6:  0.00   7:  0.00   8:  0.00
   9:  0.00  10:  0.00  11:  0.00  12:  0.00  13:  0.00  14:  0.00  15:  0.00  16:  0.00
  17:  0.00  18:  0.00  19:  0.00  20:  0.00  21:  0.00  22:  0.00  23:  0.00  24:  0.00
  25:  0.00  26:  0.00  27:  0.00  28:  0.00  29:  0.00  30:  0.00  31:  0.00  32:  0.00
  33:  0.00  34:  0.00  35:  0.00  36:  0.00  37:  0.00  38:  0.00  39:  0.00  40:  0.00
  41:  0.00  42:  0.00  43:  0.00  44:  0.00  45:  0.00  46:  0.00  47:  0.00  48:  0.00
  49:  0.00  50:  0.00  51:  0.00  52:  0.00  53:  0.00  54:  0.00  55:  0.00  56:  0.00
  57:  0.00  58:  0.00  59:  0.00  60:  0.00  61:  0.00  62:  0.00  63:  0.00  64:  0.00
  65:  0.00  66:  0.00  67:  0.00  68:  0.00  69:  0.00  70:  0.00  71:  0.00  72:  0.00
  73:  0.00  74:  0.00  75:  0.00  76:  0.00  77:  0.00  78:  0.00  79:  0.00  80:  0.00
  81:  0.00  82:  0.00  83:  0.00  84:  0.00  85:  0.00  86:  0.00  87:  0.00  88:  0.00
  89:  0.00  90:  0.00  91:  0.00  92:  0.00  93:  0.00  94:  0.00  95:  0.00  96:  0.00
  97:  0.00  98:  0.00  99:  0.00 100:  0.00 101:  0.00 102:  0.00 103:  0.00 104:  0.00
 105:  0.00 106:  0.00 107:  0.00 108:  0.00 109:  0.00 110:  0.00 111:  0.00 112:  0.00
 113:  0.00 114:  0.00 115:  0.00 116:  0.00 117:  0.00 118:  0.00 119:  0.00 120:  0.00
 121:  0.00 122:  0.00 123:  0.00 124:  0.00 125:  0.00 126:  0.00 127:  0.00 128:  0.00
 129:  0.00 130:  0.00 131:  0.00 132:  0.00 133:  0.00 134:  0.00 135:  0.00 136:  0.00
 137:  0.00 138:  0.00 139:  0.00 140:  0.00 141:  0.00 142:  0.00 143:  0.00 144:  0.00
 145:  0.00 146:  0.00 147:  0.00 148:  0.00 149:  0.00 150:  0.00 151:  0.00 152:  0.00
 153:  0.00 154:  0.00 155:  0.00 156:  0.00 157:  0.00 158:  0.00 159:  0.00 160:  0.00
 161:  0.00 162:  0.00 163:  0.00 164:  0.00 165:  0.00 166:  0.00 167:  0.00 168:  0.00
 169:  0.00 170:  0.00 171:  0.00
 output can be read by thermo (or use thermo option).
 writing <g98.out> molden fake output.
 recommended (thermochemical) frequency scaling factor: 1.0
           -------------------------------------------------
          |             Thermodynamic Functions             |
           -------------------------------------------------

Refinement of some symmetry elements was terminated before convergence was reached.
Some symmetry elements may remain unidentified.
Molecule has no symmetry elements
It seems to be the C1 point group
c1  symmetry found (for desy threshold:  0.10E+00) used in thermo

          ...................................................
          :                      SETUP                      :
          :.................................................:
          :  # frequencies                         165      :
          :  # imaginary freq.                       0      :
          :  linear?                             false      :
          :  only rotor calc.                    false      :
          :  symmetry                               c1      :
          :  rotational number                       1      :
          :  scaling factor                  1.0000000      :
          :  rotor cutoff                   50.0000000 cm⁻¹ :
          :  imag. cutoff                  -20.0000000 cm⁻¹ :
          :.................................................:

    mode    ω/cm⁻¹     T·S(HO)/kcal·mol⁻¹    T·S(FR)/kcal·mol⁻¹   T·S(vib)
   ------------------------------------------------------------------------
       1     16.62    -2.08750 (  1.21%)    -1.38271 ( 98.79%)    -1.39121
       2     19.00    -2.00835 (  2.04%)    -1.34312 ( 97.96%)    -1.35670
       3     27.41    -1.79140 (  8.29%)    -1.23455 ( 91.71%)    -1.28069
       4     28.56    -1.76703 (  9.63%)    -1.22235 ( 90.37%)    -1.27479
       5     35.20    -1.64345 ( 19.73%)    -1.16045 ( 80.27%)    -1.25573
       6     43.61    -1.51691 ( 36.67%)    -1.09699 ( 63.33%)    -1.25097
       7     49.71    -1.43978 ( 49.41%)    -1.05827 ( 50.59%)    -1.24677
       8     50.71    -1.42795 ( 51.42%)    -1.05233 ( 48.58%)    -1.24546
       9     55.60    -1.37379 ( 60.45%)    -1.02510 ( 39.55%)    -1.23589
      10     57.84    -1.35047 ( 64.17%)    -1.01337 ( 35.83%)    -1.22968
      11     61.28    -1.31650 ( 69.29%)    -0.99627 ( 30.71%)    -1.21815
      12     67.91    -1.25607 ( 77.29%)    -0.96581 ( 22.71%)    -1.19016
      13     77.68    -1.17727 ( 85.35%)    -0.92601 ( 14.65%)    -1.14047
      14     82.64    -1.14106 ( 88.18%)    -0.90768 ( 11.82%)    -1.11348
      15     91.33    -1.08266 ( 91.76%)    -0.87805 (  8.24%)    -1.06580
      16     93.37    -1.06982 ( 92.40%)    -0.87152 (  7.60%)    -1.05475
      17     99.87    -1.03069 ( 94.09%)    -0.85160 (  5.91%)    -1.02010
      18    107.30    -0.98901 ( 95.50%)    -0.83032 (  4.50%)    -0.98187
      19    116.91    -0.93940 ( 96.76%)    -0.80491 (  3.24%)    -0.93504
      20    119.36    -0.92747 ( 97.01%)    -0.79878 (  2.99%)    -0.92362
      21    123.82    -0.90636 ( 97.41%)    -0.78792 (  2.59%)    -0.90329
      22    129.59    -0.88019 ( 97.83%)    -0.77442 (  2.17%)    -0.87790
      23    137.07    -0.84806 ( 98.26%)    -0.75779 (  1.74%)    -0.84649
      24    155.75    -0.77542 ( 98.95%)    -0.71994 (  1.05%)    -0.77484
      25    172.25    -0.71877 ( 99.30%)    -0.69011 (  0.70%)    -0.71857
      26    177.14    -0.70315 ( 99.37%)    -0.68183 (  0.63%)    -0.70302
      27    187.58    -0.67131 ( 99.50%)    -0.66485 (  0.50%)    -0.67128
      28    206.34    -0.61890 ( 99.66%)    -0.63662 (  0.34%)    -0.61896
      29    212.02    -0.60410 ( 99.69%)    -0.62857 (  0.31%)    -0.60418
      30    216.42    -0.59298 ( 99.72%)    -0.62249 (  0.28%)    -0.59306
      31    235.62    -0.54731 ( 99.80%)    -0.59731 (  0.20%)    -0.54741
      32    271.04    -0.47392 ( 99.88%)    -0.55582 (  0.12%)    -0.47402
      33    275.64    -0.46528 ( 99.89%)    -0.55084 (  0.11%)    -0.46538
      34    281.96    -0.45370 ( 99.90%)    -0.54412 (  0.10%)    -0.45379
      35    292.71    -0.43478 ( 99.91%)    -0.53304 (  0.09%)    -0.43486
   ------------------------------------------------------------------------

   temp. (K)  partition function   enthalpy   heat capacity  entropy
                                   cal/mol     cal/K/mol   cal/K/mol   J/K/mol
 298.15  VIB  0.286E+18            20573.138    109.922    135.690
         ROT  0.144E+08              888.752      2.981     35.732
         INT  0.410E+25            21461.891    112.902    171.422
         TR   0.687E+28             1481.254      4.968     43.594
         TOT                       22943.1445   117.8706   215.0160   899.6267

       T/K    H(0)-H(T)+PV         H(T)/Eh          T*S/Eh         G(T)/Eh
   ------------------------------------------------------------------------
    298.15    0.365622E-01    0.503699E+00    0.102161E+00    0.401537E+00
   ------------------------------------------------------------------------

         :::::::::::::::::::::::::::::::::::::::::::::::::::::
         ::                  THERMODYNAMIC                  ::
         :::::::::::::::::::::::::::::::::::::::::::::::::::::
         :: total free energy         -87.497478549108 Eh   ::
         ::.................................................::
         :: total energy              -87.899016043733 Eh   ::
         :: zero point energy           0.467136282767 Eh   ::
         :: G(RRHO) w/o ZPVE           -0.065598788142 Eh   ::
         :: G(RRHO) contrib.            0.401537494625 Eh   ::
         :::::::::::::::::::::::::::::::::::::::::::::::::::::

           -------------------------------------------------
          | TOTAL ENERGY              -87.899016043733 Eh   |
          | TOTAL ENTHALPY            -87.395317532871 Eh   |
          | TOTAL FREE ENERGY         -87.497478549108 Eh   |
          | GRADIENT NORM               0.000197869760 Eh/α |
          | HOMO-LUMO GAP               1.899709107319 eV   |
           -------------------------------------------------

------------------------------------------------------------------------
 * finished run on 2026/08/20 at 20:22:13.730     
------------------------------------------------------------------------
 total:
 * wall-time:     0 d,  0 h,  0 min, 10.812 sec
 *  cpu-time:     0 d,  0 h,  1 min, 12.500 sec
 * ratio c/w:     6.706 speedup
 SCF:
 * wall-time:     0 d,  0 h,  0 min,  0.083 sec
 *  cpu-time:     0 d,  0 h,  0 min,  0.250 sec
 * ratio c/w:     3.012 speedup
 analytical hessian:
 * wall-time:     0 d,  0 h,  0 min, 10.684 sec
 *  cpu-time:     0 d,  0 h,  1 min, 12.203 sec
 * ratio c/w:     6.758 speedup



===== STDERR =====

normal termination of xtb
