57
 energy: -87.898930619660 gnorm: 0.000226528636 xtb: 6.7.1pre (5071a88)
N           -0.14157937784782       -0.97190052885858       -0.12339604054621
C            1.20791076103994       -0.74449843093881        0.06950265025246
C            1.62656392800546        0.16445522804610        1.04642608250674
C            2.96302471672644        0.50713020474970        1.14494265857810
C            3.90954081439700       -0.05215832690953        0.28664792981778
C            3.49155811226936       -0.98831352401439       -0.65648491640041
C            2.15458218809837       -1.33413517232683       -0.77135157021278
C            5.33389153961291        0.43995327735505        0.29956039687161
C            5.43834463824318        1.70059333489375       -0.56761748010952
C           -1.00508714515835        1.00837987676757       -1.51145172621529
C            0.23247165809550        1.76094317934317       -1.35069860118300
C            0.35077064392441        2.73131241257567       -0.43206544953328
C            1.59207385427015        3.51508437962316       -0.18898566003841
C            1.42374525286942        4.97065065808280       -0.66030336732462
C            2.69495402993149        5.77393897223567       -0.40035592054344
O           -2.02873552216187        1.22286439304817       -0.87771576978378
O           -3.09229398737775       -1.02136466374201        0.37878669109193
H           -0.72766653888481       -0.72675252377480        0.66242664242873
H           -0.39011276540369       -1.85243506146476       -0.54569237324210
H            0.89152799441519        0.60789927391964        1.70818254752698
H            3.27676004381086        1.22736558911333        1.89358288418688
H            4.21883414423441       -1.44870576889001       -1.31862444335579
H            1.83742390898233       -2.04862676528777       -1.52327216293310
H            6.02048015867997       -0.31790714071219       -0.08801691308009
H            5.65347729408326        0.69824846662581        1.31224593480474
H            4.77253024564422        2.48602767935159       -0.18700142992032
H            5.19265330676398        0.46333321168314       -2.27288993242919
H            6.13044369818537        3.90305067185085       -1.52773980036278
H           -0.97875665924813        0.23680788204560       -2.30361591282409
H            1.06980249469882        1.47703749256678       -1.97964772416882
H           -0.51117570201517        2.98865371889127        0.17917367561871
H            1.80636746686544        3.51478308874820        0.88496885319744
H            2.44050522746781        3.06374832030686       -0.70964388419553
H            1.19908971876202        4.97315042108517       -1.73117542559082
H            0.57822582890059        5.42802088899626       -0.13656433889230
H            2.56385243564791        6.79988333032560       -0.74578625657416
H            2.92730056891803        5.79168057822674        0.66553077842538
H            3.53649851997677        5.33116762435630       -0.93294094651656
H           -2.86394395021943       -0.27376270631591       -0.19802287640107
H           -4.04950867985608       -1.04275497171949        0.41877996881643
O           -1.60332983056607        0.81889505074341        1.95276486833513
H           -1.81202055514462        1.29101996200706        1.13665429121691
H           -2.23006825096698        0.08559756259819        1.96721894451363
N            5.01564588098432        1.39406609748910       -1.93029600226725
C            6.88150395102673        2.23865187609205       -0.60986219259519
O            7.82547703725501        1.60002994992578       -0.19039502540074
C            3.95957888189907        1.79088057074541       -4.04968990384095
C            4.41209558906619        2.31337838561140       -2.70392094200369
O            4.23869396199991        3.46914331534680       -2.34775197089184
H            3.21090189305166        1.01230094879831       -3.90579264332856
H            4.80239606167577        1.36692479743586       -4.59373252923685
H            3.52707942033579        2.60729679612721       -4.62319136867478
N            6.96027550879299        3.46633777533902       -1.14890880253983
C            8.24016053133217        4.11824437556692       -1.36237651025198
H            8.23440661102208        5.10752157348504       -0.89983467632518
H            8.43508799128666        4.22199408421959       -2.43295283447299
H            9.01677045163503        3.50386830872535       -0.90662947391489
