      -----------------------------------------------------------      
     |                   =====================                   |     
     |                           x T B                           |     
     |                   =====================                   |     
     |                         S. Grimme                         |     
     |          Mulliken Center for Theoretical Chemistry        |     
     |                    University of Bonn                     |     
      -----------------------------------------------------------      

   * xtb version 6.7.1pre (5071a88) compiled by 'Marcel@Raven' on 2024-07-23

   xtb is free software: you can redistribute it and/or modify it under
   the terms of the GNU Lesser General Public License as published by
   the Free Software Foundation, either version 3 of the License, or
   (at your option) any later version.
   
   xtb is distributed in the hope that it will be useful,
   but WITHOUT ANY WARRANTY; without even the implied warranty of
   MERCHANTABILITY or FITNESS FOR A PARTICULAR PURPOSE.  See the
   GNU Lesser General Public License for more details.
   
   Cite this work as:
   * C. Bannwarth, E. Caldeweyher, S. Ehlert, A. Hansen, P. Pracht,
     J. Seibert, S. Spicher, S. Grimme, WIREs Comput. Mol. Sci., 2020, 11,
     e01493. DOI: 10.1002/wcms.1493
   
   for GFN2-xTB:
   * C. Bannwarth, S. Ehlert and S. Grimme., J. Chem. Theory Comput., 2019,
     15, 1652-1671. DOI: 10.1021/acs.jctc.8b01176
   for GFN1-xTB:
   * S. Grimme, C. Bannwarth, P. Shushkov, J. Chem. Theory Comput., 2017,
     13, 1989-2009. DOI: 10.1021/acs.jctc.7b00118
   for GFN0-xTB:
   * P. Pracht, E. Caldeweyher, S. Ehlert, S. Grimme, ChemRxiv, 2019, preprint.
     DOI: 10.26434/chemrxiv.8326202.v1
   for GFN-FF:
   * S. Spicher and S. Grimme, Angew. Chem. Int. Ed., 2020, 59, 15665-15673.
     DOI: 10.1002/anie.202004239
   
   for ALPB and GBSA implicit solvation:
   * S. Ehlert, M. Stahn, S. Spicher, S. Grimme, J. Chem. Theory Comput.,
     2021, 17, 4250-4261. DOI: 10.1021/acs.jctc.1c00471
   
   for ddCOSMO and CPCM-X implicit solvation:
   * M. Stahn, S. Ehlert, S. Grimme, J. Phys. Chem. A,
     2023, XX, XXXX-XXXX. DOI: 10.1021/acs.jpca.3c04382
   
   for DFT-D4:
   * E. Caldeweyher, C. Bannwarth and S. Grimme, J. Chem. Phys., 2017,
     147, 034112. DOI: 10.1063/1.4993215
   * E. Caldeweyher, S. Ehlert, A. Hansen, H. Neugebauer, S. Spicher,
     C. Bannwarth and S. Grimme, J. Chem. Phys., 2019, 150, 154122.
     DOI: 10.1063/1.5090222
   * E. Caldeweyher, J.-M. Mewes, S. Ehlert and S. Grimme, Phys. Chem. Chem. Phys.
     2020, 22, 8499-8512. DOI: 10.1039/D0CP00502A
   
   for sTDA-xTB:
   * S. Grimme and C. Bannwarth, J. Chem. Phys., 2016, 145, 054103.
     DOI: 10.1063/1.4959605
   
   in the mass-spec context:
   * V. Asgeirsson, C. Bauer and S. Grimme, Chem. Sci., 2017, 8, 4879.
     DOI: 10.1039/c7sc00601b
   * J. Koopman and S. Grimme, ACS Omega 2019, 4, 12, 15120-15133.
     DOI: 10.1021/acsomega.9b02011
   
   for metadynamics refer to:
   * S. Grimme, J. Chem. Theory Comput., 2019, 155, 2847-2862
     DOI: 10.1021/acs.jctc.9b00143
   
   for SPH calculations refer to:
   * S. Spicher and S. Grimme, J. Chem. Theory Comput., 2021, 17, 1701-1714
     DOI: 10.1021/acs.jctc.0c01306
   
   for ONIOM refer to:
   * C. Plett, A. Katbashev, S. Ehlert, S. Grimme, M. Bursch,
     Phys. Chem. Chem. Phys., 2023, 25, 17860-17868. DOI: 10.1039/D3CP02178E
   
   for DIPRO refer to:
   * J. Kohn, N. Gildemeister, S. Grimme, D. Fazzi, A. Hansen,
     J. Chem. Phys., 2023, just accepted.
   
   for PTB refer to:
   * S. Grimme, M. Mueller, A. Hansen, J. Chem. Phys., 2023, 158, 124111.
     DOI: 10.1063/5.0137838
   
   with help from (in alphabetical order)
   P. Atkinson, C. Bannwarth, F. Bohle, G. Brandenburg, E. Caldeweyher
   M. Checinski, S. Dohm, S. Ehlert, S. Ehrlich, I. Gerasimov, C. Hölzer
   A. Katbashev, J. Kohn, J. Koopman, C. Lavigne, S. Lehtola, F. März, M. Müller,
   F. Musil, H. Neugebauer, J. Pisarek, C. Plett, P. Pracht, F. Pultar,
   J. Seibert, P. Shushkov, S. Spicher, M. Stahn, M. Steiner, T. Strunk,
   J. Stückrath, T. Rose, and J. Unsleber
   
 * started run on 2026/08/31 at 13:15:34.535     
   ID    Z sym.   atoms
    1    7 N      1, 44, 53
    2    6 C      2-15, 45, 47, 48, 54
    3    8 O      16, 17, 41, 46, 49
    4    1 H      18-40, 42, 43, 50-52, 55-57

           -------------------------------------------------
          |                Calculation Setup                |
           -------------------------------------------------

          program call               : C:\Users\Nayanika\Downloads\xtb-6.7.1pre-windows-x86_64\xtb-6.7.1\bin\xtb.exe D:\PhD_Thesis\LmrR_EVB\charges\fast_lmrr_5QM\xtb_preparation\TS1_2_to_PS1_2b\TS1_2_to_PS1_2b_PS.xyz --gfn 1 --opt tight --chrg 0 --uhf 0 --etemp 0
          coordinate file            : D:\PhD_Thesis\LmrR_EVB\charges\fast_lmrr_5QM\xtb_preparation\TS1_2_to_PS1_2b\TS1_2_to_PS1_2b_PS.xyz
          omp threads                :                     1


molecular fragmentation (1/2 indicates fragments):
111111111111111121211111111111111111112221211111111111111
# atoms in fragment 1/2:    51     6
 fragment masses (1/2) :      333.43       36.03
CMA distance (Bohr)    :  12.395
constraining FC (au)   :  0.0500

           -------------------------------------------------
          |                 G F N 1 - x T B                 |
           -------------------------------------------------

        Reference                      10.1021/acs.jctc.7b00118
      * Hamiltonian:
        H0-scaling (s, p, d)           1.850000    2.250000    2.000000
        zeta-weighting                 0.000000
      * Dispersion:
        s8                             2.400000
        a1                             0.630000
        a2                             5.000000
        s9                             0.000000
      * Repulsion:
        kExp                           1.500000
        rExp                           1.000000
      * Coulomb:
        alpha                          2.000000
        third order                    atomic
        anisotropic                    false
      * Halogen bond correction:
        rad-scale                      1.300000
        damping                        0.440000

q/qsh data taken from xtbrestart

          ...................................................
          :                      SETUP                      :
          :.................................................:
          :  # basis functions                 166          :
          :  # atomic orbitals                 166          :
          :  # shells                          114          :
          :  # electrons                       148          :
          :  # halogen bonds                     0          :
          :  max. iterations                   250          :
          :  Hamiltonian                  GFN1-xTB          :
          :  restarted?                       true          :
          :  GBSA solvation                  false          :
          :  PC potential                    false          :
          :  electronic temp.            0.0000000     K    :
          :  accuracy                    1.0000000          :
          :  -> integral cutoff          0.2500000E+02      :
          :  -> integral neglect         0.1000000E-07      :
          :  -> SCF convergence          0.1000000E-05 Eh   :
          :  -> wf. convergence          0.2000000E-04 e    :
          :  Broyden damping             0.4000000          :
          :  net charge                          0          :
          :  unpaired electrons                  0          :
          ...................................................

 iter      E             dE          RMSdq      gap      omega  full diag
   1    -88.5088629 -0.885089E+02  0.113E+00    3.41       0.0  T
   2    -88.5596247 -0.507617E-01  0.519E-01    1.15       1.0  T
   3    -83.8360518  0.472357E+01  0.554E+00    0.12       1.0  T
   4    -88.5655150 -0.472946E+01  0.336E-01    0.12       1.0  T
   5    -87.3939388  0.117158E+01  0.268E+00    0.00       1.0  T
   6    -87.3973065 -0.336768E-02  0.268E+00    0.00       1.0  T
   7    -84.6193316  0.277797E+01  0.494E+00    0.02       1.0  T
   8    -88.5624006 -0.394307E+01  0.359E-01    0.70       1.0  T
   9    -88.5625601 -0.159472E-03  0.363E-01    0.69       1.0  T
  10    -88.5629690 -0.408956E-03  0.353E-01    0.57       1.0  T
  11    -88.5634882 -0.519207E-03  0.340E-01    0.41       1.0  T
  12    -88.5640818 -0.593548E-03  0.325E-01    0.25       1.0  T
  13    -88.5659661 -0.188434E-02  0.298E-01    0.11       1.0  T
  14    -87.4332884  0.113268E+01  0.258E+00    0.00       1.0  T
  15    -88.5590946 -0.112581E+01  0.458E-01    0.99       1.0  T
  16    -88.5612233 -0.212871E-02  0.406E-01    0.89       1.0  T
  17    -88.5621095 -0.886140E-03  0.381E-01    0.83       1.0  T
  18    -88.5629167 -0.807282E-03  0.357E-01    0.60       1.0  T
  19    -88.5643525 -0.143575E-02  0.319E-01    0.21       1.0  T
  20    -88.5594677  0.488475E-02  0.340E-01    0.02       1.0  T
  21    -88.5614168 -0.194905E-02  0.400E-01    0.87       1.0  T
  22    -88.5637952 -0.237845E-02  0.331E-01    0.32       1.0  T
  23    -87.6000308  0.963764E+00  0.238E+00    0.00       1.0  T
  24    -88.5483327 -0.948302E+00  0.670E-01    1.55       1.0  T
  25    -88.5559645 -0.763186E-02  0.533E-01    1.29       1.0  T
  26    -88.5616319 -0.566733E-02  0.396E-01    0.94       1.0  T
  27    -88.5638418 -0.220989E-02  0.331E-01    0.30       1.0  T
  28    -87.8009116  0.762930E+00  0.212E+00    0.00       1.0  T
  29    -88.5461509 -0.745239E+00  0.708E-01    1.72       1.0  T
  30    -88.5614399 -0.152890E-01  0.402E-01    1.00       1.0  T
  31    -88.5637467 -0.230679E-02  0.333E-01    0.32       1.0  T
  32    -88.5661000 -0.235330E-02  0.297E-01    0.10       1.0  T
  33    -88.5707457 -0.464569E-02  0.242E-01    0.05       1.0  T
  34    -88.5651923  0.555339E-02  0.308E-01    0.13       1.0  T
  35    -88.5740732 -0.888093E-02  0.195E-01    0.04       1.0  T
  36    -88.5645948  0.947847E-02  0.315E-01    0.18       1.0  T
  37    -88.5697945 -0.519976E-02  0.253E-01    0.06       1.0  T
  38    -88.5670811  0.271337E-02  0.284E-01    0.08       1.0  T
  39    -88.5703116 -0.323049E-02  0.246E-01    0.06       1.0  T
  40    -88.5667338  0.357781E-02  0.288E-01    0.09       1.0  T
  41    -88.5702991 -0.356526E-02  0.246E-01    0.06       1.0  T
  42    -88.5670992  0.319990E-02  0.283E-01    0.08       1.0  T
  43    -88.5705218 -0.342257E-02  0.242E-01    0.05       1.0  T
  44    -88.5673578  0.316400E-02  0.280E-01    0.08       1.0  T
  45    -88.5711108 -0.375303E-02  0.234E-01    0.05       1.0  T
  46    -88.5673415  0.376927E-02  0.279E-01    0.08       1.0  T
  47    -88.5721462 -0.480471E-02  0.220E-01    0.05       1.0  T
  48    -88.5669487  0.519757E-02  0.284E-01    0.09       1.0  T
  49    -88.5736875 -0.673882E-02  0.198E-01    0.04       1.0  T
  50    -88.5662467  0.744073E-02  0.291E-01    0.10       1.0  T
  51    -88.5752234 -0.897663E-02  0.172E-01    0.04       1.0  T
  52    -88.5656949  0.952849E-02  0.297E-01    0.12       1.0  T
  53    -88.5763433 -0.106484E-01  0.151E-01    0.04       1.0  T
  54    -88.5654195  0.109237E-01  0.301E-01    0.13       1.0  T
  55    -88.5776314 -0.122118E-01  0.123E-01    0.03       1.0  T
  56    -88.5650670  0.125644E-01  0.305E-01    0.14       1.0  T
  57    -88.5781741 -0.131071E-01  0.108E-01    0.03       1.0  T
  58    -88.5650270  0.131471E-01  0.305E-01    0.15       1.0  T
  59    -88.5795353 -0.145083E-01  0.582E-02    0.03       1.0  T
  60    -88.5645507  0.149846E-01  0.312E-01    0.19       1.0  T
  61    -88.5785149 -0.139642E-01  0.978E-02    0.03       1.0  T
  62    -88.5652760  0.132389E-01  0.302E-01    0.13       1.0  T
  63    -88.5746291 -0.935314E-02  0.175E-01    0.02       1.0  T
  64    -88.5634789  0.111503E-01  0.336E-01    0.41       1.0  T
  65    -88.5730683 -0.958942E-02  0.205E-01    0.04       1.0  T
  66    -88.5776508 -0.458248E-02  0.121E-01    0.03       1.0  T
  67    -88.5666581  0.109927E-01  0.285E-01    0.09       1.0  T
  68    -88.5034692  0.631889E-01  0.666E-01    0.01       1.0  T
  69    -88.5618865 -0.584173E-01  0.382E-01    0.66       1.0  T
  70    -88.5681527 -0.626618E-02  0.268E-01    0.07       1.0  T
  71    -88.5659578  0.219493E-02  0.284E-01    0.02       1.0  T
  72    -88.5633568  0.260099E-02  0.339E-01    0.45       1.0  T
  73    -88.5700308 -0.667407E-02  0.245E-01    0.06       1.0  T
  74    -88.5794656 -0.943474E-02  0.561E-02    0.02       1.0  T
  75    -88.5643005  0.151651E-01  0.316E-01    0.22       1.0  T
  76    -88.5751362 -0.108356E-01  0.172E-01    0.04       1.0  T
  77    -88.5727693  0.236681E-02  0.209E-01    0.05       1.0  T
  78    -88.5800323 -0.726298E-02  0.946E-03    0.02       1.4  T
  79    -88.5648891  0.151433E-01  0.306E-01    0.16       1.0  T
  80    -88.5785975 -0.137084E-01  0.939E-02    0.03       1.0  T
  81    -88.5672372  0.113603E-01  0.277E-01    0.08       1.0  T
  82    -88.5295054  0.377318E-01  0.541E-01    0.01       1.0  T
  83    -88.5629045 -0.333992E-01  0.352E-01    0.55       1.0  T
  84    -88.5697714 -0.686689E-02  0.248E-01    0.06       1.0  T
  85    -88.5702655 -0.494033E-03  0.237E-01    0.02       1.0  T
  86    -88.5638646  0.640084E-02  0.325E-01    0.31       1.0  T
  87    -88.5725677 -0.870308E-02  0.211E-01    0.05       1.0  T
  88    -88.5777628 -0.519515E-02  0.114E-01    0.02       1.0  T
  89    -88.5644512  0.133116E-01  0.313E-01    0.20       1.0  T
  90    -88.5776605 -0.132093E-01  0.120E-01    0.03       1.0  T
  91    -88.5717090  0.595157E-02  0.223E-01    0.05       1.0  T
  92    -88.4869809  0.847281E-01  0.735E-01    0.01       1.0  T
  93    -88.5626829 -0.757020E-01  0.358E-01    0.55       1.0  T
  94    -88.5689918 -0.630894E-02  0.257E-01    0.06       1.0  T
  95    -88.5766583 -0.766644E-02  0.139E-01    0.02       1.0  T
  96    -88.5644772  0.121811E-01  0.312E-01    0.20       1.0  T
  97    -88.5757307 -0.112535E-01  0.160E-01    0.04       1.0  T
  98    -88.5786471 -0.291646E-02  0.918E-02    0.03       1.0  T
  99    -88.5705536  0.809357E-02  0.238E-01    0.05       1.0  T
 100    -88.4341844  0.136369E+00  0.921E-01    0.01       1.0  T
 101    -88.5624421 -0.128258E+00  0.365E-01    0.57       1.0  T
 102    -88.5679577 -0.551557E-02  0.269E-01    0.07       1.0  T
 103    -88.5797328 -0.117751E-01  0.443E-02    0.03       1.0  T
 104    -88.5673287  0.124041E-01  0.276E-01    0.08       1.0  T
 105    -88.5717182 -0.438949E-02  0.219E-01    0.02       1.0  T
 106    -88.5643240  0.739423E-02  0.315E-01    0.22       1.0  T
 107    -88.5752894 -0.109654E-01  0.168E-01    0.04       1.0  T
 108    -88.5799214 -0.463195E-02  0.257E-02    0.02       1.0  T
 109    -88.5663020  0.136194E-01  0.288E-01    0.10       1.0  T
 110    -88.5623413  0.396072E-02  0.320E-01    0.02       1.0  T
 111    -88.5640907 -0.174940E-02  0.319E-01    0.26       1.0  T
 112    -88.5749552 -0.108646E-01  0.174E-01    0.04       1.0  T
 113    -88.5744535  0.501727E-03  0.180E-01    0.02       1.0  T
 114    -88.5647660  0.968751E-02  0.307E-01    0.17       1.0  T
 115    -88.5794661 -0.147001E-01  0.591E-02    0.03       1.0  T
 116    -88.5716653  0.780080E-02  0.223E-01    0.05       1.0  T
 117    -88.3097731  0.261892E+00  0.125E+00    0.01       1.0  T
 118    -88.5621161 -0.252343E+00  0.374E-01    0.59       1.0  T
 119    -88.5670031 -0.488692E-02  0.280E-01    0.09       1.0  T
 120    -88.5763319 -0.932881E-02  0.149E-01    0.04       1.0  T
 121    -88.5781210 -0.178918E-02  0.107E-01    0.03       1.0  T
 122    -88.5750724  0.304864E-02  0.172E-01    0.04       1.0  T
 123    -88.5702552  0.481717E-02  0.238E-01    0.02       1.0  T
 124    -88.5646227  0.563251E-02  0.309E-01    0.18       1.0  T
 125    -88.5767067 -0.120839E-01  0.141E-01    0.03       1.0  T
 126    -88.5798216 -0.311490E-02  0.352E-02    0.02       1.0  T
 127    -88.5674483  0.123733E-01  0.274E-01    0.08       1.0  T
 128    -88.5170265  0.504217E-01  0.605E-01    0.01       1.0  T
 129    -88.5636416 -0.466151E-01  0.330E-01    0.36       1.0  T
 130    -88.5707537 -0.711211E-02  0.235E-01    0.05       1.0  T
 131    -88.5650067  0.574702E-02  0.295E-01    0.02       1.0  T
 132    -88.5644851  0.521658E-03  0.311E-01    0.20       1.0  T
 133    -88.5756331 -0.111480E-01  0.162E-01    0.04       1.0  T
 134    -88.5675407  0.809232E-02  0.269E-01    0.02       1.0  T
 135    -88.5646997  0.284109E-02  0.308E-01    0.17       1.0  T
 136    -88.5781996 -0.134999E-01  0.105E-01    0.03       1.0  T
 137    -88.5799634 -0.176382E-02  0.223E-02    0.03       1.0  T
 138    -88.5725152  0.744821E-02  0.211E-01    0.05       1.0  T
 139    -88.2818089  0.290706E+00  0.132E+00    0.01       1.0  T
 140    -88.5624444 -0.280636E+00  0.365E-01    0.56       1.0  T
 141    -88.5666303 -0.418585E-02  0.284E-01    0.09       1.0  T
 142    -88.5735067 -0.687646E-02  0.197E-01    0.04       1.0  T
 143    -88.5779732 -0.446650E-02  0.109E-01    0.02       1.0  T
 144    -88.5661010  0.118722E-01  0.290E-01    0.10       1.0  T
 145    -88.5794346 -0.133336E-01  0.588E-02    0.02       1.0  T
 146    -88.5676640  0.117706E-01  0.272E-01    0.08       1.0  T
 147    -88.5229791  0.446850E-01  0.576E-01    0.01       1.0  T
 148    -88.5638748 -0.408958E-01  0.324E-01    0.30       1.0  T
 149    -88.5713046 -0.742982E-02  0.228E-01    0.05       1.0  T
 150    -88.5603788  0.109258E-01  0.338E-01    0.02       1.0  T
 151    -88.5645408 -0.416201E-02  0.310E-01    0.19       1.0  T
 152    -88.5752547 -0.107139E-01  0.168E-01    0.04       1.0  T
 153    -88.5556969  0.195577E-01  0.376E-01    0.02       1.0  T
 154    -88.5644631 -0.876619E-02  0.312E-01    0.20       1.0  T
 155    -88.5752112 -0.107480E-01  0.169E-01    0.04       1.0  T
 156    -88.5517166  0.234945E-01  0.406E-01    0.01       1.0  T
 157    -88.5643974 -0.126807E-01  0.313E-01    0.21       1.0  T
 158    -88.5746444 -0.102470E-01  0.179E-01    0.04       1.0  T
 159    -88.5437608  0.308836E-01  0.459E-01    0.01       1.0  T
 160    -88.5642614 -0.205006E-01  0.315E-01    0.23       1.0  T
 161    -88.5735471 -0.928571E-02  0.196E-01    0.04       1.0  T
 162    -88.5398498  0.336973E-01  0.483E-01    0.01       1.0  T
 163    -88.5642142 -0.243644E-01  0.316E-01    0.24       1.0  T
 164    -88.5730641 -0.884995E-02  0.203E-01    0.04       1.0  T
 165    -88.5439480  0.291161E-01  0.458E-01    0.01       1.0  T
 166    -88.5643037 -0.203557E-01  0.315E-01    0.22       1.0  T
 167    -88.5736132 -0.930949E-02  0.195E-01    0.04       1.0  T
 168    -88.5443850  0.292282E-01  0.455E-01    0.01       1.0  T
 169    -88.5643384 -0.199534E-01  0.314E-01    0.22       1.0  T
 170    -88.5738192 -0.948078E-02  0.192E-01    0.04       1.0  T
 171    -88.5462288  0.275904E-01  0.443E-01    0.01       1.0  T
 172    -88.5644001 -0.181714E-01  0.313E-01    0.21       1.0  T
 173    -88.5741868 -0.978668E-02  0.186E-01    0.04       1.0  T
 174    -88.5479432  0.262436E-01  0.432E-01    0.01       1.0  T
 175    -88.5644648 -0.165216E-01  0.312E-01    0.20       1.0  T
 176    -88.5746036 -0.101388E-01  0.179E-01    0.04       1.0  T
 177    -88.5498835  0.247201E-01  0.419E-01    0.01       1.0  T
 178    -88.5645405 -0.146570E-01  0.310E-01    0.19       1.0  T
 179    -88.5751174 -0.105769E-01  0.170E-01    0.04       1.0  T
 180    -88.5526361  0.224812E-01  0.399E-01    0.02       1.0  T
 181    -88.5646473 -0.120112E-01  0.308E-01    0.18       1.0  T
 182    -88.5758779 -0.112306E-01  0.157E-01    0.04       1.0  T
 183    -88.5580828  0.177951E-01  0.357E-01    0.02       1.0  T
 184    -88.5648733 -0.679052E-02  0.305E-01    0.16       1.0  T
 185    -88.5774676 -0.125943E-01  0.123E-01    0.03       1.0  T
 186    -88.5725817  0.488593E-02  0.208E-01    0.02       1.0  T
 187    -88.5661804  0.640124E-02  0.288E-01    0.10       1.0  T
 188    -88.5761407 -0.996029E-02  0.150E-01    0.02       1.0  T
 189    -88.5673106  0.883010E-02  0.275E-01    0.08       1.0  T
 190    -88.5405719  0.267388E-01  0.479E-01    0.01       1.0  T
 191    -88.5645123 -0.239405E-01  0.311E-01    0.19       1.0  T
 192    -88.5752365 -0.107242E-01  0.168E-01    0.04       1.0  T
 193    -88.5355787  0.396578E-01  0.509E-01    0.01       1.0  T
 194    -88.5644186 -0.288399E-01  0.312E-01    0.20       1.0  T
 195    -88.5739881 -0.956944E-02  0.189E-01    0.04       1.0  T
 196    -88.5393386  0.346494E-01  0.487E-01    0.01       1.0  T
 197    -88.5644914 -0.251528E-01  0.311E-01    0.20       1.0  T
 198    -88.5743363 -0.984485E-02  0.183E-01    0.04       1.0  T
 199    -88.5432123  0.311239E-01  0.463E-01    0.01       1.0  T
 200    -88.5645878 -0.213755E-01  0.309E-01    0.18       1.0  T
 201    -88.5749204 -0.103326E-01  0.174E-01    0.04       1.0  T
 202    -88.5474153  0.275052E-01  0.436E-01    0.01       1.0  T
 203    -88.5647120 -0.172968E-01  0.307E-01    0.17       1.0  T
 204    -88.5757006 -0.109886E-01  0.160E-01    0.04       1.0  T
 205    -88.5532467  0.224540E-01  0.395E-01    0.02       1.0  T
 206    -88.5649209 -0.116743E-01  0.304E-01    0.16       1.0  T
 207    -88.5770494 -0.121284E-01  0.133E-01    0.03       1.0  T
 208    -88.5654928  0.115566E-01  0.291E-01    0.02       1.0  T
 209    -88.5656552 -0.162483E-03  0.295E-01    0.12       1.0  T
 210    -88.5800263 -0.143710E-01  0.103E-02    0.03       1.3  T
 211    -88.5768859  0.314038E-02  0.136E-01    0.03       1.0  T
 212    -88.5116243  0.652615E-01  0.631E-01    0.01       1.0  T
 213    -88.5642646 -0.526402E-01  0.315E-01    0.23       1.0  T
 214    -88.5720567 -0.779208E-02  0.217E-01    0.05       1.0  T
 215    -88.5643462  0.771047E-02  0.302E-01    0.02       1.0  T
 216    -88.5655706 -0.122439E-02  0.296E-01    0.12       1.0  T
 217    -88.5795286 -0.139580E-01  0.552E-02    0.03       1.0  T
 218    -88.5799666 -0.438003E-03  0.215E-02    0.03       1.0  T
 219    -88.5789434  0.102313E-02  0.805E-02    0.03       1.0  T
 220    -88.5715558  0.738766E-02  0.222E-01    0.02       1.0  T
 221    -88.5669626  0.459323E-02  0.279E-01    0.09       1.0  T
 222    -88.5707014 -0.373885E-02  0.233E-01    0.02       1.0  T
 223    -88.5667723  0.392910E-02  0.281E-01    0.09       1.0  T
 224    -88.5726345 -0.586214E-02  0.208E-01    0.02       1.0  T
 225    -88.5673072  0.532725E-02  0.275E-01    0.08       1.0  T
 226    -88.5587458  0.856141E-02  0.352E-01    0.02       1.0  T
 227    -88.5655519 -0.680612E-02  0.296E-01    0.12       1.0  T
 228    -88.5798869 -0.143350E-01  0.305E-02    0.03       1.0  T
 229    -88.5799021 -0.152741E-04  0.289E-02    0.03       1.0  T
 230    -88.5795514  0.350750E-03  0.534E-02    0.02       1.0  T
 231    -88.5754389  0.411250E-02  0.164E-01    0.04       1.0  T
 232    -88.3778371  0.197602E+00  0.109E+00    0.01       1.0  T
 233    -88.5635753 -0.185738E+00  0.332E-01    0.38       1.0  T
 234    -88.5675193 -0.394398E-02  0.273E-01    0.08       1.0  T
 235    -88.5773265 -0.980719E-02  0.127E-01    0.03       1.0  T
 236    -88.5752890  0.203749E-02  0.166E-01    0.02       1.0  T
 237    -88.5678182  0.747076E-02  0.269E-01    0.07       1.0  T
 238    -88.5747691 -0.695086E-02  0.175E-01    0.02       1.0  T
 239    -88.5680891  0.667994E-02  0.266E-01    0.07       1.0  T
 240    -88.5569735  0.111156E-01  0.366E-01    0.02       1.0  T
 241    -88.5654711 -0.849762E-02  0.297E-01    0.12       1.0  T
 242    -88.5784245 -0.129534E-01  0.976E-02    0.03       1.0  T
 243    -88.5497826  0.286419E-01  0.420E-01    0.01       1.0  T
 244    -88.5651734 -0.153909E-01  0.301E-01    0.14       1.0  T
 245    -88.5760668 -0.108934E-01  0.153E-01    0.04       1.0  T
 246    -88.4921460  0.839209E-01  0.715E-01    0.01       1.0  T
 247    -88.5641869 -0.720410E-01  0.317E-01    0.24       1.0  T
 248    -88.5701364 -0.594946E-02  0.242E-01    0.06       1.0  T
 249    -88.5735763 -0.343987E-02  0.194E-01    0.02       1.0  T
 250    -88.5674453  0.613097E-02  0.274E-01    0.08       1.0  T

   *** convergence criteria cannot be satisfied within 250 iterations ***

         #    Occupation            Energy/Eh            Energy/eV
      -------------------------------------------------------------
         1        2.0000           -0.9306184             -25.3234
       ...           ...                  ...                  ...
        68        2.0000           -0.4200218             -11.4294
        69        2.0000           -0.4139929             -11.2653
        70        2.0000           -0.4117399             -11.2040
        71        2.0000           -0.3987456             -10.8504
        72        2.0000           -0.3665658              -9.9748
        73        2.0000           -0.2770902              -7.5400
        74        2.0000           -0.2770643              -7.5393 (HOMO)
        75                         -0.2741461              -7.4599 (LUMO)
        76                         -0.2639634              -7.1828
        77                         -0.2595216              -7.0619
        78                         -0.2537071              -6.9037
        79                         -0.2492357              -6.7820
       ...                                ...                  ...
       166                          0.7052991              19.1922
      -------------------------------------------------------------
                  HL-Gap            0.0029182 Eh            0.0794 eV
             Fermi-level            0.0000000 Eh            0.0000 eV

 SCC (total)                   0 d,  0 h,  0 min,  2.417 sec
 SCC setup                      ...        0 min,  0.002 sec (  0.083%)
 Dispersion                     ...        0 min,  0.001 sec (  0.041%)
 classical contributions        ...        0 min,  0.000 sec (  0.000%)
 integral evaluation            ...        0 min,  0.046 sec (  1.903%)
 iterations                     ...        0 min,  2.257 sec ( 93.380%)
 molecular gradient             ...        0 min,  0.110 sec (  4.551%)
 printout                       ...        0 min,  0.001 sec (  0.041%)

########################################################################
[ERROR] Program stopped due to fatal error
-3- Single point calculation terminated
-2- xtb_calculator_singlepoint: Electronic structure method terminated
-1- scf: Self consistent charge iterator did not converge
########################################################################


===== STDERR =====

abnormal termination of xtb
