57
 energy: -87.899016043733 gnorm: 0.000197862172 xtb: 6.7.1pre (5071a88)
N           -0.20858818057245       -0.97977692814682       -0.21587872790364
C            1.15953602540830       -0.81990967610000       -0.11065618456095
C            1.69221999247898       -0.05015421809858        0.92855849622891
C            3.04468668812791        0.23792812819371        0.95274180568087
C            3.89536227578709       -0.23862441050506       -0.04495176961857
C            3.36543159405808       -1.03869237567082       -1.05438661938693
C            2.01109702050427       -1.33025987803649       -1.09349092842714
C            5.33150149902674        0.21521684350924       -0.09867846775074
C            5.39505944174137        1.58058332059798       -0.79411128713469
C           -1.01058025951706        1.24443963621755       -1.33296455881921
C            0.26581154801092        1.91348811775094       -1.11975423390448
C            0.43131097265846        2.80202988257465       -0.12782256503680
C            1.70911400686198        3.49903082105281        0.18119896005218
C            1.72488180614134        4.90735031625328       -0.44319865359952
C            2.95747784384654        5.68684796064667        0.00492027340813
O           -2.00507492607263        1.42683519350013       -0.64617645910374
O           -3.11540248980566       -0.84896857908389        0.52324193185510
H           -0.72456652424343       -0.80417448991919        0.63446444053401
H           -0.52701818962592       -1.79347740053167       -0.71729474547949
H            1.03120030107500        0.33443726875125        1.69658356970017
H            3.44666935679902        0.85093329291772        1.75287145511980
H            4.01705151058673       -1.43230279654546       -1.82882047538762
H            1.60586490913668       -1.93717644755266       -1.89597139014011
H            5.95490552140841       -0.49614443372210       -0.64747932395017
H            5.74937918645403        0.32626924556345        0.90502664657049
H            4.78203890355186        2.31392847095869       -0.25416702087937
H            4.98576686434047        0.59516352027695       -2.62673325181827
H            6.04744396161728        3.88610834342595       -1.50360580598681
H           -1.03886592901839        0.56232696317203       -2.20339890166051
H            1.08715398333132        1.63618000255674       -1.77194611454587
H           -0.42310762963882        3.06012446749822        0.49355767485955
H            1.81535139244924        3.58813044451319        1.26669363297958
H            2.55980472703394        2.93197694771597       -0.20652329208938
H            1.72912358132717        4.80743204375738       -1.53237585140651
H            0.81734434167812        5.44599796898412       -0.15251552715833
H            2.95957866162528        6.67439992968895       -0.45741445645556
H            2.96399927350016        5.80886740530352        1.08908970405836
H            3.86512676228920        5.16179632153869       -0.29283877355941
H           -2.87102629942090       -0.08476187078424       -0.02378543401219
H           -4.05984901868721       -0.77764023282696        0.66908340202733
O           -1.39232554768997        0.74753223959297        2.11268630298535
H           -1.63383704347057        1.28201619788449        1.34564752668161
H           -2.05277222117452        0.04462132552715        2.12616140214232
N            4.85090547399388        1.46866704189626       -2.14320847049689
C            6.83999804370790        2.10629689205265       -0.88454662314180
O            7.80259945606560        1.41144710026753       -0.62906981009172
C            3.61123878545001        2.15443384668298       -4.08180495144927
C            4.18625873536889        2.48411612569102       -2.72181453877493
O            4.05477267225679        3.57779054356538       -2.19350068565450
H            2.87044341489204        1.36154467700768       -3.98252828331160
H            4.39836661650969        1.81335863179302       -4.75275835420241
H            3.13794165927431        3.04227657550940       -4.49444610392652
N            6.89758077954563        3.39286909121587       -1.26613801335324
C            8.16737313251383        4.06559160146706       -1.47441223770749
H            8.21409540310224        4.96908183869977       -0.86242980449650
H            8.28050223308914        4.33701161498381       -2.52705906195317
H            8.96664390038088        3.38358553663063       -1.18386946658254
