57
 xtb: 6.7.1pre (5071a88)
N           -0.15246578696435       -0.95702921308193       -0.12983403988883
C            1.19871698224496       -0.72947525021404        0.05957921766265
C            1.61961509963654        0.17505948279712        1.03943519962630
C            2.95676760146105        0.51523655222597        1.13798471959425
C            3.90144155090063       -0.04169203565615        0.27626452034848
C            3.48066665626273       -0.97161268964129       -0.67183770417105
C            2.14304180309825       -1.31487993205644       -0.78670946587121
C            5.32843771010100        0.44248498127938        0.29527257715694
C            5.44730100720742        1.70182344753407       -0.57194981805979
C           -1.05363984203608        0.99559142069943       -1.49689053087978
C            0.18800118683443        1.75053423231782       -1.37659386848398
C            0.33912766514436        2.71432896814175       -0.45551437821325
C            1.58818509473135        3.49937738450794       -0.25582638149906
C            1.36485758296879        4.98576662053668       -0.61062354469391
C            2.66021670490255        5.77583682984843       -0.42715115393399
O           -2.06448188375165        1.21174629781231       -0.82879334781583
O           -3.09787710972954       -1.03939719221798        0.43490116176208
H           -0.72940013650175       -0.72479775407388        0.66226620159442
H           -0.39270381923324       -1.84836454825212       -0.54785234299893
H            0.89005194780150        0.61001467211430        1.70736388568385
H            3.27556876571353        1.22836182501640        1.89259298764400
H            4.21521436849857       -1.44324540215308       -1.32402398250558
H            1.83348373628012       -2.04185687292917       -1.52861831205347
H            6.01815340259933       -0.31855156268162       -0.08796509252751
H            5.65077220708752        0.69853409816030        1.31145910798050
H            4.77474163354455        2.48731071727138       -0.19091519785517
H            5.20051121077479        0.46354829701575       -2.27489372096027
H            6.14000184117238        3.90353089048221       -1.52449406893559
H           -0.99971496506912        0.23303828396256       -2.29954648661252
H            1.05022796106232        1.47604256633070       -1.99700890086292
H           -0.50741738076654        2.98123846634941        0.18347302502902
H            1.82907127670167        3.48936601331757        0.86092654390183
H            2.42968539584518        3.07252561502587       -0.75633829333239
H            1.14974477955499        4.99880730995177       -1.71000293817376
H            0.57633207905836        5.42106072898278       -0.08781963246633
H            2.54282603089796        6.80699888360102       -0.72985599733661
H            2.94862719297665        5.77180276217738        0.65125448701594
H            3.51117296011203        5.34256763959989       -0.97390306401408
H           -2.86995684573569       -0.27661721237228       -0.18366137069471
H           -4.05064914668585       -1.04925835134893        0.43811283737525
O           -1.59305511977083        0.80685519073362        1.98938410990222
H           -1.81318504803293        1.28911348244486        1.14743531083189
H           -2.22601894101016        0.08134753361534        1.97735879135084
N            5.04218352469811        1.39533123289640       -1.94023489735075
C            6.89411782412739        2.23208585064780       -0.59741900219370
O            7.83070672373935        1.58277473571868       -0.16955824010998
C            4.02812452292286        1.80159714628600       -4.07919586381550
C            4.46210030412177        2.32050887452154       -2.72588045357939
O            4.30331341678284        3.47993783760097       -2.37768099557590
H            3.22642385860522        1.01888179308901       -3.91796551819514
H            4.82340069300606        1.36579130911866       -4.59721542970228
H            3.55380426209160        2.61187776350767       -4.63480432756021
N            6.98812484762537        3.46213392306875       -1.12661738580885
C            8.27268261922005        4.10552395629019       -1.32857034803182
H            8.24447822872124        5.10370190551618       -0.88985981966036
H            8.44780186836813        4.21813252617376       -2.42260700652733
H            9.02366858986063        3.49849402952919       -0.89478106081265
