      -----------------------------------------------------------      
     |                   =====================                   |     
     |                           x T B                           |     
     |                   =====================                   |     
     |                         S. Grimme                         |     
     |          Mulliken Center for Theoretical Chemistry        |     
     |                    University of Bonn                     |     
      -----------------------------------------------------------      

   * xtb version 6.7.1pre (5071a88) compiled by 'Marcel@Raven' on 2024-07-23

   xtb is free software: you can redistribute it and/or modify it under
   the terms of the GNU Lesser General Public License as published by
   the Free Software Foundation, either version 3 of the License, or
   (at your option) any later version.
   
   xtb is distributed in the hope that it will be useful,
   but WITHOUT ANY WARRANTY; without even the implied warranty of
   MERCHANTABILITY or FITNESS FOR A PARTICULAR PURPOSE.  See the
   GNU Lesser General Public License for more details.
   
   Cite this work as:
   * C. Bannwarth, E. Caldeweyher, S. Ehlert, A. Hansen, P. Pracht,
     J. Seibert, S. Spicher, S. Grimme, WIREs Comput. Mol. Sci., 2020, 11,
     e01493. DOI: 10.1002/wcms.1493
   
   for GFN2-xTB:
   * C. Bannwarth, S. Ehlert and S. Grimme., J. Chem. Theory Comput., 2019,
     15, 1652-1671. DOI: 10.1021/acs.jctc.8b01176
   for GFN1-xTB:
   * S. Grimme, C. Bannwarth, P. Shushkov, J. Chem. Theory Comput., 2017,
     13, 1989-2009. DOI: 10.1021/acs.jctc.7b00118
   for GFN0-xTB:
   * P. Pracht, E. Caldeweyher, S. Ehlert, S. Grimme, ChemRxiv, 2019, preprint.
     DOI: 10.26434/chemrxiv.8326202.v1
   for GFN-FF:
   * S. Spicher and S. Grimme, Angew. Chem. Int. Ed., 2020, 59, 15665-15673.
     DOI: 10.1002/anie.202004239
   
   for ALPB and GBSA implicit solvation:
   * S. Ehlert, M. Stahn, S. Spicher, S. Grimme, J. Chem. Theory Comput.,
     2021, 17, 4250-4261. DOI: 10.1021/acs.jctc.1c00471
   
   for ddCOSMO and CPCM-X implicit solvation:
   * M. Stahn, S. Ehlert, S. Grimme, J. Phys. Chem. A,
     2023, XX, XXXX-XXXX. DOI: 10.1021/acs.jpca.3c04382
   
   for DFT-D4:
   * E. Caldeweyher, C. Bannwarth and S. Grimme, J. Chem. Phys., 2017,
     147, 034112. DOI: 10.1063/1.4993215
   * E. Caldeweyher, S. Ehlert, A. Hansen, H. Neugebauer, S. Spicher,
     C. Bannwarth and S. Grimme, J. Chem. Phys., 2019, 150, 154122.
     DOI: 10.1063/1.5090222
   * E. Caldeweyher, J.-M. Mewes, S. Ehlert and S. Grimme, Phys. Chem. Chem. Phys.
     2020, 22, 8499-8512. DOI: 10.1039/D0CP00502A
   
   for sTDA-xTB:
   * S. Grimme and C. Bannwarth, J. Chem. Phys., 2016, 145, 054103.
     DOI: 10.1063/1.4959605
   
   in the mass-spec context:
   * V. Asgeirsson, C. Bauer and S. Grimme, Chem. Sci., 2017, 8, 4879.
     DOI: 10.1039/c7sc00601b
   * J. Koopman and S. Grimme, ACS Omega 2019, 4, 12, 15120-15133.
     DOI: 10.1021/acsomega.9b02011
   
   for metadynamics refer to:
   * S. Grimme, J. Chem. Theory Comput., 2019, 155, 2847-2862
     DOI: 10.1021/acs.jctc.9b00143
   
   for SPH calculations refer to:
   * S. Spicher and S. Grimme, J. Chem. Theory Comput., 2021, 17, 1701-1714
     DOI: 10.1021/acs.jctc.0c01306
   
   for ONIOM refer to:
   * C. Plett, A. Katbashev, S. Ehlert, S. Grimme, M. Bursch,
     Phys. Chem. Chem. Phys., 2023, 25, 17860-17868. DOI: 10.1039/D3CP02178E
   
   for DIPRO refer to:
   * J. Kohn, N. Gildemeister, S. Grimme, D. Fazzi, A. Hansen,
     J. Chem. Phys., 2023, just accepted.
   
   for PTB refer to:
   * S. Grimme, M. Mueller, A. Hansen, J. Chem. Phys., 2023, 158, 124111.
     DOI: 10.1063/5.0137838
   
   with help from (in alphabetical order)
   P. Atkinson, C. Bannwarth, F. Bohle, G. Brandenburg, E. Caldeweyher
   M. Checinski, S. Dohm, S. Ehlert, S. Ehrlich, I. Gerasimov, C. Hölzer
   A. Katbashev, J. Kohn, J. Koopman, C. Lavigne, S. Lehtola, F. März, M. Müller,
   F. Musil, H. Neugebauer, J. Pisarek, C. Plett, P. Pracht, F. Pultar,
   J. Seibert, P. Shushkov, S. Spicher, M. Stahn, M. Steiner, T. Strunk,
   J. Stückrath, T. Rose, and J. Unsleber
   
 * started run on 2026/08/31 at 13:17:05.094     
   ID    Z sym.   atoms
    1    7 N      1, 17, 63, 72
    2    6 C      2-15, 18-26, 64, 66, 67, 73
    3    8 O      16, 27, 60, 65, 68
    4    1 H      28-59, 61, 62, 69-71, 74-76

           -------------------------------------------------
          |                Calculation Setup                |
           -------------------------------------------------

          program call               : C:\Users\Nayanika\Downloads\xtb-6.7.1pre-windows-x86_64\xtb-6.7.1\bin\xtb.exe D:\PhD_Thesis\LmrR_EVB\charges\fast_lmrr_5QM\xtb_preparation\stage2_five_xtb_protocols\GFN2_etemp500\RS2_1_to_TS2_1a\RS2_1_to_TS2_1a_RS_xtbopt.xyz --gfn 2 --chrg 0 --uhf 0 --etemp 500
          coordinate file            : D:\PhD_Thesis\LmrR_EVB\charges\fast_lmrr_5QM\xtb_preparation\stage2_five_xtb_protocols\GFN2_etemp500\RS2_1_to_TS2_1a\RS2_1_to_TS2_1a_RS_xtbopt.xyz
          omp threads                :                     1


molecular fragmentation (1/2 indicates fragments):
111111111111111122222222222121111111111111111111222222222222121111111111
1111
# atoms in fragment 1/2:    51    25
 fragment masses (1/2) :      333.43      167.21
CMA distance (Bohr)    :  10.964
constraining FC (au)   :  0.0500

           -------------------------------------------------
          |                 G F N 2 - x T B                 |
           -------------------------------------------------

        Reference                      10.1021/acs.jctc.8b01176
      * Hamiltonian:
        H0-scaling (s, p, d)           1.850000    2.230000    2.230000
        zeta-weighting                 0.500000
      * Dispersion:
        s8                             2.700000
        a1                             0.520000
        a2                             5.000000
        s9                             5.000000
      * Repulsion:
        kExp                           1.500000    1.000000
        rExp                           1.000000
      * Coulomb:
        alpha                          2.000000
        third order                    shell-resolved
        anisotropic                    true
        a3                             3.000000
        a5                             4.000000
        cn-shift                       1.200000
        cn-exp                         4.000000
        max-rad                        5.000000

q/qsh data taken from xtbrestart
CAMM data taken from xtbrestart

          ...................................................
          :                      SETUP                      :
          :.................................................:
          :  # basis functions                 184          :
          :  # atomic orbitals                 184          :
          :  # shells                          112          :
          :  # electrons                       198          :
          :  max. iterations                   250          :
          :  Hamiltonian                  GFN2-xTB          :
          :  restarted?                       true          :
          :  GBSA solvation                  false          :
          :  PC potential                    false          :
          :  electronic temp.          500.0000000     K    :
          :  accuracy                    1.0000000          :
          :  -> integral cutoff          0.2500000E+02      :
          :  -> integral neglect         0.1000000E-07      :
          :  -> SCF convergence          0.1000000E-05 Eh   :
          :  -> wf. convergence          0.1000000E-03 e    :
          :  Broyden damping             0.4000000          :
          :  net charge                          0          :
          :  unpaired electrons                  0          :
          ...................................................

 iter      E             dE          RMSdq      gap      omega  full diag
   1   -111.7915889 -0.111792E+03  0.391E+00    3.68       0.0  T
   2   -111.8252803 -0.336914E-01  0.233E+00    3.10       1.0  T
   3   -111.7950074  0.302729E-01  0.814E-01    3.23       1.0  T
   4   -111.8311461 -0.361387E-01  0.237E-01    2.96       1.0  T
   5   -111.8341398 -0.299369E-02  0.719E-02    2.96       1.0  T
   6   -111.8342139 -0.740899E-04  0.363E-02    2.98       1.0  T
   7   -111.8342449 -0.309819E-04  0.167E-02    2.98       1.0  T
   8   -111.8342535 -0.861287E-05  0.600E-03    2.98       1.9  T
   9   -111.8342546 -0.112576E-05  0.252E-03    2.99       4.5  T
  10   -111.8342547 -0.117632E-06  0.124E-03    2.98       9.2  T
  11   -111.8342548 -0.274709E-07  0.445E-04    2.98      25.8  T
  12   -111.8342548 -0.447164E-08  0.167E-04    2.98      68.5  T

   *** convergence criteria satisfied after 12 iterations ***

         #    Occupation            Energy/Eh            Energy/eV
      -------------------------------------------------------------
         1        2.0000           -0.7188610             -19.5612
       ...           ...                  ...                  ...
        93        2.0000           -0.3997586             -10.8780
        94        2.0000           -0.3961749             -10.7805
        95        2.0000           -0.3958177             -10.7707
        96        2.0000           -0.3889775             -10.5846
        97        2.0000           -0.3702185             -10.0742
        98        2.0000           -0.3569741              -9.7138
        99        2.0000           -0.3416422              -9.2966 (HOMO)
       100                         -0.2319607              -6.3120 (LUMO)
       101                         -0.2220603              -6.0426
       102                         -0.2153196              -5.8591
       103                         -0.2130084              -5.7963
       104                         -0.2088788              -5.6839
       ...                                ...                  ...
       184                          0.7487135              20.3735
      -------------------------------------------------------------
                  HL-Gap            0.1096814 Eh            2.9846 eV
             Fermi-level           -0.2868014 Eh           -7.8043 eV

 SCC (total)                   0 d,  0 h,  0 min,  0.312 sec
 SCC setup                      ...        0 min,  0.001 sec (  0.320%)
 Dispersion                     ...        0 min,  0.002 sec (  0.641%)
 classical contributions        ...        0 min,  0.001 sec (  0.320%)
 integral evaluation            ...        0 min,  0.032 sec ( 10.256%)
 iterations                     ...        0 min,  0.168 sec ( 53.846%)
 molecular gradient             ...        0 min,  0.105 sec ( 33.654%)
 printout                       ...        0 min,  0.003 sec (  0.962%)

         :::::::::::::::::::::::::::::::::::::::::::::::::::::
         ::                     SUMMARY                     ::
         :::::::::::::::::::::::::::::::::::::::::::::::::::::
         :: total energy            -110.271370079730 Eh    ::
         :: gradient norm              0.000204317299 Eh/a0 ::
         :: HOMO-LUMO gap              2.984583768618 eV    ::
         ::.................................................::
         :: SCC energy              -111.831577897791 Eh    ::
         :: -> isotropic ES            0.186466304139 Eh    ::
         :: -> anisotropic ES         -0.003501116108 Eh    ::
         :: -> anisotropic XC          0.043686449981 Eh    ::
         :: -> dispersion             -0.087702628099 Eh    ::
         :: repulsion energy           1.560207818061 Eh    ::
         :: add. restraining           0.000000000000 Eh    ::
         :: total charge              -0.000000000000 e     ::
         :::::::::::::::::::::::::::::::::::::::::::::::::::::

           -------------------------------------------------
          |                Property Printout                |
           -------------------------------------------------

    * Orbital Energies and Occupations

         #    Occupation            Energy/Eh            Energy/eV
      -------------------------------------------------------------
         1        2.0000           -0.7188610             -19.5612
       ...           ...                  ...                  ...
        87        2.0000           -0.4204963             -11.4423
        88        2.0000           -0.4160754             -11.3220
        89        2.0000           -0.4116206             -11.2008
        90        2.0000           -0.4086071             -11.1188
        91        2.0000           -0.4066864             -11.0665
        92        2.0000           -0.4054994             -11.0342
        93        2.0000           -0.3997586             -10.8780
        94        2.0000           -0.3961749             -10.7805
        95        2.0000           -0.3958177             -10.7707
        96        2.0000           -0.3889775             -10.5846
        97        2.0000           -0.3702185             -10.0742
        98        2.0000           -0.3569741              -9.7138
        99        2.0000           -0.3416422              -9.2966 (HOMO)
       100                         -0.2319607              -6.3120 (LUMO)
       101                         -0.2220603              -6.0426
       102                         -0.2153196              -5.8591
       103                         -0.2130084              -5.7963
       104                         -0.2088788              -5.6839
       105                         -0.2013786              -5.4798
       106                         -0.1761988              -4.7946
       107                         -0.1330124              -3.6195
       108                         -0.0981911              -2.6719
       109                         -0.0493404              -1.3426
       110                         -0.0258842              -0.7043
       ...                                ...                  ...
       184                          0.7487135              20.3735
      -------------------------------------------------------------
                  HL-Gap            0.1096814 Eh            2.9846 eV
             Fermi-level           -0.2868014 Eh           -7.8043 eV

     #   Z          covCN         q      C6AA      α(0)
     1   7 N        2.684    -0.280    27.221     7.749
     2   6 C        2.916     0.076    26.313     8.412
     3   6 C        2.922    -0.047    29.171     8.857
     4   6 C        2.926    -0.034    28.836     8.806
     5   6 C        2.978     0.005    27.915     8.667
     6   6 C        2.926    -0.039    28.966     8.826
     7   6 C        2.922    -0.055    29.362     8.886
     8   6 C        3.810    -0.065    21.731     6.635
     9   6 C        3.798     0.021    20.226     6.404
    10   6 C        3.672     0.184    17.879     6.061
    11   6 C        2.890    -0.071    29.780     8.947
    12   6 C        2.891    -0.033    28.824     8.802
    13   6 C        3.808    -0.063    21.695     6.630
    14   6 C        3.802    -0.051    21.492     6.600
    15   6 C        3.752    -0.104    22.551     6.772
    16   8 O        1.653    -0.485    22.566     6.413
    17   7 N        2.783    -0.128    23.783     7.243
    18   6 C        3.092     0.044    26.915     8.503
    19   6 C        3.108    -0.017    28.285     8.714
    20   6 C        3.015    -0.094    30.334     9.034
    21   6 C        2.908    -0.054    29.336     8.881
    22   6 C        2.911    -0.042    29.044     8.837
    23   6 C        3.074     0.049    26.821     8.491
    24   6 C        2.924    -0.041    29.013     8.833
    25   6 C        2.919    -0.044    29.098     8.846
    26   6 C        3.754    -0.115    22.762     6.803
    27   8 O        1.609    -0.595    25.063     6.757
    28   1 H        0.860     0.173     1.255     1.755
    29   1 H        0.803     0.312     0.687     1.302
    30   1 H        0.926     0.051     2.310     2.377
    31   1 H        0.926     0.028     2.609     2.526
    32   1 H        0.926     0.029     2.599     2.521
    33   1 H        0.926     0.052     2.300     2.372
    34   1 H        0.924     0.049     2.335     2.389
    35   1 H        0.924     0.039     2.456     2.451
    36   1 H        0.924     0.064     2.154     2.295
    37   1 H        0.860     0.198     1.114     1.654
    38   1 H        0.860     0.171     1.265     1.762
    39   1 H        0.923     0.035     2.513     2.479
    40   1 H        0.925     0.057     2.233     2.337
    41   1 H        0.925     0.039     2.468     2.457
    42   1 H        0.924     0.056     2.252     2.347
    43   1 H        0.924     0.037     2.484     2.465
    44   1 H        0.924     0.029     2.607     2.525
    45   1 H        0.924     0.036     2.503     2.474
    46   1 H        0.925     0.033     2.543     2.494
    47   1 H        0.925     0.041     2.433     2.439
    48   1 H        0.925     0.032     2.559     2.501
    49   1 H        0.860     0.201     1.103     1.645
    50   1 H        0.926     0.016     2.800     2.617
    51   1 H        0.926     0.016     2.791     2.613
    52   1 H        0.926     0.017     2.780     2.608
    53   1 H        0.926     0.016     2.792     2.613
    54   1 H        0.926     0.016     2.796     2.615
    55   1 H        0.925     0.044     2.399     2.422
    56   1 H        0.924     0.048     2.347     2.396
    57   1 H        0.925     0.052     2.297     2.370
    58   1 H        0.806     0.274     0.805     1.409
    59   1 H        0.803     0.302     0.717     1.330
    60   8 O        1.609    -0.612    25.475     6.812
    61   1 H        0.802     0.335     0.624     1.241
    62   1 H        0.806     0.268     0.825     1.427
    63   7 N        2.695    -0.168    24.631     7.371
    64   6 C        2.759     0.265    22.536     7.774
    65   8 O        0.858    -0.434    22.369     6.341
    66   6 C        3.757    -0.154    23.533     6.916
    67   6 C        2.748     0.282    22.226     7.720
    68   8 O        0.858    -0.474    23.225     6.461
    69   1 H        0.925     0.049     2.327     2.386
    70   1 H        0.925     0.073     2.051     2.239
    71   1 H        0.925     0.096     1.819     2.109
    72   7 N        2.685    -0.166    24.583     7.364
    73   6 C        3.690    -0.047    21.609     6.653
    74   1 H        0.924     0.055     2.254     2.348
    75   1 H        0.924     0.056     2.249     2.345
    76   1 H        0.925     0.091     1.870     2.139

 Mol. C6AA /au·bohr⁶  :      56335.445707
 Mol. C8AA /au·bohr⁸  :    1285473.449683
 Mol. α(0) /au        :        366.612874


Wiberg/Mayer (AO) data.
largest (>0.10) Wiberg bond orders for each atom

 ---------------------------------------------------------------------------
     #   Z sym  total        # sym  WBO       # sym  WBO       # sym  WBO
 ---------------------------------------------------------------------------
     1   7 N    3.204 --     2 C    1.051    10 C    0.949    28 H    0.938
     2   6 C    3.972 --     7 C    1.387     3 C    1.375     1 N    1.051
     3   6 C    3.990 --     4 C    1.460     2 C    1.375    30 H    0.961
                             6 C    0.103
     4   6 C    3.991 --     3 C    1.460     5 C    1.401    31 H    0.969
                             7 C    0.104
     5   6 C    3.985 --     6 C    1.402     4 C    1.401     8 C    1.012
     6   6 C    3.990 --     7 C    1.452     5 C    1.402    32 H    0.969
                             3 C    0.103
     7   6 C    3.989 --     6 C    1.452     2 C    1.387    33 H    0.963
                             4 C    0.104
     8   6 C    3.992 --     5 C    1.012    34 H    0.974    35 H    0.972
                             9 C    0.937
     9   6 C    3.973 --    63 N    1.000    36 H    0.954    64 C    0.939
                             8 C    0.937
    10   6 C    3.947 --    11 C    0.997    16 O    0.989    39 H    0.955
                             1 N    0.949
    11   6 C    3.984 --    12 C    1.921    10 C    0.997    40 H    0.958
    12   6 C    3.989 --    11 C    1.921    13 C    1.031    41 H    0.963
    13   6 C    3.996 --    12 C    1.031    14 C    0.992    43 H    0.975
                            42 H    0.950
    14   6 C    3.996 --    15 C    1.019    13 C    0.992    44 H    0.980
                            45 H    0.977
    15   6 C    3.996 --    14 C    1.019    48 H    0.988    46 H    0.987
                            47 H    0.985
    16   8 O    1.997 --    10 C    0.989    61 H    0.821
    17   7 N    3.548 --    23 C    1.200    18 C    1.189    49 H    0.900
    18   6 C    3.962 --    21 C    1.340    19 C    1.233    17 N    1.189
    19   6 C    3.985 --    22 C    1.331    20 C    1.233    18 C    1.233
    20   6 C    3.969 --    23 C    1.564    19 C    1.233    50 H    0.974
    21   6 C    3.988 --    24 C    1.487    18 C    1.340    51 H    0.969
                            22 C    0.109
    22   6 C    3.989 --    25 C    1.499    19 C    1.331    52 H    0.970
                            21 C    0.109
    23   6 C    3.959 --    20 C    1.564    17 N    1.200    26 C    1.029
    24   6 C    3.989 --    21 C    1.487    25 C    1.372    53 H    0.973
    25   6 C    3.991 --    22 C    1.499    24 C    1.372    54 H    0.972
    26   6 C    3.995 --    23 C    1.029    55 H    0.983    57 H    0.974
                            56 H    0.967
    27   8 O    1.851 --    58 H    0.920    59 H    0.848
    28   1 H    0.969 --     1 N    0.938
    29   1 H    0.903 --    60 O    0.849
    30   1 H    0.997 --     3 C    0.961
    31   1 H    0.999 --     4 C    0.969
    32   1 H    0.999 --     6 C    0.969
    33   1 H    0.997 --     7 C    0.963
    34   1 H    0.997 --     8 C    0.974
    35   1 H    0.998 --     8 C    0.972
    36   1 H    0.996 --     9 C    0.954
    37   1 H    0.960 --    63 N    0.921
    38   1 H    0.971 --    72 N    0.943
    39   1 H    0.998 --    10 C    0.955
    40   1 H    0.997 --    11 C    0.958
    41   1 H    0.998 --    12 C    0.963
    42   1 H    0.997 --    13 C    0.950
    43   1 H    0.999 --    13 C    0.975
    44   1 H    0.999 --    14 C    0.980
    45   1 H    0.999 --    14 C    0.977
    46   1 H    0.998 --    15 C    0.987
    47   1 H    0.998 --    15 C    0.985
    48   1 H    0.999 --    15 C    0.988
    49   1 H    0.959 --    17 N    0.900
    50   1 H    0.999 --    20 C    0.974
    51   1 H    0.999 --    21 C    0.969
    52   1 H    0.999 --    22 C    0.970
    53   1 H    0.999 --    24 C    0.973
    54   1 H    0.999 --    25 C    0.972
    55   1 H    0.997 --    26 C    0.983
    56   1 H    0.993 --    26 C    0.967
    57   1 H    0.996 --    26 C    0.974
    58   1 H    0.925 --    27 O    0.920
    59   1 H    0.909 --    27 O    0.848
    60   8 O    1.817 --    62 H    0.926    29 H    0.849
    61   1 H    0.887 --    16 O    0.821
    62   1 H    0.928 --    60 O    0.926
    63   7 N    3.464 --    67 C    1.279     9 C    1.000    37 H    0.921
                            68 O    0.183
    64   6 C    3.953 --    65 O    1.676    72 N    1.270     9 C    0.939
    65   8 O    2.011 --    64 C    1.676    72 N    0.201
    66   6 C    3.991 --    67 C    0.992    69 H    0.983    70 H    0.971
                            71 H    0.950
    67   6 C    3.945 --    68 O    1.621    63 N    1.279    66 C    0.992
    68   8 O    1.982 --    67 C    1.621    63 N    0.183
    69   1 H    0.998 --    66 C    0.983
    70   1 H    0.994 --    66 C    0.971
    71   1 H    0.991 --    66 C    0.950
    72   7 N    3.453 --    64 C    1.270    73 C    1.002    38 H    0.943
                            65 O    0.201
    73   6 C    3.959 --    72 N    1.002    74 H    0.977    75 H    0.977
                            76 H    0.975
    74   1 H    0.997 --    73 C    0.977
    75   1 H    0.997 --    73 C    0.977
    76   1 H    0.992 --    73 C    0.975
 ---------------------------------------------------------------------------

Topologies differ in total number of bonds
Writing topology from bond orders to xtbtopo.mol

molecular dipole:
                 x           y           z       tot (Debye)
 q only:        1.587      -0.271      -0.469
   full:        1.586      -0.495      -0.984       4.907
molecular quadrupole (traceless):
                xx          xy          yy          xz          yz          zz
 q only:       35.498      28.961     -18.480       8.897     -12.498     -17.019
  q+dip:       40.343      33.536     -16.419      11.783     -11.674     -23.924
   full:       38.223      33.813     -19.365      11.410     -14.348     -18.857


           -------------------------------------------------
          | TOTAL ENERGY             -110.271370079730 Eh   |
          | GRADIENT NORM               0.000204317299 Eh/α |
          | HOMO-LUMO GAP               2.984583768618 eV   |
           -------------------------------------------------

------------------------------------------------------------------------
 * finished run on 2026/08/31 at 13:17:05.590     
------------------------------------------------------------------------
 total:
 * wall-time:     0 d,  0 h,  0 min,  0.491 sec
 *  cpu-time:     0 d,  0 h,  0 min,  0.359 sec
 * ratio c/w:     0.732 speedup
 SCF:
 * wall-time:     0 d,  0 h,  0 min,  0.313 sec
 *  cpu-time:     0 d,  0 h,  0 min,  0.281 sec
 * ratio c/w:     0.899 speedup



===== STDERR =====

normal termination of xtb
