      -----------------------------------------------------------      
     |                   =====================                   |     
     |                           x T B                           |     
     |                   =====================                   |     
     |                         S. Grimme                         |     
     |          Mulliken Center for Theoretical Chemistry        |     
     |                    University of Bonn                     |     
      -----------------------------------------------------------      

   * xtb version 6.7.1pre (5071a88) compiled by 'Marcel@Raven' on 2024-07-23

   xtb is free software: you can redistribute it and/or modify it under
   the terms of the GNU Lesser General Public License as published by
   the Free Software Foundation, either version 3 of the License, or
   (at your option) any later version.
   
   xtb is distributed in the hope that it will be useful,
   but WITHOUT ANY WARRANTY; without even the implied warranty of
   MERCHANTABILITY or FITNESS FOR A PARTICULAR PURPOSE.  See the
   GNU Lesser General Public License for more details.
   
   Cite this work as:
   * C. Bannwarth, E. Caldeweyher, S. Ehlert, A. Hansen, P. Pracht,
     J. Seibert, S. Spicher, S. Grimme, WIREs Comput. Mol. Sci., 2020, 11,
     e01493. DOI: 10.1002/wcms.1493
   
   for GFN2-xTB:
   * C. Bannwarth, S. Ehlert and S. Grimme., J. Chem. Theory Comput., 2019,
     15, 1652-1671. DOI: 10.1021/acs.jctc.8b01176
   for GFN1-xTB:
   * S. Grimme, C. Bannwarth, P. Shushkov, J. Chem. Theory Comput., 2017,
     13, 1989-2009. DOI: 10.1021/acs.jctc.7b00118
   for GFN0-xTB:
   * P. Pracht, E. Caldeweyher, S. Ehlert, S. Grimme, ChemRxiv, 2019, preprint.
     DOI: 10.26434/chemrxiv.8326202.v1
   for GFN-FF:
   * S. Spicher and S. Grimme, Angew. Chem. Int. Ed., 2020, 59, 15665-15673.
     DOI: 10.1002/anie.202004239
   
   for ALPB and GBSA implicit solvation:
   * S. Ehlert, M. Stahn, S. Spicher, S. Grimme, J. Chem. Theory Comput.,
     2021, 17, 4250-4261. DOI: 10.1021/acs.jctc.1c00471
   
   for ddCOSMO and CPCM-X implicit solvation:
   * M. Stahn, S. Ehlert, S. Grimme, J. Phys. Chem. A,
     2023, XX, XXXX-XXXX. DOI: 10.1021/acs.jpca.3c04382
   
   for DFT-D4:
   * E. Caldeweyher, C. Bannwarth and S. Grimme, J. Chem. Phys., 2017,
     147, 034112. DOI: 10.1063/1.4993215
   * E. Caldeweyher, S. Ehlert, A. Hansen, H. Neugebauer, S. Spicher,
     C. Bannwarth and S. Grimme, J. Chem. Phys., 2019, 150, 154122.
     DOI: 10.1063/1.5090222
   * E. Caldeweyher, J.-M. Mewes, S. Ehlert and S. Grimme, Phys. Chem. Chem. Phys.
     2020, 22, 8499-8512. DOI: 10.1039/D0CP00502A
   
   for sTDA-xTB:
   * S. Grimme and C. Bannwarth, J. Chem. Phys., 2016, 145, 054103.
     DOI: 10.1063/1.4959605
   
   in the mass-spec context:
   * V. Asgeirsson, C. Bauer and S. Grimme, Chem. Sci., 2017, 8, 4879.
     DOI: 10.1039/c7sc00601b
   * J. Koopman and S. Grimme, ACS Omega 2019, 4, 12, 15120-15133.
     DOI: 10.1021/acsomega.9b02011
   
   for metadynamics refer to:
   * S. Grimme, J. Chem. Theory Comput., 2019, 155, 2847-2862
     DOI: 10.1021/acs.jctc.9b00143
   
   for SPH calculations refer to:
   * S. Spicher and S. Grimme, J. Chem. Theory Comput., 2021, 17, 1701-1714
     DOI: 10.1021/acs.jctc.0c01306
   
   for ONIOM refer to:
   * C. Plett, A. Katbashev, S. Ehlert, S. Grimme, M. Bursch,
     Phys. Chem. Chem. Phys., 2023, 25, 17860-17868. DOI: 10.1039/D3CP02178E
   
   for DIPRO refer to:
   * J. Kohn, N. Gildemeister, S. Grimme, D. Fazzi, A. Hansen,
     J. Chem. Phys., 2023, just accepted.
   
   for PTB refer to:
   * S. Grimme, M. Mueller, A. Hansen, J. Chem. Phys., 2023, 158, 124111.
     DOI: 10.1063/5.0137838
   
   with help from (in alphabetical order)
   P. Atkinson, C. Bannwarth, F. Bohle, G. Brandenburg, E. Caldeweyher
   M. Checinski, S. Dohm, S. Ehlert, S. Ehrlich, I. Gerasimov, C. Hölzer
   A. Katbashev, J. Kohn, J. Koopman, C. Lavigne, S. Lehtola, F. März, M. Müller,
   F. Musil, H. Neugebauer, J. Pisarek, C. Plett, P. Pracht, F. Pultar,
   J. Seibert, P. Shushkov, S. Spicher, M. Stahn, M. Steiner, T. Strunk,
   J. Stückrath, T. Rose, and J. Unsleber
   
 * started run on 2026/08/20 at 20:37:08.520     
   ID    Z sym.   atoms
    1    7 N      1, 17, 63, 72
    2    6 C      2-15, 18-26, 64, 66, 67, 73
    3    8 O      16, 27, 60, 65, 68
    4    1 H      28-59, 61, 62, 69-71, 74-76

           -------------------------------------------------
          |                Calculation Setup                |
           -------------------------------------------------

          program call               : C:\Users\Nayanika\Downloads\xtb-6.7.1pre-windows-x86_64\xtb-6.7.1\bin\xtb.exe D:\PhD_Thesis\LmrR_EVB\charges\fast_lmrr_5QM\xtb_preparation\stage2_five_xtb_protocols\GFN2_etemp500\RS2_1_to_TS2_1a\RS2_1_to_TS2_1a_RS_xtbopt.xyz --gfn 2 --chrg 0 --uhf 0 --hess --etemp 500
          coordinate file            : D:\PhD_Thesis\LmrR_EVB\charges\fast_lmrr_5QM\xtb_preparation\stage2_five_xtb_protocols\GFN2_etemp500\RS2_1_to_TS2_1a\RS2_1_to_TS2_1a_RS_xtbopt.xyz
          omp threads                :                     8


molecular fragmentation (1/2 indicates fragments):
111111111111111122222222222121111111111111111111222222222222121111111111
1111
# atoms in fragment 1/2:    51    25
 fragment masses (1/2) :      333.43      167.21
CMA distance (Bohr)    :  10.964
constraining FC (au)   :  0.0500

           -------------------------------------------------
          |                 G F N 2 - x T B                 |
           -------------------------------------------------

        Reference                      10.1021/acs.jctc.8b01176
      * Hamiltonian:
        H0-scaling (s, p, d)           1.850000    2.230000    2.230000
        zeta-weighting                 0.500000
      * Dispersion:
        s8                             2.700000
        a1                             0.520000
        a2                             5.000000
        s9                             5.000000
      * Repulsion:
        kExp                           1.500000    1.000000
        rExp                           1.000000
      * Coulomb:
        alpha                          2.000000
        third order                    shell-resolved
        anisotropic                    true
        a3                             3.000000
        a5                             4.000000
        cn-shift                       1.200000
        cn-exp                         4.000000
        max-rad                        5.000000

q/qsh data taken from xtbrestart
CAMM data taken from xtbrestart

          ...................................................
          :                      SETUP                      :
          :.................................................:
          :  # basis functions                 184          :
          :  # atomic orbitals                 184          :
          :  # shells                          112          :
          :  # electrons                       198          :
          :  max. iterations                   250          :
          :  Hamiltonian                  GFN2-xTB          :
          :  restarted?                       true          :
          :  GBSA solvation                  false          :
          :  PC potential                    false          :
          :  electronic temp.          500.0000000     K    :
          :  accuracy                    1.0000000          :
          :  -> integral cutoff          0.2500000E+02      :
          :  -> integral neglect         0.1000000E-07      :
          :  -> SCF convergence          0.1000000E-05 Eh   :
          :  -> wf. convergence          0.1000000E-03 e    :
          :  Broyden damping             0.4000000          :
          :  net charge                          0          :
          :  unpaired electrons                  0          :
          ...................................................

 iter      E             dE          RMSdq      gap      omega  full diag
   1   -111.8342548 -0.111834E+03  0.127E-06    2.98       0.0  T
   2   -111.8342548  0.852651E-13  0.948E-07    2.98   12099.5  T
   3   -111.8342548 -0.241585E-12  0.491E-07    2.98   23376.5  T

   *** convergence criteria satisfied after 3 iterations ***

         #    Occupation            Energy/Eh            Energy/eV
      -------------------------------------------------------------
         1        2.0000           -0.7188596             -19.5612
       ...           ...                  ...                  ...
        93        2.0000           -0.3997575             -10.8780
        94        2.0000           -0.3961743             -10.7805
        95        2.0000           -0.3958170             -10.7707
        96        2.0000           -0.3889775             -10.5846
        97        2.0000           -0.3702179             -10.0741
        98        2.0000           -0.3569736              -9.7137
        99        2.0000           -0.3416420              -9.2966 (HOMO)
       100                         -0.2319595              -6.3119 (LUMO)
       101                         -0.2220594              -6.0425
       102                         -0.2153185              -5.8591
       103                         -0.2130068              -5.7962
       104                         -0.2088785              -5.6839
       ...                                ...                  ...
       184                          0.7487143              20.3736
      -------------------------------------------------------------
                  HL-Gap            0.1096825 Eh            2.9846 eV
             Fermi-level           -0.2868008 Eh           -7.8042 eV

 SCC (total)                   0 d,  0 h,  0 min,  0.096 sec
 SCC setup                      ...        0 min,  0.000 sec (  0.000%)
 Dispersion                     ...        0 min,  0.005 sec (  5.208%)
 classical contributions        ...        0 min,  0.000 sec (  0.000%)
 integral evaluation            ...        0 min,  0.022 sec ( 22.917%)
 iterations                     ...        0 min,  0.053 sec ( 55.208%)
 molecular gradient             ...        0 min,  0.016 sec ( 16.667%)
 printout                       ...        0 min,  0.000 sec (  0.000%)

         :::::::::::::::::::::::::::::::::::::::::::::::::::::
         ::                     SUMMARY                     ::
         :::::::::::::::::::::::::::::::::::::::::::::::::::::
         :: total energy            -110.271370080680 Eh    ::
         :: gradient norm              0.000204478185 Eh/a0 ::
         :: HOMO-LUMO gap              2.984611986855 eV    ::
         ::.................................................::
         :: SCC energy              -111.831577898741 Eh    ::
         :: -> isotropic ES            0.186465127599 Eh    ::
         :: -> anisotropic ES         -0.003501082661 Eh    ::
         :: -> anisotropic XC          0.043686487611 Eh    ::
         :: -> dispersion             -0.087702685935 Eh    ::
         :: repulsion energy           1.560207818061 Eh    ::
         :: add. restraining           0.000000000000 Eh    ::
         :: total charge               0.000000000000 e     ::
         :::::::::::::::::::::::::::::::::::::::::::::::::::::

           ------------------------------------------------- 
          |                Numerical Hessian                |
           ------------------------------------------------- 
step length          :   0.00500
SCC accuracy         :   0.30000
Hessian scale factor :   1.00000
frozen atoms in %    :   0.00000    0
RMS gradient         :   0.00020
estimated CPU  time     11.33 min
estimated wall time      1.65 min

writing file <hessian>.

 projected vibrational frequencies (cm⁻¹)
eigval :       -0.00    -0.00     0.00     0.00     0.00     0.00
eigval :       -5.68     8.54    13.69    17.05    20.21    28.12
eigval :       39.50    42.67    44.93    48.49    54.70    61.85
eigval :       67.83    69.38    73.97    84.76    88.11    93.91
eigval :       96.85   100.91   106.01   109.83   117.28   126.56
eigval :      134.59   137.29   143.25   144.80   149.04   154.42
eigval :      183.24   184.76   195.76   206.84   208.78   232.20
eigval :      235.46   237.62   250.53   254.32   286.95   294.60
eigval :      300.38   301.25   327.54   352.40   361.73   376.03
eigval :      391.09   398.49   409.55   413.46   417.97   441.83
eigval :      463.14   471.63   479.09   489.12   499.04   505.28
eigval :      513.22   518.05   534.49   547.67   563.61   576.96
eigval :      592.10   594.23   612.57   613.02   647.58   652.73
eigval :      654.43   665.04   691.42   707.59   716.68   719.85
eigval :      749.77   768.21   771.79   773.96   790.08   795.87
eigval :      828.74   862.83   864.27   865.81   866.65   870.07
eigval :      893.91   896.39   897.52   918.23   919.26   923.22
eigval :      932.00   935.87   939.50   967.95   984.75   994.86
eigval :      995.31  1004.97  1006.98  1012.38  1018.07  1020.66
eigval :     1021.58  1035.23  1048.65  1064.70  1066.60  1092.21
eigval :     1093.51  1107.23  1115.49  1116.22  1133.49  1134.21
eigval :     1140.24  1140.94  1145.51  1170.99  1173.20  1178.39
eigval :     1194.82  1198.58  1200.67  1209.06  1213.43  1223.32
eigval :     1232.15  1235.79  1246.92  1257.11  1266.39  1274.66
eigval :     1282.67  1293.38  1294.00  1301.48  1310.67  1312.69
eigval :     1327.29  1336.03  1356.78  1360.50  1365.61  1377.67
eigval :     1379.43  1394.05  1402.13  1410.93  1414.78  1428.96
eigval :     1436.36  1438.76  1447.92  1449.64  1460.76  1467.93
eigval :     1468.71  1469.41  1472.02  1480.37  1482.18  1490.14
eigval :     1494.50  1498.20  1502.99  1504.65  1539.81  1558.31
eigval :     1570.84  1584.16  1587.18  1609.65  1622.30  1696.01
eigval :     1725.18  1745.04  2909.03  2941.68  2960.44  2973.44
eigval :     2978.94  2980.87  2985.84  2988.91  2990.22  2992.26
eigval :     2993.24  3011.38  3026.63  3028.59  3035.69  3040.29
eigval :     3041.15  3044.06  3049.36  3055.25  3058.65  3062.35
eigval :     3065.89  3070.33  3070.41  3072.56  3073.71  3083.93
eigval :     3087.05  3119.98  3122.74  3159.37  3230.22  3308.06
eigval :     3327.77  3372.22  3394.46  3459.68  3663.82  3671.28
           -------------------------------------------------
          |                Property Printout                |
           -------------------------------------------------

    * Orbital Energies and Occupations

         #    Occupation            Energy/Eh            Energy/eV
      -------------------------------------------------------------
         1        2.0000           -0.7188596             -19.5612
       ...           ...                  ...                  ...
        87        2.0000           -0.4204958             -11.4423
        88        2.0000           -0.4160750             -11.3220
        89        2.0000           -0.4116200             -11.2007
        90        2.0000           -0.4086060             -11.1187
        91        2.0000           -0.4066852             -11.0665
        92        2.0000           -0.4054980             -11.0342
        93        2.0000           -0.3997575             -10.8780
        94        2.0000           -0.3961743             -10.7805
        95        2.0000           -0.3958170             -10.7707
        96        2.0000           -0.3889775             -10.5846
        97        2.0000           -0.3702179             -10.0741
        98        2.0000           -0.3569736              -9.7137
        99        2.0000           -0.3416420              -9.2966 (HOMO)
       100                         -0.2319595              -6.3119 (LUMO)
       101                         -0.2220594              -6.0425
       102                         -0.2153185              -5.8591
       103                         -0.2130068              -5.7962
       104                         -0.2088785              -5.6839
       105                         -0.2013786              -5.4798
       106                         -0.1761980              -4.7946
       107                         -0.1330123              -3.6194
       108                         -0.0981901              -2.6719
       109                         -0.0493395              -1.3426
       110                         -0.0258833              -0.7043
       ...                                ...                  ...
       184                          0.7487143              20.3736
      -------------------------------------------------------------
                  HL-Gap            0.1096825 Eh            2.9846 eV
             Fermi-level           -0.2868008 Eh           -7.8042 eV

     #   Z          covCN         q      C6AA      α(0)
     1   7 N        2.684    -0.280    27.221     7.749
     2   6 C        2.916     0.076    26.313     8.412
     3   6 C        2.922    -0.047    29.171     8.857
     4   6 C        2.926    -0.034    28.836     8.806
     5   6 C        2.978     0.005    27.915     8.667
     6   6 C        2.926    -0.039    28.966     8.826
     7   6 C        2.922    -0.055    29.362     8.886
     8   6 C        3.810    -0.065    21.731     6.635
     9   6 C        3.798     0.021    20.226     6.404
    10   6 C        3.672     0.184    17.879     6.061
    11   6 C        2.890    -0.071    29.780     8.947
    12   6 C        2.891    -0.033    28.824     8.802
    13   6 C        3.808    -0.063    21.695     6.630
    14   6 C        3.802    -0.051    21.492     6.600
    15   6 C        3.752    -0.104    22.551     6.772
    16   8 O        1.653    -0.485    22.566     6.413
    17   7 N        2.783    -0.128    23.783     7.243
    18   6 C        3.092     0.044    26.915     8.503
    19   6 C        3.108    -0.017    28.285     8.714
    20   6 C        3.015    -0.094    30.334     9.034
    21   6 C        2.908    -0.054    29.336     8.881
    22   6 C        2.911    -0.042    29.044     8.837
    23   6 C        3.074     0.049    26.821     8.491
    24   6 C        2.924    -0.041    29.013     8.833
    25   6 C        2.919    -0.044    29.098     8.846
    26   6 C        3.754    -0.115    22.762     6.803
    27   8 O        1.609    -0.595    25.063     6.757
    28   1 H        0.860     0.173     1.255     1.755
    29   1 H        0.803     0.312     0.687     1.302
    30   1 H        0.926     0.051     2.310     2.377
    31   1 H        0.926     0.028     2.609     2.526
    32   1 H        0.926     0.029     2.599     2.521
    33   1 H        0.926     0.052     2.300     2.372
    34   1 H        0.924     0.049     2.335     2.389
    35   1 H        0.924     0.039     2.456     2.451
    36   1 H        0.924     0.064     2.154     2.295
    37   1 H        0.860     0.198     1.114     1.654
    38   1 H        0.860     0.171     1.265     1.762
    39   1 H        0.923     0.035     2.513     2.479
    40   1 H        0.925     0.057     2.233     2.337
    41   1 H        0.925     0.039     2.468     2.457
    42   1 H        0.924     0.056     2.252     2.347
    43   1 H        0.924     0.037     2.484     2.464
    44   1 H        0.924     0.029     2.607     2.525
    45   1 H        0.924     0.036     2.503     2.474
    46   1 H        0.925     0.033     2.543     2.494
    47   1 H        0.925     0.041     2.433     2.439
    48   1 H        0.925     0.032     2.559     2.501
    49   1 H        0.860     0.201     1.103     1.645
    50   1 H        0.926     0.016     2.800     2.617
    51   1 H        0.926     0.016     2.791     2.613
    52   1 H        0.926     0.017     2.780     2.608
    53   1 H        0.926     0.016     2.792     2.613
    54   1 H        0.926     0.016     2.796     2.615
    55   1 H        0.925     0.044     2.399     2.422
    56   1 H        0.924     0.048     2.347     2.396
    57   1 H        0.925     0.052     2.297     2.370
    58   1 H        0.806     0.274     0.805     1.409
    59   1 H        0.803     0.302     0.717     1.330
    60   8 O        1.609    -0.612    25.475     6.812
    61   1 H        0.802     0.335     0.624     1.241
    62   1 H        0.806     0.268     0.825     1.427
    63   7 N        2.695    -0.168    24.631     7.371
    64   6 C        2.759     0.265    22.536     7.774
    65   8 O        0.858    -0.434    22.369     6.341
    66   6 C        3.757    -0.154    23.533     6.916
    67   6 C        2.748     0.282    22.226     7.720
    68   8 O        0.858    -0.474    23.225     6.461
    69   1 H        0.925     0.049     2.327     2.386
    70   1 H        0.925     0.073     2.051     2.239
    71   1 H        0.925     0.096     1.819     2.109
    72   7 N        2.685    -0.166    24.583     7.364
    73   6 C        3.690    -0.047    21.609     6.653
    74   1 H        0.924     0.055     2.254     2.348
    75   1 H        0.924     0.056     2.249     2.345
    76   1 H        0.925     0.091     1.870     2.139

 Mol. C6AA /au·bohr⁶  :      56335.442833
 Mol. C8AA /au·bohr⁸  :    1285473.315091
 Mol. α(0) /au        :        366.612867


Wiberg/Mayer (AO) data.
largest (>0.10) Wiberg bond orders for each atom

 ---------------------------------------------------------------------------
     #   Z sym  total        # sym  WBO       # sym  WBO       # sym  WBO
 ---------------------------------------------------------------------------
     1   7 N    3.204 --     2 C    1.051    10 C    0.949    28 H    0.938
     2   6 C    3.972 --     7 C    1.387     3 C    1.375     1 N    1.051
     3   6 C    3.990 --     4 C    1.460     2 C    1.375    30 H    0.961
                             6 C    0.103
     4   6 C    3.991 --     3 C    1.460     5 C    1.401    31 H    0.969
                             7 C    0.104
     5   6 C    3.985 --     6 C    1.402     4 C    1.401     8 C    1.012
     6   6 C    3.990 --     7 C    1.452     5 C    1.402    32 H    0.969
                             3 C    0.103
     7   6 C    3.989 --     6 C    1.452     2 C    1.387    33 H    0.963
                             4 C    0.104
     8   6 C    3.992 --     5 C    1.012    34 H    0.974    35 H    0.972
                             9 C    0.937
     9   6 C    3.973 --    63 N    1.000    36 H    0.954    64 C    0.939
                             8 C    0.937
    10   6 C    3.947 --    11 C    0.997    16 O    0.989    39 H    0.955
                             1 N    0.949
    11   6 C    3.984 --    12 C    1.921    10 C    0.997    40 H    0.958
    12   6 C    3.989 --    11 C    1.921    13 C    1.031    41 H    0.963
    13   6 C    3.996 --    12 C    1.031    14 C    0.992    43 H    0.975
                            42 H    0.950
    14   6 C    3.996 --    15 C    1.019    13 C    0.992    44 H    0.980
                            45 H    0.977
    15   6 C    3.996 --    14 C    1.019    48 H    0.988    46 H    0.987
                            47 H    0.985
    16   8 O    1.997 --    10 C    0.989    61 H    0.821
    17   7 N    3.548 --    23 C    1.200    18 C    1.189    49 H    0.900
    18   6 C    3.962 --    21 C    1.340    19 C    1.233    17 N    1.189
    19   6 C    3.985 --    22 C    1.331    20 C    1.233    18 C    1.233
    20   6 C    3.969 --    23 C    1.564    19 C    1.233    50 H    0.974
    21   6 C    3.988 --    24 C    1.487    18 C    1.340    51 H    0.969
                            22 C    0.109
    22   6 C    3.989 --    25 C    1.499    19 C    1.331    52 H    0.970
                            21 C    0.109
    23   6 C    3.959 --    20 C    1.564    17 N    1.200    26 C    1.029
    24   6 C    3.989 --    21 C    1.487    25 C    1.372    53 H    0.973
    25   6 C    3.991 --    22 C    1.499    24 C    1.372    54 H    0.972
    26   6 C    3.995 --    23 C    1.029    55 H    0.983    57 H    0.974
                            56 H    0.967
    27   8 O    1.851 --    58 H    0.920    59 H    0.848
    28   1 H    0.969 --     1 N    0.938
    29   1 H    0.903 --    60 O    0.849
    30   1 H    0.997 --     3 C    0.961
    31   1 H    0.999 --     4 C    0.969
    32   1 H    0.999 --     6 C    0.969
    33   1 H    0.997 --     7 C    0.963
    34   1 H    0.997 --     8 C    0.974
    35   1 H    0.998 --     8 C    0.972
    36   1 H    0.996 --     9 C    0.954
    37   1 H    0.960 --    63 N    0.921
    38   1 H    0.971 --    72 N    0.943
    39   1 H    0.998 --    10 C    0.955
    40   1 H    0.997 --    11 C    0.958
    41   1 H    0.998 --    12 C    0.963
    42   1 H    0.997 --    13 C    0.950
    43   1 H    0.999 --    13 C    0.975
    44   1 H    0.999 --    14 C    0.980
    45   1 H    0.999 --    14 C    0.977
    46   1 H    0.998 --    15 C    0.987
    47   1 H    0.998 --    15 C    0.985
    48   1 H    0.999 --    15 C    0.988
    49   1 H    0.959 --    17 N    0.900
    50   1 H    0.999 --    20 C    0.974
    51   1 H    0.999 --    21 C    0.969
    52   1 H    0.999 --    22 C    0.970
    53   1 H    0.999 --    24 C    0.973
    54   1 H    0.999 --    25 C    0.972
    55   1 H    0.997 --    26 C    0.983
    56   1 H    0.993 --    26 C    0.967
    57   1 H    0.996 --    26 C    0.974
    58   1 H    0.925 --    27 O    0.920
    59   1 H    0.909 --    27 O    0.848
    60   8 O    1.817 --    62 H    0.926    29 H    0.849
    61   1 H    0.887 --    16 O    0.821
    62   1 H    0.928 --    60 O    0.926
    63   7 N    3.464 --    67 C    1.279     9 C    1.000    37 H    0.921
                            68 O    0.183
    64   6 C    3.953 --    65 O    1.676    72 N    1.270     9 C    0.939
    65   8 O    2.011 --    64 C    1.676    72 N    0.201
    66   6 C    3.991 --    67 C    0.992    69 H    0.983    70 H    0.971
                            71 H    0.950
    67   6 C    3.945 --    68 O    1.621    63 N    1.279    66 C    0.992
    68   8 O    1.982 --    67 C    1.621    63 N    0.183
    69   1 H    0.998 --    66 C    0.983
    70   1 H    0.994 --    66 C    0.971
    71   1 H    0.991 --    66 C    0.950
    72   7 N    3.453 --    64 C    1.270    73 C    1.002    38 H    0.943
                            65 O    0.201
    73   6 C    3.959 --    72 N    1.002    74 H    0.977    75 H    0.977
                            76 H    0.975
    74   1 H    0.997 --    73 C    0.977
    75   1 H    0.997 --    73 C    0.977
    76   1 H    0.992 --    73 C    0.975
 ---------------------------------------------------------------------------

Topologies differ in total number of bonds
Writing topology from bond orders to xtbtopo.mol

molecular dipole:
                 x           y           z       tot (Debye)
 q only:        1.587      -0.271      -0.469
   full:        1.586      -0.495      -0.984       4.907
molecular quadrupole (traceless):
                xx          xy          yy          xz          yz          zz
 q only:       35.499      28.961     -18.479       8.898     -12.498     -17.020
  q+dip:       40.343      33.536     -16.419      11.784     -11.674     -23.924
   full:       38.223      33.814     -19.365      11.411     -14.349     -18.858

           -------------------------------------------------
          |               Frequency Printout                |
           -------------------------------------------------
 projected vibrational frequencies (cm⁻¹)
eigval :       -0.00    -0.00     0.00     0.00     0.00     0.00
eigval :       -5.68     8.54    13.69    17.05    20.21    28.12
eigval :       39.50    42.67    44.93    48.49    54.70    61.85
eigval :       67.83    69.38    73.97    84.76    88.11    93.91
eigval :       96.85   100.91   106.01   109.83   117.28   126.56
eigval :      134.59   137.29   143.25   144.80   149.04   154.42
eigval :      183.24   184.76   195.76   206.84   208.78   232.20
eigval :      235.46   237.62   250.53   254.32   286.95   294.60
eigval :      300.38   301.25   327.54   352.40   361.73   376.03
eigval :      391.09   398.49   409.55   413.46   417.97   441.83
eigval :      463.14   471.63   479.09   489.12   499.04   505.28
eigval :      513.22   518.05   534.49   547.67   563.61   576.96
eigval :      592.10   594.23   612.57   613.02   647.58   652.73
eigval :      654.43   665.04   691.42   707.59   716.68   719.85
eigval :      749.77   768.21   771.79   773.96   790.08   795.87
eigval :      828.74   862.83   864.27   865.81   866.65   870.07
eigval :      893.91   896.39   897.52   918.23   919.26   923.22
eigval :      932.00   935.87   939.50   967.95   984.75   994.86
eigval :      995.31  1004.97  1006.98  1012.38  1018.07  1020.66
eigval :     1021.58  1035.23  1048.65  1064.70  1066.60  1092.21
eigval :     1093.51  1107.23  1115.49  1116.22  1133.49  1134.21
eigval :     1140.24  1140.94  1145.51  1170.99  1173.20  1178.39
eigval :     1194.82  1198.58  1200.67  1209.06  1213.43  1223.32
eigval :     1232.15  1235.79  1246.92  1257.11  1266.39  1274.66
eigval :     1282.67  1293.38  1294.00  1301.48  1310.67  1312.69
eigval :     1327.29  1336.03  1356.78  1360.50  1365.61  1377.67
eigval :     1379.43  1394.05  1402.13  1410.93  1414.78  1428.96
eigval :     1436.36  1438.76  1447.92  1449.64  1460.76  1467.93
eigval :     1468.71  1469.41  1472.02  1480.37  1482.18  1490.14
eigval :     1494.50  1498.20  1502.99  1504.65  1539.81  1558.31
eigval :     1570.84  1584.16  1587.18  1609.65  1622.30  1696.01
eigval :     1725.18  1745.04  2909.03  2941.68  2960.44  2973.44
eigval :     2978.94  2980.87  2985.84  2988.91  2990.22  2992.26
eigval :     2993.24  3011.38  3026.63  3028.59  3035.69  3040.29
eigval :     3041.15  3044.06  3049.36  3055.25  3058.65  3062.35
eigval :     3065.89  3070.33  3070.41  3072.56  3073.71  3083.93
eigval :     3087.05  3119.98  3122.74  3159.37  3230.22  3308.06
eigval :     3327.77  3372.22  3394.46  3459.68  3663.82  3671.28
 reduced masses (amu)
   1: 11.67   2: 11.84   3: 12.14   4: 12.19   5: 11.43   6: 11.93   7: 11.01   8:  9.97
   9: 10.92  10: 11.54  11:  8.89  12: 10.91  13: 11.62  14: 12.41  15: 12.24  16: 10.71
  17: 10.62  18:  8.67  19: 12.41  20:  9.98  21:  9.81  22:  9.07  23: 11.06  24:  7.72
  25: 10.21  26:  9.74  27:  5.89  28: 10.38  29: 11.38  30:  2.96  31:  6.04  32: 11.87
  33: 10.27  34:  9.63  35: 12.67  36: 10.70  37: 11.38  38: 12.08  39:  2.85  40: 11.30
  41: 11.68  42:  7.83  43:  9.43  44:  5.58  45: 11.05  46:  9.56  47: 10.41  48:  9.14
  49:  9.96  50: 13.21  51:  9.86  52: 10.87  53:  8.59  54:  5.06  55:  8.16  56:  5.25
  57:  9.79  58:  9.28  59:  7.89  60:  9.61  61: 10.64  62:  8.96  63: 10.29  64: 11.05
  65:  4.23  66:  7.81  67:  8.43  68:  8.30  69: 10.57  70:  9.51  71:  8.81  72:  6.37
  73: 11.31  74:  6.80  75: 11.11  76: 11.47  77: 10.78  78:  2.39  79: 10.14  80: 10.69
  81: 10.00  82: 10.27  83: 11.07  84:  3.81  85:  3.67  86:  3.23  87:  8.58  88:  6.59
  89:  3.57  90:  3.08  91:  5.87  92: 10.71  93:  6.34  94:  4.03  95:  9.42  96:  7.73
  97:  3.65  98:  3.86  99:  7.28 100:  3.52 101:  2.87 102:  9.78 103:  3.59 104:  5.63
 105:  6.47 106:  9.56 107:  9.40 108:  8.66 109:  7.63 110:  5.39 111:  7.47 112:  6.27
 113: 11.30 114:  5.73 115:  5.20 116:  4.40 117:  6.13 118:  6.35 119:  9.40 120:  5.28
 121:  8.62 122:  3.77 123:  7.35 124:  6.54 125:  4.44 126:  6.94 127:  4.79 128:  7.47
 129:  4.21 130:  6.54 131:  5.44 132:  2.03 133:  2.23 134:  3.14 135:  4.08 136:  5.53
 137:  5.34 138:  6.07 139:  4.04 140:  4.62 141:  3.54 142:  3.26 143:  6.77 144:  2.48
 145:  4.66 146:  4.06 147:  4.25 148:  5.42 149:  6.80 150:  3.77 151:  9.96 152:  9.39
 153:  4.72 154:  5.15 155: 11.00 156:  6.00 157:  3.34 158:  2.59 159:  4.84 160:  8.41
 161:  3.17 162:  9.10 163:  9.04 164:  8.58 165: 11.21 166:  1.88 167:  1.56 168:  2.05
 169:  2.03 170:  2.61 171:  1.70 172:  2.57 173:  1.98 174:  2.07 175:  9.57 176: 10.01
 177:  1.80 178:  1.57 179:  2.20 180:  2.09 181: 11.37 182: 11.49 183: 11.44 184: 11.52
 185: 11.64 186: 13.16 187: 11.58 188: 13.20 189:  1.73 190:  1.75 191:  1.84 192:  1.87
 193:  1.96 194:  1.56 195:  1.88 196:  1.80 197:  1.63 198:  1.61 199:  1.43 200:  1.77
 201:  1.61 202:  1.85 203:  1.77 204:  1.73 205:  1.53 206:  1.54 207:  1.72 208:  1.86
 209:  1.81 210:  1.74 211:  1.79 212:  1.83 213:  1.81 214:  1.80 215:  1.86 216:  1.91
 217:  1.87 218:  1.85 219:  1.92 220:  1.88 221:  1.88 222:  1.86 223:  1.82 224:  1.89
 225:  1.84 226:  1.84 227:  1.84 228:  1.84
 IR intensities (km·mol⁻¹)
   1:  0.03   2:  0.03   3:  0.01   4:  0.00   5:  0.04   6:  0.06   7:  0.54   8:  0.57
   9:  0.14  10:  0.88  11:  0.36  12:  1.14  13:  1.65  14:  6.42  15:  0.68  16:  5.53
  17:  0.04  18:  2.05  19:  6.21  20:  1.81  21:  1.39  22:  4.96  23:  7.81  24:  1.51
  25:  1.11  26:  4.44  27: 52.42  28:  1.03  29:  4.14  30:  0.06  31:  7.77  32:  4.25
  33:  8.59  34:  3.21  35: 20.42  36: 11.92  37:  8.04  38:  2.46  39:119.05  40:  3.43
  41: 30.23  42:  2.30  43:  1.43  44:  2.50  45: 17.83  46:  2.06  47: 10.61  48:  0.78
  49:  0.55  50:  4.98  51:  2.66  52: 14.04  53:  6.90  54: 37.86  55: 17.71  56: 91.95
  57: 18.16  58:  0.63  59: 56.85  60:  2.12  61: 20.26  62:  7.94  63: 16.37  64:  0.61
  65: 43.34  66: 77.79  67: 32.53  68: 13.09  69:  3.67  70: 16.54  71: 42.76  72: 94.05
  73:  1.61  74:  8.85  75: 12.18  76: 14.51  77:  6.82  78:133.95  79: 22.68  80:  9.21
  81: 41.54  82:  2.71  83:  1.52  84:105.98  85:125.89  86:  7.18  87: 55.49  88: 47.52
  89: 20.31  90: 43.88  91: 13.49  92:  0.39  93:  2.41  94:  0.10  95:  2.37  96: 10.62
  97:  8.05  98:  4.10  99:  0.43 100:  1.43 101:  0.03 102:  8.79 103:  4.97 104:108.27
 105: 37.37 106: 37.22 107: 24.38 108:  8.64 109:  2.59 110: 14.99 111:  1.23 112:  1.25
 113:134.73 114:  6.51 115: 50.31 116: 10.59 117: 52.70 118:  0.25 119: 32.58 120: 10.71
 121:  2.38 122:  2.75 123: 17.57 124: 46.87 125:  0.22 126: 12.75 127:  0.26 128:  3.29
 129: 11.94 130:  1.81 131:  2.78 132:  1.44 133:  6.81 134:  9.29 135: 10.76 136: 71.67
 137: 20.23 138:  2.46 139:  7.84 140: 46.78 141: 16.50 142:  3.99 143: 12.35 144:  1.11
 145: 14.48 146: 19.45 147: 23.46 148:  7.94 149:  2.52 150: 10.79 151: 43.17 152:  9.71
 153: 98.33 154: 11.44 155: 26.50 156: 61.27 157: 54.19 158:  5.88 159:  7.33 160: 22.19
 161:  2.02 162:291.88 163:180.26 164: 41.37 165: 36.20 166:  7.27 167: 13.64 168:  0.77
 169:  3.18 170:  8.92 171:  4.56 172: 32.62 173:  4.63 174:  0.81 175: 77.98 176:  6.52
 177:  0.80 178:  2.21 179:135.43 180:149.65 181: 31.88 182:  4.96 183:  2.22 184: 24.61
 185: 11.41 186:526.34 187: 11.87 188:418.94 189: 61.59 190: 10.60 191:  2.74 192: 44.90
 193: 23.56 194: 10.10 195: 31.10 196: 30.65 197: 32.97 198: 28.99 199: 44.64 200:  3.42
 201: 17.71 202: 45.73 203: 43.80 204:  2.92 205: 23.06 206:  4.61 207: 16.32 208: 17.73
 209:  9.54 210:  1.57 211: 17.02 212: 31.81 213: 38.87 214: 16.13 215:124.70 216: 89.56
 217: 18.53 218: 20.42 219:559.61 220: 36.85 221:828.89 222:501.77 223: 15.38 224:405.21
 225: 41.02 226:  8.47 227: 11.80 228:  5.02
 Raman intensities (Ä⁴*amu⁻¹)
   1:  0.00   2:  0.00   3:  0.00   4:  0.00   5:  0.00   6:  0.00   7:  0.00   8:  0.00
   9:  0.00  10:  0.00  11:  0.00  12:  0.00  13:  0.00  14:  0.00  15:  0.00  16:  0.00
  17:  0.00  18:  0.00  19:  0.00  20:  0.00  21:  0.00  22:  0.00  23:  0.00  24:  0.00
  25:  0.00  26:  0.00  27:  0.00  28:  0.00  29:  0.00  30:  0.00  31:  0.00  32:  0.00
  33:  0.00  34:  0.00  35:  0.00  36:  0.00  37:  0.00  38:  0.00  39:  0.00  40:  0.00
  41:  0.00  42:  0.00  43:  0.00  44:  0.00  45:  0.00  46:  0.00  47:  0.00  48:  0.00
  49:  0.00  50:  0.00  51:  0.00  52:  0.00  53:  0.00  54:  0.00  55:  0.00  56:  0.00
  57:  0.00  58:  0.00  59:  0.00  60:  0.00  61:  0.00  62:  0.00  63:  0.00  64:  0.00
  65:  0.00  66:  0.00  67:  0.00  68:  0.00  69:  0.00  70:  0.00  71:  0.00  72:  0.00
  73:  0.00  74:  0.00  75:  0.00  76:  0.00  77:  0.00  78:  0.00  79:  0.00  80:  0.00
  81:  0.00  82:  0.00  83:  0.00  84:  0.00  85:  0.00  86:  0.00  87:  0.00  88:  0.00
  89:  0.00  90:  0.00  91:  0.00  92:  0.00  93:  0.00  94:  0.00  95:  0.00  96:  0.00
  97:  0.00  98:  0.00  99:  0.00 100:  0.00 101:  0.00 102:  0.00 103:  0.00 104:  0.00
 105:  0.00 106:  0.00 107:  0.00 108:  0.00 109:  0.00 110:  0.00 111:  0.00 112:  0.00
 113:  0.00 114:  0.00 115:  0.00 116:  0.00 117:  0.00 118:  0.00 119:  0.00 120:  0.00
 121:  0.00 122:  0.00 123:  0.00 124:  0.00 125:  0.00 126:  0.00 127:  0.00 128:  0.00
 129:  0.00 130:  0.00 131:  0.00 132:  0.00 133:  0.00 134:  0.00 135:  0.00 136:  0.00
 137:  0.00 138:  0.00 139:  0.00 140:  0.00 141:  0.00 142:  0.00 143:  0.00 144:  0.00
 145:  0.00 146:  0.00 147:  0.00 148:  0.00 149:  0.00 150:  0.00 151:  0.00 152:  0.00
 153:  0.00 154:  0.00 155:  0.00 156:  0.00 157:  0.00 158:  0.00 159:  0.00 160:  0.00
 161:  0.00 162:  0.00 163:  0.00 164:  0.00 165:  0.00 166:  0.00 167:  0.00 168:  0.00
 169:  0.00 170:  0.00 171:  0.00 172:  0.00 173:  0.00 174:  0.00 175:  0.00 176:  0.00
 177:  0.00 178:  0.00 179:  0.00 180:  0.00 181:  0.00 182:  0.00 183:  0.00 184:  0.00
 185:  0.00 186:  0.00 187:  0.00 188:  0.00 189:  0.00 190:  0.00 191:  0.00 192:  0.00
 193:  0.00 194:  0.00 195:  0.00 196:  0.00 197:  0.00 198:  0.00 199:  0.00 200:  0.00
 201:  0.00 202:  0.00 203:  0.00 204:  0.00 205:  0.00 206:  0.00 207:  0.00 208:  0.00
 209:  0.00 210:  0.00 211:  0.00 212:  0.00 213:  0.00 214:  0.00 215:  0.00 216:  0.00
 217:  0.00 218:  0.00 219:  0.00 220:  0.00 221:  0.00 222:  0.00 223:  0.00 224:  0.00
 225:  0.00 226:  0.00 227:  0.00 228:  0.00
 output can be read by thermo (or use thermo option).
 writing <g98.out> molden fake output.
 recommended (thermochemical) frequency scaling factor: 1.0
           -------------------------------------------------
          |             Thermodynamic Functions             |
           -------------------------------------------------

Refinement of some symmetry elements was terminated before convergence was reached.
Some symmetry elements may remain unidentified.
Molecule has no symmetry elements
It seems to be the C1 point group
c1  symmetry found (for desy threshold:  0.10E+00) used in thermo
 inverting freq            1   5.68343598915735     

          ...................................................
          :                      SETUP                      :
          :.................................................:
          :  # frequencies                         222      :
          :  # imaginary freq.                       0      :
          :  linear?                             false      :
          :  only rotor calc.                    false      :
          :  symmetry                               c1      :
          :  rotational number                       1      :
          :  scaling factor                  1.0000000      :
          :  rotor cutoff                   50.0000000 cm⁻¹ :
          :  imag. cutoff                  -20.0000000 cm⁻¹ :
          :.................................................:

    mode    ω/cm⁻¹     T·S(HO)/kcal·mol⁻¹    T·S(FR)/kcal·mol⁻¹   T·S(vib)
   ------------------------------------------------------------------------
       1      5.68    -2.72322 (  0.02%)    -1.70060 ( 99.98%)    -1.70077
       2      8.54    -2.48195 (  0.09%)    -1.57999 ( 99.91%)    -1.58076
       3     13.69    -2.20236 (  0.56%)    -1.44019 ( 99.44%)    -1.44445
       4     17.05    -2.07242 (  1.33%)    -1.37520 ( 98.67%)    -1.38451
       5     20.21    -1.97171 (  2.60%)    -1.32482 ( 97.40%)    -1.34165
       6     28.12    -1.77630 (  9.10%)    -1.22702 ( 90.90%)    -1.27698
       7     39.50    -1.57537 ( 28.04%)    -1.12634 ( 71.96%)    -1.25224
       8     42.67    -1.52980 ( 34.66%)    -1.10348 ( 65.34%)    -1.25126
       9     44.93    -1.49944 ( 39.46%)    -1.08824 ( 60.54%)    -1.25049
      10     48.49    -1.45444 ( 46.93%)    -1.06565 ( 53.07%)    -1.24810
      11     54.70    -1.38339 ( 58.88%)    -1.02994 ( 41.12%)    -1.23806
      12     61.85    -1.31107 ( 70.07%)    -0.99354 ( 29.93%)    -1.21603
      13     67.83    -1.25679 ( 77.21%)    -0.96618 ( 22.79%)    -1.19055
      14     69.38    -1.24355 ( 78.76%)    -0.95950 ( 21.24%)    -1.18321
      15     73.97    -1.20599 ( 82.73%)    -0.94053 ( 17.27%)    -1.16013
      16     84.76    -1.12627 ( 89.20%)    -0.90019 ( 10.80%)    -1.10185
      17     88.11    -1.10365 ( 90.60%)    -0.88871 (  9.40%)    -1.08345
      18     93.91    -1.06644 ( 92.56%)    -0.86981 (  7.44%)    -1.05182
      19     96.85    -1.04849 ( 93.37%)    -0.86067 (  6.63%)    -1.03603
      20    100.91    -1.02464 ( 94.32%)    -0.84852 (  5.68%)    -1.01463
      21    106.01    -0.99604 ( 95.28%)    -0.83392 (  4.72%)    -0.98840
      22    109.83    -0.97550 ( 95.88%)    -0.82342 (  4.12%)    -0.96923
      23    117.28    -0.93760 ( 96.80%)    -0.80399 (  3.20%)    -0.93332
      24    126.56    -0.89375 ( 97.62%)    -0.78142 (  2.38%)    -0.89108
      25    134.59    -0.85850 ( 98.13%)    -0.76321 (  1.87%)    -0.85672
      26    137.29    -0.84713 ( 98.27%)    -0.75732 (  1.73%)    -0.84558
      27    143.25    -0.82288 ( 98.54%)    -0.74472 (  1.46%)    -0.82174
      28    144.80    -0.81678 ( 98.60%)    -0.74155 (  1.40%)    -0.81573
      29    149.04    -0.80038 ( 98.75%)    -0.73300 (  1.25%)    -0.79953
      30    154.42    -0.78025 ( 98.91%)    -0.72248 (  1.09%)    -0.77962
      31    183.24    -0.68430 ( 99.45%)    -0.67180 (  0.55%)    -0.68423
      32    184.76    -0.67972 ( 99.47%)    -0.66935 (  0.53%)    -0.67966
      33    195.76    -0.64775 ( 99.58%)    -0.65221 (  0.42%)    -0.64777
      34    206.84    -0.61759 ( 99.66%)    -0.63591 (  0.34%)    -0.61765
      35    208.78    -0.61250 ( 99.67%)    -0.63314 (  0.33%)    -0.61257
      36    232.20    -0.55511 ( 99.79%)    -0.60164 (  0.21%)    -0.55521
      37    235.46    -0.54768 ( 99.80%)    -0.59752 (  0.20%)    -0.54778
      38    237.62    -0.54281 ( 99.80%)    -0.59480 (  0.20%)    -0.54291
      39    250.53    -0.51486 ( 99.84%)    -0.57914 (  0.16%)    -0.51496
      40    254.32    -0.50698 ( 99.85%)    -0.57469 (  0.15%)    -0.50708
      41    286.95    -0.44480 ( 99.91%)    -0.53893 (  0.09%)    -0.44489
      42    294.60    -0.43155 ( 99.92%)    -0.53114 (  0.08%)    -0.43163
   ------------------------------------------------------------------------

   temp. (K)  partition function   enthalpy   heat capacity  entropy
                                   cal/mol     cal/K/mol   cal/K/mol   J/K/mol
 298.15  VIB  0.290E+23            25331.673    140.322    167.365
         ROT  0.408E+08              888.752      2.981     37.806
         INT  0.118E+31            26220.425    143.303    205.171
         TR   0.108E+29             1481.254      4.968     44.499
         TOT                       27701.6793   148.2715   249.6696  1044.6176

       T/K    H(0)-H(T)+PV         H(T)/Eh          T*S/Eh         G(T)/Eh
   ------------------------------------------------------------------------
    298.15    0.441454E-01    0.668661E+00    0.118626E+00    0.550035E+00
   ------------------------------------------------------------------------

         :::::::::::::::::::::::::::::::::::::::::::::::::::::
         ::                  THERMODYNAMIC                  ::
         :::::::::::::::::::::::::::::::::::::::::::::::::::::
         :: total free energy        -109.721335328873 Eh   ::
         ::.................................................::
         :: total energy             -110.271370080679 Eh   ::
         :: zero point energy           0.624515399069 Eh   ::
         :: G(RRHO) w/o ZPVE           -0.074480647263 Eh   ::
         :: G(RRHO) contrib.            0.550034751807 Eh   ::
         :::::::::::::::::::::::::::::::::::::::::::::::::::::
imag cut-off (cm-1) :    5.00
 found            1  significant imaginary frequency
 writing imag mode distorted coords to xtbhess.xyz
 for further optimization.

           -------------------------------------------------
          | TOTAL ENERGY             -110.271370080679 Eh   |
          | TOTAL ENTHALPY           -109.602709245645 Eh   |
          | TOTAL FREE ENERGY        -109.721335328873 Eh   |
          | GRADIENT NORM               0.000204481451 Eh/α |
          | HOMO-LUMO GAP               2.984611799629 eV   |
           -------------------------------------------------

------------------------------------------------------------------------
 * finished run on 2026/08/20 at 20:37:20.834     
------------------------------------------------------------------------
 total:
 * wall-time:     0 d,  0 h,  0 min, 12.312 sec
 *  cpu-time:     0 d,  0 h,  1 min, 23.250 sec
 * ratio c/w:     6.762 speedup
 SCF:
 * wall-time:     0 d,  0 h,  0 min,  0.096 sec
 *  cpu-time:     0 d,  0 h,  0 min,  0.109 sec
 * ratio c/w:     1.139 speedup
 analytical hessian:
 * wall-time:     0 d,  0 h,  0 min, 12.144 sec
 *  cpu-time:     0 d,  0 h,  1 min, 23.094 sec
 * ratio c/w:     6.842 speedup



===== STDERR =====

normal termination of xtb
