      -----------------------------------------------------------      
     |                   =====================                   |     
     |                           x T B                           |     
     |                   =====================                   |     
     |                         S. Grimme                         |     
     |          Mulliken Center for Theoretical Chemistry        |     
     |                    University of Bonn                     |     
      -----------------------------------------------------------      

   * xtb version 6.7.1pre (5071a88) compiled by 'Marcel@Raven' on 2024-07-23

   xtb is free software: you can redistribute it and/or modify it under
   the terms of the GNU Lesser General Public License as published by
   the Free Software Foundation, either version 3 of the License, or
   (at your option) any later version.
   
   xtb is distributed in the hope that it will be useful,
   but WITHOUT ANY WARRANTY; without even the implied warranty of
   MERCHANTABILITY or FITNESS FOR A PARTICULAR PURPOSE.  See the
   GNU Lesser General Public License for more details.
   
   Cite this work as:
   * C. Bannwarth, E. Caldeweyher, S. Ehlert, A. Hansen, P. Pracht,
     J. Seibert, S. Spicher, S. Grimme, WIREs Comput. Mol. Sci., 2020, 11,
     e01493. DOI: 10.1002/wcms.1493
   
   for GFN2-xTB:
   * C. Bannwarth, S. Ehlert and S. Grimme., J. Chem. Theory Comput., 2019,
     15, 1652-1671. DOI: 10.1021/acs.jctc.8b01176
   for GFN1-xTB:
   * S. Grimme, C. Bannwarth, P. Shushkov, J. Chem. Theory Comput., 2017,
     13, 1989-2009. DOI: 10.1021/acs.jctc.7b00118
   for GFN0-xTB:
   * P. Pracht, E. Caldeweyher, S. Ehlert, S. Grimme, ChemRxiv, 2019, preprint.
     DOI: 10.26434/chemrxiv.8326202.v1
   for GFN-FF:
   * S. Spicher and S. Grimme, Angew. Chem. Int. Ed., 2020, 59, 15665-15673.
     DOI: 10.1002/anie.202004239
   
   for ALPB and GBSA implicit solvation:
   * S. Ehlert, M. Stahn, S. Spicher, S. Grimme, J. Chem. Theory Comput.,
     2021, 17, 4250-4261. DOI: 10.1021/acs.jctc.1c00471
   
   for ddCOSMO and CPCM-X implicit solvation:
   * M. Stahn, S. Ehlert, S. Grimme, J. Phys. Chem. A,
     2023, XX, XXXX-XXXX. DOI: 10.1021/acs.jpca.3c04382
   
   for DFT-D4:
   * E. Caldeweyher, C. Bannwarth and S. Grimme, J. Chem. Phys., 2017,
     147, 034112. DOI: 10.1063/1.4993215
   * E. Caldeweyher, S. Ehlert, A. Hansen, H. Neugebauer, S. Spicher,
     C. Bannwarth and S. Grimme, J. Chem. Phys., 2019, 150, 154122.
     DOI: 10.1063/1.5090222
   * E. Caldeweyher, J.-M. Mewes, S. Ehlert and S. Grimme, Phys. Chem. Chem. Phys.
     2020, 22, 8499-8512. DOI: 10.1039/D0CP00502A
   
   for sTDA-xTB:
   * S. Grimme and C. Bannwarth, J. Chem. Phys., 2016, 145, 054103.
     DOI: 10.1063/1.4959605
   
   in the mass-spec context:
   * V. Asgeirsson, C. Bauer and S. Grimme, Chem. Sci., 2017, 8, 4879.
     DOI: 10.1039/c7sc00601b
   * J. Koopman and S. Grimme, ACS Omega 2019, 4, 12, 15120-15133.
     DOI: 10.1021/acsomega.9b02011
   
   for metadynamics refer to:
   * S. Grimme, J. Chem. Theory Comput., 2019, 155, 2847-2862
     DOI: 10.1021/acs.jctc.9b00143
   
   for SPH calculations refer to:
   * S. Spicher and S. Grimme, J. Chem. Theory Comput., 2021, 17, 1701-1714
     DOI: 10.1021/acs.jctc.0c01306
   
   for ONIOM refer to:
   * C. Plett, A. Katbashev, S. Ehlert, S. Grimme, M. Bursch,
     Phys. Chem. Chem. Phys., 2023, 25, 17860-17868. DOI: 10.1039/D3CP02178E
   
   for DIPRO refer to:
   * J. Kohn, N. Gildemeister, S. Grimme, D. Fazzi, A. Hansen,
     J. Chem. Phys., 2023, just accepted.
   
   for PTB refer to:
   * S. Grimme, M. Mueller, A. Hansen, J. Chem. Phys., 2023, 158, 124111.
     DOI: 10.1063/5.0137838
   
   with help from (in alphabetical order)
   P. Atkinson, C. Bannwarth, F. Bohle, G. Brandenburg, E. Caldeweyher
   M. Checinski, S. Dohm, S. Ehlert, S. Ehrlich, I. Gerasimov, C. Hölzer
   A. Katbashev, J. Kohn, J. Koopman, C. Lavigne, S. Lehtola, F. März, M. Müller,
   F. Musil, H. Neugebauer, J. Pisarek, C. Plett, P. Pracht, F. Pultar,
   J. Seibert, P. Shushkov, S. Spicher, M. Stahn, M. Steiner, T. Strunk,
   J. Stückrath, T. Rose, and J. Unsleber
   
 * started run on 2026/08/31 at 13:17:06.473     
   ID    Z sym.   atoms
    1    7 N      1, 17, 63, 72
    2    6 C      2-15, 18-26, 64, 66, 67, 73
    3    8 O      16, 27, 60, 65, 68
    4    1 H      28-59, 61, 62, 69-71, 74-76

           -------------------------------------------------
          |                Calculation Setup                |
           -------------------------------------------------

          program call               : C:\Users\Nayanika\Downloads\xtb-6.7.1pre-windows-x86_64\xtb-6.7.1\bin\xtb.exe D:\PhD_Thesis\LmrR_EVB\charges\fast_lmrr_5QM\xtb_preparation\stage2_five_xtb_protocols\GFN2_etemp500\RS2_1_to_TS2_1a\RS2_1_to_TS2_1a_PS_xtbopt.xyz --gfn 2 --chrg 0 --uhf 0 --etemp 500
          coordinate file            : D:\PhD_Thesis\LmrR_EVB\charges\fast_lmrr_5QM\xtb_preparation\stage2_five_xtb_protocols\GFN2_etemp500\RS2_1_to_TS2_1a\RS2_1_to_TS2_1a_PS_xtbopt.xyz
          omp threads                :                     1


molecular fragmentation (1/2 indicates fragments):
111111111111111211111111112221111111111111111111111111111222221111111111
1111
# atoms in fragment 1/2:    67     9
 fragment masses (1/2) :      446.59       54.05
CMA distance (Bohr)    :   6.521
constraining FC (au)   :  0.0500

           -------------------------------------------------
          |                 G F N 2 - x T B                 |
           -------------------------------------------------

        Reference                      10.1021/acs.jctc.8b01176
      * Hamiltonian:
        H0-scaling (s, p, d)           1.850000    2.230000    2.230000
        zeta-weighting                 0.500000
      * Dispersion:
        s8                             2.700000
        a1                             0.520000
        a2                             5.000000
        s9                             5.000000
      * Repulsion:
        kExp                           1.500000    1.000000
        rExp                           1.000000
      * Coulomb:
        alpha                          2.000000
        third order                    shell-resolved
        anisotropic                    true
        a3                             3.000000
        a5                             4.000000
        cn-shift                       1.200000
        cn-exp                         4.000000
        max-rad                        5.000000

q/qsh data taken from xtbrestart
CAMM data taken from xtbrestart

          ...................................................
          :                      SETUP                      :
          :.................................................:
          :  # basis functions                 184          :
          :  # atomic orbitals                 184          :
          :  # shells                          112          :
          :  # electrons                       198          :
          :  max. iterations                   250          :
          :  Hamiltonian                  GFN2-xTB          :
          :  restarted?                       true          :
          :  GBSA solvation                  false          :
          :  PC potential                    false          :
          :  electronic temp.          500.0000000     K    :
          :  accuracy                    1.0000000          :
          :  -> integral cutoff          0.2500000E+02      :
          :  -> integral neglect         0.1000000E-07      :
          :  -> SCF convergence          0.1000000E-05 Eh   :
          :  -> wf. convergence          0.1000000E-03 e    :
          :  Broyden damping             0.4000000          :
          :  net charge                          0          :
          :  unpaired electrons                  0          :
          ...................................................

 iter      E             dE          RMSdq      gap      omega  full diag
   1   -111.7975837 -0.111798E+03  0.575E-01    2.11       0.0  T
   2   -111.7978948 -0.311117E-03  0.340E-01    2.09       1.0  T
   3   -111.7976230  0.271860E-03  0.815E-02    2.06       1.0  T
   4   -111.7980092 -0.386210E-03  0.226E-02    2.08       1.0  T
   5   -111.7980185 -0.929488E-05  0.831E-03    2.08       1.4  T
   6   -111.7980200 -0.152515E-05  0.424E-03    2.08       2.7  T
   7   -111.7980203 -0.291268E-06  0.150E-03    2.08       7.6  T
   8   -111.7980204 -0.809156E-07  0.467E-04    2.08      24.5  T
   9   -111.7980204 -0.542731E-08  0.209E-04    2.08      54.9  T

   *** convergence criteria satisfied after 9 iterations ***

         #    Occupation            Energy/Eh            Energy/eV
      -------------------------------------------------------------
         1        2.0000           -0.7031988             -19.1350
       ...           ...                  ...                  ...
        93        2.0000           -0.4023086             -10.9474
        94        2.0000           -0.3991841             -10.8624
        95        2.0000           -0.3970305             -10.8037
        96        2.0000           -0.3877992             -10.5526
        97        2.0000           -0.3831643             -10.4264
        98        2.0000           -0.3683652             -10.0237
        99        2.0000           -0.3374319              -9.1820 (HOMO)
       100                         -0.2610265              -7.1029 (LUMO)
       101                         -0.2190902              -5.9617
       102                         -0.2135830              -5.8119
       103                         -0.2092539              -5.6941
       104                         -0.2052968              -5.5864
       ...                                ...                  ...
       184                          0.7073236              19.2473
      -------------------------------------------------------------
                  HL-Gap            0.0764054 Eh            2.0791 eV
             Fermi-level           -0.2992292 Eh           -8.1424 eV

 SCC (total)                   0 d,  0 h,  0 min,  0.269 sec
 SCC setup                      ...        0 min,  0.003 sec (  1.115%)
 Dispersion                     ...        0 min,  0.011 sec (  4.089%)
 classical contributions        ...        0 min,  0.001 sec (  0.372%)
 integral evaluation            ...        0 min,  0.032 sec ( 11.896%)
 iterations                     ...        0 min,  0.119 sec ( 44.238%)
 molecular gradient             ...        0 min,  0.100 sec ( 37.175%)
 printout                       ...        0 min,  0.003 sec (  1.115%)

         :::::::::::::::::::::::::::::::::::::::::::::::::::::
         ::                     SUMMARY                     ::
         :::::::::::::::::::::::::::::::::::::::::::::::::::::
         :: total energy            -110.268046476552 Eh    ::
         :: gradient norm              0.000168089690 Eh/a0 ::
         :: HOMO-LUMO gap              2.079095874299 eV    ::
         ::.................................................::
         :: SCC energy              -111.794613503612 Eh    ::
         :: -> isotropic ES            0.190498324154 Eh    ::
         :: -> anisotropic ES          0.001443044451 Eh    ::
         :: -> anisotropic XC          0.046670203474 Eh    ::
         :: -> dispersion             -0.087655980677 Eh    ::
         :: repulsion energy           1.526567027060 Eh    ::
         :: add. restraining           0.000000000000 Eh    ::
         :: total charge               0.000000000000 e     ::
         :::::::::::::::::::::::::::::::::::::::::::::::::::::

           -------------------------------------------------
          |                Property Printout                |
           -------------------------------------------------

    * Orbital Energies and Occupations

         #    Occupation            Energy/Eh            Energy/eV
      -------------------------------------------------------------
         1        2.0000           -0.7031988             -19.1350
       ...           ...                  ...                  ...
        87        2.0000           -0.4187225             -11.3940
        88        2.0000           -0.4167580             -11.3406
        89        2.0000           -0.4090642             -11.1312
        90        2.0000           -0.4075637             -11.0904
        91        2.0000           -0.4069424             -11.0735
        92        2.0000           -0.4038854             -10.9903
        93        2.0000           -0.4023086             -10.9474
        94        2.0000           -0.3991841             -10.8624
        95        2.0000           -0.3970305             -10.8037
        96        2.0000           -0.3877992             -10.5526
        97        2.0000           -0.3831643             -10.4264
        98        2.0000           -0.3683652             -10.0237
        99        2.0000           -0.3374319              -9.1820 (HOMO)
       100                         -0.2610265              -7.1029 (LUMO)
       101                         -0.2190902              -5.9617
       102                         -0.2135830              -5.8119
       103                         -0.2092539              -5.6941
       104                         -0.2052968              -5.5864
       105                         -0.2033358              -5.5330
       106                         -0.1922939              -5.2326
       107                         -0.0902486              -2.4558
       108                         -0.0752211              -2.0469
       109                         -0.0029316              -0.0798
       110                          0.0110032               0.2994
       ...                                ...                  ...
       184                          0.7073236              19.2473
      -------------------------------------------------------------
                  HL-Gap            0.0764054 Eh            2.0791 eV
             Fermi-level           -0.2992292 Eh           -8.1424 eV

     #   Z          covCN         q      C6AA      α(0)
     1   7 N        1.831    -0.258    27.560     7.779
     2   6 C        2.936     0.076    26.301     8.411
     3   6 C        2.921    -0.048    29.192     8.860
     4   6 C        2.925    -0.035    28.877     8.813
     5   6 C        2.976     0.007    27.860     8.658
     6   6 C        2.926    -0.040    28.983     8.829
     7   6 C        2.922    -0.051    29.256     8.870
     8   6 C        3.811    -0.066    21.764     6.640
     9   6 C        3.801     0.018    20.276     6.411
    10   6 C        2.850     0.086    26.073     8.369
    11   6 C        3.987    -0.050    21.399     6.572
    12   6 C        4.002    -0.018    20.823     6.483
    13   6 C        3.804    -0.061    21.675     6.628
    14   6 C        3.801    -0.058    21.612     6.619
    15   6 C        3.752    -0.101    22.498     6.764
    16   8 O        1.609    -0.596    25.093     6.761
    17   7 N        2.718    -0.204    25.425     7.489
    18   6 C        2.984     0.068    26.473     8.440
    19   6 C        3.020    -0.022    28.522     8.760
    20   6 C        4.027    -0.034    21.096     6.525
    21   6 C        2.914    -0.065    29.617     8.924
    22   6 C        2.915    -0.041    29.009     8.832
    23   6 C        4.043     0.084    19.110     6.210
    24   6 C        2.923    -0.035    28.872     8.812
    25   6 C        2.921    -0.051    29.254     8.870
    26   6 C        3.754    -0.115    22.753     6.802
    27   8 O        1.610    -0.579    24.687     6.706
    28   1 H        0.804     0.309     0.695     1.309
    29   1 H        0.804     0.311     0.690     1.305
    30   1 H        0.926     0.042     2.425     2.435
    31   1 H        0.926     0.033     2.548     2.496
    32   1 H        0.926     0.028     2.608     2.525
    33   1 H        0.926     0.060     2.204     2.321
    34   1 H        0.924     0.051     2.309     2.376
    35   1 H        0.925     0.060     2.204     2.322
    36   1 H        0.924     0.078     2.002     2.213
    37   1 H        0.860     0.171     1.269     1.765
    38   1 H        0.860     0.175     1.243     1.747
    39   1 H        0.925     0.038     2.478     2.462
    40   1 H        0.924     0.062     2.170     2.304
    41   1 H        0.924     0.029     2.606     2.525
    42   1 H        0.924     0.033     2.547     2.496
    43   1 H        0.924     0.042     2.418     2.432
    44   1 H        0.924     0.053     2.277     2.360
    45   1 H        0.924     0.025     2.662     2.552
    46   1 H        0.925     0.031     2.574     2.509
    47   1 H        0.925     0.030     2.582     2.513
    48   1 H        0.925     0.035     2.516     2.480
    49   1 H        0.860     0.177     1.234     1.740
    50   1 H        0.925     0.036     2.506     2.475
    51   1 H        0.926     0.027     2.623     2.533
    52   1 H        0.926     0.022     2.698     2.569
    53   1 H        0.926     0.023     2.687     2.563
    54   1 H        0.926     0.021     2.722     2.580
    55   1 H        0.925     0.054     2.276     2.359
    56   1 H        0.925     0.049     2.328     2.386
    57   1 H        0.925     0.047     2.353     2.399
    58   1 H        0.805     0.294     0.740     1.351
    59   1 H        0.805     0.283     0.773     1.381
    60   8 O        1.610    -0.602    25.239     6.780
    61   1 H        0.806     0.279     0.788     1.394
    62   1 H        0.806     0.271     0.816     1.419
    63   7 N        2.691    -0.199    25.327     7.474
    64   6 C        2.753     0.263    22.560     7.778
    65   8 O        0.858    -0.426    22.207     6.318
    66   6 C        3.757    -0.154    23.542     6.918
    67   6 C        2.749     0.281    22.240     7.722
    68   8 O        0.859    -0.450    22.708     6.389
    69   1 H        0.925     0.041     2.431     2.438
    70   1 H        0.925     0.075     2.034     2.230
    71   1 H        0.924     0.104     1.749     2.068
    72   7 N        2.687    -0.169    24.653     7.374
    73   6 C        3.689    -0.045    21.576     6.648
    74   1 H        0.924     0.053     2.288     2.365
    75   1 H        0.924     0.051     2.312     2.378
    76   1 H        0.925     0.088     1.897     2.154

 Mol. C6AA /au·bohr⁶  :      55183.082700
 Mol. C8AA /au·bohr⁸  :    1256786.627329
 Mol. α(0) /au        :        359.464224


Wiberg/Mayer (AO) data.
largest (>0.10) Wiberg bond orders for each atom

 ---------------------------------------------------------------------------
     #   Z sym  total        # sym  WBO       # sym  WBO       # sym  WBO
 ---------------------------------------------------------------------------
     1   7 N    3.164 --    10 C    1.787     2 C    1.088
     2   6 C    3.975 --     7 C    1.363     3 C    1.355     1 N    1.088
     3   6 C    3.989 --     4 C    1.461     2 C    1.355    30 H    0.962
                             6 C    0.102
     4   6 C    3.991 --     3 C    1.461     5 C    1.401    31 H    0.968
                             7 C    0.106
     5   6 C    3.985 --     6 C    1.402     4 C    1.401     8 C    1.013
     6   6 C    3.990 --     7 C    1.457     5 C    1.402    32 H    0.968
                             3 C    0.102
     7   6 C    3.987 --     6 C    1.457     2 C    1.363    33 H    0.963
                             4 C    0.106
     8   6 C    3.992 --     5 C    1.013    34 H    0.972    35 H    0.967
                             9 C    0.965
     9   6 C    3.966 --    63 N    0.983     8 C    0.965    36 H    0.943
                            64 C    0.929
    10   6 C    3.962 --     1 N    1.787    11 C    1.052    39 H    0.954
    11   6 C    3.989 --    10 C    1.052    12 C    0.959    40 H    0.956
                            23 C    0.890
    12   6 C    3.987 --    13 C    1.003    41 H    0.968    20 C    0.965
                            11 C    0.959
    13   6 C    3.995 --    14 C    1.006    12 C    1.003    43 H    0.974
                            42 H    0.972
    14   6 C    3.995 --    15 C    1.019    13 C    1.006    45 H    0.979
                            44 H    0.973
    15   6 C    3.997 --    14 C    1.019    47 H    0.988    46 H    0.987
                            48 H    0.986
    16   8 O    1.853 --    61 H    0.918    28 H    0.853
    17   7 N    3.333 --    18 C    1.150    23 C    1.006    49 H    0.925
    18   6 C    3.972 --    21 C    1.371    19 C    1.294    17 N    1.150
    19   6 C    3.983 --    22 C    1.467    18 C    1.294    20 C    1.003
                            24 C    0.102
    20   6 C    3.989 --    19 C    1.003    12 C    0.965    23 C    0.964
                            50 H    0.963
    21   6 C    3.986 --    24 C    1.431    18 C    1.371    51 H    0.969
    22   6 C    3.991 --    19 C    1.467    25 C    1.398    52 H    0.970
    23   6 C    3.967 --    17 N    1.006    26 C    1.003    20 C    0.964
                            11 C    0.890
    24   6 C    3.991 --    25 C    1.450    21 C    1.431    53 H    0.972
                            19 C    0.102
    25   6 C    3.988 --    24 C    1.450    22 C    1.398    54 H    0.972
    26   6 C    3.993 --    23 C    1.003    55 H    0.982    56 H    0.980
                            57 H    0.977
    27   8 O    1.843 --    59 H    0.916    58 H    0.897
    28   1 H    0.904 --    16 O    0.853
    29   1 H    0.903 --    60 O    0.863
    30   1 H    0.998 --     3 C    0.962
    31   1 H    0.999 --     4 C    0.968
    32   1 H    0.998 --     6 C    0.968
    33   1 H    0.996 --     7 C    0.963
    34   1 H    0.997 --     8 C    0.972
    35   1 H    0.995 --     8 C    0.967
    36   1 H    0.994 --     9 C    0.943
    37   1 H    0.971 --    63 N    0.939
    38   1 H    0.969 --    72 N    0.941
    39   1 H    0.998 --    10 C    0.954
    40   1 H    0.996 --    11 C    0.956
    41   1 H    0.999 --    12 C    0.968
    42   1 H    0.997 --    13 C    0.972
    43   1 H    0.998 --    13 C    0.974
    44   1 H    0.997 --    14 C    0.973
    45   1 H    0.999 --    14 C    0.979
    46   1 H    0.999 --    15 C    0.987
    47   1 H    0.999 --    15 C    0.988
    48   1 H    0.999 --    15 C    0.986
    49   1 H    0.968 --    17 N    0.925
    50   1 H    0.998 --    20 C    0.963
    51   1 H    0.999 --    21 C    0.969
    52   1 H    0.999 --    22 C    0.970
    53   1 H    0.999 --    24 C    0.972
    54   1 H    0.999 --    25 C    0.972
    55   1 H    0.997 --    26 C    0.982
    56   1 H    0.995 --    26 C    0.980
    57   1 H    0.997 --    26 C    0.977
    58   1 H    0.914 --    27 O    0.897
    59   1 H    0.919 --    27 O    0.916
    60   8 O    1.824 --    62 H    0.925    29 H    0.863
    61   1 H    0.922 --    16 O    0.918
    62   1 H    0.927 --    60 O    0.925
    63   7 N    3.410 --    67 C    1.219     9 C    0.983    37 H    0.939
                            68 O    0.183
    64   6 C    3.953 --    65 O    1.692    72 N    1.262     9 C    0.929
    65   8 O    2.016 --    64 C    1.692    72 N    0.205
    66   6 C    3.989 --    67 C    0.993    69 H    0.982    70 H    0.970
                            71 H    0.944
    67   6 C    3.945 --    68 O    1.685    63 N    1.219    66 C    0.993
    68   8 O    1.993 --    67 C    1.685    63 N    0.183
    69   1 H    0.998 --    66 C    0.982
    70   1 H    0.994 --    66 C    0.970
    71   1 H    0.989 --    66 C    0.944
    72   7 N    3.450 --    64 C    1.262    73 C    1.005    38 H    0.941
                            65 O    0.205
    73   6 C    3.962 --    72 N    1.005    75 H    0.977    74 H    0.977
                            76 H    0.975
    74   1 H    0.997 --    73 C    0.977
    75   1 H    0.997 --    73 C    0.977
    76   1 H    0.992 --    73 C    0.975
 ---------------------------------------------------------------------------

Topologies differ in total number of bonds
Writing topology from bond orders to xtbtopo.mol

molecular dipole:
                 x           y           z       tot (Debye)
 q only:        0.307       0.266      -0.848
   full:       -0.059       0.269      -1.196       3.120
molecular quadrupole (traceless):
                xx          xy          yy          xz          yz          zz
 q only:       -0.094      27.369      -1.340      -4.343     -13.672       1.434
  q+dip:       -2.863      28.485       0.021      -4.643     -18.931       2.842
   full:       -5.040      30.143       0.592      -4.737     -19.682       4.448


           -------------------------------------------------
          | TOTAL ENERGY             -110.268046476552 Eh   |
          | GRADIENT NORM               0.000168089690 Eh/α |
          | HOMO-LUMO GAP               2.079095874299 eV   |
           -------------------------------------------------

------------------------------------------------------------------------
 * finished run on 2026/08/31 at 13:17:06.883     
------------------------------------------------------------------------
 total:
 * wall-time:     0 d,  0 h,  0 min,  0.401 sec
 *  cpu-time:     0 d,  0 h,  0 min,  0.297 sec
 * ratio c/w:     0.740 speedup
 SCF:
 * wall-time:     0 d,  0 h,  0 min,  0.269 sec
 *  cpu-time:     0 d,  0 h,  0 min,  0.219 sec
 * ratio c/w:     0.813 speedup



===== STDERR =====

normal termination of xtb
