76
 energy: -110.268086013993 gnorm: 0.000213498457 xtb: 6.7.1pre (5071a88)
N           -0.23449037014776        0.50548450315817        0.08725404509817
C            1.12188627096095        0.17726860067574        0.05663339269068
C            1.92925569627961        0.32785306334390        1.18272395960608
C            3.27379112595487        0.03191141075767        1.11672297323656
C            3.84320137304152       -0.42315056067572       -0.06533704527420
C            3.01423752010198       -0.65776699444693       -1.15517073029961
C            1.66329400569558       -0.38062260178643       -1.09816612401333
C            5.33309613522392       -0.48263582377652       -0.21142116268644
C            5.80949492349379        0.94089992176401       -0.55683881395736
C           -0.65203796615769        1.67045986783278        0.37536518644577
C            0.13495055573436        2.88892385445204        0.64263685610092
C           -0.56285620842534        4.20718997536648        0.22379599080192
C            0.27110286354094        5.12134523230529       -0.65922201325367
C            0.27784419567341        4.66297908889569       -2.11522950248988
C            1.11818344683095        5.59104050316440       -2.98342681935989
O           -1.59220849211857       -0.18281542737009       -2.27282585747904
N           -0.74084428634708        2.68687310187861        3.05890880314461
C           -2.00755929831613        3.21950668319912        3.02781425028047
C           -2.03205437902629        4.42055747049508        2.30286528873145
C           -0.67846175330329        4.64074169440085        1.69951831243442
C           -3.15283090812409        2.74605675269760        3.64529184690456
C           -3.18709542375084        5.15762903435576        2.20291514179724
C            0.11966969001938        3.39127912462801        2.14177991336813
C           -4.31488720012623        3.49634021125390        3.53428604590246
C           -4.33823577335928        4.68698702693737        2.82863263030775
C            1.49998376822073        3.62003814664086        2.72734705561885
O           -0.80281146936671       -0.35777798381754        2.96749585755163
H           -1.16055760996309       -0.11952012523861       -1.39979702836295
H           -0.37451262623506        0.87301646651652       -3.17445667767392
H            1.49017660105056        0.68280639250001        2.10214740854873
H            3.89763427305057        0.18830736273012        1.98496484187052
H            3.43230854737435       -1.04913596450540       -2.07202497701426
H            1.04097809886834       -0.53627348760069       -1.96398055045866
H            5.63333525721576       -1.16443591587970       -1.00869605830212
H            5.82244005576987       -0.79654176518879        0.71014788089580
H            5.51138860476135        1.62589804182908        0.24753599359897
H            5.28497390836016        0.87103496186729       -2.58301645354197
H            7.08435865803268        2.96647583823580       -1.20326617876346
H           -1.73455034718621        1.78067109418310        0.41476750437334
H            1.15188404836311        2.77879343558877        0.25999910806664
H           -1.54044600167334        4.04522565823524       -0.24031046574057
H           -0.13885401204469        6.13388691907564       -0.60115834546775
H            1.29686423831036        5.15269905140710       -0.28670329220195
H            0.67087246735555        3.64728072100921       -2.17403669319723
H           -0.74775582727907        4.64562704807709       -2.49283726640707
H            1.14883866387245        5.23515590916025       -4.01087234536606
H            0.70365827166713        6.59748624235299       -2.98113890746171
H            2.13601950646113        5.64451473732594       -2.60280526613333
H           -0.61179418106326        1.70271313069571        3.24060853211461
H           -0.24800831778724        5.61446851950218        1.93256111705556
H           -3.13658330041990        1.81659496040839        4.19343614667327
H           -3.20433546613670        6.08096888607030        1.64193293596088
H           -5.21885364523776        3.14148988157610        4.00842826907056
H           -5.25530401484499        5.25250501609695        2.75772881819333
H            2.12791485832608        4.15693332656907        2.02193180847452
H            1.41000087489647        4.20105880260455        3.64298259060910
H            1.98142827191986        2.67488769980485        2.96408607432556
H           -0.76991736454512       -1.24168876006361        3.33735607433056
H           -0.77224711060078       -0.44784793491458        2.00855524236972
O            0.28282743491873        1.48390679732537       -3.54646424852430
H           -2.52195535539633        0.00501001419665       -2.13412718558274
H           -0.13354936113017        1.89720655174231       -4.30411811252412
N            5.16143391872913        1.43380957223335       -1.75537677653531
C            7.33276537269356        1.00319349005018       -0.72602718987549
O            8.06490848825864        0.05337595333551       -0.55326628860611
C            3.41698966615366        2.49432134808193       -3.03485370325029
C            4.11309975152711        2.30125460751995       -1.71381937563337
O            3.80982689465974        2.89883286792611       -0.70070971902044
H            4.01173163467564        2.12760214946581       -3.86647544785042
H            3.19816390680862        3.54889518251690       -3.17605208534563
H            2.46457407572334        1.96372470669116       -3.01619919547468
N            7.76093453178179        2.22705728400966       -1.09499474648764
C            9.15100842579054        2.53689429126254       -1.31870750339056
H            9.49187023883308        3.30940558325419       -0.62710619201717
H            9.31144088665402        2.87808497058895       -2.34319864716910
H            9.71895606617839        1.62377260349159       -1.14792290427429
