      -----------------------------------------------------------      
     |                   =====================                   |     
     |                           x T B                           |     
     |                   =====================                   |     
     |                         S. Grimme                         |     
     |          Mulliken Center for Theoretical Chemistry        |     
     |                    University of Bonn                     |     
      -----------------------------------------------------------      

   * xtb version 6.7.1pre (5071a88) compiled by 'Marcel@Raven' on 2024-07-23

   xtb is free software: you can redistribute it and/or modify it under
   the terms of the GNU Lesser General Public License as published by
   the Free Software Foundation, either version 3 of the License, or
   (at your option) any later version.
   
   xtb is distributed in the hope that it will be useful,
   but WITHOUT ANY WARRANTY; without even the implied warranty of
   MERCHANTABILITY or FITNESS FOR A PARTICULAR PURPOSE.  See the
   GNU Lesser General Public License for more details.
   
   Cite this work as:
   * C. Bannwarth, E. Caldeweyher, S. Ehlert, A. Hansen, P. Pracht,
     J. Seibert, S. Spicher, S. Grimme, WIREs Comput. Mol. Sci., 2020, 11,
     e01493. DOI: 10.1002/wcms.1493
   
   for GFN2-xTB:
   * C. Bannwarth, S. Ehlert and S. Grimme., J. Chem. Theory Comput., 2019,
     15, 1652-1671. DOI: 10.1021/acs.jctc.8b01176
   for GFN1-xTB:
   * S. Grimme, C. Bannwarth, P. Shushkov, J. Chem. Theory Comput., 2017,
     13, 1989-2009. DOI: 10.1021/acs.jctc.7b00118
   for GFN0-xTB:
   * P. Pracht, E. Caldeweyher, S. Ehlert, S. Grimme, ChemRxiv, 2019, preprint.
     DOI: 10.26434/chemrxiv.8326202.v1
   for GFN-FF:
   * S. Spicher and S. Grimme, Angew. Chem. Int. Ed., 2020, 59, 15665-15673.
     DOI: 10.1002/anie.202004239
   
   for ALPB and GBSA implicit solvation:
   * S. Ehlert, M. Stahn, S. Spicher, S. Grimme, J. Chem. Theory Comput.,
     2021, 17, 4250-4261. DOI: 10.1021/acs.jctc.1c00471
   
   for ddCOSMO and CPCM-X implicit solvation:
   * M. Stahn, S. Ehlert, S. Grimme, J. Phys. Chem. A,
     2023, XX, XXXX-XXXX. DOI: 10.1021/acs.jpca.3c04382
   
   for DFT-D4:
   * E. Caldeweyher, C. Bannwarth and S. Grimme, J. Chem. Phys., 2017,
     147, 034112. DOI: 10.1063/1.4993215
   * E. Caldeweyher, S. Ehlert, A. Hansen, H. Neugebauer, S. Spicher,
     C. Bannwarth and S. Grimme, J. Chem. Phys., 2019, 150, 154122.
     DOI: 10.1063/1.5090222
   * E. Caldeweyher, J.-M. Mewes, S. Ehlert and S. Grimme, Phys. Chem. Chem. Phys.
     2020, 22, 8499-8512. DOI: 10.1039/D0CP00502A
   
   for sTDA-xTB:
   * S. Grimme and C. Bannwarth, J. Chem. Phys., 2016, 145, 054103.
     DOI: 10.1063/1.4959605
   
   in the mass-spec context:
   * V. Asgeirsson, C. Bauer and S. Grimme, Chem. Sci., 2017, 8, 4879.
     DOI: 10.1039/c7sc00601b
   * J. Koopman and S. Grimme, ACS Omega 2019, 4, 12, 15120-15133.
     DOI: 10.1021/acsomega.9b02011
   
   for metadynamics refer to:
   * S. Grimme, J. Chem. Theory Comput., 2019, 155, 2847-2862
     DOI: 10.1021/acs.jctc.9b00143
   
   for SPH calculations refer to:
   * S. Spicher and S. Grimme, J. Chem. Theory Comput., 2021, 17, 1701-1714
     DOI: 10.1021/acs.jctc.0c01306
   
   for ONIOM refer to:
   * C. Plett, A. Katbashev, S. Ehlert, S. Grimme, M. Bursch,
     Phys. Chem. Chem. Phys., 2023, 25, 17860-17868. DOI: 10.1039/D3CP02178E
   
   for DIPRO refer to:
   * J. Kohn, N. Gildemeister, S. Grimme, D. Fazzi, A. Hansen,
     J. Chem. Phys., 2023, just accepted.
   
   for PTB refer to:
   * S. Grimme, M. Mueller, A. Hansen, J. Chem. Phys., 2023, 158, 124111.
     DOI: 10.1063/5.0137838
   
   with help from (in alphabetical order)
   P. Atkinson, C. Bannwarth, F. Bohle, G. Brandenburg, E. Caldeweyher
   M. Checinski, S. Dohm, S. Ehlert, S. Ehrlich, I. Gerasimov, C. Hölzer
   A. Katbashev, J. Kohn, J. Koopman, C. Lavigne, S. Lehtola, F. März, M. Müller,
   F. Musil, H. Neugebauer, J. Pisarek, C. Plett, P. Pracht, F. Pultar,
   J. Seibert, P. Shushkov, S. Spicher, M. Stahn, M. Steiner, T. Strunk,
   J. Stückrath, T. Rose, and J. Unsleber
   
 * started run on 2026/08/20 at 20:38:23.487     
   ID    Z sym.   atoms
    1    7 N      1, 17, 63, 72
    2    6 C      2-15, 18-26, 64, 66, 67, 73
    3    8 O      16, 27, 60, 65, 68
    4    1 H      28-59, 61, 62, 69-71, 74-76

           -------------------------------------------------
          |                Calculation Setup                |
           -------------------------------------------------

          program call               : C:\Users\Nayanika\Downloads\xtb-6.7.1pre-windows-x86_64\xtb-6.7.1\bin\xtb.exe D:\PhD_Thesis\LmrR_EVB\charges\fast_lmrr_5QM\xtb_preparation\stage2_five_xtb_protocols\GFN2_etemp500\RS2_1_to_TS2_1a\RS2_1_to_TS2_1a_PS_xtbopt.xyz --gfn 2 --chrg 0 --uhf 0 --hess --etemp 500
          coordinate file            : D:\PhD_Thesis\LmrR_EVB\charges\fast_lmrr_5QM\xtb_preparation\stage2_five_xtb_protocols\GFN2_etemp500\RS2_1_to_TS2_1a\RS2_1_to_TS2_1a_PS_xtbopt.xyz
          omp threads                :                     8


molecular fragmentation (1/2 indicates fragments):
111111111111111211111111112221111111111111111111111111111222221111111111
1111
# atoms in fragment 1/2:    67     9
 fragment masses (1/2) :      446.59       54.05
CMA distance (Bohr)    :   6.521
constraining FC (au)   :  0.0500

           -------------------------------------------------
          |                 G F N 2 - x T B                 |
           -------------------------------------------------

        Reference                      10.1021/acs.jctc.8b01176
      * Hamiltonian:
        H0-scaling (s, p, d)           1.850000    2.230000    2.230000
        zeta-weighting                 0.500000
      * Dispersion:
        s8                             2.700000
        a1                             0.520000
        a2                             5.000000
        s9                             5.000000
      * Repulsion:
        kExp                           1.500000    1.000000
        rExp                           1.000000
      * Coulomb:
        alpha                          2.000000
        third order                    shell-resolved
        anisotropic                    true
        a3                             3.000000
        a5                             4.000000
        cn-shift                       1.200000
        cn-exp                         4.000000
        max-rad                        5.000000

q/qsh data taken from xtbrestart
CAMM data taken from xtbrestart

          ...................................................
          :                      SETUP                      :
          :.................................................:
          :  # basis functions                 184          :
          :  # atomic orbitals                 184          :
          :  # shells                          112          :
          :  # electrons                       198          :
          :  max. iterations                   250          :
          :  Hamiltonian                  GFN2-xTB          :
          :  restarted?                       true          :
          :  GBSA solvation                  false          :
          :  PC potential                    false          :
          :  electronic temp.          500.0000000     K    :
          :  accuracy                    1.0000000          :
          :  -> integral cutoff          0.2500000E+02      :
          :  -> integral neglect         0.1000000E-07      :
          :  -> SCF convergence          0.1000000E-05 Eh   :
          :  -> wf. convergence          0.1000000E-03 e    :
          :  Broyden damping             0.4000000          :
          :  net charge                          0          :
          :  unpaired electrons                  0          :
          ...................................................

 iter      E             dE          RMSdq      gap      omega  full diag
   1   -111.7980204 -0.111798E+03  0.539E-07    2.08       0.0  T
   2   -111.7980204 -0.284217E-12  0.353E-07    2.08   32537.2  T
   3   -111.7980204  0.213163E-12  0.204E-07    2.08   56316.5  T

   *** convergence criteria satisfied after 3 iterations ***

         #    Occupation            Energy/Eh            Energy/eV
      -------------------------------------------------------------
         1        2.0000           -0.7031992             -19.1350
       ...           ...                  ...                  ...
        93        2.0000           -0.4023082             -10.9474
        94        2.0000           -0.3991838             -10.8623
        95        2.0000           -0.3970303             -10.8037
        96        2.0000           -0.3877994             -10.5526
        97        2.0000           -0.3831641             -10.4264
        98        2.0000           -0.3683651             -10.0237
        99        2.0000           -0.3374307              -9.1820 (HOMO)
       100                         -0.2610261              -7.1029 (LUMO)
       101                         -0.2190899              -5.9617
       102                         -0.2135832              -5.8119
       103                         -0.2092537              -5.6941
       104                         -0.2052963              -5.5864
       ...                                ...                  ...
       184                          0.7073240              19.2473
      -------------------------------------------------------------
                  HL-Gap            0.0764046 Eh            2.0791 eV
             Fermi-level           -0.2992284 Eh           -8.1424 eV

 SCC (total)                   0 d,  0 h,  0 min,  0.069 sec
 SCC setup                      ...        0 min,  0.000 sec (  0.000%)
 Dispersion                     ...        0 min,  0.001 sec (  1.449%)
 classical contributions        ...        0 min,  0.001 sec (  1.450%)
 integral evaluation            ...        0 min,  0.004 sec (  5.797%)
 iterations                     ...        0 min,  0.046 sec ( 66.667%)
 molecular gradient             ...        0 min,  0.016 sec ( 23.188%)
 printout                       ...        0 min,  0.001 sec (  1.449%)

         :::::::::::::::::::::::::::::::::::::::::::::::::::::
         ::                     SUMMARY                     ::
         :::::::::::::::::::::::::::::::::::::::::::::::::::::
         :: total energy            -110.268046477376 Eh    ::
         :: gradient norm              0.000168103256 Eh/a0 ::
         :: HOMO-LUMO gap              2.079075794319 eV    ::
         ::.................................................::
         :: SCC energy              -111.794613504436 Eh    ::
         :: -> isotropic ES            0.190499301445 Eh    ::
         :: -> anisotropic ES          0.001442800979 Eh    ::
         :: -> anisotropic XC          0.046670132277 Eh    ::
         :: -> dispersion             -0.087655988298 Eh    ::
         :: repulsion energy           1.526567027060 Eh    ::
         :: add. restraining           0.000000000000 Eh    ::
         :: total charge              -0.000000000000 e     ::
         :::::::::::::::::::::::::::::::::::::::::::::::::::::

           ------------------------------------------------- 
          |                Numerical Hessian                |
           ------------------------------------------------- 
step length          :   0.00500
SCC accuracy         :   0.30000
Hessian scale factor :   1.00000
frozen atoms in %    :   0.00000    0
RMS gradient         :   0.00017
estimated CPU  time     11.27 min
estimated wall time      1.72 min

writing file <hessian>.

 projected vibrational frequencies (cm⁻¹)
eigval :       -0.00    -0.00    -0.00     0.00     0.00     0.00
eigval :        6.50    15.72    19.25    20.75    26.23    35.47
eigval :       38.32    41.91    44.49    53.65    56.84    57.65
eigval :       60.74    67.36    71.78    77.25    81.44    90.55
eigval :       91.62    96.74   108.11   113.63   115.86   125.10
eigval :      127.20   131.95   138.25   149.58   152.55   157.38
eigval :      161.67   176.17   184.08   187.85   189.21   218.62
eigval :      226.43   240.59   248.15   253.90   271.20   280.10
eigval :      288.07   289.38   305.32   311.73   324.02   329.45
eigval :      339.62   360.87   376.08   383.62   398.32   418.10
eigval :      420.17   427.27   430.67   456.06   468.02   485.87
eigval :      505.11   511.23   517.29   530.72   540.64   545.48
eigval :      547.69   578.06   585.38   594.82   599.95   608.91
eigval :      632.12   632.49   647.06   655.48   680.29   693.52
eigval :      707.55   721.65   772.31   772.94   784.41   814.61
eigval :      853.82   856.36   861.21   865.99   866.99   871.75
eigval :      891.76   894.69   900.81   913.16   918.23   921.88
eigval :      924.13   926.02   931.94   946.27   972.83   978.74
eigval :      997.22  1000.94  1003.97  1018.33  1025.47  1048.66
eigval :     1066.30  1073.83  1074.32  1086.48  1100.29  1105.42
eigval :     1107.36  1109.32  1114.97  1126.03  1127.07  1133.18
eigval :     1142.44  1147.69  1156.71  1163.66  1177.31  1187.11
eigval :     1190.64  1191.37  1192.23  1204.76  1208.94  1210.50
eigval :     1213.13  1226.64  1231.91  1252.63  1254.03  1258.33
eigval :     1267.09  1273.57  1277.12  1279.99  1287.15  1297.53
eigval :     1306.06  1321.58  1330.25  1340.88  1363.74  1370.67
eigval :     1380.83  1382.52  1393.44  1403.29  1406.65  1412.82
eigval :     1415.95  1426.99  1451.83  1462.54  1466.42  1468.24
eigval :     1475.72  1477.87  1478.22  1483.01  1483.15  1486.18
eigval :     1489.66  1498.47  1506.83  1512.27  1532.17  1534.35
eigval :     1560.52  1572.11  1598.37  1603.56  1616.20  1678.42
eigval :     1730.49  1758.30  2919.01  2931.55  2952.07  2965.16
eigval :     2970.26  2971.27  2971.29  2982.40  2986.87  2987.81
eigval :     2992.88  3004.40  3008.91  3014.56  3024.77  3029.90
eigval :     3030.28  3033.27  3035.14  3041.89  3043.02  3052.02
eigval :     3062.77  3069.45  3069.99  3073.54  3076.22  3087.34
eigval :     3094.28  3103.32  3121.67  3280.77  3413.45  3444.37
eigval :     3451.31  3453.25  3559.75  3654.76  3659.60  3666.17
           -------------------------------------------------
          |                Property Printout                |
           -------------------------------------------------

    * Orbital Energies and Occupations

         #    Occupation            Energy/Eh            Energy/eV
      -------------------------------------------------------------
         1        2.0000           -0.7031992             -19.1350
       ...           ...                  ...                  ...
        87        2.0000           -0.4187222             -11.3940
        88        2.0000           -0.4167582             -11.3406
        89        2.0000           -0.4090636             -11.1312
        90        2.0000           -0.4075632             -11.0904
        91        2.0000           -0.4069427             -11.0735
        92        2.0000           -0.4038850             -10.9903
        93        2.0000           -0.4023082             -10.9474
        94        2.0000           -0.3991838             -10.8623
        95        2.0000           -0.3970303             -10.8037
        96        2.0000           -0.3877995             -10.5526
        97        2.0000           -0.3831641             -10.4264
        98        2.0000           -0.3683650             -10.0237
        99        2.0000           -0.3374307              -9.1820 (HOMO)
       100                         -0.2610261              -7.1029 (LUMO)
       101                         -0.2190899              -5.9617
       102                         -0.2135832              -5.8119
       103                         -0.2092537              -5.6941
       104                         -0.2052963              -5.5864
       105                         -0.2033356              -5.5330
       106                         -0.1922941              -5.2326
       107                         -0.0902484              -2.4558
       108                         -0.0752210              -2.0469
       109                         -0.0029318              -0.0798
       110                          0.0110052               0.2995
       ...                                ...                  ...
       184                          0.7073240              19.2473
      -------------------------------------------------------------
                  HL-Gap            0.0764046 Eh            2.0791 eV
             Fermi-level           -0.2992284 Eh           -8.1424 eV

     #   Z          covCN         q      C6AA      α(0)
     1   7 N        1.831    -0.258    27.560     7.779
     2   6 C        2.936     0.076    26.301     8.411
     3   6 C        2.921    -0.048    29.192     8.860
     4   6 C        2.925    -0.035    28.877     8.813
     5   6 C        2.976     0.007    27.860     8.658
     6   6 C        2.926    -0.040    28.983     8.829
     7   6 C        2.922    -0.051    29.256     8.870
     8   6 C        3.811    -0.066    21.764     6.640
     9   6 C        3.801     0.018    20.276     6.411
    10   6 C        2.850     0.086    26.073     8.369
    11   6 C        3.987    -0.050    21.399     6.572
    12   6 C        4.002    -0.018    20.823     6.483
    13   6 C        3.804    -0.061    21.675     6.628
    14   6 C        3.801    -0.058    21.612     6.619
    15   6 C        3.752    -0.101    22.498     6.764
    16   8 O        1.609    -0.596    25.093     6.761
    17   7 N        2.718    -0.204    25.425     7.489
    18   6 C        2.984     0.068    26.473     8.440
    19   6 C        3.020    -0.022    28.522     8.760
    20   6 C        4.027    -0.034    21.096     6.525
    21   6 C        2.914    -0.065    29.617     8.924
    22   6 C        2.915    -0.041    29.009     8.832
    23   6 C        4.043     0.084    19.110     6.210
    24   6 C        2.923    -0.035    28.872     8.812
    25   6 C        2.921    -0.051    29.254     8.870
    26   6 C        3.754    -0.115    22.753     6.802
    27   8 O        1.610    -0.579    24.687     6.706
    28   1 H        0.804     0.309     0.695     1.309
    29   1 H        0.804     0.311     0.690     1.305
    30   1 H        0.926     0.042     2.425     2.435
    31   1 H        0.926     0.033     2.548     2.496
    32   1 H        0.926     0.028     2.608     2.525
    33   1 H        0.926     0.060     2.204     2.321
    34   1 H        0.924     0.051     2.309     2.376
    35   1 H        0.925     0.060     2.204     2.322
    36   1 H        0.924     0.078     2.002     2.213
    37   1 H        0.860     0.171     1.269     1.765
    38   1 H        0.860     0.175     1.243     1.747
    39   1 H        0.925     0.038     2.478     2.462
    40   1 H        0.924     0.062     2.170     2.304
    41   1 H        0.924     0.029     2.606     2.525
    42   1 H        0.924     0.033     2.547     2.496
    43   1 H        0.924     0.042     2.418     2.432
    44   1 H        0.924     0.053     2.277     2.360
    45   1 H        0.924     0.025     2.662     2.552
    46   1 H        0.925     0.031     2.574     2.509
    47   1 H        0.925     0.030     2.582     2.513
    48   1 H        0.925     0.035     2.516     2.480
    49   1 H        0.860     0.177     1.234     1.740
    50   1 H        0.925     0.036     2.506     2.475
    51   1 H        0.926     0.027     2.623     2.533
    52   1 H        0.926     0.022     2.698     2.569
    53   1 H        0.926     0.023     2.687     2.563
    54   1 H        0.926     0.021     2.722     2.580
    55   1 H        0.925     0.054     2.276     2.359
    56   1 H        0.925     0.049     2.328     2.386
    57   1 H        0.925     0.047     2.353     2.399
    58   1 H        0.805     0.294     0.740     1.351
    59   1 H        0.805     0.283     0.773     1.381
    60   8 O        1.610    -0.602    25.239     6.780
    61   1 H        0.806     0.279     0.788     1.394
    62   1 H        0.806     0.271     0.816     1.419
    63   7 N        2.691    -0.199    25.327     7.474
    64   6 C        2.753     0.263    22.560     7.778
    65   8 O        0.858    -0.426    22.207     6.318
    66   6 C        3.757    -0.154    23.542     6.918
    67   6 C        2.749     0.281    22.240     7.722
    68   8 O        0.859    -0.450    22.708     6.389
    69   1 H        0.925     0.041     2.431     2.438
    70   1 H        0.925     0.075     2.034     2.230
    71   1 H        0.924     0.104     1.749     2.068
    72   7 N        2.687    -0.169    24.653     7.374
    73   6 C        3.689    -0.045    21.576     6.648
    74   1 H        0.924     0.053     2.288     2.365
    75   1 H        0.924     0.051     2.312     2.378
    76   1 H        0.925     0.088     1.897     2.154

 Mol. C6AA /au·bohr⁶  :      55183.084546
 Mol. C8AA /au·bohr⁸  :    1256786.673570
 Mol. α(0) /au        :        359.464227


Wiberg/Mayer (AO) data.
largest (>0.10) Wiberg bond orders for each atom

 ---------------------------------------------------------------------------
     #   Z sym  total        # sym  WBO       # sym  WBO       # sym  WBO
 ---------------------------------------------------------------------------
     1   7 N    3.164 --    10 C    1.787     2 C    1.088
     2   6 C    3.975 --     7 C    1.363     3 C    1.355     1 N    1.088
     3   6 C    3.989 --     4 C    1.461     2 C    1.355    30 H    0.962
                             6 C    0.102
     4   6 C    3.991 --     3 C    1.461     5 C    1.401    31 H    0.968
                             7 C    0.106
     5   6 C    3.985 --     6 C    1.402     4 C    1.401     8 C    1.013
     6   6 C    3.990 --     7 C    1.457     5 C    1.402    32 H    0.968
                             3 C    0.102
     7   6 C    3.987 --     6 C    1.457     2 C    1.363    33 H    0.963
                             4 C    0.106
     8   6 C    3.992 --     5 C    1.013    34 H    0.972    35 H    0.967
                             9 C    0.965
     9   6 C    3.966 --    63 N    0.983     8 C    0.965    36 H    0.943
                            64 C    0.929
    10   6 C    3.962 --     1 N    1.787    11 C    1.052    39 H    0.954
    11   6 C    3.989 --    10 C    1.052    12 C    0.959    40 H    0.956
                            23 C    0.890
    12   6 C    3.987 --    13 C    1.003    41 H    0.968    20 C    0.965
                            11 C    0.959
    13   6 C    3.995 --    14 C    1.006    12 C    1.003    43 H    0.974
                            42 H    0.972
    14   6 C    3.995 --    15 C    1.019    13 C    1.006    45 H    0.979
                            44 H    0.973
    15   6 C    3.997 --    14 C    1.019    47 H    0.988    46 H    0.987
                            48 H    0.986
    16   8 O    1.853 --    61 H    0.918    28 H    0.853
    17   7 N    3.333 --    18 C    1.150    23 C    1.006    49 H    0.925
    18   6 C    3.972 --    21 C    1.371    19 C    1.294    17 N    1.150
    19   6 C    3.983 --    22 C    1.467    18 C    1.294    20 C    1.003
                            24 C    0.102
    20   6 C    3.989 --    19 C    1.003    12 C    0.965    23 C    0.964
                            50 H    0.963
    21   6 C    3.986 --    24 C    1.431    18 C    1.371    51 H    0.969
    22   6 C    3.991 --    19 C    1.467    25 C    1.398    52 H    0.970
    23   6 C    3.967 --    17 N    1.006    26 C    1.003    20 C    0.964
                            11 C    0.890
    24   6 C    3.991 --    25 C    1.450    21 C    1.431    53 H    0.972
                            19 C    0.102
    25   6 C    3.988 --    24 C    1.450    22 C    1.398    54 H    0.972
    26   6 C    3.993 --    23 C    1.003    55 H    0.982    56 H    0.980
                            57 H    0.977
    27   8 O    1.843 --    59 H    0.916    58 H    0.897
    28   1 H    0.904 --    16 O    0.853
    29   1 H    0.903 --    60 O    0.863
    30   1 H    0.998 --     3 C    0.962
    31   1 H    0.999 --     4 C    0.968
    32   1 H    0.998 --     6 C    0.968
    33   1 H    0.996 --     7 C    0.963
    34   1 H    0.997 --     8 C    0.972
    35   1 H    0.995 --     8 C    0.967
    36   1 H    0.994 --     9 C    0.943
    37   1 H    0.971 --    63 N    0.939
    38   1 H    0.969 --    72 N    0.941
    39   1 H    0.998 --    10 C    0.954
    40   1 H    0.996 --    11 C    0.956
    41   1 H    0.999 --    12 C    0.968
    42   1 H    0.997 --    13 C    0.972
    43   1 H    0.998 --    13 C    0.974
    44   1 H    0.997 --    14 C    0.973
    45   1 H    0.999 --    14 C    0.979
    46   1 H    0.999 --    15 C    0.987
    47   1 H    0.999 --    15 C    0.988
    48   1 H    0.999 --    15 C    0.986
    49   1 H    0.968 --    17 N    0.925
    50   1 H    0.998 --    20 C    0.963
    51   1 H    0.999 --    21 C    0.969
    52   1 H    0.999 --    22 C    0.970
    53   1 H    0.999 --    24 C    0.972
    54   1 H    0.999 --    25 C    0.972
    55   1 H    0.997 --    26 C    0.982
    56   1 H    0.995 --    26 C    0.980
    57   1 H    0.997 --    26 C    0.977
    58   1 H    0.914 --    27 O    0.897
    59   1 H    0.919 --    27 O    0.916
    60   8 O    1.824 --    62 H    0.925    29 H    0.863
    61   1 H    0.922 --    16 O    0.918
    62   1 H    0.927 --    60 O    0.925
    63   7 N    3.410 --    67 C    1.219     9 C    0.983    37 H    0.939
                            68 O    0.183
    64   6 C    3.953 --    65 O    1.692    72 N    1.262     9 C    0.929
    65   8 O    2.016 --    64 C    1.692    72 N    0.205
    66   6 C    3.989 --    67 C    0.993    69 H    0.982    70 H    0.970
                            71 H    0.944
    67   6 C    3.945 --    68 O    1.685    63 N    1.219    66 C    0.993
    68   8 O    1.993 --    67 C    1.685    63 N    0.183
    69   1 H    0.998 --    66 C    0.982
    70   1 H    0.994 --    66 C    0.970
    71   1 H    0.989 --    66 C    0.944
    72   7 N    3.450 --    64 C    1.262    73 C    1.005    38 H    0.941
                            65 O    0.205
    73   6 C    3.962 --    72 N    1.005    75 H    0.977    74 H    0.977
                            76 H    0.975
    74   1 H    0.997 --    73 C    0.977
    75   1 H    0.997 --    73 C    0.977
    76   1 H    0.992 --    73 C    0.975
 ---------------------------------------------------------------------------

Topologies differ in total number of bonds
Writing topology from bond orders to xtbtopo.mol

molecular dipole:
                 x           y           z       tot (Debye)
 q only:        0.307       0.266      -0.848
   full:       -0.059       0.269      -1.196       3.120
molecular quadrupole (traceless):
                xx          xy          yy          xz          yz          zz
 q only:       -0.094      27.369      -1.341      -4.343     -13.672       1.435
  q+dip:       -2.863      28.485       0.021      -4.643     -18.931       2.842
   full:       -5.039      30.143       0.592      -4.737     -19.682       4.448

           -------------------------------------------------
          |               Frequency Printout                |
           -------------------------------------------------
 projected vibrational frequencies (cm⁻¹)
eigval :       -0.00    -0.00    -0.00     0.00     0.00     0.00
eigval :        6.50    15.72    19.25    20.75    26.23    35.47
eigval :       38.32    41.91    44.49    53.65    56.84    57.65
eigval :       60.74    67.36    71.78    77.25    81.44    90.55
eigval :       91.62    96.74   108.11   113.63   115.86   125.10
eigval :      127.20   131.95   138.25   149.58   152.55   157.38
eigval :      161.67   176.17   184.08   187.85   189.21   218.62
eigval :      226.43   240.59   248.15   253.90   271.20   280.10
eigval :      288.07   289.38   305.32   311.73   324.02   329.45
eigval :      339.62   360.87   376.08   383.62   398.32   418.10
eigval :      420.17   427.27   430.67   456.06   468.02   485.87
eigval :      505.11   511.23   517.29   530.72   540.64   545.48
eigval :      547.69   578.06   585.38   594.82   599.95   608.91
eigval :      632.12   632.49   647.06   655.48   680.29   693.52
eigval :      707.55   721.65   772.31   772.94   784.41   814.61
eigval :      853.82   856.36   861.21   865.99   866.99   871.75
eigval :      891.76   894.69   900.81   913.16   918.23   921.88
eigval :      924.13   926.02   931.94   946.27   972.83   978.74
eigval :      997.22  1000.94  1003.97  1018.33  1025.47  1048.66
eigval :     1066.30  1073.83  1074.32  1086.48  1100.29  1105.42
eigval :     1107.36  1109.32  1114.97  1126.03  1127.07  1133.18
eigval :     1142.44  1147.69  1156.71  1163.66  1177.31  1187.11
eigval :     1190.64  1191.37  1192.23  1204.76  1208.94  1210.50
eigval :     1213.13  1226.64  1231.91  1252.63  1254.03  1258.33
eigval :     1267.09  1273.57  1277.12  1279.99  1287.15  1297.53
eigval :     1306.06  1321.58  1330.25  1340.88  1363.74  1370.67
eigval :     1380.83  1382.52  1393.44  1403.29  1406.65  1412.82
eigval :     1415.95  1426.99  1451.83  1462.54  1466.42  1468.24
eigval :     1475.72  1477.87  1478.22  1483.01  1483.15  1486.18
eigval :     1489.66  1498.47  1506.83  1512.27  1532.17  1534.35
eigval :     1560.52  1572.11  1598.37  1603.56  1616.20  1678.42
eigval :     1730.49  1758.30  2919.01  2931.55  2952.07  2965.16
eigval :     2970.26  2971.27  2971.29  2982.40  2986.87  2987.81
eigval :     2992.88  3004.40  3008.91  3014.56  3024.77  3029.90
eigval :     3030.28  3033.27  3035.14  3041.89  3043.02  3052.02
eigval :     3062.77  3069.45  3069.99  3073.54  3076.22  3087.34
eigval :     3094.28  3103.32  3121.67  3280.77  3413.45  3444.37
eigval :     3451.31  3453.25  3559.75  3654.76  3659.60  3666.17
 reduced masses (amu)
   1: 12.03   2: 11.34   3: 11.79   4: 11.98   5: 12.01   6: 12.27   7: 11.47   8: 11.71
   9: 11.55  10: 12.64  11: 12.20  12: 12.91  13: 11.97  14: 12.90  15: 11.46  16: 13.01
  17: 11.71  18: 11.40  19: 10.02  20: 10.82  21:  9.29  22:  8.48  23:  7.97  24: 10.34
  25:  9.37  26: 11.06  27:  9.20  28: 12.65  29:  7.99  30: 11.25  31:  6.17  32:  5.82
  33:  9.72  34:  8.86  35:  4.37  36:  7.78  37:  8.25  38:  1.99  39: 10.56  40: 10.97
  41:  9.64  42:  2.35  43: 12.44  44:  9.37  45: 11.12  46:  2.98  47:  9.33  48: 10.40
  49: 11.42  50: 10.27  51:  4.38  52:  8.57  53:  8.21  54:  4.19  55:  9.27  56:  9.97
  57:  9.52  58:  9.16  59:  9.58  60:  9.40  61:  2.83  62: 10.09  63:  9.46  64:  9.28
  65: 10.96  66:  7.20  67:  7.88  68:  3.63  69:  6.87  70:  9.11  71:  8.30  72:  8.89
  73:  7.73  74:  9.94  75:  8.51  76: 10.41  77: 10.26  78:  9.81  79:  7.04  80:  5.69
  81: 10.57  82: 10.35  83: 10.79  84: 11.13  85: 10.40  86: 11.17  87:  9.95  88:  3.80
  89:  2.92  90:  5.57  91:  7.60  92: 10.54  93:  3.51  94: 10.00  95:  4.08  96:  9.29
  97:  5.41  98:  6.56  99:  3.86 100:  2.88 101:  3.05 102:  6.01 103:  5.17 104:  9.35
 105:  6.47 106:  6.03 107:  5.71 108: 10.05 109:  5.44 110:  6.18 111:  6.56 112:  8.54
 113:  7.54 114:  8.36 115:  7.11 116:  6.13 117:  7.28 118:  8.38 119:  8.11 120:  4.74
 121:  7.16 122:  6.13 123:  7.94 124:  6.82 125:  8.53 126:  6.39 127:  4.12 128:  6.12
 129:  5.50 130:  5.00 131:  2.55 132:  4.82 133:  5.32 134:  4.52 135:  3.78 136:  5.19
 137:  6.10 138:  5.70 139:  5.50 140:  6.02 141:  5.20 142:  6.33 143:  7.31 144:  4.27
 145:  6.96 146:  6.89 147:  3.54 148:  4.44 149:  4.56 150:  4.34 151:  5.65 152:  9.71
 153: 10.95 154:  5.14 155:  4.97 156:  5.41 157:  3.94 158:  9.12 159:  2.63 160:  3.33
 161:  7.79 162:  3.29 163:  9.83 164:  8.97 165:  1.62 166:  1.56 167:  9.69 168:  1.87
 169:  2.28 170: 10.70 171:  1.80 172:  2.25 173:  1.94 174:  9.11 175:  1.92 176:  1.88
 177:  1.55 178:  1.60 179:  2.17 180:  2.10 181:  2.16 182: 11.51 183: 11.55 184: 11.55
 185: 11.71 186: 12.67 187: 13.27 188: 13.26 189:  1.74 190:  1.76 191:  1.83 192:  1.74
 193:  1.75 194:  1.86 195:  1.88 196:  1.79 197:  1.70 198:  1.45 199:  1.86 200:  1.67
 201:  1.62 202:  1.76 203:  1.93 204:  1.94 205:  1.81 206:  1.27 207:  1.73 208:  1.66
 209:  1.74 210:  1.61 211:  1.74 212:  1.81 213:  1.75 214:  1.82 215:  1.81 216:  1.86
 217:  1.89 218:  1.85 219:  1.85 220:  1.89 221:  1.86 222:  1.85 223:  1.84 224:  1.84
 225:  1.84 226:  1.85 227:  1.84 228:  1.84
 IR intensities (km·mol⁻¹)
   1:  0.06   2:  0.07   3:  0.03   4:  0.01   5:  0.02   6:  0.07   7:  0.32   8:  0.18
   9:  0.27  10:  8.13  11:  0.19  12:  2.78  13:  1.98  14:  7.09  15:  1.74  16:  0.45
  17:  7.91  18:  2.97  19:  4.72  20: 22.94  21:  3.52  22: 25.79  23: 41.46  24: 22.31
  25: 23.91  26:  2.80  27: 21.72  28:  0.86  29:  6.76  30:  8.28  31:  3.66  32:  2.26
  33:  3.91  34: 40.13  35: 42.20  36:  3.52  37: 14.85  38:  9.63  39:  5.84  40:  4.51
  41:  3.21  42: 91.09  43: 39.93  44:  1.96  45:  3.96  46:  0.03  47:  0.77  48:  0.69
  49:  7.52  50:  1.81  51: 90.77  52: 20.67  53: 37.42  54:102.56  55: 22.18  56:  6.41
  57:  1.89  58:  8.70  59:  1.43  60: 25.50  61:148.68  62: 33.91  63: 10.64  64: 19.58
  65: 15.12  66: 52.68  67: 33.46  68: 35.48  69: 21.80  70:  2.87  71: 78.84  72: 54.60
  73: 89.92  74: 28.28  75:  5.57  76: 20.71  77: 21.27  78: 50.26  79:178.30  80:174.21
  81:  3.41  82:  3.04  83: 25.50  84:  7.10  85: 11.79  86:  2.25  87: 38.54  88: 17.13
  89: 11.23  90: 36.52  91: 15.34  92:  1.74  93:  0.50  94:  4.01  95:  2.38  96:  5.92
  97:  5.10  98:  6.77  99:  0.29 100:  1.55 101:  0.02 102:  0.59 103:  0.79 104:  5.77
 105:  2.98 106:  4.55 107: 14.34 108: 12.34 109:  7.36 110:  6.21 111: 23.92 112:  3.07
 113: 13.47 114:  1.32 115:  7.66 116:  2.16 117: 39.45 118:126.23 119: 30.67 120:  2.45
 121: 29.64 122: 14.47 123: 12.18 124:  2.12 125: 27.23 126: 13.09 127:  3.02 128:  1.47
 129:  0.40 130:  5.45 131:  0.84 132: 16.94 133: 19.50 134:  1.03 135: 13.58 136:  8.89
 137: 48.04 138: 38.77 139:  6.38 140: 16.49 141:112.96 142: 14.55 143: 31.82 144:  2.82
 145: 28.94 146:  5.16 147:  1.91 148:  0.48 149:  0.91 150:  5.59 151:  2.06 152:148.44
 153:  0.77 154:  3.94 155: 17.22 156:  8.41 157: 48.27 158: 79.09 159:  1.39 160:  4.02
 161:176.68 162:  3.23 163:  4.24 164:200.89 165:  5.79 166: 11.41 167: 23.00 168: 10.80
 169:  1.89 170:171.58 171:  5.40 172: 17.13 173:  4.49 174: 41.58 175:  1.69 176:  0.23
 177:  1.19 178:  1.62 179: 96.95 180:152.33 181:147.14 182:  2.70 183: 14.76 184: 12.80
 185:123.49 186:218.88 187:411.59 188:486.61 189:  8.64 190: 22.83 191: 27.53 192: 35.90
 193:  4.08 194: 22.36 195: 41.32 196: 27.14 197: 68.94 198: 45.06 199: 21.08 200:  4.10
 201: 19.26 202: 13.08 203: 66.74 204: 42.64 205: 44.95 206: 37.24 207:  3.91 208: 19.63
 209: 19.21 210: 16.10 211:  3.26 212: 48.42 213:  2.83 214: 44.32 215: 25.62 216: 97.24
 217: 52.83 218: 17.23 219:  9.09 220:532.61 221:339.71 222: 71.00 223:  5.38 224:  6.64
 225: 69.78 226: 11.54 227:  8.60 228:  6.15
 Raman intensities (Ä⁴*amu⁻¹)
   1:  0.00   2:  0.00   3:  0.00   4:  0.00   5:  0.00   6:  0.00   7:  0.00   8:  0.00
   9:  0.00  10:  0.00  11:  0.00  12:  0.00  13:  0.00  14:  0.00  15:  0.00  16:  0.00
  17:  0.00  18:  0.00  19:  0.00  20:  0.00  21:  0.00  22:  0.00  23:  0.00  24:  0.00
  25:  0.00  26:  0.00  27:  0.00  28:  0.00  29:  0.00  30:  0.00  31:  0.00  32:  0.00
  33:  0.00  34:  0.00  35:  0.00  36:  0.00  37:  0.00  38:  0.00  39:  0.00  40:  0.00
  41:  0.00  42:  0.00  43:  0.00  44:  0.00  45:  0.00  46:  0.00  47:  0.00  48:  0.00
  49:  0.00  50:  0.00  51:  0.00  52:  0.00  53:  0.00  54:  0.00  55:  0.00  56:  0.00
  57:  0.00  58:  0.00  59:  0.00  60:  0.00  61:  0.00  62:  0.00  63:  0.00  64:  0.00
  65:  0.00  66:  0.00  67:  0.00  68:  0.00  69:  0.00  70:  0.00  71:  0.00  72:  0.00
  73:  0.00  74:  0.00  75:  0.00  76:  0.00  77:  0.00  78:  0.00  79:  0.00  80:  0.00
  81:  0.00  82:  0.00  83:  0.00  84:  0.00  85:  0.00  86:  0.00  87:  0.00  88:  0.00
  89:  0.00  90:  0.00  91:  0.00  92:  0.00  93:  0.00  94:  0.00  95:  0.00  96:  0.00
  97:  0.00  98:  0.00  99:  0.00 100:  0.00 101:  0.00 102:  0.00 103:  0.00 104:  0.00
 105:  0.00 106:  0.00 107:  0.00 108:  0.00 109:  0.00 110:  0.00 111:  0.00 112:  0.00
 113:  0.00 114:  0.00 115:  0.00 116:  0.00 117:  0.00 118:  0.00 119:  0.00 120:  0.00
 121:  0.00 122:  0.00 123:  0.00 124:  0.00 125:  0.00 126:  0.00 127:  0.00 128:  0.00
 129:  0.00 130:  0.00 131:  0.00 132:  0.00 133:  0.00 134:  0.00 135:  0.00 136:  0.00
 137:  0.00 138:  0.00 139:  0.00 140:  0.00 141:  0.00 142:  0.00 143:  0.00 144:  0.00
 145:  0.00 146:  0.00 147:  0.00 148:  0.00 149:  0.00 150:  0.00 151:  0.00 152:  0.00
 153:  0.00 154:  0.00 155:  0.00 156:  0.00 157:  0.00 158:  0.00 159:  0.00 160:  0.00
 161:  0.00 162:  0.00 163:  0.00 164:  0.00 165:  0.00 166:  0.00 167:  0.00 168:  0.00
 169:  0.00 170:  0.00 171:  0.00 172:  0.00 173:  0.00 174:  0.00 175:  0.00 176:  0.00
 177:  0.00 178:  0.00 179:  0.00 180:  0.00 181:  0.00 182:  0.00 183:  0.00 184:  0.00
 185:  0.00 186:  0.00 187:  0.00 188:  0.00 189:  0.00 190:  0.00 191:  0.00 192:  0.00
 193:  0.00 194:  0.00 195:  0.00 196:  0.00 197:  0.00 198:  0.00 199:  0.00 200:  0.00
 201:  0.00 202:  0.00 203:  0.00 204:  0.00 205:  0.00 206:  0.00 207:  0.00 208:  0.00
 209:  0.00 210:  0.00 211:  0.00 212:  0.00 213:  0.00 214:  0.00 215:  0.00 216:  0.00
 217:  0.00 218:  0.00 219:  0.00 220:  0.00 221:  0.00 222:  0.00 223:  0.00 224:  0.00
 225:  0.00 226:  0.00 227:  0.00 228:  0.00
 output can be read by thermo (or use thermo option).
 writing <g98.out> molden fake output.
 recommended (thermochemical) frequency scaling factor: 1.0
           -------------------------------------------------
          |             Thermodynamic Functions             |
           -------------------------------------------------

Refinement of some symmetry elements was terminated before convergence was reached.
Some symmetry elements may remain unidentified.
Molecule has no symmetry elements
It seems to be the C1 point group
c1  symmetry found (for desy threshold:  0.10E+00) used in thermo

          ...................................................
          :                      SETUP                      :
          :.................................................:
          :  # frequencies                         222      :
          :  # imaginary freq.                       0      :
          :  linear?                             false      :
          :  only rotor calc.                    false      :
          :  symmetry                               c1      :
          :  rotational number                       1      :
          :  scaling factor                  1.0000000      :
          :  rotor cutoff                   50.0000000 cm⁻¹ :
          :  imag. cutoff                  -20.0000000 cm⁻¹ :
          :.................................................:

    mode    ω/cm⁻¹     T·S(HO)/kcal·mol⁻¹    T·S(FR)/kcal·mol⁻¹   T·S(vib)
   ------------------------------------------------------------------------
       1      6.50    -2.64367 (  0.03%)    -1.66082 ( 99.97%)    -1.66110
       2     15.72    -2.12060 (  0.97%)    -1.39930 ( 99.03%)    -1.40628
       3     19.25    -2.00054 (  2.15%)    -1.33924 ( 97.85%)    -1.35347
       4     20.75    -1.95624 (  2.88%)    -1.31708 ( 97.12%)    -1.33548
       5     26.23    -1.81753 (  7.04%)    -1.24766 ( 92.96%)    -1.28777
       6     35.47    -1.63900 ( 20.21%)    -1.15824 ( 79.79%)    -1.25539
       7     38.32    -1.59336 ( 25.65%)    -1.13535 ( 74.35%)    -1.25283
       8     41.91    -1.54041 ( 33.05%)    -1.10880 ( 66.95%)    -1.25147
       9     44.49    -1.50520 ( 38.53%)    -1.09113 ( 61.47%)    -1.25067
      10     53.65    -1.39472 ( 57.01%)    -1.03564 ( 42.99%)    -1.24034
      11     56.84    -1.36077 ( 62.55%)    -1.01856 ( 37.45%)    -1.23260
      12     57.65    -1.35243 ( 63.86%)    -1.01436 ( 36.14%)    -1.23026
      13     60.74    -1.32167 ( 68.54%)    -0.99888 ( 31.46%)    -1.22011
      14     67.36    -1.26090 ( 76.71%)    -0.96826 ( 23.29%)    -1.19275
      15     71.78    -1.22362 ( 80.94%)    -0.94944 ( 19.06%)    -1.17136
      16     77.25    -1.18055 ( 85.07%)    -0.92767 ( 14.93%)    -1.14279
      17     81.44    -1.14961 ( 87.56%)    -0.91201 ( 12.44%)    -1.12006
      18     90.55    -1.08767 ( 91.50%)    -0.88060 (  8.50%)    -1.07006
      19     91.62    -1.08084 ( 91.85%)    -0.87713 (  8.15%)    -1.06425
      20     96.74    -1.04920 ( 93.34%)    -0.86103 (  6.66%)    -1.03667
      21    108.11    -0.98464 ( 95.63%)    -0.82809 (  4.37%)    -0.97779
      22    113.63    -0.95586 ( 96.39%)    -0.81336 (  3.61%)    -0.95071
      23    115.86    -0.94461 ( 96.65%)    -0.80759 (  3.35%)    -0.94002
      24    125.10    -0.90043 ( 97.51%)    -0.78487 (  2.49%)    -0.89755
      25    127.20    -0.89086 ( 97.67%)    -0.77994 (  2.33%)    -0.88828
      26    131.95    -0.86981 ( 97.98%)    -0.76906 (  2.02%)    -0.86777
      27    138.25    -0.84316 ( 98.32%)    -0.75526 (  1.68%)    -0.84168
      28    149.58    -0.79831 ( 98.77%)    -0.73192 (  1.23%)    -0.79750
      29    152.55    -0.78717 ( 98.86%)    -0.72610 (  1.14%)    -0.78647
      30    157.38    -0.76953 ( 98.99%)    -0.71686 (  1.01%)    -0.76900
      31    161.67    -0.75437 ( 99.09%)    -0.70890 (  0.91%)    -0.75396
      32    176.17    -0.70620 ( 99.36%)    -0.68345 (  0.64%)    -0.70605
      33    184.08    -0.68176 ( 99.46%)    -0.67044 (  0.54%)    -0.68170
      34    187.85    -0.67052 ( 99.50%)    -0.66443 (  0.50%)    -0.67049
      35    189.21    -0.66652 ( 99.51%)    -0.66229 (  0.49%)    -0.66650
      36    218.62    -0.58751 ( 99.73%)    -0.61950 (  0.27%)    -0.58760
      37    226.43    -0.56859 ( 99.76%)    -0.60910 (  0.24%)    -0.56869
      38    240.59    -0.53623 ( 99.81%)    -0.59113 (  0.19%)    -0.53634
      39    248.15    -0.51987 ( 99.84%)    -0.58196 (  0.16%)    -0.51998
      40    253.90    -0.50785 ( 99.85%)    -0.57518 (  0.15%)    -0.50795
      41    271.20    -0.47362 ( 99.88%)    -0.55565 (  0.12%)    -0.47372
      42    280.10    -0.45707 ( 99.90%)    -0.54608 (  0.10%)    -0.45716
      43    288.07    -0.44284 ( 99.91%)    -0.53778 (  0.09%)    -0.44292
      44    289.38    -0.44054 ( 99.91%)    -0.53643 (  0.09%)    -0.44062
   ------------------------------------------------------------------------

   temp. (K)  partition function   enthalpy   heat capacity  entropy
                                   cal/mol     cal/K/mol   cal/K/mol   J/K/mol
 298.15  VIB  0.220E+23            26012.554    143.004    170.932
         ROT  0.354E+08              888.752      2.981     37.522
         INT  0.777E+30            26901.306    145.985    208.454
         TR   0.108E+29             1481.254      4.968     44.499
         TOT                       28382.5601   150.9535   252.9531  1058.3556

       T/K    H(0)-H(T)+PV         H(T)/Eh          T*S/Eh         G(T)/Eh
   ------------------------------------------------------------------------
    298.15    0.452305E-01    0.668044E+00    0.120186E+00    0.547858E+00
   ------------------------------------------------------------------------

         :::::::::::::::::::::::::::::::::::::::::::::::::::::
         ::                  THERMODYNAMIC                  ::
         :::::::::::::::::::::::::::::::::::::::::::::::::::::
         :: total free energy        -109.720188257219 Eh   ::
         ::.................................................::
         :: total energy             -110.268046477376 Eh   ::
         :: zero point energy           0.622813889193 Eh   ::
         :: G(RRHO) w/o ZPVE           -0.074955669036 Eh   ::
         :: G(RRHO) contrib.            0.547858220157 Eh   ::
         :::::::::::::::::::::::::::::::::::::::::::::::::::::

           -------------------------------------------------
          | TOTAL ENERGY             -110.268046477376 Eh   |
          | TOTAL ENTHALPY           -109.600002099676 Eh   |
          | TOTAL FREE ENERGY        -109.720188257219 Eh   |
          | GRADIENT NORM               0.000168100793 Eh/α |
          | HOMO-LUMO GAP               2.079075776311 eV   |
           -------------------------------------------------

------------------------------------------------------------------------
 * finished run on 2026/08/20 at 20:38:36.107     
------------------------------------------------------------------------
 total:
 * wall-time:     0 d,  0 h,  0 min, 12.618 sec
 *  cpu-time:     0 d,  0 h,  1 min, 24.031 sec
 * ratio c/w:     6.660 speedup
 SCF:
 * wall-time:     0 d,  0 h,  0 min,  0.069 sec
 *  cpu-time:     0 d,  0 h,  0 min,  0.234 sec
 * ratio c/w:     3.397 speedup
 analytical hessian:
 * wall-time:     0 d,  0 h,  0 min, 12.483 sec
 *  cpu-time:     0 d,  0 h,  1 min, 23.734 sec
 * ratio c/w:     6.708 speedup



===== STDERR =====

normal termination of xtb
