      -----------------------------------------------------------      
     |                   =====================                   |     
     |                           x T B                           |     
     |                   =====================                   |     
     |                         S. Grimme                         |     
     |          Mulliken Center for Theoretical Chemistry        |     
     |                    University of Bonn                     |     
      -----------------------------------------------------------      

   * xtb version 6.7.1pre (5071a88) compiled by 'Marcel@Raven' on 2024-07-23

   xtb is free software: you can redistribute it and/or modify it under
   the terms of the GNU Lesser General Public License as published by
   the Free Software Foundation, either version 3 of the License, or
   (at your option) any later version.
   
   xtb is distributed in the hope that it will be useful,
   but WITHOUT ANY WARRANTY; without even the implied warranty of
   MERCHANTABILITY or FITNESS FOR A PARTICULAR PURPOSE.  See the
   GNU Lesser General Public License for more details.
   
   Cite this work as:
   * C. Bannwarth, E. Caldeweyher, S. Ehlert, A. Hansen, P. Pracht,
     J. Seibert, S. Spicher, S. Grimme, WIREs Comput. Mol. Sci., 2020, 11,
     e01493. DOI: 10.1002/wcms.1493
   
   for GFN2-xTB:
   * C. Bannwarth, S. Ehlert and S. Grimme., J. Chem. Theory Comput., 2019,
     15, 1652-1671. DOI: 10.1021/acs.jctc.8b01176
   for GFN1-xTB:
   * S. Grimme, C. Bannwarth, P. Shushkov, J. Chem. Theory Comput., 2017,
     13, 1989-2009. DOI: 10.1021/acs.jctc.7b00118
   for GFN0-xTB:
   * P. Pracht, E. Caldeweyher, S. Ehlert, S. Grimme, ChemRxiv, 2019, preprint.
     DOI: 10.26434/chemrxiv.8326202.v1
   for GFN-FF:
   * S. Spicher and S. Grimme, Angew. Chem. Int. Ed., 2020, 59, 15665-15673.
     DOI: 10.1002/anie.202004239
   
   for ALPB and GBSA implicit solvation:
   * S. Ehlert, M. Stahn, S. Spicher, S. Grimme, J. Chem. Theory Comput.,
     2021, 17, 4250-4261. DOI: 10.1021/acs.jctc.1c00471
   
   for ddCOSMO and CPCM-X implicit solvation:
   * M. Stahn, S. Ehlert, S. Grimme, J. Phys. Chem. A,
     2023, XX, XXXX-XXXX. DOI: 10.1021/acs.jpca.3c04382
   
   for DFT-D4:
   * E. Caldeweyher, C. Bannwarth and S. Grimme, J. Chem. Phys., 2017,
     147, 034112. DOI: 10.1063/1.4993215
   * E. Caldeweyher, S. Ehlert, A. Hansen, H. Neugebauer, S. Spicher,
     C. Bannwarth and S. Grimme, J. Chem. Phys., 2019, 150, 154122.
     DOI: 10.1063/1.5090222
   * E. Caldeweyher, J.-M. Mewes, S. Ehlert and S. Grimme, Phys. Chem. Chem. Phys.
     2020, 22, 8499-8512. DOI: 10.1039/D0CP00502A
   
   for sTDA-xTB:
   * S. Grimme and C. Bannwarth, J. Chem. Phys., 2016, 145, 054103.
     DOI: 10.1063/1.4959605
   
   in the mass-spec context:
   * V. Asgeirsson, C. Bauer and S. Grimme, Chem. Sci., 2017, 8, 4879.
     DOI: 10.1039/c7sc00601b
   * J. Koopman and S. Grimme, ACS Omega 2019, 4, 12, 15120-15133.
     DOI: 10.1021/acsomega.9b02011
   
   for metadynamics refer to:
   * S. Grimme, J. Chem. Theory Comput., 2019, 155, 2847-2862
     DOI: 10.1021/acs.jctc.9b00143
   
   for SPH calculations refer to:
   * S. Spicher and S. Grimme, J. Chem. Theory Comput., 2021, 17, 1701-1714
     DOI: 10.1021/acs.jctc.0c01306
   
   for ONIOM refer to:
   * C. Plett, A. Katbashev, S. Ehlert, S. Grimme, M. Bursch,
     Phys. Chem. Chem. Phys., 2023, 25, 17860-17868. DOI: 10.1039/D3CP02178E
   
   for DIPRO refer to:
   * J. Kohn, N. Gildemeister, S. Grimme, D. Fazzi, A. Hansen,
     J. Chem. Phys., 2023, just accepted.
   
   for PTB refer to:
   * S. Grimme, M. Mueller, A. Hansen, J. Chem. Phys., 2023, 158, 124111.
     DOI: 10.1063/5.0137838
   
   with help from (in alphabetical order)
   P. Atkinson, C. Bannwarth, F. Bohle, G. Brandenburg, E. Caldeweyher
   M. Checinski, S. Dohm, S. Ehlert, S. Ehrlich, I. Gerasimov, C. Hölzer
   A. Katbashev, J. Kohn, J. Koopman, C. Lavigne, S. Lehtola, F. März, M. Müller,
   F. Musil, H. Neugebauer, J. Pisarek, C. Plett, P. Pracht, F. Pultar,
   J. Seibert, P. Shushkov, S. Spicher, M. Stahn, M. Steiner, T. Strunk,
   J. Stückrath, T. Rose, and J. Unsleber
   
 * started run on 2026/08/20 at 20:37:46.651     
   ID    Z sym.   atoms
    1    7 N      1, 17, 63, 72
    2    6 C      2-15, 18-26, 64, 66, 67, 73
    3    8 O      16, 27, 60, 65, 68
    4    1 H      28-59, 61, 62, 69-71, 74-76

           -------------------------------------------------
          |                Calculation Setup                |
           -------------------------------------------------

          program call               : C:\Users\Nayanika\Downloads\xtb-6.7.1pre-windows-x86_64\xtb-6.7.1\bin\xtb.exe D:\PhD_Thesis\LmrR_EVB\charges\fast_lmrr_5QM\xtb_preparation\stage2_five_xtb_protocols\GFN2_etemp500\RS2_1_to_TS2_1a\RS2_1_to_TS2_1a_TS_xtbopt.xyz --gfn 2 --chrg 0 --uhf 0 --hess --etemp 500
          coordinate file            : D:\PhD_Thesis\LmrR_EVB\charges\fast_lmrr_5QM\xtb_preparation\stage2_five_xtb_protocols\GFN2_etemp500\RS2_1_to_TS2_1a\RS2_1_to_TS2_1a_TS_xtbopt.xyz
          omp threads                :                     8


molecular fragmentation (1/2 indicates fragments):
111111111111111211111111112221111111111111111111111111111222221111111111
1111
# atoms in fragment 1/2:    67     9
 fragment masses (1/2) :      446.59       54.05
CMA distance (Bohr)    :   6.625
constraining FC (au)   :  0.0500

           -------------------------------------------------
          |                 G F N 2 - x T B                 |
           -------------------------------------------------

        Reference                      10.1021/acs.jctc.8b01176
      * Hamiltonian:
        H0-scaling (s, p, d)           1.850000    2.230000    2.230000
        zeta-weighting                 0.500000
      * Dispersion:
        s8                             2.700000
        a1                             0.520000
        a2                             5.000000
        s9                             5.000000
      * Repulsion:
        kExp                           1.500000    1.000000
        rExp                           1.000000
      * Coulomb:
        alpha                          2.000000
        third order                    shell-resolved
        anisotropic                    true
        a3                             3.000000
        a5                             4.000000
        cn-shift                       1.200000
        cn-exp                         4.000000
        max-rad                        5.000000

q/qsh data taken from xtbrestart
CAMM data taken from xtbrestart

          ...................................................
          :                      SETUP                      :
          :.................................................:
          :  # basis functions                 184          :
          :  # atomic orbitals                 184          :
          :  # shells                          112          :
          :  # electrons                       198          :
          :  max. iterations                   250          :
          :  Hamiltonian                  GFN2-xTB          :
          :  restarted?                       true          :
          :  GBSA solvation                  false          :
          :  PC potential                    false          :
          :  electronic temp.          500.0000000     K    :
          :  accuracy                    1.0000000          :
          :  -> integral cutoff          0.2500000E+02      :
          :  -> integral neglect         0.1000000E-07      :
          :  -> SCF convergence          0.1000000E-05 Eh   :
          :  -> wf. convergence          0.1000000E-03 e    :
          :  Broyden damping             0.4000000          :
          :  net charge                          0          :
          :  unpaired electrons                  0          :
          ...................................................

 iter      E             dE          RMSdq      gap      omega  full diag
   1   -111.7981265 -0.111798E+03  0.868E-07    2.09       0.0  T
   2   -111.7981265  0.170530E-12  0.568E-07    2.09   20184.3  T
   3   -111.7981265  0.568434E-13  0.332E-07    2.09   34533.8  T

   *** convergence criteria satisfied after 3 iterations ***

         #    Occupation            Energy/Eh            Energy/eV
      -------------------------------------------------------------
         1        2.0000           -0.7034779             -19.1426
       ...           ...                  ...                  ...
        93        2.0000           -0.4020984             -10.9417
        94        2.0000           -0.3993031             -10.8656
        95        2.0000           -0.3972934             -10.8109
        96        2.0000           -0.3881820             -10.5630
        97        2.0000           -0.3827216             -10.4144
        98        2.0000           -0.3678971             -10.0110
        99        2.0000           -0.3369429              -9.1687 (HOMO)
       100                         -0.2601638              -7.0794 (LUMO)
       101                         -0.2188425              -5.9550
       102                         -0.2137616              -5.8167
       103                         -0.2097567              -5.7078
       104                         -0.2049616              -5.5773
       ...                                ...                  ...
       184                          0.7078563              19.2618
      -------------------------------------------------------------
                  HL-Gap            0.0767791 Eh            2.0893 eV
             Fermi-level           -0.2985534 Eh           -8.1241 eV

 SCC (total)                   0 d,  0 h,  0 min,  0.074 sec
 SCC setup                      ...        0 min,  0.000 sec (  0.000%)
 Dispersion                     ...        0 min,  0.001 sec (  1.352%)
 classical contributions        ...        0 min,  0.000 sec (  0.000%)
 integral evaluation            ...        0 min,  0.002 sec (  2.703%)
 iterations                     ...        0 min,  0.049 sec ( 66.216%)
 molecular gradient             ...        0 min,  0.020 sec ( 27.027%)
 printout                       ...        0 min,  0.001 sec (  1.352%)

         :::::::::::::::::::::::::::::::::::::::::::::::::::::
         ::                     SUMMARY                     ::
         :::::::::::::::::::::::::::::::::::::::::::::::::::::
         :: total energy            -110.268086014016 Eh    ::
         :: gradient norm              0.000213483935 Eh/a0 ::
         :: HOMO-LUMO gap              2.089266591492 eV    ::
         ::.................................................::
         :: SCC energy              -111.794681938499 Eh    ::
         :: -> isotropic ES            0.190504553872 Eh    ::
         :: -> anisotropic ES          0.001328757076 Eh    ::
         :: -> anisotropic XC          0.046671503961 Eh    ::
         :: -> dispersion             -0.087991331296 Eh    ::
         :: repulsion energy           1.526595924483 Eh    ::
         :: add. restraining           0.000000000000 Eh    ::
         :: total charge               0.000000000000 e     ::
         :::::::::::::::::::::::::::::::::::::::::::::::::::::

           ------------------------------------------------- 
          |                Numerical Hessian                |
           ------------------------------------------------- 
step length          :   0.00500
SCC accuracy         :   0.30000
Hessian scale factor :   1.00000
frozen atoms in %    :   0.00000    0
RMS gradient         :   0.00021
estimated CPU  time     11.64 min
estimated wall time      1.71 min

writing file <hessian>.

 projected vibrational frequencies (cm⁻¹)
eigval :       -0.00    -0.00    -0.00     0.00     0.00     0.00
eigval :        5.65    16.43    19.39    20.91    26.03    36.53
eigval :       38.93    44.49    44.92    54.81    56.42    57.64
eigval :       61.61    69.17    71.92    77.00    82.62    90.23
eigval :       91.49    96.95   108.65   113.81   119.55   124.82
eigval :      127.64   132.34   137.98   149.13   152.29   156.56
eigval :      161.37   173.63   184.05   187.45   189.16   219.11
eigval :      225.62   240.88   248.90   252.03   270.87   280.52
eigval :      288.28   289.32   307.03   312.09   324.68   328.74
eigval :      339.95   362.06   376.32   383.61   398.13   419.97
eigval :      420.86   428.27   430.97   455.74   468.27   485.98
eigval :      505.11   509.28   516.40   530.50   540.54   545.56
eigval :      546.52   577.97   584.98   594.74   599.83   609.03
eigval :      631.83   632.39   646.67   654.58   679.84   693.51
eigval :      707.89   721.63   772.06   772.90   784.92   815.19
eigval :      853.03   856.46   861.16   866.11   866.82   871.76
eigval :      891.77   894.88   900.71   912.97   918.17   921.87
eigval :      923.91   925.66   932.23   946.31   973.42   978.14
eigval :      997.26  1001.16  1003.63  1018.43  1024.95  1049.03
eigval :     1066.30  1073.80  1074.32  1087.41  1100.20  1105.24
eigval :     1107.39  1108.97  1115.19  1126.16  1126.86  1133.21
eigval :     1142.43  1147.67  1156.48  1163.83  1177.35  1187.21
eigval :     1190.88  1191.50  1192.32  1204.62  1208.87  1210.45
eigval :     1213.06  1226.75  1231.36  1252.63  1253.99  1258.79
eigval :     1266.49  1273.73  1277.26  1279.95  1287.38  1298.03
eigval :     1305.41  1321.53  1330.37  1341.19  1362.91  1370.77
eigval :     1380.86  1382.63  1393.46  1403.52  1406.66  1412.84
eigval :     1415.92  1426.60  1451.49  1462.56  1466.43  1468.28
eigval :     1475.44  1478.00  1478.45  1482.37  1482.97  1486.37
eigval :     1489.12  1498.84  1506.38  1512.61  1532.17  1534.71
eigval :     1560.63  1572.47  1598.48  1604.06  1616.24  1678.01
eigval :     1729.59  1758.22  2918.60  2930.89  2952.06  2964.92
eigval :     2969.99  2971.43  2971.97  2982.49  2987.41  2987.80
eigval :     2992.55  3005.09  3009.81  3015.43  3024.65  3029.55
eigval :     3030.22  3033.18  3035.12  3042.54  3045.00  3052.93
eigval :     3061.65  3069.14  3069.84  3073.37  3075.72  3087.30
eigval :     3094.34  3102.45  3121.66  3282.07  3414.46  3445.25
eigval :     3449.51  3453.51  3557.25  3654.87  3658.51  3668.44
           -------------------------------------------------
          |                Property Printout                |
           -------------------------------------------------

    * Orbital Energies and Occupations

         #    Occupation            Energy/Eh            Energy/eV
      -------------------------------------------------------------
         1        2.0000           -0.7034779             -19.1426
       ...           ...                  ...                  ...
        87        2.0000           -0.4182519             -11.3812
        88        2.0000           -0.4165594             -11.3352
        89        2.0000           -0.4087823             -11.1235
        90        2.0000           -0.4072926             -11.0830
        91        2.0000           -0.4069016             -11.0724
        92        2.0000           -0.4035137             -10.9802
        93        2.0000           -0.4020984             -10.9417
        94        2.0000           -0.3993031             -10.8656
        95        2.0000           -0.3972934             -10.8109
        96        2.0000           -0.3881820             -10.5630
        97        2.0000           -0.3827216             -10.4144
        98        2.0000           -0.3678971             -10.0110
        99        2.0000           -0.3369429              -9.1687 (HOMO)
       100                         -0.2601638              -7.0794 (LUMO)
       101                         -0.2188425              -5.9550
       102                         -0.2137616              -5.8167
       103                         -0.2097567              -5.7078
       104                         -0.2049616              -5.5773
       105                         -0.2039067              -5.5486
       106                         -0.1918564              -5.2207
       107                         -0.0903715              -2.4591
       108                         -0.0747843              -2.0350
       109                         -0.0032766              -0.0892
       110                          0.0115579               0.3145
       ...                                ...                  ...
       184                          0.7078563              19.2618
      -------------------------------------------------------------
                  HL-Gap            0.0767791 Eh            2.0893 eV
             Fermi-level           -0.2985534 Eh           -8.1241 eV

     #   Z          covCN         q      C6AA      α(0)
     1   7 N        1.831    -0.258    27.567     7.780
     2   6 C        2.938     0.076    26.292     8.410
     3   6 C        2.922    -0.048    29.191     8.860
     4   6 C        2.925    -0.035    28.878     8.813
     5   6 C        2.976     0.007    27.869     8.659
     6   6 C        2.926    -0.040    28.982     8.829
     7   6 C        2.922    -0.051    29.263     8.871
     8   6 C        3.811    -0.066    21.761     6.640
     9   6 C        3.802     0.018    20.274     6.411
    10   6 C        2.851     0.087    26.063     8.367
    11   6 C        3.986    -0.051    21.409     6.574
    12   6 C        4.001    -0.018    20.823     6.483
    13   6 C        3.804    -0.061    21.678     6.629
    14   6 C        3.801    -0.058    21.617     6.620
    15   6 C        3.752    -0.101    22.494     6.763
    16   8 O        1.609    -0.596    25.090     6.760
    17   7 N        2.718    -0.203    25.418     7.488
    18   6 C        2.984     0.068    26.473     8.440
    19   6 C        3.020    -0.022    28.521     8.760
    20   6 C        4.027    -0.034    21.096     6.525
    21   6 C        2.914    -0.065    29.617     8.924
    22   6 C        2.915    -0.041    29.010     8.832
    23   6 C        4.043     0.084    19.107     6.209
    24   6 C        2.923    -0.035    28.873     8.812
    25   6 C        2.921    -0.051    29.255     8.870
    26   6 C        3.754    -0.115    22.764     6.803
    27   8 O        1.610    -0.579    24.689     6.706
    28   1 H        0.804     0.309     0.695     1.310
    29   1 H        0.804     0.311     0.690     1.305
    30   1 H        0.926     0.042     2.424     2.435
    31   1 H        0.926     0.032     2.553     2.498
    32   1 H        0.926     0.028     2.613     2.528
    33   1 H        0.926     0.059     2.205     2.322
    34   1 H        0.924     0.050     2.320     2.382
    35   1 H        0.925     0.060     2.197     2.318
    36   1 H        0.924     0.078     2.001     2.212
    37   1 H        0.860     0.170     1.270     1.765
    38   1 H        0.860     0.175     1.245     1.748
    39   1 H        0.925     0.038     2.479     2.462
    40   1 H        0.924     0.065     2.145     2.290
    41   1 H        0.924     0.028     2.608     2.526
    42   1 H        0.924     0.033     2.549     2.497
    43   1 H        0.924     0.043     2.408     2.427
    44   1 H        0.924     0.054     2.273     2.358
    45   1 H        0.924     0.025     2.665     2.553
    46   1 H        0.925     0.031     2.573     2.508
    47   1 H        0.925     0.030     2.580     2.512
    48   1 H        0.925     0.034     2.531     2.488
    49   1 H        0.860     0.176     1.236     1.741
    50   1 H        0.925     0.036     2.506     2.475
    51   1 H        0.926     0.028     2.622     2.532
    52   1 H        0.926     0.022     2.700     2.570
    53   1 H        0.926     0.023     2.689     2.564
    54   1 H        0.926     0.021     2.724     2.581
    55   1 H        0.925     0.055     2.264     2.353
    56   1 H        0.925     0.049     2.333     2.389
    57   1 H        0.925     0.048     2.347     2.396
    58   1 H        0.805     0.283     0.774     1.382
    59   1 H        0.805     0.294     0.740     1.351
    60   8 O        1.610    -0.602    25.235     6.780
    61   1 H        0.805     0.279     0.788     1.394
    62   1 H        0.806     0.271     0.816     1.418
    63   7 N        2.691    -0.199    25.333     7.475
    64   6 C        2.753     0.263    22.561     7.778
    65   8 O        0.858    -0.426    22.203     6.318
    66   6 C        3.757    -0.154    23.536     6.917
    67   6 C        2.749     0.281    22.236     7.721
    68   8 O        0.859    -0.450    22.713     6.390
    69   1 H        0.925     0.041     2.435     2.440
    70   1 H        0.925     0.075     2.032     2.229
    71   1 H        0.924     0.104     1.748     2.067
    72   7 N        2.687    -0.169    24.655     7.375
    73   6 C        3.689    -0.045    21.577     6.648
    74   1 H        0.924     0.053     2.288     2.366
    75   1 H        0.924     0.051     2.311     2.377
    76   1 H        0.925     0.088     1.896     2.153

 Mol. C6AA /au·bohr⁶  :      55182.512828
 Mol. C8AA /au·bohr⁸  :    1256782.734209
 Mol. α(0) /au        :        359.462224


Wiberg/Mayer (AO) data.
largest (>0.10) Wiberg bond orders for each atom

 ---------------------------------------------------------------------------
     #   Z sym  total        # sym  WBO       # sym  WBO       # sym  WBO
 ---------------------------------------------------------------------------
     1   7 N    3.165 --    10 C    1.788     2 C    1.085
     2   6 C    3.975 --     7 C    1.365     3 C    1.355     1 N    1.085
     3   6 C    3.989 --     4 C    1.461     2 C    1.355    30 H    0.962
                             6 C    0.102
     4   6 C    3.991 --     3 C    1.461     5 C    1.401    31 H    0.968
                             7 C    0.106
     5   6 C    3.985 --     6 C    1.403     4 C    1.401     8 C    1.013
     6   6 C    3.990 --     7 C    1.456     5 C    1.403    32 H    0.968
                             3 C    0.102
     7   6 C    3.988 --     6 C    1.456     2 C    1.365    33 H    0.963
                             4 C    0.106
     8   6 C    3.992 --     5 C    1.013    34 H    0.972    35 H    0.967
                             9 C    0.965
     9   6 C    3.966 --    63 N    0.984     8 C    0.965    36 H    0.943
                            64 C    0.930
    10   6 C    3.962 --     1 N    1.788    11 C    1.052    39 H    0.954
    11   6 C    3.986 --    10 C    1.052    12 C    0.960    40 H    0.955
                            23 C    0.889
    12   6 C    3.988 --    13 C    1.003    41 H    0.968    20 C    0.965
                            11 C    0.960
    13   6 C    3.995 --    14 C    1.006    12 C    1.003    43 H    0.974
                            42 H    0.972
    14   6 C    3.995 --    15 C    1.019    13 C    1.006    45 H    0.979
                            44 H    0.973
    15   6 C    3.997 --    14 C    1.019    47 H    0.988    46 H    0.987
                            48 H    0.986
    16   8 O    1.853 --    61 H    0.918    28 H    0.853
    17   7 N    3.333 --    18 C    1.150    23 C    1.006    49 H    0.925
    18   6 C    3.972 --    21 C    1.371    19 C    1.294    17 N    1.150
    19   6 C    3.983 --    22 C    1.467    18 C    1.294    20 C    1.004
                            24 C    0.102
    20   6 C    3.989 --    19 C    1.004    12 C    0.965    23 C    0.964
                            50 H    0.963
    21   6 C    3.986 --    24 C    1.431    18 C    1.371    51 H    0.969
    22   6 C    3.991 --    19 C    1.467    25 C    1.398    52 H    0.970
    23   6 C    3.967 --    17 N    1.006    26 C    1.003    20 C    0.964
                            11 C    0.889
    24   6 C    3.991 --    25 C    1.450    21 C    1.431    53 H    0.972
                            19 C    0.102
    25   6 C    3.986 --    24 C    1.450    22 C    1.398    54 H    0.972
    26   6 C    3.993 --    23 C    1.003    55 H    0.982    56 H    0.980
                            57 H    0.977
    27   8 O    1.843 --    58 H    0.916    59 H    0.897
    28   1 H    0.905 --    16 O    0.853
    29   1 H    0.903 --    60 O    0.864
    30   1 H    0.998 --     3 C    0.962
    31   1 H    0.999 --     4 C    0.968
    32   1 H    0.998 --     6 C    0.968
    33   1 H    0.996 --     7 C    0.963
    34   1 H    0.997 --     8 C    0.972
    35   1 H    0.995 --     8 C    0.967
    36   1 H    0.994 --     9 C    0.943
    37   1 H    0.971 --    63 N    0.939
    38   1 H    0.969 --    72 N    0.941
    39   1 H    0.998 --    10 C    0.954
    40   1 H    0.995 --    11 C    0.955
    41   1 H    0.999 --    12 C    0.968
    42   1 H    0.997 --    13 C    0.972
    43   1 H    0.998 --    13 C    0.974
    44   1 H    0.997 --    14 C    0.973
    45   1 H    0.999 --    14 C    0.979
    46   1 H    0.999 --    15 C    0.987
    47   1 H    0.999 --    15 C    0.988
    48   1 H    0.999 --    15 C    0.986
    49   1 H    0.969 --    17 N    0.925
    50   1 H    0.998 --    20 C    0.963
    51   1 H    0.999 --    21 C    0.969
    52   1 H    0.999 --    22 C    0.970
    53   1 H    0.999 --    24 C    0.972
    54   1 H    0.999 --    25 C    0.972
    55   1 H    0.997 --    26 C    0.982
    56   1 H    0.995 --    26 C    0.980
    57   1 H    0.997 --    26 C    0.977
    58   1 H    0.920 --    27 O    0.916
    59   1 H    0.914 --    27 O    0.897
    60   8 O    1.824 --    62 H    0.925    29 H    0.864
    61   1 H    0.922 --    16 O    0.918
    62   1 H    0.927 --    60 O    0.925
    63   7 N    3.410 --    67 C    1.219     9 C    0.984    37 H    0.939
                            68 O    0.182
    64   6 C    3.953 --    65 O    1.693    72 N    1.262     9 C    0.930
    65   8 O    2.016 --    64 C    1.693    72 N    0.205
    66   6 C    3.989 --    67 C    0.993    69 H    0.983    70 H    0.968
                            71 H    0.944
    67   6 C    3.945 --    68 O    1.684    63 N    1.219    66 C    0.993
    68   8 O    1.993 --    67 C    1.684    63 N    0.182
    69   1 H    0.998 --    66 C    0.983
    70   1 H    0.994 --    66 C    0.968
    71   1 H    0.989 --    66 C    0.944
    72   7 N    3.450 --    64 C    1.262    73 C    1.005    38 H    0.941
                            65 O    0.205
    73   6 C    3.962 --    72 N    1.005    75 H    0.977    74 H    0.977
                            76 H    0.975
    74   1 H    0.997 --    73 C    0.977
    75   1 H    0.997 --    73 C    0.977
    76   1 H    0.992 --    73 C    0.975
 ---------------------------------------------------------------------------

Topologies differ in total number of bonds
Writing topology from bond orders to xtbtopo.mol

molecular dipole:
                 x           y           z       tot (Debye)
 q only:        0.291       0.257      -0.894
   full:       -0.094       0.247      -1.230       3.198
molecular quadrupole (traceless):
                xx          xy          yy          xz          yz          zz
 q only:        0.007      27.382      -1.218      -5.247     -14.946       1.211
  q+dip:       -2.547      28.076      -0.074      -6.166     -20.376       2.621
   full:       -4.758      29.739       0.549      -6.022     -21.062       4.210

           -------------------------------------------------
          |               Frequency Printout                |
           -------------------------------------------------
 projected vibrational frequencies (cm⁻¹)
eigval :       -0.00    -0.00    -0.00     0.00     0.00     0.00
eigval :        5.65    16.43    19.39    20.91    26.03    36.53
eigval :       38.93    44.49    44.92    54.81    56.42    57.64
eigval :       61.61    69.17    71.92    77.00    82.62    90.23
eigval :       91.49    96.95   108.65   113.81   119.55   124.82
eigval :      127.64   132.34   137.98   149.13   152.29   156.56
eigval :      161.37   173.63   184.05   187.45   189.16   219.11
eigval :      225.62   240.88   248.90   252.03   270.87   280.52
eigval :      288.28   289.32   307.03   312.09   324.68   328.74
eigval :      339.95   362.06   376.32   383.61   398.13   419.97
eigval :      420.86   428.27   430.97   455.74   468.27   485.98
eigval :      505.11   509.28   516.40   530.50   540.54   545.56
eigval :      546.52   577.97   584.98   594.74   599.83   609.03
eigval :      631.83   632.39   646.67   654.58   679.84   693.51
eigval :      707.89   721.63   772.06   772.90   784.92   815.19
eigval :      853.03   856.46   861.16   866.11   866.82   871.76
eigval :      891.77   894.88   900.71   912.97   918.17   921.87
eigval :      923.91   925.66   932.23   946.31   973.42   978.14
eigval :      997.26  1001.16  1003.63  1018.43  1024.95  1049.03
eigval :     1066.30  1073.80  1074.32  1087.41  1100.20  1105.24
eigval :     1107.39  1108.97  1115.19  1126.16  1126.86  1133.21
eigval :     1142.43  1147.67  1156.48  1163.83  1177.35  1187.21
eigval :     1190.88  1191.50  1192.32  1204.62  1208.87  1210.45
eigval :     1213.06  1226.75  1231.36  1252.63  1253.99  1258.79
eigval :     1266.49  1273.73  1277.26  1279.95  1287.38  1298.03
eigval :     1305.41  1321.53  1330.37  1341.19  1362.91  1370.77
eigval :     1380.86  1382.63  1393.46  1403.52  1406.66  1412.84
eigval :     1415.92  1426.60  1451.49  1462.56  1466.43  1468.28
eigval :     1475.44  1478.00  1478.45  1482.37  1482.97  1486.37
eigval :     1489.12  1498.84  1506.38  1512.61  1532.17  1534.71
eigval :     1560.63  1572.47  1598.48  1604.06  1616.24  1678.01
eigval :     1729.59  1758.22  2918.60  2930.89  2952.06  2964.92
eigval :     2969.99  2971.43  2971.97  2982.49  2987.41  2987.80
eigval :     2992.55  3005.09  3009.81  3015.43  3024.65  3029.55
eigval :     3030.22  3033.18  3035.12  3042.54  3045.00  3052.93
eigval :     3061.65  3069.14  3069.84  3073.37  3075.72  3087.30
eigval :     3094.34  3102.45  3121.66  3282.07  3414.46  3445.25
eigval :     3449.51  3453.51  3557.25  3654.87  3658.51  3668.44
 reduced masses (amu)
   1: 12.00   2: 12.10   3: 11.90   4: 11.45   5: 12.04   6: 11.95   7: 11.21   8: 11.79
   9: 11.82  10: 12.50  11: 12.06  12: 12.45  13: 12.06  14: 13.52  15: 11.55  16: 13.38
  17: 11.77  18: 11.28  19:  9.78  20: 10.68  21:  9.76  22:  8.72  23:  8.56  24: 10.40
  25:  8.13  26: 11.07  27:  9.28  28: 13.36  29:  7.84  30: 10.91  31:  4.85  32:  6.57
  33:  9.72  34:  8.23  35:  3.72  36:  8.28  37:  8.92  38:  2.06  39: 10.75  40: 11.06
  41:  9.50  42:  2.38  43: 12.33  44:  9.36  45: 11.00  46:  2.99  47:  9.41  48: 10.36
  49: 11.47  50: 10.29  51:  6.72  52:  6.55  53:  7.74  54:  4.23  55:  9.35  56: 10.00
  57:  9.53  58:  9.19  59:  9.56  60:  9.40  61:  2.75  62: 10.17  63:  9.43  64:  9.29
  65: 10.93  66:  7.25  67:  7.45  68:  3.29  69:  7.62  70:  9.20  71:  8.64  72:  8.10
  73:  8.20  74:  9.95  75:  8.47  76: 10.36  77: 10.33  78:  9.78  79:  7.29  80:  5.43
  81: 10.56  82: 10.31  83: 10.75  84: 11.12  85: 10.45  86: 11.16  87: 10.29  88:  3.53
  89:  2.82  90:  5.60  91:  7.62  92: 10.54  93:  3.51  94: 10.34  95:  3.72  96:  9.33
  97:  5.06  98:  6.88  99:  3.86 100:  2.92 101:  3.05 102:  6.03 103:  5.33 104:  9.35
 105:  6.31 106:  6.03 107:  5.70 108: 10.02 109:  5.41 110:  6.20 111:  6.61 112:  8.54
 113:  7.51 114:  8.43 115:  7.08 116:  6.12 117:  7.25 118:  8.34 119:  8.14 120:  4.97
 121:  7.10 122:  5.91 123:  7.96 124:  6.82 125:  8.53 126:  6.39 127:  4.15 128:  6.13
 129:  5.47 130:  4.98 131:  2.54 132:  4.78 133:  5.39 134:  4.51 135:  3.76 136:  5.16
 137:  6.09 138:  5.72 139:  5.51 140:  6.03 141:  5.21 142:  6.41 143:  7.20 144:  4.23
 145:  7.00 146:  6.85 147:  3.56 148:  4.39 149:  4.61 150:  4.34 151:  5.64 152:  9.71
 153: 10.99 154:  5.10 155:  5.03 156:  5.42 157:  3.98 158:  9.15 159:  2.62 160:  3.32
 161:  7.68 162:  3.28 163:  9.84 164:  8.99 165:  1.62 166:  1.56 167:  9.69 168:  1.88
 169:  2.27 170: 10.87 171:  1.63 172:  1.77 173:  2.31 174:  9.21 175:  1.95 176:  1.88
 177:  1.55 178:  1.60 179:  2.17 180:  2.10 181:  2.16 182: 11.50 183: 11.55 184: 11.55
 185: 11.71 186: 12.67 187: 13.27 188: 13.26 189:  1.74 190:  1.76 191:  1.83 192:  1.74
 193:  1.74 194:  1.95 195:  1.79 196:  1.79 197:  1.70 198:  1.44 199:  1.85 200:  1.68
 201:  1.63 202:  1.76 203:  1.94 204:  1.92 205:  1.78 206:  1.28 207:  1.73 208:  1.66
 209:  1.78 210:  1.59 211:  1.74 212:  1.81 213:  1.75 214:  1.82 215:  1.81 216:  1.86
 217:  1.89 218:  1.85 219:  1.85 220:  1.89 221:  1.86 222:  1.85 223:  1.84 224:  1.84
 225:  1.84 226:  1.85 227:  1.84 228:  1.84
 IR intensities (km·mol⁻¹)
   1:  0.05   2:  0.04   3:  0.03   4:  0.10   5:  0.05   6:  0.01   7:  0.17   8:  0.14
   9:  0.07  10:  8.74  11:  0.37  12:  1.22  13:  1.79  14:  9.63  15:  1.64  16:  0.16
  17:  7.85  18:  2.94  19:  7.29  20: 18.50  21:  3.95  22: 22.07  23: 35.19  24: 26.64
  25: 29.59  26:  2.63  27: 21.78  28:  1.20  29:  7.30  30:  5.67  31:  3.72  32:  3.12
  33:  3.59  34: 23.90  35: 46.80  36: 11.86  37: 16.00  38: 10.95  39:  5.62  40:  4.67
  41:  2.54  42: 89.35  43: 42.86  44:  1.93  45:  3.70  46:  0.07  47:  0.79  48:  0.55
  49:  7.99  50:  1.88  51: 54.78  52: 34.77  53: 51.61  54:106.96  55: 21.70  56:  7.24
  57:  2.08  58:  8.65  59:  1.90  60: 21.86  61:158.68  62: 29.37  63: 11.98  64: 18.93
  65: 17.39  66: 47.85  67: 35.47  68: 38.13  69: 15.25  70:  2.46  71: 75.39  72: 67.14
  73: 81.47  74: 28.42  75:  6.20  76: 22.00  77: 20.33  78: 52.86  79:165.93  80:190.96
  81:  3.36  82:  2.81  83: 25.87  84:  6.62  85: 11.05  86:  2.43  87: 36.46  88: 19.76
  89: 11.20  90: 38.03  91: 15.08  92:  1.71  93:  0.51  94:  3.51  95:  2.76  96:  6.18
  97:  6.29  98:  5.45  99:  0.29 100:  1.72 101:  0.03 102:  0.68 103:  1.01 104:  5.91
 105:  3.22 106:  4.29 107: 14.79 108: 12.35 109:  9.46 110:  7.46 111: 21.37 112:  3.19
 113: 13.07 114:  1.55 115:  8.13 116:  2.50 117: 40.12 118:129.05 119: 28.28 120:  3.21
 121: 28.61 122: 13.27 123: 12.44 124:  1.93 125: 27.77 126: 12.54 127:  3.03 128:  1.62
 129:  0.35 130:  5.20 131:  0.82 132: 16.50 133: 20.94 134:  1.72 135: 13.07 136:  9.09
 137: 44.67 138: 42.50 139:  6.01 140: 18.90 141:111.42 142: 14.93 143: 29.49 144:  3.52
 145: 29.16 146:  4.78 147:  1.97 148:  0.47 149:  0.94 150:  5.51 151:  2.38 152:149.82
 153:  0.84 154:  3.54 155: 18.78 156:  9.47 157: 51.71 158: 79.42 159:  1.48 160:  3.91
 161:173.54 162:  2.88 163:  4.34 164:200.85 165:  5.71 166: 11.36 167: 23.45 168: 10.34
 169:  1.87 170:177.07 171:  0.87 172:  3.08 173: 18.13 174: 43.07 175:  2.05 176:  0.29
 177:  1.18 178:  1.44 179:110.66 180:142.68 181:148.25 182:  2.75 183: 14.90 184: 14.01
 185:123.67 186:220.28 187:421.39 188:485.05 189:  8.71 190: 24.02 191: 28.42 192: 36.20
 193:  3.70 194: 28.00 195: 35.76 196: 30.00 197: 67.01 198: 42.69 199: 21.72 200:  3.67
 201: 18.66 202: 11.32 203: 68.16 204: 45.51 205: 41.79 206: 37.60 207:  3.94 208: 20.21
 209: 18.66 210: 15.70 211:  3.27 212: 48.58 213:  3.01 214: 44.99 215: 25.59 216: 98.29
 217: 52.35 218: 17.35 219:  8.72 220:535.35 221:338.36 222: 69.07 223:  4.91 224:  6.85
 225: 70.89 226: 11.65 227:  9.37 228:  3.86
 Raman intensities (Ä⁴*amu⁻¹)
   1:  0.00   2:  0.00   3:  0.00   4:  0.00   5:  0.00   6:  0.00   7:  0.00   8:  0.00
   9:  0.00  10:  0.00  11:  0.00  12:  0.00  13:  0.00  14:  0.00  15:  0.00  16:  0.00
  17:  0.00  18:  0.00  19:  0.00  20:  0.00  21:  0.00  22:  0.00  23:  0.00  24:  0.00
  25:  0.00  26:  0.00  27:  0.00  28:  0.00  29:  0.00  30:  0.00  31:  0.00  32:  0.00
  33:  0.00  34:  0.00  35:  0.00  36:  0.00  37:  0.00  38:  0.00  39:  0.00  40:  0.00
  41:  0.00  42:  0.00  43:  0.00  44:  0.00  45:  0.00  46:  0.00  47:  0.00  48:  0.00
  49:  0.00  50:  0.00  51:  0.00  52:  0.00  53:  0.00  54:  0.00  55:  0.00  56:  0.00
  57:  0.00  58:  0.00  59:  0.00  60:  0.00  61:  0.00  62:  0.00  63:  0.00  64:  0.00
  65:  0.00  66:  0.00  67:  0.00  68:  0.00  69:  0.00  70:  0.00  71:  0.00  72:  0.00
  73:  0.00  74:  0.00  75:  0.00  76:  0.00  77:  0.00  78:  0.00  79:  0.00  80:  0.00
  81:  0.00  82:  0.00  83:  0.00  84:  0.00  85:  0.00  86:  0.00  87:  0.00  88:  0.00
  89:  0.00  90:  0.00  91:  0.00  92:  0.00  93:  0.00  94:  0.00  95:  0.00  96:  0.00
  97:  0.00  98:  0.00  99:  0.00 100:  0.00 101:  0.00 102:  0.00 103:  0.00 104:  0.00
 105:  0.00 106:  0.00 107:  0.00 108:  0.00 109:  0.00 110:  0.00 111:  0.00 112:  0.00
 113:  0.00 114:  0.00 115:  0.00 116:  0.00 117:  0.00 118:  0.00 119:  0.00 120:  0.00
 121:  0.00 122:  0.00 123:  0.00 124:  0.00 125:  0.00 126:  0.00 127:  0.00 128:  0.00
 129:  0.00 130:  0.00 131:  0.00 132:  0.00 133:  0.00 134:  0.00 135:  0.00 136:  0.00
 137:  0.00 138:  0.00 139:  0.00 140:  0.00 141:  0.00 142:  0.00 143:  0.00 144:  0.00
 145:  0.00 146:  0.00 147:  0.00 148:  0.00 149:  0.00 150:  0.00 151:  0.00 152:  0.00
 153:  0.00 154:  0.00 155:  0.00 156:  0.00 157:  0.00 158:  0.00 159:  0.00 160:  0.00
 161:  0.00 162:  0.00 163:  0.00 164:  0.00 165:  0.00 166:  0.00 167:  0.00 168:  0.00
 169:  0.00 170:  0.00 171:  0.00 172:  0.00 173:  0.00 174:  0.00 175:  0.00 176:  0.00
 177:  0.00 178:  0.00 179:  0.00 180:  0.00 181:  0.00 182:  0.00 183:  0.00 184:  0.00
 185:  0.00 186:  0.00 187:  0.00 188:  0.00 189:  0.00 190:  0.00 191:  0.00 192:  0.00
 193:  0.00 194:  0.00 195:  0.00 196:  0.00 197:  0.00 198:  0.00 199:  0.00 200:  0.00
 201:  0.00 202:  0.00 203:  0.00 204:  0.00 205:  0.00 206:  0.00 207:  0.00 208:  0.00
 209:  0.00 210:  0.00 211:  0.00 212:  0.00 213:  0.00 214:  0.00 215:  0.00 216:  0.00
 217:  0.00 218:  0.00 219:  0.00 220:  0.00 221:  0.00 222:  0.00 223:  0.00 224:  0.00
 225:  0.00 226:  0.00 227:  0.00 228:  0.00
 output can be read by thermo (or use thermo option).
 writing <g98.out> molden fake output.
 recommended (thermochemical) frequency scaling factor: 1.0
           -------------------------------------------------
          |             Thermodynamic Functions             |
           -------------------------------------------------

Refinement of some symmetry elements was terminated before convergence was reached.
Some symmetry elements may remain unidentified.
Molecule has no symmetry elements
It seems to be the C1 point group
c1  symmetry found (for desy threshold:  0.10E+00) used in thermo

          ...................................................
          :                      SETUP                      :
          :.................................................:
          :  # frequencies                         222      :
          :  # imaginary freq.                       0      :
          :  linear?                             false      :
          :  only rotor calc.                    false      :
          :  symmetry                               c1      :
          :  rotational number                       1      :
          :  scaling factor                  1.0000000      :
          :  rotor cutoff                   50.0000000 cm⁻¹ :
          :  imag. cutoff                  -20.0000000 cm⁻¹ :
          :.................................................:

    mode    ω/cm⁻¹     T·S(HO)/kcal·mol⁻¹    T·S(FR)/kcal·mol⁻¹   T·S(vib)
   ------------------------------------------------------------------------
       1      5.65    -2.72686 (  0.02%)    -1.70240 ( 99.98%)    -1.70257
       2     16.43    -2.09427 (  1.15%)    -1.38613 ( 98.85%)    -1.39430
       3     19.39    -1.99633 (  2.21%)    -1.33714 ( 97.79%)    -1.35171
       4     20.91    -1.95167 (  2.97%)    -1.31479 ( 97.03%)    -1.33369
       5     26.03    -1.82194 (  6.85%)    -1.24987 ( 93.15%)    -1.28903
       6     36.53    -1.62162 ( 22.17%)    -1.14952 ( 77.83%)    -1.25420
       7     38.93    -1.58406 ( 26.87%)    -1.13069 ( 73.13%)    -1.25250
       8     44.49    -1.50524 ( 38.52%)    -1.09115 ( 61.48%)    -1.25067
       9     44.92    -1.49957 ( 39.44%)    -1.08831 ( 60.56%)    -1.25049
      10     54.81    -1.38215 ( 59.09%)    -1.02932 ( 40.91%)    -1.23779
      11     56.42    -1.36513 ( 61.85%)    -1.02076 ( 38.15%)    -1.23375
      12     57.64    -1.35256 ( 63.84%)    -1.01443 ( 36.16%)    -1.23030
      13     61.61    -1.31329 ( 69.75%)    -0.99466 ( 30.25%)    -1.21691
      14     69.17    -1.24533 ( 78.55%)    -0.96040 ( 21.45%)    -1.18422
      15     71.92    -1.22248 ( 81.06%)    -0.94886 ( 18.94%)    -1.17066
      16     77.00    -1.18242 ( 84.91%)    -0.92862 ( 15.09%)    -1.14411
      17     82.62    -1.14125 ( 88.17%)    -0.90778 ( 11.83%)    -1.11363
      18     90.23    -1.08975 ( 91.38%)    -0.88166 (  8.62%)    -1.07182
      19     91.49    -1.08165 ( 91.81%)    -0.87754 (  8.19%)    -1.06494
      20     96.95    -1.04790 ( 93.39%)    -0.86037 (  6.61%)    -1.03551
      21    108.65    -0.98179 ( 95.71%)    -0.82663 (  4.29%)    -0.97513
      22    113.81    -0.95494 ( 96.41%)    -0.81289 (  3.59%)    -0.94984
      23    119.55    -0.92655 ( 97.03%)    -0.79831 (  2.97%)    -0.92274
      24    124.82    -0.90170 ( 97.49%)    -0.78552 (  2.51%)    -0.89879
      25    127.64    -0.88886 ( 97.70%)    -0.77890 (  2.30%)    -0.88633
      26    132.34    -0.86812 ( 98.00%)    -0.76819 (  2.00%)    -0.86612
      27    137.98    -0.84429 ( 98.30%)    -0.75584 (  1.70%)    -0.84279
      28    149.13    -0.80004 ( 98.75%)    -0.73282 (  1.25%)    -0.79920
      29    152.29    -0.78812 ( 98.85%)    -0.72659 (  1.15%)    -0.78741
      30    156.56    -0.77250 ( 98.97%)    -0.71842 (  1.03%)    -0.77194
      31    161.37    -0.75540 ( 99.09%)    -0.70944 (  0.91%)    -0.75498
      32    173.63    -0.71430 ( 99.32%)    -0.68775 (  0.68%)    -0.71412
      33    184.05    -0.68184 ( 99.46%)    -0.67048 (  0.54%)    -0.68178
      34    187.45    -0.67169 ( 99.50%)    -0.66506 (  0.50%)    -0.67165
      35    189.16    -0.66668 ( 99.51%)    -0.66238 (  0.49%)    -0.66665
      36    219.11    -0.58629 ( 99.73%)    -0.61884 (  0.27%)    -0.58638
      37    225.62    -0.57051 ( 99.76%)    -0.61015 (  0.24%)    -0.57060
      38    240.88    -0.53559 ( 99.81%)    -0.59078 (  0.19%)    -0.53569
      39    248.90    -0.51828 ( 99.84%)    -0.58107 (  0.16%)    -0.51838
      40    252.03    -0.51172 ( 99.85%)    -0.57736 (  0.15%)    -0.51182
      41    270.87    -0.47426 ( 99.88%)    -0.55602 (  0.12%)    -0.47435
      42    280.52    -0.45632 ( 99.90%)    -0.54564 (  0.10%)    -0.45641
      43    288.28    -0.44247 ( 99.91%)    -0.53756 (  0.09%)    -0.44256
      44    289.32    -0.44064 ( 99.91%)    -0.53649 (  0.09%)    -0.44072
   ------------------------------------------------------------------------

   temp. (K)  partition function   enthalpy   heat capacity  entropy
                                   cal/mol     cal/K/mol   cal/K/mol   J/K/mol
 298.15  VIB  0.202E+23            25999.182    143.152    170.925
         ROT  0.352E+08              888.752      2.981     37.510
         INT  0.710E+30            26887.934    146.133    208.435
         TR   0.108E+29             1481.254      4.968     44.499
         TOT                       28369.1879   151.1013   252.9338  1058.2750

       T/K    H(0)-H(T)+PV         H(T)/Eh          T*S/Eh         G(T)/Eh
   ------------------------------------------------------------------------
    298.15    0.452092E-01    0.668044E+00    0.120177E+00    0.547867E+00
   ------------------------------------------------------------------------

         :::::::::::::::::::::::::::::::::::::::::::::::::::::
         ::                  THERMODYNAMIC                  ::
         :::::::::::::::::::::::::::::::::::::::::::::::::::::
         :: total free energy        -109.720218539826 Eh   ::
         ::.................................................::
         :: total energy             -110.268086014016 Eh   ::
         :: zero point energy           0.622835300449 Eh   ::
         :: G(RRHO) w/o ZPVE           -0.074967826259 Eh   ::
         :: G(RRHO) contrib.            0.547867474191 Eh   ::
         :::::::::::::::::::::::::::::::::::::::::::::::::::::

           -------------------------------------------------
          | TOTAL ENERGY             -110.268086014016 Eh   |
          | TOTAL ENTHALPY           -109.600041534901 Eh   |
          | TOTAL FREE ENERGY        -109.720218539826 Eh   |
          | GRADIENT NORM               0.000213478840 Eh/α |
          | HOMO-LUMO GAP               2.089266606504 eV   |
           -------------------------------------------------

------------------------------------------------------------------------
 * finished run on 2026/08/20 at 20:37:59.243     
------------------------------------------------------------------------
 total:
 * wall-time:     0 d,  0 h,  0 min, 12.590 sec
 *  cpu-time:     0 d,  0 h,  1 min, 25.578 sec
 * ratio c/w:     6.797 speedup
 SCF:
 * wall-time:     0 d,  0 h,  0 min,  0.074 sec
 *  cpu-time:     0 d,  0 h,  0 min,  0.266 sec
 * ratio c/w:     3.590 speedup
 analytical hessian:
 * wall-time:     0 d,  0 h,  0 min, 12.454 sec
 *  cpu-time:     0 d,  0 h,  1 min, 25.250 sec
 * ratio c/w:     6.845 speedup



===== STDERR =====

normal termination of xtb
