76
 energy: -110.271370080662 gnorm: 0.000204298881 xtb: 6.7.1pre (5071a88)
N           -0.10845334560934        0.24889643096049       -0.06539946323794
C            1.28809713916086        0.18088225214254        0.16972456369310
C            1.97074373346852        1.28852573206998        0.66283494633302
C            3.34989687565130        1.29446459781507        0.66561328799249
C            4.06545784624193        0.19289351951770        0.21480466306127
C            3.37466986589142       -0.96791820955464       -0.10698716048337
C            1.99478974571970       -0.97877244696307       -0.12734372021894
C            5.50721270378758        0.33321518198966       -0.16421387926717
C            5.52191615170953        0.91290468542224       -1.60932171659438
C           -0.48935187715849        1.14943190912435       -1.16997580586733
C           -0.11454768661524        2.57678813096595       -0.89568756520083
C           -0.84533782606883        3.43042375223376       -0.19705022720798
C           -0.45878241060702        4.84848900440535        0.05748391731050
C           -1.56361707464446        5.81770477545893       -0.36973699448242
C           -1.17893537016692        7.26155249876208       -0.07763618703635
O            0.04386703816850        0.71409803191138       -2.39681559049406
N           -0.75837856935786        3.12384232355688        3.47557225268704
C           -1.47933615560064        4.27559410208628        3.37928677696038
C           -0.64425229751488        5.34494724661618        3.79643753691555
C            0.60637550688840        4.76201894738933        4.13976638557943
C           -2.78718183981808        4.49183125566631        2.96617160151113
C           -1.14698540338347        6.64568178280975        3.79368025736771
C            0.49784672702426        3.41506784231627        3.93317656097712
C           -3.25593028808723        5.78845343606210        2.97274309064026
C           -2.44515710492962        6.85086984378995        3.38179781563272
C            1.48799651891434        2.32979195797305        4.16755867782780
O           -1.54672843584169        0.62596993283654        2.30056052137509
H           -0.44149882181036       -0.68611619312020       -0.29621939277541
H           -0.01717643293417       -1.06382855302412       -2.52767190161047
H            1.42277179484161        2.16297023196389        0.97279347936222
H            3.87543661214247        2.18584580340377        0.97731732272114
H            3.91965376754418       -1.85165023400668       -0.40676609682474
H            1.46362820574918       -1.86070127691482       -0.45550654271083
H            6.01546655821646       -0.63227340397533       -0.16735699456870
H            6.03894653417932        1.01482589072908        0.50084134814641
H            5.04774867365750        1.89975941275193       -1.60569483501795
H            5.34454405199402       -0.67291046526938       -2.92323371189201
H            7.21097619411171        2.72079720967124       -1.08601152270221
H           -1.57938505648131        1.05555570728789       -1.26873590683930
H            0.82536032413931        2.88148394152700       -1.33667123061238
H           -1.78568937689925        3.11896365042507        0.23832190624773
H           -0.28127986236841        4.98288810644232        1.12787158994304
H            0.46583935999550        5.08221429077615       -0.47400609219241
H           -1.75768082518298        5.69459619785198       -1.43795488482745
H           -2.47920211943716        5.57398650640927        0.17224389967833
H           -1.97136453313124        7.93825172300951       -0.38882766777907
H           -1.01163547595336        7.39450714779761        0.98870294321685
H           -0.26823986416941        7.53117319325906       -0.60863710827900
H           -1.07790501281167        2.20106569749359        3.20621142762272
H            1.47208237690415        5.28308073317162        4.49935351860947
H           -3.41362101627995        3.66798999818805        2.65560631026610
H           -0.52718316181464        7.47261203119771        4.11028182976583
H           -4.26958170524275        5.99257639652592        2.65836371941623
H           -2.85271746807317        7.85190350498254        3.37279670280740
H            2.49349371960283        2.73954563817252        4.21342768112447
H            1.27935776785260        1.82606925072816        5.11241347713490
H            1.44014371904904        1.58588363675534        3.37433875185242
H           -2.41304864028714        0.29743164356305        2.05620992940603
H           -0.98585488975322        0.56510145979439        1.50132161785012
O            0.00192688451783       -2.04008370898839       -2.49850844333277
H            1.00251481736135        0.94259056683303       -2.42758596965946
H           -0.50000892368487       -2.33846016463243       -3.25803535915902
N            4.78674382827517        0.06550029580028       -2.51392685786108
C            6.96714681816515        0.97111486402445       -2.10529966540293
O            7.42888589058260        0.10045398825069       -2.81501893301361
C            2.94378830163283       -0.84181346386430       -3.76365344593106
C            3.49502408763174        0.22138776081299       -2.84856410846673
O            2.80728650118832        1.14868150548422       -2.44111203363744
H            3.72907777302240       -1.43306689471841       -4.22379143277390
H            2.33617693920541       -0.37205121102260       -4.53364156354985
H            2.29298559850499       -1.49517846488599       -3.18245640457835
N            7.66827577221062        2.02607273495231       -1.65438281721137
C            9.06100229030959        2.23190338147206       -1.97369264448044
H            9.66329447713236        2.26181480930238       -1.06432797504923
H            9.19685589229962        3.16328083435490       -2.52559100981504
H            9.38074348597535        1.39560577144623       -2.59257944859754
