      -----------------------------------------------------------      
     |                   =====================                   |     
     |                           x T B                           |     
     |                   =====================                   |     
     |                         S. Grimme                         |     
     |          Mulliken Center for Theoretical Chemistry        |     
     |                    University of Bonn                     |     
      -----------------------------------------------------------      

   * xtb version 6.7.1pre (5071a88) compiled by 'Marcel@Raven' on 2024-07-23

   xtb is free software: you can redistribute it and/or modify it under
   the terms of the GNU Lesser General Public License as published by
   the Free Software Foundation, either version 3 of the License, or
   (at your option) any later version.
   
   xtb is distributed in the hope that it will be useful,
   but WITHOUT ANY WARRANTY; without even the implied warranty of
   MERCHANTABILITY or FITNESS FOR A PARTICULAR PURPOSE.  See the
   GNU Lesser General Public License for more details.
   
   Cite this work as:
   * C. Bannwarth, E. Caldeweyher, S. Ehlert, A. Hansen, P. Pracht,
     J. Seibert, S. Spicher, S. Grimme, WIREs Comput. Mol. Sci., 2020, 11,
     e01493. DOI: 10.1002/wcms.1493
   
   for GFN2-xTB:
   * C. Bannwarth, S. Ehlert and S. Grimme., J. Chem. Theory Comput., 2019,
     15, 1652-1671. DOI: 10.1021/acs.jctc.8b01176
   for GFN1-xTB:
   * S. Grimme, C. Bannwarth, P. Shushkov, J. Chem. Theory Comput., 2017,
     13, 1989-2009. DOI: 10.1021/acs.jctc.7b00118
   for GFN0-xTB:
   * P. Pracht, E. Caldeweyher, S. Ehlert, S. Grimme, ChemRxiv, 2019, preprint.
     DOI: 10.26434/chemrxiv.8326202.v1
   for GFN-FF:
   * S. Spicher and S. Grimme, Angew. Chem. Int. Ed., 2020, 59, 15665-15673.
     DOI: 10.1002/anie.202004239
   
   for ALPB and GBSA implicit solvation:
   * S. Ehlert, M. Stahn, S. Spicher, S. Grimme, J. Chem. Theory Comput.,
     2021, 17, 4250-4261. DOI: 10.1021/acs.jctc.1c00471
   
   for ddCOSMO and CPCM-X implicit solvation:
   * M. Stahn, S. Ehlert, S. Grimme, J. Phys. Chem. A,
     2023, XX, XXXX-XXXX. DOI: 10.1021/acs.jpca.3c04382
   
   for DFT-D4:
   * E. Caldeweyher, C. Bannwarth and S. Grimme, J. Chem. Phys., 2017,
     147, 034112. DOI: 10.1063/1.4993215
   * E. Caldeweyher, S. Ehlert, A. Hansen, H. Neugebauer, S. Spicher,
     C. Bannwarth and S. Grimme, J. Chem. Phys., 2019, 150, 154122.
     DOI: 10.1063/1.5090222
   * E. Caldeweyher, J.-M. Mewes, S. Ehlert and S. Grimme, Phys. Chem. Chem. Phys.
     2020, 22, 8499-8512. DOI: 10.1039/D0CP00502A
   
   for sTDA-xTB:
   * S. Grimme and C. Bannwarth, J. Chem. Phys., 2016, 145, 054103.
     DOI: 10.1063/1.4959605
   
   in the mass-spec context:
   * V. Asgeirsson, C. Bauer and S. Grimme, Chem. Sci., 2017, 8, 4879.
     DOI: 10.1039/c7sc00601b
   * J. Koopman and S. Grimme, ACS Omega 2019, 4, 12, 15120-15133.
     DOI: 10.1021/acsomega.9b02011
   
   for metadynamics refer to:
   * S. Grimme, J. Chem. Theory Comput., 2019, 155, 2847-2862
     DOI: 10.1021/acs.jctc.9b00143
   
   for SPH calculations refer to:
   * S. Spicher and S. Grimme, J. Chem. Theory Comput., 2021, 17, 1701-1714
     DOI: 10.1021/acs.jctc.0c01306
   
   for ONIOM refer to:
   * C. Plett, A. Katbashev, S. Ehlert, S. Grimme, M. Bursch,
     Phys. Chem. Chem. Phys., 2023, 25, 17860-17868. DOI: 10.1039/D3CP02178E
   
   for DIPRO refer to:
   * J. Kohn, N. Gildemeister, S. Grimme, D. Fazzi, A. Hansen,
     J. Chem. Phys., 2023, just accepted.
   
   for PTB refer to:
   * S. Grimme, M. Mueller, A. Hansen, J. Chem. Phys., 2023, 158, 124111.
     DOI: 10.1063/5.0137838
   
   with help from (in alphabetical order)
   P. Atkinson, C. Bannwarth, F. Bohle, G. Brandenburg, E. Caldeweyher
   M. Checinski, S. Dohm, S. Ehlert, S. Ehrlich, I. Gerasimov, C. Hölzer
   A. Katbashev, J. Kohn, J. Koopman, C. Lavigne, S. Lehtola, F. März, M. Müller,
   F. Musil, H. Neugebauer, J. Pisarek, C. Plett, P. Pracht, F. Pultar,
   J. Seibert, P. Shushkov, S. Spicher, M. Stahn, M. Steiner, T. Strunk,
   J. Stückrath, T. Rose, and J. Unsleber
   
 * started run on 2026/08/20 at 20:36:37.672     
   ID    Z sym.   atoms
    1    7 N      1, 17, 63, 72
    2    6 C      2-15, 18-26, 64, 66, 67, 73
    3    8 O      16, 27, 60, 65, 68
    4    1 H      28-59, 61, 62, 69-71, 74-76

           -------------------------------------------------
          |                Calculation Setup                |
           -------------------------------------------------

          program call               : C:\Users\Nayanika\Downloads\xtb-6.7.1pre-windows-x86_64\xtb-6.7.1\bin\xtb.exe D:\PhD_Thesis\LmrR_EVB\charges\fast_lmrr_5QM\xtb_preparation\RS2_1_to_TS2_1a\RS2_1_to_TS2_1a_RS.xyz --gfn 2 --opt tight --chrg 0 --uhf 0 --etemp 500
          coordinate file            : D:\PhD_Thesis\LmrR_EVB\charges\fast_lmrr_5QM\xtb_preparation\RS2_1_to_TS2_1a\RS2_1_to_TS2_1a_RS.xyz
          omp threads                :                     8


molecular fragmentation (1/2 indicates fragments):
111111111111111222222222222121111111111111111111222222222222221111111111
1111
# atoms in fragment 1/2:    49    27
 fragment masses (1/2) :      316.42      184.21
CMA distance (Bohr)    :  12.741
constraining FC (au)   :  0.0500

           -------------------------------------------------
          |                 G F N 2 - x T B                 |
           -------------------------------------------------

        Reference                      10.1021/acs.jctc.8b01176
      * Hamiltonian:
        H0-scaling (s, p, d)           1.850000    2.230000    2.230000
        zeta-weighting                 0.500000
      * Dispersion:
        s8                             2.700000
        a1                             0.520000
        a2                             5.000000
        s9                             5.000000
      * Repulsion:
        kExp                           1.500000    1.000000
        rExp                           1.000000
      * Coulomb:
        alpha                          2.000000
        third order                    shell-resolved
        anisotropic                    true
        a3                             3.000000
        a5                             4.000000
        cn-shift                       1.200000
        cn-exp                         4.000000
        max-rad                        5.000000


          ...................................................
          :                      SETUP                      :
          :.................................................:
          :  # basis functions                 184          :
          :  # atomic orbitals                 184          :
          :  # shells                          112          :
          :  # electrons                       198          :
          :  max. iterations                   250          :
          :  Hamiltonian                  GFN2-xTB          :
          :  restarted?                      false          :
          :  GBSA solvation                  false          :
          :  PC potential                    false          :
          :  electronic temp.          500.0000000     K    :
          :  accuracy                    1.0000000          :
          :  -> integral cutoff          0.2500000E+02      :
          :  -> integral neglect         0.1000000E-07      :
          :  -> SCF convergence          0.1000000E-05 Eh   :
          :  -> wf. convergence          0.1000000E-03 e    :
          :  Broyden damping             0.4000000          :
          :  net charge                          0          :
          :  unpaired electrons                  0          :
          ...................................................

 iter      E             dE          RMSdq      gap      omega  full diag
   1   -111.2112585 -0.111211E+03  0.427E+00    2.73       0.0  T
   2   -110.7054884  0.505770E+00  0.336E+00    0.00       1.0  T
   3   -111.3687191 -0.663231E+00  0.256E+00    2.78       1.0  T
   4   -111.4832032 -0.114484E+00  0.154E+00    1.89       1.0  T
   5   -111.4971828 -0.139796E-01  0.102E+00    1.50       1.0  T
   6   -110.8787785  0.618404E+00  0.231E+00    0.00       1.0  T
   7   -111.5065518 -0.627773E+00  0.915E-01    1.48       1.0  T
   8   -111.5086788 -0.212700E-02  0.853E-01    1.39       1.0  T
   9   -111.5128530 -0.417415E-02  0.792E-01    0.84       1.0  T
  10   -111.5241862 -0.113333E-01  0.699E-01    0.40       1.0  T
  11   -110.7736522  0.750534E+00  0.253E+00    0.00       1.0  T
  12   -111.5435781 -0.769926E+00  0.581E-01    0.29       1.0  T
  13   -111.5861842 -0.426062E-01  0.157E-01    0.17       1.0  T
  14   -111.5816155  0.456870E-02  0.241E-01    0.11       1.0  T
  15   -111.5875603 -0.594472E-02  0.121E-01    0.16       1.0  T
  16   -111.5870576  0.502632E-03  0.135E-01    0.12       1.0  T
  17   -111.5894968 -0.243919E-02  0.211E-02    0.14       1.0  T
  18   -111.5874859  0.201093E-02  0.123E-01    0.12       1.0  T
  19   -111.5888606 -0.137470E-02  0.714E-02    0.13       1.0  T
  20   -111.5880091  0.851525E-03  0.106E-01    0.13       1.0  T
  21   -111.5891833 -0.117423E-02  0.523E-02    0.13       1.0  T
  22   -111.5894659 -0.282584E-03  0.258E-02    0.14       1.0  T
  23   -111.5895566 -0.907026E-04  0.608E-04    0.14      18.9  T
  24   -111.5895555  0.111178E-05  0.291E-03    0.14       3.9  T
  25   -111.5895566 -0.113024E-05  0.457E-04    0.14      25.1  T
  26   -111.5895566  0.340052E-07  0.676E-04    0.14      17.0  T
  27   -111.5895566 -0.495624E-07  0.306E-04    0.14      37.5  T

   *** convergence criteria satisfied after 27 iterations ***

         #    Occupation            Energy/Eh            Energy/eV
      -------------------------------------------------------------
         1        2.0000           -0.7142790             -19.4365
       ...           ...                  ...                  ...
        93        2.0000           -0.3965533             -10.7908
        94        2.0000           -0.3800017             -10.3404
        95        2.0000           -0.3750407             -10.2054
        96        2.0000           -0.3681529             -10.0180
        97        2.0000           -0.3438795              -9.3574
        98        1.7864           -0.3025756              -8.2335
        99        1.7651           -0.3024062              -8.2289 (HOMO)
       100        0.4486           -0.2972481              -8.0885 (LUMO)
       101                         -0.2368695              -6.4455
       102                         -0.2332910              -6.3482
       103                         -0.2279263              -6.2022
       104                         -0.2212414              -6.0203
       ...                                ...                  ...
       184                          0.7101671              19.3246
      -------------------------------------------------------------
                  HL-Gap            0.0051581 Eh            0.1404 eV
             Fermi-level           -0.2992130 Eh           -8.1420 eV

 SCC (total)                   0 d,  0 h,  0 min,  0.346 sec
 SCC setup                      ...        0 min,  0.000 sec (  0.000%)
 Dispersion                     ...        0 min,  0.002 sec (  0.578%)
 classical contributions        ...        0 min,  0.000 sec (  0.000%)
 integral evaluation            ...        0 min,  0.004 sec (  1.156%)
 iterations                     ...        0 min,  0.325 sec ( 93.931%)
 molecular gradient             ...        0 min,  0.015 sec (  4.335%)
 printout                       ...        0 min,  0.000 sec (  0.000%)

         :::::::::::::::::::::::::::::::::::::::::::::::::::::
         ::                     SUMMARY                     ::
         :::::::::::::::::::::::::::::::::::::::::::::::::::::
         :: total energy            -110.051730334646 Eh    ::
         :: gradient norm              0.141770866997 Eh/a0 ::
         :: HOMO-LUMO gap              0.140359035314 eV    ::
         ::.................................................::
         :: SCC energy              -111.587809704749 Eh    ::
         :: -> isotropic ES            0.243008811789 Eh    ::
         :: -> anisotropic ES         -0.000768132800 Eh    ::
         :: -> anisotropic XC          0.048559279742 Eh    ::
         :: -> dispersion             -0.080167570098 Eh    ::
         :: repulsion energy           1.536079370103 Eh    ::
         :: add. restraining           0.000000000000 Eh    ::
         :: total charge               0.000000000017 e     ::
         :::::::::::::::::::::::::::::::::::::::::::::::::::::

      ----------------------------------------------------------- 
     |                   =====================                   |
     |                        A N C O P T                        |
     |                   =====================                   |
     |               Approximate Normal Coordinate               |
     |                Rational Function Optimizer                |
      ----------------------------------------------------------- 
      ----------------------------------------------------------- 
     |                   =====================                   |
     |                        A N C O P T                        |
     |                   =====================                   |
     |               Approximate Normal Coordinate               |
     |                Rational Function Optimizer                |
      ----------------------------------------------------------- 

          ...................................................
          :                      SETUP                      :
          :.................................................:
          :   optimization level             tight          :
          :   max. optcycles                   380          :
          :   ANC micro-cycles                  20          :
          :   degrees of freedom               222          :
          :.................................................:
          :   RF solver                   davidson          :
          :   write xtbopt.log                true          :
          :   linear?                        false          :
          :   energy convergence         0.1000000E-05 Eh   :
          :   grad. convergence          0.8000000E-03 Eh/α :
          :   maxmium RF displ.          1.0000000          :
          :   Hlow (freq-cutoff)         0.1000000E-01      :
          :   Hmax (freq-cutoff)         5.0000000          :
          :   S6 in model hess.         20.0000000          :
          ...................................................

generating ANC from exact Hessian ...
Using Lindh-Hessian (1995)
 Shifting diagonal of input Hessian by   1.006772676179036E-002
 Lowest  eigenvalues of input Hessian
    0.010000    0.010012    0.000000    0.000000    0.000000    0.000000
    0.000000    0.000000    0.010086    0.010105    0.010119    0.010183
    0.010211    0.010262    0.010327    0.010420    0.010442    0.010488
 Highest eigenvalues
    2.001196    2.007897    2.089836    2.123179    2.236932    2.249106
 

........................................................................
.............................. CYCLE    1 ..............................
........................................................................

 iter      E             dE          RMSdq      gap      omega  full diag
   1   -111.5895566 -0.111590E+03  0.398E-05    0.14       0.0  T
   2   -111.5895564  0.221591E-06  0.127E-03    0.14       9.0  T
   3   -111.5895566 -0.221803E-06  0.389E-06    0.14    2952.0  T
   4   -111.5895566 -0.952127E-12  0.217E-06    0.14    5292.8  T
     SCC iter.                  ...        0 min,  0.049 sec
     gradient                   ...        0 min,  0.014 sec
 * total energy  :  -110.0517303 Eh     change       -0.1275298E-07 Eh
   gradient norm :     0.1417581 Eh/α   predicted     0.0000000E+00 (-100.00%)
   displ. norm   :     0.6230786 α      lambda       -0.4888767E-01
   maximum displ.:     0.1908068 α      in ANC's #65, #33, #44, ...

........................................................................
.............................. CYCLE    2 ..............................
........................................................................

 iter      E             dE          RMSdq      gap      omega  full diag
   1   -111.6590793 -0.111659E+03  0.209E-01    0.14       0.0  T
   2   -111.6464347  0.126445E-01  0.336E-01    0.10       1.0  T
   3   -111.5944954  0.519393E-01  0.699E-01    0.39       1.0  T
   4   -111.6478327 -0.533373E-01  0.293E-01    0.19       1.0  T
   5   -111.6519101 -0.407738E-02  0.237E-01    0.11       1.0  T
   6   -111.6571625 -0.525241E-02  0.135E-01    0.16       1.0  T
   7   -111.6587978 -0.163529E-02  0.798E-02    0.13       1.0  T
   8   -111.6596108 -0.813009E-03  0.219E-02    0.14       1.0  T
   9   -111.6596681 -0.573335E-04  0.796E-03    0.14       1.4  T
  10   -111.6596734 -0.527454E-05  0.490E-03    0.14       2.3  T
  11   -111.6596725  0.836004E-06  0.543E-03    0.14       2.1  T
  12   -111.6596763 -0.371998E-05  0.140E-03    0.14       8.2  T
  13   -111.6596748  0.144126E-05  0.351E-03    0.14       3.3  T
  14   -111.6596765 -0.163688E-05  0.489E-04    0.14      23.4  T
  15   -111.6596764  0.336339E-07  0.682E-04    0.14      16.8  T
  16   -111.6596765 -0.629616E-07  0.101E-04    0.14     113.2  T
     SCC iter.                  ...        0 min,  0.189 sec
     gradient                   ...        0 min,  0.014 sec
 * total energy  :  -110.0851676 Eh     change       -0.3343725E-01 Eh
   gradient norm :     0.0752292 Eh/α   predicted    -0.3393359E-01 (   1.48%)
   displ. norm   :     0.5889694 α      lambda       -0.2368953E-01
   maximum displ.:     0.1673209 α      in ANC's #59, #33, #65, ...

........................................................................
.............................. CYCLE    3 ..............................
........................................................................

 iter      E             dE          RMSdq      gap      omega  full diag
   1   -111.6950966 -0.111695E+03  0.261E-01    0.11       0.0  T
   2   -111.6185328  0.765639E-01  0.819E-01    0.96       1.0  T
   3   -111.6900301 -0.714974E-01  0.279E-01    0.18       1.0  T
   4   -110.9310076  0.759023E+00  0.242E+00    0.01       1.0  T
   5   -111.6283235 -0.697316E+00  0.727E-01    0.47       1.0  T
   6   -111.6412578 -0.129344E-01  0.655E-01    0.34       1.0  T
   7   -111.6760539 -0.347961E-01  0.414E-01    0.22       1.0  T
   8   -111.6998887 -0.238348E-01  0.934E-03    0.14       1.2  T
   9   -111.6973405  0.254818E-02  0.136E-01    0.16       1.0  T
  10   -111.6998284 -0.248786E-02  0.225E-02    0.14       1.0  T
  11   -111.6997821  0.462665E-04  0.290E-02    0.14       1.0  T
  12   -111.6998890 -0.106890E-03  0.830E-03    0.14       1.4  T
  13   -111.6996471  0.241880E-03  0.426E-02    0.14       1.0  T
  14   -111.6998934 -0.246281E-03  0.603E-03    0.14       1.9  T
  15   -111.6998593  0.341351E-04  0.168E-02    0.14       1.0  T
  16   -111.6998979 -0.386442E-04  0.176E-03    0.14       6.5  T
  17   -111.6998961  0.178618E-05  0.399E-03    0.14       2.9  T
  18   -111.6998984 -0.221247E-05  0.850E-05    0.14     134.9  T
  19   -111.6998984  0.241936E-08  0.157E-04    0.14      73.1  T
  20   -111.6998984 -0.135242E-08  0.121E-04    0.14      94.6  T
     SCC iter.                  ...        0 min,  0.240 sec
     gradient                   ...        0 min,  0.014 sec
 * total energy  :  -110.1006642 Eh     change       -0.1549665E-01 Eh
   gradient norm :     0.0304471 Eh/α   predicted    -0.1595393E-01 (   2.95%)
   displ. norm   :     0.5597102 α      lambda       -0.9462100E-02
   maximum displ.:     0.1662639 α      in ANC's #33, #23, #32, ...

........................................................................
.............................. CYCLE    4 ..............................
........................................................................

 iter      E             dE          RMSdq      gap      omega  full diag
   1   -111.6939798 -0.111694E+03  0.194E-01    0.16       0.0  T
   2   -110.8962326  0.797747E+00  0.249E+00    0.01       1.0  T
   3   -111.6972970 -0.801064E+00  0.721E-02    0.14       1.0  T
   4   -111.6952798  0.201718E-02  0.127E-01    0.16       1.0  T
   5   -111.6960830 -0.803206E-03  0.996E-02    0.12       1.0  T
   6   -111.6971534 -0.107045E-02  0.475E-02    0.14       1.0  T
   7   -111.6973486 -0.195165E-03  0.297E-02    0.13       1.0  T
   8   -111.6974306 -0.819637E-04  0.166E-02    0.13       1.0  T
   9   -111.6974475 -0.168957E-04  0.121E-02    0.13       1.0  T
  10   -111.6974543 -0.689011E-05  0.972E-03    0.13       1.2  T
  11   -111.6974669 -0.125092E-04  0.135E-03    0.14       8.5  T
  12   -111.6974662  0.660303E-06  0.256E-03    0.14       4.5  T
  13   -111.6974670 -0.802906E-06  0.763E-04    0.14      15.0  T
  14   -111.6974671 -0.757937E-07  0.142E-04    0.14      80.5  T
     SCC iter.                  ...        0 min,  0.165 sec
     gradient                   ...        0 min,  0.013 sec
 * total energy  :  -110.1082325 Eh     change       -0.7568210E-02 Eh
   gradient norm :     0.0256349 Eh/α   predicted    -0.6213183E-02 ( -17.90%)
   displ. norm   :     0.6619233 α      lambda       -0.7556764E-02
   maximum displ.:     0.1842355 α      in ANC's #33, #53, #39, ...

........................................................................
.............................. CYCLE    5 ..............................
........................................................................

 iter      E             dE          RMSdq      gap      omega  full diag
   1   -111.6929656 -0.111693E+03  0.214E-01    0.17       0.0  T
   2   -110.8936214  0.799344E+00  0.251E+00    0.03       1.0  T
   3   -111.6941004 -0.800479E+00  0.170E-01    0.12       1.0  T
   4   -111.6833389  0.107615E-01  0.318E-01    0.20       1.0  T
   5   -111.6960447 -0.127058E-01  0.994E-02    0.13       1.0  T
   6   -111.6974011 -0.135644E-02  0.842E-03    0.14       1.4  T
   7   -111.6973616  0.395767E-04  0.190E-02    0.14       1.0  T
   8   -111.6974063 -0.447291E-04  0.498E-03    0.14       2.3  T
   9   -111.6973928  0.134412E-04  0.110E-02    0.14       1.0  T
  10   -111.6974091 -0.162283E-04  0.959E-04    0.14      12.0  T
  11   -111.6974069  0.220592E-05  0.408E-03    0.14       2.8  T
  12   -111.6974089 -0.201340E-05  0.130E-03    0.14       8.8  T
  13   -111.6974089  0.139050E-07  0.133E-03    0.14       8.6  T
  14   -111.6974091 -0.201777E-06  0.529E-04    0.14      21.7  T
  15   -111.6974091  0.228546E-08  0.542E-04    0.14      21.2  T
     SCC iter.                  ...        0 min,  0.184 sec
     gradient                   ...        0 min,  0.014 sec
 * total energy  :  -110.1142488 Eh     change       -0.6016367E-02 Eh
   gradient norm :     0.0296388 Eh/α   predicted    -0.5433862E-02 (  -9.68%)
   displ. norm   :     0.6761015 α      lambda       -0.5694376E-02
   maximum displ.:     0.2078166 α      in ANC's #21, #19, #15, ...

........................................................................
.............................. CYCLE    6 ..............................
........................................................................

 iter      E             dE          RMSdq      gap      omega  full diag
   1   -111.6837296 -0.111684E+03  0.366E-01    0.22       0.0  T
   2   -110.8689260  0.814804E+00  0.261E+00    0.04       1.0  T
   3   -111.6693654 -0.800439E+00  0.470E-01    0.09       1.0  T
   4   -111.6400090  0.293564E-01  0.673E-01    0.46       1.0  T
   5   -111.6621816 -0.221727E-01  0.525E-01    0.30       1.0  T
   6   -111.6929523 -0.307706E-01  0.220E-01    0.12       1.0  T
   7   -111.6976696 -0.471729E-02  0.117E-01    0.17       1.0  T
   8   -111.6995166 -0.184702E-02  0.752E-03    0.15       1.5  T
   9   -111.6993343  0.182301E-03  0.373E-02    0.16       1.0  T
  10   -111.6994144 -0.801287E-04  0.274E-02    0.15       1.0  T
  11   -111.6995172 -0.102810E-03  0.177E-03    0.15       6.5  T
  12   -111.6994885  0.287222E-04  0.144E-02    0.15       1.0  T
  13   -111.6995170 -0.285283E-04  0.128E-03    0.15       8.9  T
  14   -111.6995171 -0.447030E-07  0.113E-03    0.15      10.1  T
  15   -111.6995171 -0.922893E-07  0.787E-04    0.15      14.6  T
  16   -111.6995172 -0.833932E-07  0.338E-05    0.15     338.9  T
     SCC iter.                  ...        0 min,  0.193 sec
     gradient                   ...        0 min,  0.015 sec
 * total energy  :  -110.1186367 Eh     change       -0.4387868E-02 Eh
   gradient norm :     0.0257009 Eh/α   predicted    -0.4148687E-02 (  -5.45%)
   displ. norm   :     0.7444526 α      lambda       -0.5765457E-02
   maximum displ.:     0.2529578 α      in ANC's #33, #21, #53, ...

........................................................................
.............................. CYCLE    7 ..............................
........................................................................

 iter      E             dE          RMSdq      gap      omega  full diag
   1   -111.7095282 -0.111710E+03  0.157E-01    0.18       0.0  T
   2   -111.6995961  0.993209E-02  0.293E-01    0.14       1.0  T
   3   -111.6880403  0.115557E-01  0.402E-01    0.29       1.0  T
   4   -111.7059067 -0.178664E-01  0.165E-01    0.22       1.0  T
   5   -111.7094615 -0.355484E-02  0.384E-02    0.19       1.0  T
   6   -111.7096164 -0.154883E-03  0.123E-02    0.19       1.0  T
   7   -111.7096134  0.297585E-05  0.893E-03    0.19       1.3  T
   8   -111.7094154  0.198075E-03  0.385E-02    0.19       1.0  T
   9   -111.7096075 -0.192175E-03  0.897E-03    0.19       1.3  T
  10   -111.7096175 -0.994244E-05  0.189E-03    0.19       6.1  T
  11   -111.7096172  0.238226E-06  0.207E-03    0.19       5.6  T
  12   -111.7096178 -0.532847E-06  0.431E-04    0.19      26.6  T
  13   -111.7096178  0.267127E-08  0.448E-04    0.19      25.6  T
     SCC iter.                  ...        0 min,  0.159 sec
     gradient                   ...        0 min,  0.014 sec
 * total energy  :  -110.1212552 Eh     change       -0.2618554E-02 Eh
   gradient norm :     0.0539995 Eh/α   predicted    -0.4480385E-02 (  71.10%)
   displ. norm   :     0.4970648 α      lambda       -0.4839464E-02
   maximum displ.:     0.2145388 α      in ANC's #21, #18, #44, ...

........................................................................
.............................. CYCLE    8 ..............................
........................................................................

 iter      E             dE          RMSdq      gap      omega  full diag
   1   -111.7003439 -0.111700E+03  0.235E-01    0.26       0.0  T
   2   -110.9047105  0.795633E+00  0.252E+00    0.03       1.0  T
   3   -111.7062797 -0.801569E+00  0.734E-02    0.22       1.0  T
   4   -111.7043027  0.197700E-02  0.127E-01    0.24       1.0  T
   5   -111.7056164 -0.131380E-02  0.787E-02    0.20       1.0  T
   6   -111.7063734 -0.756912E-03  0.189E-02    0.22       1.0  T
   7   -111.7062609  0.112475E-03  0.334E-02    0.21       1.0  T
   8   -111.7063106 -0.497096E-04  0.255E-02    0.21       1.0  T
   9   -111.7063851 -0.744730E-04  0.697E-03    0.22       1.6  T
  10   -111.7063895 -0.442318E-05  0.175E-03    0.22       6.6  T
  11   -111.7063896 -0.150114E-06  0.594E-04    0.22      19.3  T
  12   -111.7063895  0.132636E-06  0.109E-03    0.22      10.5  T
  13   -111.7063897 -0.147638E-06  0.684E-05    0.22     167.6  T
     SCC iter.                  ...        0 min,  0.153 sec
     gradient                   ...        0 min,  0.013 sec
 * total energy  :  -110.1246286 Eh     change       -0.3373341E-02 Eh
   gradient norm :     0.0356534 Eh/α   predicted    -0.3017583E-02 ( -10.55%)
   displ. norm   :     0.5864776 α      lambda       -0.5814785E-02
   maximum displ.:     0.2411237 α      in ANC's #21, #17, #18, ...

........................................................................
.............................. CYCLE    9 ..............................
........................................................................

 iter      E             dE          RMSdq      gap      omega  full diag
   1   -111.7052073 -0.111705E+03  0.451E-01    0.39       0.0  T
   2   -110.8765861  0.828621E+00  0.262E+00    0.04       1.0  T
   3   -111.7114582 -0.834872E+00  0.348E-01    0.35       1.0  T
   4   -111.7245164 -0.130582E-01  0.925E-02    0.24       1.0  T
   5   -111.7246614 -0.144994E-03  0.760E-02    0.26       1.0  T
   6   -111.7190155  0.564582E-02  0.218E-01    0.21       1.0  T
   7   -111.7244603 -0.544471E-02  0.620E-02    0.24       1.0  T
   8   -111.7231777  0.128251E-02  0.114E-01    0.23       1.0  T
   9   -111.7246501 -0.147234E-02  0.344E-02    0.25       1.0  T
  10   -111.7246515 -0.140970E-05  0.338E-02    0.25       1.0  T
  11   -111.7247719 -0.120439E-03  0.141E-02    0.26       1.0  T
  12   -111.7247970 -0.250617E-04  0.232E-03    0.26       4.9  T
  13   -111.7247977 -0.737683E-06  0.142E-04    0.26      80.6  T
  14   -111.7247977  0.244265E-08  0.160E-04    0.26      71.7  T
     SCC iter.                  ...        0 min,  0.200 sec
     gradient                   ...        0 min,  0.008 sec
 * total energy  :  -110.1210173 Eh     change        0.3611324E-02 Eh
   gradient norm :     0.1185165 Eh/α   predicted    -0.3907391E-02 (-208.20%)
   displ. norm   :     0.2893785 α      lambda       -0.1336734E-01
   maximum displ.:     0.1425443 α      in ANC's #53, #36, #57, ...

........................................................................
.............................. CYCLE   10 ..............................
........................................................................

 iter      E             dE          RMSdq      gap      omega  full diag
   1   -111.7041613 -0.111704E+03  0.292E-01    0.28       0.0  T
   2   -111.6566111  0.475502E-01  0.691E-01    1.13       1.0  T
   3   -111.7092452 -0.526341E-01  0.943E-02    0.35       1.0  T
   4   -111.5901263  0.119119E+00  0.963E-01    0.17       1.0  T
   5   -111.6986458 -0.108520E+00  0.297E-01    0.45       1.0  T
   6   -111.7100315 -0.113857E-01  0.528E-02    0.31       1.0  T
   7   -111.7083241  0.170738E-02  0.120E-01    0.36       1.0  T
   8   -111.7093372 -0.101315E-02  0.830E-02    0.35       1.0  T
   9   -111.7101349 -0.797689E-03  0.310E-02    0.33       1.0  T
  10   -111.7101473 -0.123744E-04  0.296E-02    0.33       1.0  T
  11   -111.7102051 -0.577538E-04  0.214E-02    0.33       1.0  T
  12   -111.7102566 -0.514948E-04  0.888E-03    0.33       1.3  T
  13   -111.7102674 -0.107928E-04  0.574E-04    0.32      20.0  T
  14   -111.7102671  0.250236E-06  0.143E-03    0.32       8.0  T
  15   -111.7102674 -0.258882E-06  0.624E-05    0.32     183.9  T
  16   -111.7102673  0.123780E-07  0.306E-04    0.32      37.4  T
     SCC iter.                  ...        0 min,  0.218 sec
     gradient                   ...        0 min,  0.015 sec
 * total energy  :  -110.1287709 Eh     change       -0.7753635E-02 Eh
   gradient norm :     0.0292003 Eh/α   predicted    -0.7243394E-02 (  -6.58%)
   displ. norm   :     0.6259167 α      lambda       -0.4663030E-02
   maximum displ.:     0.2335957 α      in ANC's #21, #18, #17, ...

........................................................................
.............................. CYCLE   11 ..............................
........................................................................

 iter      E             dE          RMSdq      gap      omega  full diag
   1   -111.7082675 -0.111708E+03  0.149E-01    0.52       0.0  T
   2   -111.7026330  0.563448E-02  0.233E-01    0.66       1.0  T
   3   -111.6979061  0.472694E-02  0.319E-01    0.42       1.0  T
   4   -111.7079932 -0.100871E-01  0.760E-02    0.56       1.0  T
   5   -111.7086560 -0.662807E-03  0.201E-02    0.53       1.0  T
   6   -111.7086880 -0.320327E-04  0.473E-03    0.52       2.4  T
   7   -111.7086733  0.146627E-04  0.118E-02    0.52       1.0  T
   8   -111.7086867 -0.133146E-04  0.408E-03    0.52       2.8  T
   9   -111.7086883 -0.168148E-05  0.103E-03    0.52      11.1  T
  10   -111.7086884 -0.856246E-07  0.502E-04    0.52      22.8  T
  11   -111.7086884 -0.223050E-07  0.108E-04    0.52     106.4  T
     SCC iter.                  ...        0 min,  0.154 sec
     gradient                   ...        0 min,  0.008 sec
 * total energy  :  -110.1323717 Eh     change       -0.3600854E-02 Eh
   gradient norm :     0.0613996 Eh/α   predicted    -0.3244954E-02 (  -9.88%)
   displ. norm   :     0.7225210 α      lambda       -0.6897431E-02
   maximum displ.:     0.2669317 α      in ANC's #9, #18, #21, ...

........................................................................
.............................. CYCLE   12 ..............................
........................................................................

 iter      E             dE          RMSdq      gap      omega  full diag
   1   -111.7108062 -0.111711E+03  0.250E-01    0.95       0.0  T
   2   -111.7034784  0.732784E-02  0.343E-01    1.38       1.0  T
   3   -111.7142097 -0.107313E-01  0.932E-02    1.02       1.0  T
   4   -111.7143654 -0.155769E-03  0.434E-02    1.03       1.0  T
   5   -111.7143601  0.536123E-05  0.210E-02    1.02       1.0  T
   6   -111.7143973 -0.372098E-04  0.634E-03    1.04       1.8  T
   7   -111.7143985 -0.118629E-05  0.334E-03    1.04       3.4  T
   8   -111.7143986 -0.160041E-06  0.176E-03    1.04       6.5  T
   9   -111.7143987 -0.602919E-07  0.903E-04    1.04      12.7  T
  10   -111.7143988 -0.564149E-07  0.372E-04    1.04      30.8  T
     SCC iter.                  ...        0 min,  0.138 sec
     gradient                   ...        0 min,  0.020 sec
 * total energy  :  -110.1394116 Eh     change       -0.7039815E-02 Eh
   gradient norm :     0.0924348 Eh/α   predicted    -0.5249094E-02 ( -25.44%)
   displ. norm   :     0.5517569 α      lambda       -0.1040505E-01
   maximum displ.:     0.2440275 α      in ANC's #18, #17, #9, ...

........................................................................
.............................. CYCLE   13 ..............................
........................................................................

 iter      E             dE          RMSdq      gap      omega  full diag
   1   -111.7122849 -0.111712E+03  0.221E-01    1.64       0.0  T
   2   -111.7135751 -0.129027E-02  0.133E-01    1.73       1.0  T
   3   -111.7141143 -0.539155E-03  0.786E-02    1.56       1.0  T
   4   -111.7143161 -0.201794E-03  0.378E-02    1.63       1.0  T
   5   -111.7143553 -0.391933E-04  0.116E-02    1.60       1.0  T
   6   -111.7143605 -0.517356E-05  0.485E-03    1.61       2.4  T
   7   -111.7143615 -0.103013E-05  0.273E-03    1.61       4.2  T
   8   -111.7143617 -0.180289E-06  0.120E-03    1.61       9.6  T
   9   -111.7143617 -0.568017E-07  0.464E-04    1.61      24.7  T
  10   -111.7143617 -0.473152E-08  0.218E-04    1.61      52.6  T
     SCC iter.                  ...        0 min,  0.241 sec
     gradient                   ...        0 min,  0.017 sec
 * total energy  :  -110.1500401 Eh     change       -0.1062858E-01 Eh
   gradient norm :     0.1082363 Eh/α   predicted    -0.6786376E-02 ( -36.15%)
   displ. norm   :     0.6511233 α      lambda       -0.1749023E-01
   maximum displ.:     0.2186799 α      in ANC's #17, #18, #15, ...

........................................................................
.............................. CYCLE   14 ..............................
........................................................................

 iter      E             dE          RMSdq      gap      omega  full diag
   1   -111.7299086 -0.111730E+03  0.361E-01    2.58       0.0  T
   2   -111.7346681 -0.475952E-02  0.177E-01    2.96       1.0  T
   3   -111.7354586 -0.790481E-03  0.105E-01    2.86       1.0  T
   4   -111.7356678 -0.209125E-03  0.570E-02    2.88       1.0  T
   5   -111.7357209 -0.531579E-04  0.168E-02    2.88       1.0  T
   6   -111.7357355 -0.145730E-04  0.852E-03    2.88       1.3  T
   7   -111.7357370 -0.148723E-05  0.403E-03    2.88       2.8  T
   8   -111.7357372 -0.180551E-06  0.197E-03    2.88       5.8  T
   9   -111.7357373 -0.154327E-06  0.631E-04    2.88      18.2  T
  10   -111.7357373 -0.495427E-08  0.215E-04    2.88      53.3  T
     SCC iter.                  ...        0 min,  0.224 sec
     gradient                   ...        0 min,  0.023 sec
 * total energy  :  -110.1651074 Eh     change       -0.1506725E-01 Eh
   gradient norm :     0.1444759 Eh/α   predicted    -0.1245273E-01 ( -17.35%)
   displ. norm   :     0.6713251 α      lambda       -0.4276054E-01
   maximum displ.:     0.2247837 α      in ANC's #70, #197, #127, ...

........................................................................
.............................. CYCLE   15 ..............................
........................................................................

 iter      E             dE          RMSdq      gap      omega  full diag
   1   -111.7766397 -0.111777E+03  0.541E-01    3.64       0.0  T
   2   -111.7843603 -0.772061E-02  0.287E-01    3.63       1.0  T
   3   -111.7847275 -0.367173E-03  0.170E-01    3.57       1.0  T
   4   -111.7849047 -0.177210E-03  0.950E-02    3.57       1.0  T
   5   -111.7852122 -0.307520E-03  0.260E-02    3.55       1.0  T
   6   -111.7852368 -0.245541E-04  0.101E-02    3.56       1.1  T
   7   -111.7852381 -0.134199E-05  0.592E-03    3.56       1.9  T
   8   -111.7852390 -0.866244E-06  0.268E-03    3.56       4.3  T
   9   -111.7852391 -0.149671E-06  0.857E-04    3.56      13.4  T
  10   -111.7852391 -0.653999E-08  0.418E-04    3.56      27.4  T
     SCC iter.                  ...        0 min,  0.196 sec
     gradient                   ...        0 min,  0.018 sec
 * total energy  :  -110.1876737 Eh     change       -0.2256631E-01 Eh
   gradient norm :     0.1986584 Eh/α   predicted    -0.3101597E-01 (  37.44%)
   displ. norm   :     0.3857491 α      lambda       -0.3558569E-01
   maximum displ.:     0.1385182 α      in ANC's #61, #52, #197, ...

........................................................................
.............................. CYCLE   16 ..............................
........................................................................

 iter      E             dE          RMSdq      gap      omega  full diag
   1   -111.7756108 -0.111776E+03  0.206E-01    3.55       0.0  T
   2   -111.7763749 -0.764105E-03  0.120E-01    3.55       1.0  T
   3   -111.7764166 -0.416784E-04  0.650E-02    3.54       1.0  T
   4   -111.7764220 -0.538713E-05  0.328E-02    3.55       1.0  T
   5   -111.7764740 -0.519745E-04  0.904E-03    3.54       1.3  T
   6   -111.7764747 -0.694429E-06  0.414E-03    3.54       2.8  T
   7   -111.7764750 -0.289411E-06  0.181E-03    3.54       6.3  T
   8   -111.7764750 -0.324708E-07  0.719E-04    3.54      16.0  T
   9   -111.7764750 -0.216229E-07  0.249E-04    3.54      46.1  T
     SCC iter.                  ...        0 min,  0.166 sec
     gradient                   ...        0 min,  0.015 sec
 * total energy  :  -110.2075595 Eh     change       -0.1988578E-01 Eh
   gradient norm :     0.1045301 Eh/α   predicted    -0.2044050E-01 (   2.79%)
   displ. norm   :     0.6227309 α      lambda       -0.3628343E-01
   maximum displ.:     0.2603671 α      in ANC's #61, #25, #70, ...

........................................................................
.............................. CYCLE   17 ..............................
........................................................................

 iter      E             dE          RMSdq      gap      omega  full diag
   1   -111.7894232 -0.111789E+03  0.396E-01    3.60       0.0  T
   2   -111.7924012 -0.297804E-02  0.221E-01    3.65       1.0  T
   3   -111.7925224 -0.121158E-03  0.117E-01    3.65       1.0  T
   4   -111.7925221  0.253588E-06  0.548E-02    3.65       1.0  T
   5   -111.7926523 -0.130110E-03  0.174E-02    3.65       1.0  T
   6   -111.7926619 -0.965266E-05  0.725E-03    3.65       1.6  T
   7   -111.7926623 -0.372603E-06  0.391E-03    3.65       2.9  T
   8   -111.7926626 -0.315157E-06  0.145E-03    3.65       7.9  T
   9   -111.7926626 -0.545112E-07  0.548E-04    3.65      20.9  T
  10   -111.7926627 -0.101288E-07  0.217E-04    3.65      52.9  T
     SCC iter.                  ...        0 min,  0.160 sec
     gradient                   ...        0 min,  0.008 sec
 * total energy  :  -110.1694147 Eh     change        0.3814479E-01 Eh
   gradient norm :     0.3836488 Eh/α   predicted    -0.2517695E-01 (-166.00%)
   displ. norm   :     0.3481031 α      lambda       -0.1164387E+00
   maximum displ.:     0.2894295 α      in ANC's #61, #57, #36, ...

........................................................................
.............................. CYCLE   18 ..............................
........................................................................

 iter      E             dE          RMSdq      gap      omega  full diag
   1   -111.7811567 -0.111781E+03  0.271E-01    3.64       0.0  T
   2   -111.7821161 -0.959432E-03  0.154E-01    3.63       1.0  T
   3   -111.7821587 -0.425994E-04  0.713E-02    3.63       1.0  T
   4   -111.7821746 -0.159123E-04  0.312E-02    3.64       1.0  T
   5   -111.7822187 -0.440728E-04  0.117E-02    3.63       1.0  T
   6   -111.7822217 -0.301930E-05  0.491E-03    3.63       2.3  T
   7   -111.7822218 -0.154591E-06  0.231E-03    3.63       5.0  T
   8   -111.7822219 -0.820632E-07  0.691E-04    3.63      16.6  T
   9   -111.7822219 -0.179716E-07  0.269E-04    3.63      42.7  T
     SCC iter.                  ...        0 min,  0.136 sec
     gradient                   ...        0 min,  0.014 sec
 * total energy  :  -110.2158063 Eh     change       -0.4639157E-01 Eh
   gradient norm :     0.0735266 Eh/α   predicted    -0.6527407E-01 (  40.70%)
   displ. norm   :     0.5575961 α      lambda       -0.2393098E-01
   maximum displ.:     0.1605627 α      in ANC's #70, #18, #21, ...

........................................................................
.............................. CYCLE   19 ..............................
........................................................................

 iter      E             dE          RMSdq      gap      omega  full diag
   1   -111.7723716 -0.111772E+03  0.374E-01    3.62       0.0  T
   2   -111.7767921 -0.442049E-02  0.227E-01    3.47       1.0  T
   3   -111.7771256 -0.333510E-03  0.133E-01    3.46       1.0  T
   4   -111.7770665  0.591030E-04  0.764E-02    3.43       1.0  T
   5   -111.7772761 -0.209610E-03  0.232E-02    3.44       1.0  T
   6   -111.7772978 -0.216962E-04  0.619E-03    3.44       1.9  T
   7   -111.7772983 -0.446550E-06  0.364E-03    3.44       3.2  T
   8   -111.7772985 -0.263909E-06  0.180E-03    3.44       6.4  T
   9   -111.7772986 -0.538641E-07  0.632E-04    3.44      18.1  T
  10   -111.7772986 -0.998378E-08  0.278E-04    3.44      41.3  T
     SCC iter.                  ...        0 min,  0.141 sec
     gradient                   ...        0 min,  0.015 sec
 * total energy  :  -110.1976496 Eh     change        0.1815667E-01 Eh
   gradient norm :     0.2018755 Eh/α   predicted    -0.1568571E-01 (-186.39%)
   displ. norm   :     0.3940549 α      lambda       -0.6113860E-01
   maximum displ.:     0.1584174 α      in ANC's #18, #15, #70, ...

........................................................................
.............................. CYCLE   20 ..............................
........................................................................

 iter      E             dE          RMSdq      gap      omega  full diag
   1   -111.7885450 -0.111789E+03  0.273E-01    3.50       0.0  T
   2   -111.7909166 -0.237159E-02  0.154E-01    3.58       1.0  T
   3   -111.7910639 -0.147395E-03  0.871E-02    3.58       1.0  T
   4   -111.7910639  0.243936E-07  0.349E-02    3.57       1.0  T
   5   -111.7910956 -0.317063E-04  0.134E-02    3.57       1.0  T
   6   -111.7911046 -0.899111E-05  0.493E-03    3.57       2.3  T
   7   -111.7911050 -0.361084E-06  0.282E-03    3.58       4.1  T
   8   -111.7911051 -0.153271E-06  0.152E-03    3.57       7.6  T
   9   -111.7911052 -0.594668E-07  0.448E-04    3.57      25.6  T
  10   -111.7911052 -0.318397E-08  0.190E-04    3.57      60.3  T
     SCC iter.                  ...        0 min,  0.147 sec
     gradient                   ...        0 min,  0.020 sec
 * total energy  :  -110.2220647 Eh     change       -0.2441516E-01 Eh
   gradient norm :     0.0544158 Eh/α   predicted    -0.3531610E-01 (  44.65%)
   displ. norm   :     0.5273263 α      lambda       -0.1100843E-01
   maximum displ.:     0.2019268 α      in ANC's #4, #29, #25, ...
 * RMSD in coord.:     0.7394074 α      energy gain  -0.1703344E+00 Eh

generating ANC from exact Hessian ...
Using Lindh-Hessian (1995)
 Shifting diagonal of input Hessian by   1.005489832684144E-002
 Lowest  eigenvalues of input Hessian
    0.010000    0.010013    0.000000    0.000000    0.000000    0.000000
    0.000000    0.000000    0.010083    0.010101    0.010156    0.010185
    0.010199    0.010292    0.010304    0.010341    0.010432    0.010519
 Highest eigenvalues
    2.038064    2.079348    2.091579    2.206277    2.321783    2.339352
 

........................................................................
.............................. CYCLE   21 ..............................
........................................................................

 iter      E             dE          RMSdq      gap      omega  full diag
   1   -111.7892223 -0.111789E+03  0.213E-01    3.54       0.0  T
   2   -111.7894765 -0.254205E-03  0.143E-01    3.58       1.0  T
   3   -111.7898282 -0.351738E-03  0.942E-02    3.56       1.0  T
   4   -111.7900072 -0.178953E-03  0.178E-02    3.57       1.0  T
   5   -111.7900184 -0.112880E-04  0.794E-03    3.57       1.4  T
   6   -111.7900184  0.944169E-07  0.449E-03    3.57       2.6  T
   7   -111.7900191 -0.786227E-06  0.151E-03    3.57       7.6  T
   8   -111.7900192 -0.366881E-07  0.558E-04    3.57      20.6  T
   9   -111.7900192 -0.926347E-08  0.251E-04    3.57      45.7  T
     SCC iter.                  ...        0 min,  0.127 sec
     gradient                   ...        0 min,  0.014 sec
 * total energy  :  -110.2179931 Eh     change        0.4071605E-02 Eh
   gradient norm :     0.0788028 Eh/α   predicted     0.0000000E+00 (-100.00%)
   displ. norm   :     0.3280267 α      lambda       -0.1233209E-01
   maximum displ.:     0.1314731 α      in ANC's #43, #23, #45, ...

........................................................................
.............................. CYCLE   22 ..............................
........................................................................

 iter      E             dE          RMSdq      gap      omega  full diag
   1   -111.7968355 -0.111797E+03  0.127E-01    3.63       0.0  T
   2   -111.7968950 -0.594656E-04  0.867E-02    3.59       1.0  T
   3   -111.7970500 -0.155053E-03  0.557E-02    3.60       1.0  T
   4   -111.7971091 -0.590750E-04  0.829E-03    3.60       1.4  T
   5   -111.7971113 -0.218425E-05  0.392E-03    3.60       2.9  T
   6   -111.7971114 -0.104408E-06  0.228E-03    3.60       5.0  T
   7   -111.7971116 -0.179789E-06  0.850E-04    3.60      13.5  T
   8   -111.7971116 -0.766876E-08  0.265E-04    3.60      43.3  T
     SCC iter.                  ...        0 min,  0.115 sec
     gradient                   ...        0 min,  0.014 sec
 * total energy  :  -110.2265858 Eh     change       -0.8592654E-02 Eh
   gradient norm :     0.0290138 Eh/α   predicted    -0.6830564E-02 ( -20.51%)
   displ. norm   :     0.4073676 α      lambda       -0.4907453E-02
   maximum displ.:     0.1590017 α      in ANC's #23, #11, #43, ...

........................................................................
.............................. CYCLE   23 ..............................
........................................................................

 iter      E             dE          RMSdq      gap      omega  full diag
   1   -111.7938695 -0.111794E+03  0.125E-01    3.63       0.0  T
   2   -111.7939438 -0.743091E-04  0.790E-02    3.63       1.0  T
   3   -111.7939501 -0.627229E-05  0.583E-02    3.63       1.0  T
   4   -111.7940536 -0.103493E-03  0.104E-02    3.63       1.1  T
   5   -111.7940557 -0.212337E-05  0.500E-03    3.63       2.3  T
   6   -111.7940563 -0.664008E-06  0.240E-03    3.63       4.8  T
   7   -111.7940565 -0.193505E-06  0.106E-03    3.63      10.8  T
   8   -111.7940566 -0.794422E-08  0.324E-04    3.63      35.4  T
   9   -111.7940566 -0.373632E-08  0.115E-04    3.63      99.6  T
     SCC iter.                  ...        0 min,  0.127 sec
     gradient                   ...        0 min,  0.015 sec
 * total energy  :  -110.2289779 Eh     change       -0.2392078E-02 Eh
   gradient norm :     0.0366981 Eh/α   predicted    -0.2864738E-02 (  19.76%)
   displ. norm   :     0.4005374 α      lambda       -0.3538052E-02
   maximum displ.:     0.1565296 α      in ANC's #23, #15, #33, ...

........................................................................
.............................. CYCLE   24 ..............................
........................................................................

 iter      E             dE          RMSdq      gap      omega  full diag
   1   -111.8033888 -0.111803E+03  0.119E-01    3.62       0.0  T
   2   -111.8034336 -0.448453E-04  0.722E-02    3.60       1.0  T
   3   -111.8033769  0.567394E-04  0.392E-02    3.59       1.0  T
   4   -111.8034559 -0.790765E-04  0.879E-03    3.59       1.3  T
   5   -111.8034572 -0.122504E-05  0.434E-03    3.59       2.6  T
   6   -111.8034578 -0.651923E-06  0.190E-03    3.59       6.1  T
   7   -111.8034579 -0.981846E-07  0.910E-04    3.59      12.6  T
   8   -111.8034579 -0.872447E-08  0.295E-04    3.59      38.9  T
     SCC iter.                  ...        0 min,  0.114 sec
     gradient                   ...        0 min,  0.013 sec
 * total energy  :  -110.2293612 Eh     change       -0.3833171E-03 Eh
   gradient norm :     0.0343175 Eh/α   predicted    -0.2052858E-02 ( 435.55%)
   displ. norm   :     0.2235979 α      lambda       -0.2010401E-02
   maximum displ.:     0.1051138 α      in ANC's #17, #11, #22, ...

........................................................................
.............................. CYCLE   25 ..............................
........................................................................

 iter      E             dE          RMSdq      gap      omega  full diag
   1   -111.8022793 -0.111802E+03  0.625E-02    3.62       0.0  T
   2   -111.8022882 -0.888449E-05  0.377E-02    3.61       1.0  T
   3   -111.8022740  0.142158E-04  0.176E-02    3.62       1.0  T
   4   -111.8022927 -0.187746E-04  0.373E-03    3.62       3.1  T
   5   -111.8022929 -0.187444E-06  0.189E-03    3.62       6.1  T
   6   -111.8022930 -0.113872E-06  0.943E-04    3.62      12.2  T
   7   -111.8022931 -0.203323E-07  0.400E-04    3.62      28.7  T
     SCC iter.                  ...        0 min,  0.095 sec
     gradient                   ...        0 min,  0.014 sec
 * total energy  :  -110.2305981 Eh     change       -0.1236876E-02 Eh
   gradient norm :     0.0157797 Eh/α   predicted    -0.1055459E-02 ( -14.67%)
   displ. norm   :     0.3407102 α      lambda       -0.1468878E-02
   maximum displ.:     0.1485586 α      in ANC's #17, #11, #19, ...

........................................................................
.............................. CYCLE   26 ..............................
........................................................................

 iter      E             dE          RMSdq      gap      omega  full diag
   1   -111.7949542 -0.111795E+03  0.853E-02    3.64       0.0  T
   2   -111.7949752 -0.209670E-04  0.514E-02    3.64       1.0  T
   3   -111.7949431  0.321141E-04  0.280E-02    3.64       1.0  T
   4   -111.7949874 -0.443699E-04  0.507E-03    3.64       2.3  T
   5   -111.7949878 -0.343824E-06  0.229E-03    3.64       5.0  T
   6   -111.7949879 -0.140978E-06  0.112E-03    3.64      10.3  T
   7   -111.7949879 -0.230588E-07  0.496E-04    3.64      23.1  T
   8   -111.7949879 -0.324832E-08  0.213E-04    3.64      53.9  T
     SCC iter.                  ...        0 min,  0.114 sec
     gradient                   ...        0 min,  0.015 sec
 * total energy  :  -110.2311182 Eh     change       -0.5200879E-03 Eh
   gradient norm :     0.0311352 Eh/α   predicted    -0.8196992E-03 (  57.61%)
   displ. norm   :     0.2169389 α      lambda       -0.1182774E-02
   maximum displ.:     0.0957489 α      in ANC's #17, #20, #15, ...

........................................................................
.............................. CYCLE   27 ..............................
........................................................................

 iter      E             dE          RMSdq      gap      omega  full diag
   1   -111.8000763 -0.111800E+03  0.382E-02    3.64       0.0  T
   2   -111.8000782 -0.192380E-05  0.228E-02    3.64       1.0  T
   3   -111.8000762  0.200098E-05  0.679E-03    3.64       1.7  T
   4   -111.8000789 -0.268966E-05  0.170E-03    3.64       6.7  T
   5   -111.8000790 -0.589912E-07  0.769E-04    3.64      14.9  T
   6   -111.8000790 -0.923767E-08  0.398E-04    3.64      28.8  T
     SCC iter.                  ...        0 min,  0.081 sec
     gradient                   ...        0 min,  0.017 sec
 * total energy  :  -110.2319007 Eh     change       -0.7825814E-03 Eh
   gradient norm :     0.0172372 Eh/α   predicted    -0.6192237E-03 ( -20.87%)
   displ. norm   :     0.3825582 α      lambda       -0.1012039E-02
   maximum displ.:     0.1362104 α      in ANC's #15, #22, #11, ...

........................................................................
.............................. CYCLE   28 ..............................
........................................................................

 iter      E             dE          RMSdq      gap      omega  full diag
   1   -111.8031055 -0.111803E+03  0.471E-02    3.64       0.0  T
   2   -111.8031137 -0.816841E-05  0.287E-02    3.64       1.0  T
   3   -111.8031023  0.113612E-04  0.176E-02    3.64       1.0  T
   4   -111.8031185 -0.162163E-04  0.310E-03    3.64       3.7  T
   5   -111.8031188 -0.293250E-06  0.159E-03    3.64       7.2  T
   6   -111.8031189 -0.900188E-07  0.687E-04    3.64      16.7  T
   7   -111.8031189 -0.409149E-08  0.290E-04    3.64      39.6  T
     SCC iter.                  ...        0 min,  0.106 sec
     gradient                   ...        0 min,  0.012 sec
 * total energy  :  -110.2327118 Eh     change       -0.8110438E-03 Eh
   gradient norm :     0.0137159 Eh/α   predicted    -0.5800759E-03 ( -28.48%)
   displ. norm   :     0.6320259 α      lambda       -0.1366224E-02
   maximum displ.:     0.2201129 α      in ANC's #15, #22, #11, ...

........................................................................
.............................. CYCLE   29 ..............................
........................................................................

 iter      E             dE          RMSdq      gap      omega  full diag
   1   -111.8000532 -0.111800E+03  0.872E-02    3.64       0.0  T
   2   -111.8000825 -0.292740E-04  0.523E-02    3.63       1.0  T
   3   -111.8000552  0.272257E-04  0.256E-02    3.63       1.0  T
   4   -111.8000922 -0.369819E-04  0.571E-03    3.63       2.0  T
   5   -111.8000932 -0.100313E-05  0.276E-03    3.63       4.2  T
   6   -111.8000935 -0.265144E-06  0.122E-03    3.63       9.4  T
   7   -111.8000935 -0.252125E-07  0.514E-04    3.63      22.3  T
   8   -111.8000935 -0.457143E-08  0.226E-04    3.63      50.8  T
     SCC iter.                  ...        0 min,  0.117 sec
     gradient                   ...        0 min,  0.013 sec
 * total energy  :  -110.2335776 Eh     change       -0.8658532E-03 Eh
   gradient norm :     0.0243650 Eh/α   predicted    -0.9559867E-03 (  10.41%)
   displ. norm   :     0.5638677 α      lambda       -0.1744642E-02
   maximum displ.:     0.2204607 α      in ANC's #11, #22, #8, ...

........................................................................
.............................. CYCLE   30 ..............................
........................................................................

 iter      E             dE          RMSdq      gap      omega  full diag
   1   -111.8014489 -0.111801E+03  0.789E-02    3.61       0.0  T
   2   -111.8014766 -0.276777E-04  0.476E-02    3.60       1.0  T
   3   -111.8014526  0.240312E-04  0.265E-02    3.60       1.0  T
   4   -111.8014887 -0.361630E-04  0.539E-03    3.60       2.1  T
   5   -111.8014895 -0.791669E-06  0.277E-03    3.60       4.1  T
   6   -111.8014897 -0.222707E-06  0.136E-03    3.60       8.5  T
   7   -111.8014898 -0.233384E-07  0.539E-04    3.60      21.3  T
   8   -111.8014898 -0.726712E-08  0.230E-04    3.60      49.9  T
     SCC iter.                  ...        0 min,  0.114 sec
     gradient                   ...        0 min,  0.015 sec
 * total energy  :  -110.2346966 Eh     change       -0.1118982E-02 Eh
   gradient norm :     0.0180211 Eh/α   predicted    -0.1149673E-02 (   2.74%)
   displ. norm   :     0.4592796 α      lambda       -0.1351579E-02
   maximum displ.:     0.1710618 α      in ANC's #22, #11, #15, ...

........................................................................
.............................. CYCLE   31 ..............................
........................................................................

 iter      E             dE          RMSdq      gap      omega  full diag
   1   -111.8059650 -0.111806E+03  0.720E-02    3.60       0.0  T
   2   -111.8059796 -0.145372E-04  0.427E-02    3.59       1.0  T
   3   -111.8059665  0.130371E-04  0.183E-02    3.59       1.0  T
   4   -111.8059844 -0.178826E-04  0.393E-03    3.59       2.9  T
   5   -111.8059848 -0.430749E-06  0.191E-03    3.59       6.0  T
   6   -111.8059849 -0.466140E-07  0.108E-03    3.59      10.7  T
   7   -111.8059849 -0.309120E-07  0.386E-04    3.59      29.7  T
   8   -111.8059849 -0.317887E-08  0.183E-04    3.59      62.7  T
     SCC iter.                  ...        0 min,  0.115 sec
     gradient                   ...        0 min,  0.013 sec
 * total energy  :  -110.2350960 Eh     change       -0.3994144E-03 Eh
   gradient norm :     0.0308329 Eh/α   predicted    -0.8183407E-03 ( 104.89%)
   displ. norm   :     0.5249418 α      lambda       -0.1980458E-02
   maximum displ.:     0.2005132 α      in ANC's #11, #22, #31, ...

........................................................................
.............................. CYCLE   32 ..............................
........................................................................

 iter      E             dE          RMSdq      gap      omega  full diag
   1   -111.7963626 -0.111796E+03  0.881E-02    3.57       0.0  T
   2   -111.7963849 -0.223142E-04  0.529E-02    3.56       1.0  T
   3   -111.7963575  0.274479E-04  0.242E-02    3.56       1.0  T
   4   -111.7963957 -0.381788E-04  0.521E-03    3.56       2.2  T
   5   -111.7963961 -0.462361E-06  0.257E-03    3.56       4.5  T
   6   -111.7963962 -0.835463E-07  0.140E-03    3.56       8.2  T
   7   -111.7963963 -0.446761E-07  0.477E-04    3.56      24.0  T
   8   -111.7963963 -0.426786E-08  0.177E-04    3.56      64.9  T
     SCC iter.                  ...        0 min,  0.116 sec
     gradient                   ...        0 min,  0.013 sec
 * total energy  :  -110.2360094 Eh     change       -0.9133523E-03 Eh
   gradient norm :     0.0287644 Eh/α   predicted    -0.1263099E-02 (  38.29%)
   displ. norm   :     0.2835015 α      lambda       -0.1870694E-02
   maximum displ.:     0.0838821 α      in ANC's #13, #14, #22, ...

........................................................................
.............................. CYCLE   33 ..............................
........................................................................

 iter      E             dE          RMSdq      gap      omega  full diag
   1   -111.8050290 -0.111805E+03  0.915E-02    3.56       0.0  T
   2   -111.8050611 -0.320445E-04  0.533E-02    3.56       1.0  T
   3   -111.8050479  0.132053E-04  0.218E-02    3.56       1.0  T
   4   -111.8050719 -0.239928E-04  0.761E-03    3.56       1.5  T
   5   -111.8050728 -0.887242E-06  0.299E-03    3.56       3.8  T
   6   -111.8050730 -0.209215E-06  0.162E-03    3.56       7.1  T
   7   -111.8050730 -0.328313E-07  0.623E-04    3.56      18.4  T
   8   -111.8050730 -0.941583E-08  0.243E-04    3.56      47.3  T
     SCC iter.                  ...        0 min,  0.114 sec
     gradient                   ...        0 min,  0.014 sec
 * total energy  :  -110.2344012 Eh     change        0.1608167E-02 Eh
   gradient norm :     0.0596303 Eh/α   predicted    -0.1010525E-02 (-162.84%)
   displ. norm   :     0.1743394 α      lambda       -0.4778825E-02
   maximum displ.:     0.0631334 α      in ANC's #17, #19, #11, ...

........................................................................
.............................. CYCLE   34 ..............................
........................................................................

 iter      E             dE          RMSdq      gap      omega  full diag
   1   -111.8065877 -0.111807E+03  0.675E-02    3.55       0.0  T
   2   -111.8066070 -0.193021E-04  0.391E-02    3.55       1.0  T
   3   -111.8066017  0.536767E-05  0.154E-02    3.55       1.0  T
   4   -111.8066131 -0.114690E-04  0.597E-03    3.55       1.9  T
   5   -111.8066138 -0.643648E-06  0.274E-03    3.55       4.2  T
   6   -111.8066140 -0.176104E-06  0.145E-03    3.55       7.9  T
   7   -111.8066140 -0.233861E-07  0.599E-04    3.55      19.1  T
   8   -111.8066140 -0.119047E-07  0.185E-04    3.55      62.0  T
     SCC iter.                  ...        0 min,  0.115 sec
     gradient                   ...        0 min,  0.014 sec
 * total energy  :  -110.2368482 Eh     change       -0.2446988E-02 Eh
   gradient norm :     0.0152400 Eh/α   predicted    -0.2462036E-02 (   0.61%)
   displ. norm   :     0.4898384 α      lambda       -0.1004025E-02
   maximum displ.:     0.1799154 α      in ANC's #22, #11, #15, ...

........................................................................
.............................. CYCLE   35 ..............................
........................................................................

 iter      E             dE          RMSdq      gap      omega  full diag
   1   -111.7968426 -0.111797E+03  0.829E-02    3.54       0.0  T
   2   -111.7968613 -0.187272E-04  0.498E-02    3.53       1.0  T
   3   -111.7968411  0.202341E-04  0.213E-02    3.53       1.0  T
   4   -111.7968682 -0.270854E-04  0.461E-03    3.53       2.5  T
   5   -111.7968687 -0.525177E-06  0.208E-03    3.53       5.5  T
   6   -111.7968688 -0.855593E-07  0.103E-03    3.53      11.1  T
   7   -111.7968688 -0.204987E-07  0.430E-04    3.53      26.7  T
   8   -111.7968688 -0.279437E-08  0.148E-04    3.53      77.8  T
     SCC iter.                  ...        0 min,  0.117 sec
     gradient                   ...        0 min,  0.015 sec
 * total energy  :  -110.2372459 Eh     change       -0.3976854E-03 Eh
   gradient norm :     0.0223116 Eh/α   predicted    -0.6224681E-03 (  56.52%)
   displ. norm   :     0.2540296 α      lambda       -0.8544243E-03
   maximum displ.:     0.1016791 α      in ANC's #19, #4, #11, ...

........................................................................
.............................. CYCLE   36 ..............................
........................................................................

 iter      E             dE          RMSdq      gap      omega  full diag
   1   -111.8032889 -0.111803E+03  0.452E-02    3.52       0.0  T
   2   -111.8032937 -0.480526E-05  0.265E-02    3.52       1.0  T
   3   -111.8032925  0.121442E-05  0.666E-03    3.52       1.7  T
   4   -111.8032944 -0.197924E-05  0.255E-03    3.52       4.5  T
   5   -111.8032947 -0.285936E-06  0.103E-03    3.52      11.1  T
   6   -111.8032947 -0.554188E-08  0.453E-04    3.52      25.3  T
   7   -111.8032947 -0.354017E-08  0.233E-04    3.52      49.2  T
     SCC iter.                  ...        0 min,  0.104 sec
     gradient                   ...        0 min,  0.010 sec
 * total energy  :  -110.2378685 Eh     change       -0.6225923E-03 Eh
   gradient norm :     0.0154841 Eh/α   predicted    -0.4547784E-03 ( -26.95%)
   displ. norm   :     0.5413706 α      lambda       -0.1266757E-02
   maximum displ.:     0.1989421 α      in ANC's #19, #4, #22, ...

........................................................................
.............................. CYCLE   37 ..............................
........................................................................

 iter      E             dE          RMSdq      gap      omega  full diag
   1   -111.8077106 -0.111808E+03  0.827E-02    3.52       0.0  T
   2   -111.8077217 -0.111580E-04  0.486E-02    3.51       1.0  T
   3   -111.8077136  0.816128E-05  0.145E-02    3.51       1.0  T
   4   -111.8077245 -0.109674E-04  0.428E-03    3.51       2.7  T
   5   -111.8077250 -0.448143E-06  0.180E-03    3.51       6.4  T
   6   -111.8077251 -0.672175E-07  0.977E-04    3.51      11.7  T
   7   -111.8077251 -0.287102E-07  0.420E-04    3.51      27.3  T
     SCC iter.                  ...        0 min,  0.102 sec
     gradient                   ...        0 min,  0.014 sec
 * total energy  :  -110.2385758 Eh     change       -0.7073393E-03 Eh
   gradient norm :     0.0136190 Eh/α   predicted    -0.8190066E-03 (  15.79%)
   displ. norm   :     0.5613905 α      lambda       -0.9857969E-03
   maximum displ.:     0.1851028 α      in ANC's #4, #19, #22, ...

........................................................................
.............................. CYCLE   38 ..............................
........................................................................

 iter      E             dE          RMSdq      gap      omega  full diag
   1   -111.8066288 -0.111807E+03  0.866E-02    3.50       0.0  T
   2   -111.8066379 -0.912440E-05  0.516E-02    3.49       1.0  T
   3   -111.8066242  0.137654E-04  0.157E-02    3.49       1.0  T
   4   -111.8066416 -0.173750E-04  0.327E-03    3.48       3.5  T
   5   -111.8066418 -0.247802E-06  0.171E-03    3.48       6.7  T
   6   -111.8066418 -0.438217E-08  0.884E-04    3.48      13.0  T
   7   -111.8066418 -0.291168E-07  0.288E-04    3.48      39.8  T
     SCC iter.                  ...        0 min,  0.104 sec
     gradient                   ...        0 min,  0.014 sec
 * total energy  :  -110.2392915 Eh     change       -0.7156450E-03 Eh
   gradient norm :     0.0127155 Eh/α   predicted    -0.6482384E-03 (  -9.42%)
   displ. norm   :     0.5733830 α      lambda       -0.7667706E-03
   maximum displ.:     0.2196028 α      in ANC's #19, #4, #22, ...

........................................................................
.............................. CYCLE   39 ..............................
........................................................................

 iter      E             dE          RMSdq      gap      omega  full diag
   1   -111.8043005 -0.111804E+03  0.838E-02    3.49       0.0  T
   2   -111.8043095 -0.896231E-05  0.500E-02    3.48       1.0  T
   3   -111.8042971  0.123778E-04  0.162E-02    3.48       1.0  T
   4   -111.8043128 -0.157140E-04  0.358E-03    3.48       3.2  T
   5   -111.8043132 -0.325132E-06  0.195E-03    3.48       5.9  T
   6   -111.8043132 -0.440705E-07  0.105E-03    3.48      10.9  T
   7   -111.8043132 -0.311428E-07  0.313E-04    3.48      36.7  T
   8   -111.8043132 -0.326693E-08  0.131E-04    3.48      87.8  T
     SCC iter.                  ...        0 min,  0.117 sec
     gradient                   ...        0 min,  0.010 sec
 * total energy  :  -110.2397657 Eh     change       -0.4742544E-03 Eh
   gradient norm :     0.0165793 Eh/α   predicted    -0.5094277E-03 (   7.42%)
   displ. norm   :     0.4817216 α      lambda       -0.8093484E-03
   maximum displ.:     0.1871463 α      in ANC's #4, #10, #25, ...

........................................................................
.............................. CYCLE   40 ..............................
........................................................................

 iter      E             dE          RMSdq      gap      omega  full diag
   1   -111.8102545 -0.111810E+03  0.723E-02    3.49       0.0  T
   2   -111.8102598 -0.533265E-05  0.430E-02    3.48       1.0  T
   3   -111.8102529  0.696149E-05  0.119E-02    3.48       1.0  T
   4   -111.8102614 -0.856738E-05  0.333E-03    3.48       3.4  T
   5   -111.8102618 -0.339966E-06  0.143E-03    3.48       8.0  T
   6   -111.8102618 -0.314096E-07  0.726E-04    3.48      15.8  T
   7   -111.8102618 -0.120326E-07  0.292E-04    3.48      39.3  T
     SCC iter.                  ...        0 min,  0.101 sec
     gradient                   ...        0 min,  0.014 sec
 * total energy  :  -110.2402464 Eh     change       -0.4806474E-03 Eh
   gradient norm :     0.0164182 Eh/α   predicted    -0.4985824E-03 (   3.73%)
   displ. norm   :     0.5941802 α      lambda       -0.1217482E-02
   maximum displ.:     0.1976617 α      in ANC's #4, #15, #22, ...

........................................................................
.............................. CYCLE   41 ..............................
........................................................................

 iter      E             dE          RMSdq      gap      omega  full diag
   1   -111.8042070 -0.111804E+03  0.891E-02    3.47       0.0  T
   2   -111.8042291 -0.221061E-04  0.529E-02    3.47       1.0  T
   3   -111.8042142  0.148972E-04  0.202E-02    3.47       1.0  T
   4   -111.8042346 -0.203934E-04  0.606E-03    3.46       1.9  T
   5   -111.8042358 -0.115248E-05  0.273E-03    3.46       4.2  T
   6   -111.8042359 -0.966899E-07  0.161E-03    3.46       7.1  T
   7   -111.8042359 -0.736218E-07  0.570E-04    3.46      20.1  T
   8   -111.8042360 -0.729517E-08  0.207E-04    3.46      55.3  T
     SCC iter.                  ...        0 min,  0.116 sec
     gradient                   ...        0 min,  0.015 sec
 * total energy  :  -110.2403003 Eh     change       -0.5393169E-04 Eh
   gradient norm :     0.0349006 Eh/α   predicted    -0.8236574E-03 (1427.22%)
   displ. norm   :     0.2884274 α      lambda       -0.2051300E-02
   maximum displ.:     0.0932197 α      in ANC's #17, #25, #8, ...

........................................................................
.............................. CYCLE   42 ..............................
........................................................................

 iter      E             dE          RMSdq      gap      omega  full diag
   1   -111.8217879 -0.111822E+03  0.662E-02    3.50       0.0  T
   2   -111.8218035 -0.155818E-04  0.386E-02    3.50       1.0  T
   3   -111.8217886  0.148406E-04  0.183E-02    3.51       1.0  T
   4   -111.8218095 -0.209054E-04  0.518E-03    3.51       2.2  T
   5   -111.8218102 -0.636215E-06  0.261E-03    3.51       4.4  T
   6   -111.8218104 -0.172671E-06  0.125E-03    3.51       9.2  T
   7   -111.8218104 -0.293144E-07  0.538E-04    3.51      21.3  T
   8   -111.8218104 -0.376920E-08  0.166E-04    3.51      69.1  T
     SCC iter.                  ...        0 min,  0.114 sec
     gradient                   ...        0 min,  0.014 sec
 * total energy  :  -110.2405834 Eh     change       -0.2831104E-03 Eh
   gradient norm :     0.0323018 Eh/α   predicted    -0.1110979E-02 ( 292.42%)
   displ. norm   :     0.3094819 α      lambda       -0.1757749E-02
   maximum displ.:     0.1555301 α      in ANC's #19, #4, #48, ...
 * RMSD in coord.:     0.7770116 α      energy gain  -0.1851866E-01 Eh

generating ANC from exact Hessian ...
Using Lindh-Hessian (1995)
 Shifting diagonal of input Hessian by   1.009385581185669E-002
 Lowest  eigenvalues of input Hessian
    0.010000    0.010019    0.010047    0.000000    0.000000    0.000000
    0.000000    0.000000    0.000000    0.010135    0.010195    0.010214
    0.010252    0.010286    0.010321    0.010352    0.010481    0.010579
 Highest eigenvalues
    2.038912    2.067966    2.081483    2.208598    2.316194    2.333981
 

........................................................................
.............................. CYCLE   43 ..............................
........................................................................

 iter      E             dE          RMSdq      gap      omega  full diag
   1   -111.8079959 -0.111808E+03  0.747E-02    3.47       0.0  T
   2   -111.8080143 -0.184104E-04  0.438E-02    3.47       1.0  T
   3   -111.8080141  0.219250E-06  0.111E-02    3.47       1.0  T
   4   -111.8080174 -0.325562E-05  0.495E-03    3.47       2.3  T
   5   -111.8080182 -0.780829E-06  0.234E-03    3.47       4.9  T
   6   -111.8080183 -0.173321E-06  0.109E-03    3.47      10.5  T
   7   -111.8080183 -0.120249E-07  0.541E-04    3.47      21.2  T
   8   -111.8080184 -0.813172E-08  0.146E-04    3.47      78.8  T
     SCC iter.                  ...        0 min,  0.104 sec
     gradient                   ...        0 min,  0.013 sec
 * total energy  :  -110.2412061 Eh     change       -0.6226616E-03 Eh
   gradient norm :     0.0174657 Eh/α   predicted     0.0000000E+00 (-100.00%)
   displ. norm   :     0.2118977 α      lambda       -0.8962713E-03
   maximum displ.:     0.1370958 α      in ANC's #22, #23, #16, ...

........................................................................
.............................. CYCLE   44 ..............................
........................................................................

 iter      E             dE          RMSdq      gap      omega  full diag
   1   -111.8091244 -0.111809E+03  0.773E-02    3.48       0.0  T
   2   -111.8091366 -0.122426E-04  0.482E-02    3.47       1.0  T
   3   -111.8091060  0.306279E-04  0.246E-02    3.47       1.0  T
   4   -111.8091452 -0.392297E-04  0.412E-03    3.47       2.8  T
   5   -111.8091458 -0.607112E-06  0.211E-03    3.47       5.4  T
   6   -111.8091459 -0.889719E-07  0.843E-04    3.47      13.6  T
   7   -111.8091459 -0.123979E-07  0.319E-04    3.47      36.0  T
     SCC iter.                  ...        0 min,  0.090 sec
     gradient                   ...        0 min,  0.015 sec
 * total energy  :  -110.2418800 Eh     change       -0.6738977E-03 Eh
   gradient norm :     0.0108255 Eh/α   predicted    -0.4682640E-03 ( -30.51%)
   displ. norm   :     0.2362146 α      lambda       -0.5467438E-03
   maximum displ.:     0.1174197 α      in ANC's #23, #4, #22, ...

........................................................................
.............................. CYCLE   45 ..............................
........................................................................

 iter      E             dE          RMSdq      gap      omega  full diag
   1   -111.8103933 -0.111810E+03  0.498E-02    3.49       0.0  T
   2   -111.8103986 -0.531355E-05  0.305E-02    3.49       1.0  T
   3   -111.8103914  0.715090E-05  0.123E-02    3.49       1.0  T
   4   -111.8104013 -0.989610E-05  0.294E-03    3.49       3.9  T
   5   -111.8104015 -0.209410E-06  0.173E-03    3.49       6.6  T
   6   -111.8104016 -0.475195E-07  0.755E-04    3.49      15.2  T
   7   -111.8104016 -0.162781E-07  0.241E-04    3.49      47.6  T
     SCC iter.                  ...        0 min,  0.091 sec
     gradient                   ...        0 min,  0.014 sec
 * total energy  :  -110.2422107 Eh     change       -0.3306915E-03 Eh
   gradient norm :     0.0198427 Eh/α   predicted    -0.2886352E-03 ( -12.72%)
   displ. norm   :     0.3230442 α      lambda       -0.8078212E-03
   maximum displ.:     0.1233606 α      in ANC's #4, #18, #19, ...

........................................................................
.............................. CYCLE   46 ..............................
........................................................................

 iter      E             dE          RMSdq      gap      omega  full diag
   1   -111.8147151 -0.111815E+03  0.585E-02    3.53       0.0  T
   2   -111.8147233 -0.814104E-05  0.353E-02    3.53       1.0  T
   3   -111.8147078  0.154404E-04  0.167E-02    3.54       1.0  T
   4   -111.8147279 -0.200825E-04  0.330E-03    3.54       3.5  T
   5   -111.8147281 -0.217550E-06  0.189E-03    3.54       6.1  T
   6   -111.8147282 -0.983798E-07  0.797E-04    3.54      14.4  T
   7   -111.8147283 -0.113273E-07  0.373E-04    3.54      30.8  T
     SCC iter.                  ...        0 min,  0.092 sec
     gradient                   ...        0 min,  0.015 sec
 * total energy  :  -110.2426273 Eh     change       -0.4166842E-03 Eh
   gradient norm :     0.0179314 Eh/α   predicted    -0.4460634E-03 (   7.05%)
   displ. norm   :     0.3523746 α      lambda       -0.6555138E-03
   maximum displ.:     0.1400838 α      in ANC's #4, #23, #13, ...

........................................................................
.............................. CYCLE   47 ..............................
........................................................................

 iter      E             dE          RMSdq      gap      omega  full diag
   1   -111.8109764 -0.111811E+03  0.542E-02    3.55       0.0  T
   2   -111.8109816 -0.518965E-05  0.327E-02    3.55       1.0  T
   3   -111.8109741  0.743971E-05  0.114E-02    3.56       1.0  T
   4   -111.8109841 -0.996117E-05  0.240E-03    3.56       4.8  T
   5   -111.8109842 -0.130387E-06  0.142E-03    3.56       8.1  T
   6   -111.8109842 -0.963399E-08  0.717E-04    3.56      16.0  T
   7   -111.8109842 -0.194629E-07  0.216E-04    3.56      53.1  T
     SCC iter.                  ...        0 min,  0.094 sec
     gradient                   ...        0 min,  0.008 sec
 * total energy  :  -110.2431229 Eh     change       -0.4955703E-03 Eh
   gradient norm :     0.0192925 Eh/α   predicted    -0.3684901E-03 ( -25.64%)
   displ. norm   :     0.5072704 α      lambda       -0.1285391E-02
   maximum displ.:     0.2321500 α      in ANC's #4, #13, #10, ...

........................................................................
.............................. CYCLE   48 ..............................
........................................................................

 iter      E             dE          RMSdq      gap      omega  full diag
   1   -111.8072591 -0.111807E+03  0.727E-02    3.52       0.0  T
   2   -111.8072723 -0.131610E-04  0.434E-02    3.53       1.0  T
   3   -111.8072577  0.145861E-04  0.171E-02    3.53       1.0  T
   4   -111.8072774 -0.197438E-04  0.352E-03    3.53       3.3  T
   5   -111.8072777 -0.306711E-06  0.168E-03    3.53       6.8  T
   6   -111.8072778 -0.248722E-07  0.859E-04    3.53      13.4  T
   7   -111.8072778 -0.215247E-07  0.342E-04    3.53      33.6  T
     SCC iter.                  ...        0 min,  0.093 sec
     gradient                   ...        0 min,  0.008 sec
 * total energy  :  -110.2438786 Eh     change       -0.7557297E-03 Eh
   gradient norm :     0.0173259 Eh/α   predicted    -0.8080808E-03 (   6.93%)
   displ. norm   :     0.4727765 α      lambda       -0.7456412E-03
   maximum displ.:     0.2247892 α      in ANC's #4, #13, #23, ...

........................................................................
.............................. CYCLE   49 ..............................
........................................................................

 iter      E             dE          RMSdq      gap      omega  full diag
   1   -111.8070441 -0.111807E+03  0.564E-02    3.54       0.0  T
   2   -111.8070500 -0.588213E-05  0.338E-02    3.53       1.0  T
   3   -111.8070395  0.104753E-04  0.130E-02    3.54       1.0  T
   4   -111.8070531 -0.136207E-04  0.224E-03    3.54       5.1  T
   5   -111.8070532 -0.955015E-07  0.116E-03    3.53       9.9  T
   6   -111.8070532 -0.126134E-07  0.534E-04    3.54      21.5  T
   7   -111.8070532 -0.674288E-08  0.251E-04    3.53      45.7  T
     SCC iter.                  ...        0 min,  0.083 sec
     gradient                   ...        0 min,  0.021 sec
 * total energy  :  -110.2445202 Eh     change       -0.6415365E-03 Eh
   gradient norm :     0.0169209 Eh/α   predicted    -0.4561561E-03 ( -28.90%)
   displ. norm   :     0.6220017 α      lambda       -0.1439185E-02
   maximum displ.:     0.3090586 α      in ANC's #4, #13, #5, ...

........................................................................
.............................. CYCLE   50 ..............................
........................................................................

 iter      E             dE          RMSdq      gap      omega  full diag
   1   -111.8153498 -0.111815E+03  0.802E-02    3.55       0.0  T
   2   -111.8153655 -0.157543E-04  0.475E-02    3.54       1.0  T
   3   -111.8153511  0.144652E-04  0.167E-02    3.54       1.0  T
   4   -111.8153706 -0.195686E-04  0.420E-03    3.54       2.7  T
   5   -111.8153711 -0.492615E-06  0.186E-03    3.54       6.2  T
   6   -111.8153712 -0.869405E-07  0.934E-04    3.54      12.3  T
   7   -111.8153712 -0.228984E-07  0.452E-04    3.54      25.4  T
     SCC iter.                  ...        0 min,  0.093 sec
     gradient                   ...        0 min,  0.014 sec
 * total energy  :  -110.2453239 Eh     change       -0.8037587E-03 Eh
   gradient norm :     0.0175448 Eh/α   predicted    -0.9979979E-03 (  24.17%)
   displ. norm   :     0.6886866 α      lambda       -0.1446372E-02
   maximum displ.:     0.3358740 α      in ANC's #4, #13, #23, ...

........................................................................
.............................. CYCLE   51 ..............................
........................................................................

 iter      E             dE          RMSdq      gap      omega  full diag
   1   -111.8114727 -0.111811E+03  0.858E-02    3.55       0.0  T
   2   -111.8114881 -0.154609E-04  0.518E-02    3.54       1.0  T
   3   -111.8114642  0.239608E-04  0.215E-02    3.54       1.0  T
   4   -111.8114972 -0.330049E-04  0.441E-03    3.53       2.6  T
   5   -111.8114974 -0.247116E-06  0.280E-03    3.53       4.1  T
   6   -111.8114975 -0.120886E-06  0.127E-03    3.53       9.0  T
   7   -111.8114976 -0.513995E-07  0.382E-04    3.53      30.0  T
   8   -111.8114976 -0.302271E-08  0.167E-04    3.53      68.6  T
     SCC iter.                  ...        0 min,  0.104 sec
     gradient                   ...        0 min,  0.008 sec
 * total energy  :  -110.2462457 Eh     change       -0.9217407E-03 Eh
   gradient norm :     0.0194382 Eh/α   predicted    -0.1066194E-02 (  15.67%)
   displ. norm   :     0.5701617 α      lambda       -0.8767078E-03
   maximum displ.:     0.2880989 α      in ANC's #4, #13, #5, ...

........................................................................
.............................. CYCLE   52 ..............................
........................................................................

 iter      E             dE          RMSdq      gap      omega  full diag
   1   -111.8085704 -0.111809E+03  0.572E-02    3.53       0.0  T
   2   -111.8085794 -0.907171E-05  0.340E-02    3.53       1.0  T
   3   -111.8085641  0.152971E-04  0.168E-02    3.52       1.0  T
   4   -111.8085843 -0.201250E-04  0.308E-03    3.52       3.7  T
   5   -111.8085846 -0.286019E-06  0.170E-03    3.52       6.7  T
   6   -111.8085847 -0.114383E-06  0.670E-04    3.52      17.1  T
   7   -111.8085847 -0.764373E-08  0.316E-04    3.52      36.3  T
     SCC iter.                  ...        0 min,  0.089 sec
     gradient                   ...        0 min,  0.017 sec
 * total energy  :  -110.2469455 Eh     change       -0.6998126E-03 Eh
   gradient norm :     0.0163389 Eh/α   predicted    -0.5808561E-03 ( -17.00%)
   displ. norm   :     0.5504788 α      lambda       -0.1628397E-02
   maximum displ.:     0.2564183 α      in ANC's #4, #13, #26, ...

........................................................................
.............................. CYCLE   53 ..............................
........................................................................

 iter      E             dE          RMSdq      gap      omega  full diag
   1   -111.8177659 -0.111818E+03  0.686E-02    3.49       0.0  T
   2   -111.8177754 -0.951732E-05  0.409E-02    3.49       1.0  T
   3   -111.8177616  0.138031E-04  0.174E-02    3.48       1.0  T
   4   -111.8177792 -0.176182E-04  0.399E-03    3.48       2.9  T
   5   -111.8177797 -0.491490E-06  0.194E-03    3.48       5.9  T
   6   -111.8177798 -0.775303E-07  0.939E-04    3.48      12.2  T
   7   -111.8177798 -0.234995E-07  0.328E-04    3.48      35.0  T
     SCC iter.                  ...        0 min,  0.092 sec
     gradient                   ...        0 min,  0.014 sec
 * total energy  :  -110.2477115 Eh     change       -0.7659809E-03 Eh
   gradient norm :     0.0158041 Eh/α   predicted    -0.1060925E-02 (  38.51%)
   displ. norm   :     0.6134699 α      lambda       -0.1205077E-02
   maximum displ.:     0.3040876 α      in ANC's #4, #13, #26, ...

........................................................................
.............................. CYCLE   54 ..............................
........................................................................

 iter      E             dE          RMSdq      gap      omega  full diag
   1   -111.8145219 -0.111815E+03  0.693E-02    3.48       0.0  T
   2   -111.8145312 -0.936883E-05  0.413E-02    3.46       1.0  T
   3   -111.8145208  0.104573E-04  0.139E-02    3.45       1.0  T
   4   -111.8145352 -0.143722E-04  0.319E-03    3.45       3.6  T
   5   -111.8145353 -0.164764E-06  0.161E-03    3.45       7.1  T
   6   -111.8145354 -0.495695E-07  0.862E-04    3.45      13.3  T
   7   -111.8145354 -0.165328E-07  0.372E-04    3.45      30.8  T
     SCC iter.                  ...        0 min,  0.092 sec
     gradient                   ...        0 min,  0.018 sec
 * total energy  :  -110.2485264 Eh     change       -0.8149408E-03 Eh
   gradient norm :     0.0145973 Eh/α   predicted    -0.8293019E-03 (   1.76%)
   displ. norm   :     0.4448976 α      lambda       -0.8180960E-03
   maximum displ.:     0.1986813 α      in ANC's #4, #13, #7, ...

........................................................................
.............................. CYCLE   55 ..............................
........................................................................

 iter      E             dE          RMSdq      gap      omega  full diag
   1   -111.8149185 -0.111815E+03  0.570E-02    3.47       0.0  T
   2   -111.8149256 -0.708031E-05  0.336E-02    3.46       1.0  T
   3   -111.8149173  0.828553E-05  0.145E-02    3.46       1.0  T
   4   -111.8149277 -0.104269E-04  0.342E-03    3.46       3.4  T
   5   -111.8149282 -0.424683E-06  0.145E-03    3.46       7.9  T
   6   -111.8149282 -0.353821E-07  0.716E-04    3.46      16.0  T
   7   -111.8149282 -0.146347E-07  0.330E-04    3.46      34.8  T
     SCC iter.                  ...        0 min,  0.094 sec
     gradient                   ...        0 min,  0.013 sec
 * total energy  :  -110.2489771 Eh     change       -0.4506464E-03 Eh
   gradient norm :     0.0112547 Eh/α   predicted    -0.4900139E-03 (   8.74%)
   displ. norm   :     0.4856465 α      lambda       -0.7763380E-03
   maximum displ.:     0.2257195 α      in ANC's #4, #13, #7, ...

........................................................................
.............................. CYCLE   56 ..............................
........................................................................

 iter      E             dE          RMSdq      gap      omega  full diag
   1   -111.8108374 -0.111811E+03  0.601E-02    3.45       0.0  T
   2   -111.8108480 -0.105993E-04  0.357E-02    3.44       1.0  T
   3   -111.8108395  0.848861E-05  0.138E-02    3.44       1.0  T
   4   -111.8108515 -0.120484E-04  0.321E-03    3.44       3.6  T
   5   -111.8108518 -0.309317E-06  0.154E-03    3.44       7.5  T
   6   -111.8108519 -0.331787E-07  0.833E-04    3.44      13.8  T
   7   -111.8108519 -0.207706E-07  0.369E-04    3.44      31.1  T
     SCC iter.                  ...        0 min,  0.093 sec
     gradient                   ...        0 min,  0.015 sec
 * total energy  :  -110.2493736 Eh     change       -0.3965357E-03 Eh
   gradient norm :     0.0110706 Eh/α   predicted    -0.4797229E-03 (  20.98%)
   displ. norm   :     0.1992413 α      lambda       -0.4508238E-03
   maximum displ.:     0.0967807 α      in ANC's #23, #17, #7, ...

........................................................................
.............................. CYCLE   57 ..............................
........................................................................

 iter      E             dE          RMSdq      gap      omega  full diag
   1   -111.8157079 -0.111816E+03  0.340E-02    3.44       0.0  T
   2   -111.8157163 -0.833039E-05  0.202E-02    3.44       1.0  T
   3   -111.8157144  0.186282E-05  0.102E-02    3.45       1.1  T
   4   -111.8157176 -0.320232E-05  0.358E-03    3.45       3.2  T
   5   -111.8157182 -0.583503E-06  0.124E-03    3.45       9.3  T
   6   -111.8157182 -0.307740E-07  0.642E-04    3.45      17.9  T
   7   -111.8157182 -0.144427E-07  0.293E-04    3.45      39.1  T
     SCC iter.                  ...        0 min,  0.083 sec
     gradient                   ...        0 min,  0.021 sec
 * total energy  :  -110.2495650 Eh     change       -0.1914095E-03 Eh
   gradient norm :     0.0065479 Eh/α   predicted    -0.2343648E-03 (  22.44%)
   displ. norm   :     0.2882228 α      lambda       -0.2480917E-03
   maximum displ.:     0.1556183 α      in ANC's #4, #7, #5, ...

........................................................................
.............................. CYCLE   58 ..............................
........................................................................

 iter      E             dE          RMSdq      gap      omega  full diag
   1   -111.8135616 -0.111814E+03  0.338E-02    3.43       0.0  T
   2   -111.8135648 -0.313613E-05  0.197E-02    3.43       1.0  T
   3   -111.8135621  0.261983E-05  0.771E-03    3.43       1.5  T
   4   -111.8135656 -0.340887E-05  0.193E-03    3.43       6.0  T
   5   -111.8135657 -0.143669E-06  0.924E-04    3.43      12.4  T
   6   -111.8135657 -0.282462E-07  0.417E-04    3.43      27.5  T
     SCC iter.                  ...        0 min,  0.082 sec
     gradient                   ...        0 min,  0.013 sec
 * total energy  :  -110.2497317 Eh     change       -0.1667409E-03 Eh
   gradient norm :     0.0056035 Eh/α   predicted    -0.1343520E-03 ( -19.42%)
   displ. norm   :     0.2805556 α      lambda       -0.2747480E-03
   maximum displ.:     0.1415562 α      in ANC's #4, #7, #5, ...

........................................................................
.............................. CYCLE   59 ..............................
........................................................................

 iter      E             dE          RMSdq      gap      omega  full diag
   1   -111.8142734 -0.111814E+03  0.363E-02    3.44       0.0  T
   2   -111.8142768 -0.335691E-05  0.214E-02    3.44       1.0  T
   3   -111.8142751  0.171256E-05  0.707E-03    3.45       1.6  T
   4   -111.8142774 -0.235356E-05  0.200E-03    3.44       5.7  T
   5   -111.8142776 -0.200784E-06  0.877E-04    3.44      13.1  T
   6   -111.8142776 -0.850542E-08  0.470E-04    3.44      24.4  T
     SCC iter.                  ...        0 min,  0.070 sec
     gradient                   ...        0 min,  0.021 sec
 * total energy  :  -110.2499236 Eh     change       -0.1918750E-03 Eh
   gradient norm :     0.0052116 Eh/α   predicted    -0.1481896E-03 ( -22.77%)
   displ. norm   :     0.4022293 α      lambda       -0.2667384E-03
   maximum displ.:     0.2112485 α      in ANC's #4, #7, #5, ...

........................................................................
.............................. CYCLE   60 ..............................
........................................................................

 iter      E             dE          RMSdq      gap      omega  full diag
   1   -111.8133942 -0.111813E+03  0.497E-02    3.45       0.0  T
   2   -111.8133983 -0.415069E-05  0.294E-02    3.45       1.0  T
   3   -111.8133922  0.609239E-05  0.109E-02    3.45       1.0  T
   4   -111.8133996 -0.734066E-05  0.269E-03    3.45       4.3  T
   5   -111.8133999 -0.344810E-06  0.106E-03    3.45      10.8  T
   6   -111.8133999 -0.143257E-07  0.565E-04    3.45      20.3  T
   7   -111.8134000 -0.886510E-08  0.183E-04    3.45      62.6  T
     SCC iter.                  ...        0 min,  0.087 sec
     gradient                   ...        0 min,  0.014 sec
 * total energy  :  -110.2501365 Eh     change       -0.2129116E-03 Eh
   gradient norm :     0.0059876 Eh/α   predicted    -0.1549512E-03 ( -27.22%)
   displ. norm   :     0.5032484 α      lambda       -0.3398698E-03
   maximum displ.:     0.2570831 α      in ANC's #4, #5, #7, ...

........................................................................
.............................. CYCLE   61 ..............................
........................................................................

 iter      E             dE          RMSdq      gap      omega  full diag
   1   -111.8150281 -0.111815E+03  0.623E-02    3.45       0.0  T
   2   -111.8150326 -0.449305E-05  0.369E-02    3.45       1.0  T
   3   -111.8150187  0.138272E-04  0.155E-02    3.46       1.0  T
   4   -111.8150349 -0.161739E-04  0.281E-03    3.46       4.1  T
   5   -111.8150352 -0.334075E-06  0.122E-03    3.46       9.4  T
   6   -111.8150353 -0.187668E-07  0.621E-04    3.46      18.5  T
   7   -111.8150353 -0.990887E-08  0.195E-04    3.46      58.7  T
     SCC iter.                  ...        0 min,  0.093 sec
     gradient                   ...        0 min,  0.014 sec
 * total energy  :  -110.2503922 Eh     change       -0.2557064E-03 Eh
   gradient norm :     0.0072422 Eh/α   predicted    -0.2129750E-03 ( -16.71%)
   displ. norm   :     0.5460894 α      lambda       -0.3526342E-03
   maximum displ.:     0.2899254 α      in ANC's #4, #5, #7, ...

........................................................................
.............................. CYCLE   62 ..............................
........................................................................

 iter      E             dE          RMSdq      gap      omega  full diag
   1   -111.8144293 -0.111814E+03  0.631E-02    3.46       0.0  T
   2   -111.8144319 -0.256608E-05  0.373E-02    3.46       1.0  T
   3   -111.8144249  0.697400E-05  0.105E-02    3.46       1.1  T
   4   -111.8144334 -0.847456E-05  0.219E-03    3.46       5.2  T
   5   -111.8144335 -0.962500E-07  0.126E-03    3.46       9.1  T
   6   -111.8144335 -0.271372E-07  0.492E-04    3.46      23.3  T
   7   -111.8144335 -0.755384E-08  0.176E-04    3.46      65.0  T
     SCC iter.                  ...        0 min,  0.093 sec
     gradient                   ...        0 min,  0.014 sec
 * total energy  :  -110.2506276 Eh     change       -0.2353805E-03 Eh
   gradient norm :     0.0071017 Eh/α   predicted    -0.2289024E-03 (  -2.75%)
   displ. norm   :     0.5167971 α      lambda       -0.3187672E-03
   maximum displ.:     0.2751736 α      in ANC's #4, #5, #7, ...

........................................................................
.............................. CYCLE   63 ..............................
........................................................................

 iter      E             dE          RMSdq      gap      omega  full diag
   1   -111.8135576 -0.111814E+03  0.623E-02    3.45       0.0  T
   2   -111.8135603 -0.269418E-05  0.371E-02    3.45       1.0  T
   3   -111.8135545  0.585270E-05  0.947E-03    3.45       1.2  T
   4   -111.8135618 -0.731327E-05  0.203E-03    3.45       5.6  T
   5   -111.8135618 -0.462581E-07  0.128E-03    3.45       9.0  T
   6   -111.8135618 -0.355214E-07  0.484E-04    3.45      23.7  T
   7   -111.8135619 -0.747163E-08  0.164E-04    3.45      70.1  T
     SCC iter.                  ...        0 min,  0.091 sec
     gradient                   ...        0 min,  0.013 sec
 * total energy  :  -110.2508583 Eh     change       -0.2306426E-03 Eh
   gradient norm :     0.0055676 Eh/α   predicted    -0.2019559E-03 ( -12.44%)
   displ. norm   :     0.4560907 α      lambda       -0.2836556E-03
   maximum displ.:     0.2454526 α      in ANC's #4, #5, #8, ...

........................................................................
.............................. CYCLE   64 ..............................
........................................................................

 iter      E             dE          RMSdq      gap      omega  full diag
   1   -111.8176355 -0.111818E+03  0.516E-02    3.45       0.0  T
   2   -111.8176388 -0.332206E-05  0.302E-02    3.45       1.0  T
   3   -111.8176353  0.347550E-05  0.835E-03    3.45       1.4  T
   4   -111.8176396 -0.426091E-05  0.217E-03    3.45       5.3  T
   5   -111.8176398 -0.190291E-06  0.963E-04    3.45      11.9  T
   6   -111.8176398 -0.153216E-07  0.452E-04    3.45      25.4  T
     SCC iter.                  ...        0 min,  0.068 sec
     gradient                   ...        0 min,  0.024 sec
 * total energy  :  -110.2510358 Eh     change       -0.1775353E-03 Eh
   gradient norm :     0.0069188 Eh/α   predicted    -0.1713360E-03 (  -3.49%)
   displ. norm   :     0.5425923 α      lambda       -0.2677634E-03
   maximum displ.:     0.2916791 α      in ANC's #4, #5, #7, ...

........................................................................
.............................. CYCLE   65 ..............................
........................................................................

 iter      E             dE          RMSdq      gap      omega  full diag
   1   -111.8144698 -0.111814E+03  0.669E-02    3.44       0.0  T
   2   -111.8144740 -0.415808E-05  0.396E-02    3.44       1.0  T
   3   -111.8144668  0.722258E-05  0.112E-02    3.44       1.0  T
   4   -111.8144755 -0.869698E-05  0.273E-03    3.44       4.2  T
   5   -111.8144757 -0.267724E-06  0.132E-03    3.44       8.7  T
   6   -111.8144757 -0.157281E-07  0.676E-04    3.44      17.0  T
   7   -111.8144758 -0.152197E-07  0.170E-04    3.44      67.3  T
     SCC iter.                  ...        0 min,  0.085 sec
     gradient                   ...        0 min,  0.019 sec
 * total energy  :  -110.2512073 Eh     change       -0.1715459E-03 Eh
   gradient norm :     0.0071386 Eh/α   predicted    -0.1732994E-03 (   1.02%)
   displ. norm   :     0.4137012 α      lambda       -0.1990501E-03
   maximum displ.:     0.2215906 α      in ANC's #4, #5, #8, ...

........................................................................
.............................. CYCLE   66 ..............................
........................................................................

 iter      E             dE          RMSdq      gap      omega  full diag
   1   -111.8133352 -0.111813E+03  0.507E-02    3.44       0.0  T
   2   -111.8133391 -0.389386E-05  0.297E-02    3.43       1.0  T
   3   -111.8133374  0.169857E-05  0.658E-03    3.44       1.7  T
   4   -111.8133396 -0.216418E-05  0.202E-03    3.43       5.7  T
   5   -111.8133398 -0.228779E-06  0.761E-04    3.43      15.1  T
   6   -111.8133398 -0.492294E-08  0.448E-04    3.44      25.6  T
     SCC iter.                  ...        0 min,  0.080 sec
     gradient                   ...        0 min,  0.014 sec
 * total energy  :  -110.2513434 Eh     change       -0.1361032E-03 Eh
   gradient norm :     0.0054788 Eh/α   predicted    -0.1165602E-03 ( -14.36%)
   displ. norm   :     0.4199219 α      lambda       -0.2784871E-03
   maximum displ.:     0.1855222 α      in ANC's #4, #12, #5, ...
 * RMSD in coord.:     0.9673356 α      energy gain  -0.1076004E-01 Eh

generating ANC from exact Hessian ...
Using Lindh-Hessian (1995)
 Shifting diagonal of input Hessian by   1.046909689159319E-002
 Lowest  eigenvalues of input Hessian
    0.010000    0.010414    0.010438    0.000000    0.000000    0.000000
    0.000000    0.000000    0.000000    0.010538    0.010571    0.010593
    0.010652    0.010673    0.010741    0.010804    0.010902    0.011050
 Highest eigenvalues
    2.038234    2.069605    2.081996    2.208855    2.314878    2.357040
 

........................................................................
.............................. CYCLE   67 ..............................
........................................................................

 iter      E             dE          RMSdq      gap      omega  full diag
   1   -111.8195524 -0.111820E+03  0.621E-02    3.47       0.0  T
   2   -111.8195588 -0.635355E-05  0.365E-02    3.46       1.0  T
   3   -111.8195542  0.456596E-05  0.102E-02    3.47       1.1  T
   4   -111.8195599 -0.562887E-05  0.250E-03    3.46       4.6  T
   5   -111.8195602 -0.362135E-06  0.941E-04    3.46      12.2  T
   6   -111.8195602 -0.129660E-07  0.537E-04    3.46      21.4  T
     SCC iter.                  ...        0 min,  0.078 sec
     gradient                   ...        0 min,  0.013 sec
 * total energy  :  -110.2514829 Eh     change       -0.1394170E-03 Eh
   gradient norm :     0.0095605 Eh/α   predicted     0.0000000E+00 (-100.00%)
   displ. norm   :     0.0721832 α      lambda       -0.1670939E-03
   maximum displ.:     0.0240002 α      in ANC's #15, #27, #16, ...

........................................................................
.............................. CYCLE   68 ..............................
........................................................................

 iter      E             dE          RMSdq      gap      omega  full diag
   1   -111.8173453 -0.111817E+03  0.204E-02    3.44       0.0  T
   2   -111.8173467 -0.144660E-05  0.123E-02    3.45       1.0  T
   3   -111.8173463  0.425703E-06  0.422E-03    3.45       2.7  T
   4   -111.8173471 -0.741982E-06  0.107E-03    3.45      10.7  T
   5   -111.8173471 -0.367866E-07  0.571E-04    3.45      20.1  T
   6   -111.8173471 -0.627630E-08  0.243E-04    3.45      47.2  T
     SCC iter.                  ...        0 min,  0.068 sec
     gradient                   ...        0 min,  0.016 sec
 * total energy  :  -110.2516198 Eh     change       -0.1369631E-03 Eh
   gradient norm :     0.0031035 Eh/α   predicted    -0.9423440E-04 ( -31.20%)
   displ. norm   :     0.1352861 α      lambda       -0.1484636E-03
   maximum displ.:     0.0559690 α      in ANC's #15, #20, #5, ...

........................................................................
.............................. CYCLE   69 ..............................
........................................................................

 iter      E             dE          RMSdq      gap      omega  full diag
   1   -111.8154122 -0.111815E+03  0.308E-02    3.43       0.0  T
   2   -111.8154133 -0.103132E-05  0.183E-02    3.43       1.0  T
   3   -111.8154126  0.716433E-06  0.394E-03    3.43       2.9  T
   4   -111.8154136 -0.107185E-05  0.111E-03    3.44      10.4  T
   5   -111.8154137 -0.204730E-07  0.624E-04    3.44      18.4  T
   6   -111.8154137 -0.744930E-08  0.272E-04    3.43      42.1  T
     SCC iter.                  ...        0 min,  0.076 sec
     gradient                   ...        0 min,  0.010 sec
 * total energy  :  -110.2517228 Eh     change       -0.1029616E-03 Eh
   gradient norm :     0.0036815 Eh/α   predicted    -0.7559156E-04 ( -26.58%)
   displ. norm   :     0.1757133 α      lambda       -0.1129388E-03
   maximum displ.:     0.0793092 α      in ANC's #15, #5, #20, ...

........................................................................
.............................. CYCLE   70 ..............................
........................................................................

 iter      E             dE          RMSdq      gap      omega  full diag
   1   -111.8145145 -0.111815E+03  0.373E-02    3.43       0.0  T
   2   -111.8145151 -0.543571E-06  0.220E-02    3.43       1.0  T
   3   -111.8145145  0.572274E-06  0.341E-03    3.43       3.4  T
   4   -111.8145153 -0.808763E-06  0.959E-04    3.43      12.0  T
   5   -111.8145153 -0.109022E-07  0.548E-04    3.43      20.9  T
     SCC iter.                  ...        0 min,  0.066 sec
     gradient                   ...        0 min,  0.014 sec
 * total energy  :  -110.2518133 Eh     change       -0.9049185E-04 Eh
   gradient norm :     0.0054904 Eh/α   predicted    -0.5821311E-04 ( -35.67%)
   displ. norm   :     0.3379911 α      lambda       -0.1914355E-03
   maximum displ.:     0.1535085 α      in ANC's #15, #5, #20, ...

........................................................................
.............................. CYCLE   71 ..............................
........................................................................

 iter      E             dE          RMSdq      gap      omega  full diag
   1   -111.8136062 -0.111814E+03  0.709E-02    3.43       0.0  T
   2   -111.8136078 -0.155004E-05  0.418E-02    3.43       1.0  T
   3   -111.8136055  0.227158E-05  0.649E-03    3.43       1.8  T
   4   -111.8136084 -0.291565E-05  0.171E-03    3.43       6.7  T
   5   -111.8136085 -0.661002E-07  0.925E-04    3.43      12.4  T
   6   -111.8136085 -0.139634E-07  0.386E-04    3.43      29.7  T
     SCC iter.                  ...        0 min,  0.078 sec
     gradient                   ...        0 min,  0.015 sec
 * total energy  :  -110.2519641 Eh     change       -0.1508141E-03 Eh
   gradient norm :     0.0064621 Eh/α   predicted    -0.1066536E-03 ( -29.28%)
   displ. norm   :     0.4140270 α      lambda       -0.2234655E-03
   maximum displ.:     0.1892479 α      in ANC's #15, #5, #24, ...

........................................................................
.............................. CYCLE   72 ..............................
........................................................................

 iter      E             dE          RMSdq      gap      omega  full diag
   1   -111.8134191 -0.111813E+03  0.839E-02    3.43       0.0  T
   2   -111.8134211 -0.198444E-05  0.494E-02    3.42       1.0  T
   3   -111.8134170  0.406983E-05  0.852E-03    3.42       1.3  T
   4   -111.8134219 -0.484916E-05  0.198E-03    3.42       5.8  T
   5   -111.8134220 -0.136798E-06  0.923E-04    3.42      12.4  T
   6   -111.8134220 -0.631324E-08  0.402E-04    3.42      28.5  T
     SCC iter.                  ...        0 min,  0.067 sec
     gradient                   ...        0 min,  0.021 sec
 * total energy  :  -110.2521449 Eh     change       -0.1808462E-03 Eh
   gradient norm :     0.0063381 Eh/α   predicted    -0.1308890E-03 ( -27.62%)
   displ. norm   :     0.4695083 α      lambda       -0.2840689E-03
   maximum displ.:     0.2183720 α      in ANC's #15, #5, #24, ...

........................................................................
.............................. CYCLE   73 ..............................
........................................................................

 iter      E             dE          RMSdq      gap      omega  full diag
   1   -111.8149267 -0.111815E+03  0.897E-02    3.42       0.0  T
   2   -111.8149292 -0.245524E-05  0.527E-02    3.42       1.0  T
   3   -111.8149237  0.552989E-05  0.987E-03    3.42       1.2  T
   4   -111.8149301 -0.645283E-05  0.217E-03    3.42       5.3  T
   5   -111.8149303 -0.184686E-06  0.935E-04    3.42      12.3  T
   6   -111.8149303 -0.408389E-08  0.409E-04    3.42      28.1  T
     SCC iter.                  ...        0 min,  0.079 sec
     gradient                   ...        0 min,  0.012 sec
 * total energy  :  -110.2523760 Eh     change       -0.2310825E-03 Eh
   gradient norm :     0.0053761 Eh/α   predicted    -0.1733446E-03 ( -24.99%)
   displ. norm   :     0.5238874 α      lambda       -0.3283661E-03
   maximum displ.:     0.2438538 α      in ANC's #15, #5, #24, ...

........................................................................
.............................. CYCLE   74 ..............................
........................................................................

 iter      E             dE          RMSdq      gap      omega  full diag
   1   -111.8163395 -0.111816E+03  0.949E-02    3.41       0.0  T
   2   -111.8163429 -0.340322E-05  0.559E-02    3.41       1.0  T
   3   -111.8163362  0.664997E-05  0.107E-02    3.41       1.1  T
   4   -111.8163441 -0.787109E-05  0.265E-03    3.41       4.3  T
   5   -111.8163444 -0.266279E-06  0.119E-03    3.41       9.6  T
   6   -111.8163444 -0.279998E-08  0.536E-04    3.41      21.4  T
   7   -111.8163444 -0.106108E-07  0.158E-04    3.41      72.7  T
     SCC iter.                  ...        0 min,  0.089 sec
     gradient                   ...        0 min,  0.014 sec
 * total energy  :  -110.2526360 Eh     change       -0.2599397E-03 Eh
   gradient norm :     0.0065250 Eh/α   predicted    -0.2092457E-03 ( -19.50%)
   displ. norm   :     0.5530966 α      lambda       -0.3687892E-03
   maximum displ.:     0.2642307 α      in ANC's #15, #5, #24, ...

........................................................................
.............................. CYCLE   75 ..............................
........................................................................

 iter      E             dE          RMSdq      gap      omega  full diag
   1   -111.8196934 -0.111820E+03  0.936E-02    3.40       0.0  T
   2   -111.8196979 -0.448096E-05  0.549E-02    3.40       1.0  T
   3   -111.8196915  0.643209E-05  0.107E-02    3.40       1.1  T
   4   -111.8196992 -0.778921E-05  0.290E-03    3.40       4.0  T
   5   -111.8196996 -0.331487E-06  0.127E-03    3.40       9.0  T
   6   -111.8196996 -0.156383E-07  0.597E-04    3.40      19.2  T
   7   -111.8196996 -0.984691E-08  0.258E-04    3.40      44.4  T
     SCC iter.                  ...        0 min,  0.094 sec
     gradient                   ...        0 min,  0.006 sec
 * total energy  :  -110.2528306 Eh     change       -0.1946742E-03 Eh
   gradient norm :     0.0119907 Eh/α   predicted    -0.2408043E-03 (  23.70%)
   displ. norm   :     0.5354934 α      lambda       -0.3441485E-03
   maximum displ.:     0.2511241 α      in ANC's #15, #5, #24, ...

........................................................................
.............................. CYCLE   76 ..............................
........................................................................

 iter      E             dE          RMSdq      gap      omega  full diag
   1   -111.8131397 -0.111813E+03  0.974E-02    3.37       0.0  T
   2   -111.8131436 -0.392914E-05  0.575E-02    3.38       1.0  T
   3   -111.8131392  0.443455E-05  0.930E-03    3.38       1.2  T
   4   -111.8131451 -0.589938E-05  0.288E-03    3.38       4.0  T
   5   -111.8131453 -0.224051E-06  0.147E-03    3.38       7.8  T
   6   -111.8131453 -0.209271E-07  0.611E-04    3.38      18.8  T
   7   -111.8131453 -0.100842E-07  0.236E-04    3.38      48.6  T
     SCC iter.                  ...        0 min,  0.088 sec
     gradient                   ...        0 min,  0.014 sec
 * total energy  :  -110.2530467 Eh     change       -0.2160221E-03 Eh
   gradient norm :     0.0091329 Eh/α   predicted    -0.2214176E-03 (   2.50%)
   displ. norm   :     0.2271532 α      lambda       -0.2926859E-03
   maximum displ.:     0.1072562 α      in ANC's #5, #15, #10, ...

........................................................................
.............................. CYCLE   77 ..............................
........................................................................

 iter      E             dE          RMSdq      gap      omega  full diag
   1   -111.8204682 -0.111820E+03  0.407E-02    3.42       0.0  T
   2   -111.8204718 -0.354432E-05  0.243E-02    3.41       1.0  T
   3   -111.8204701  0.170455E-05  0.680E-03    3.42       1.7  T
   4   -111.8204726 -0.253573E-05  0.161E-03    3.41       7.1  T
   5   -111.8204727 -0.797933E-07  0.898E-04    3.41      12.8  T
   6   -111.8204727 -0.142296E-07  0.374E-04    3.41      30.7  T
     SCC iter.                  ...        0 min,  0.074 sec
     gradient                   ...        0 min,  0.019 sec
 * total energy  :  -110.2531440 Eh     change       -0.9729548E-04 Eh
   gradient norm :     0.0120666 Eh/α   predicted    -0.1538940E-03 (  58.17%)
   displ. norm   :     0.4194670 α      lambda       -0.3893048E-03
   maximum displ.:     0.2019920 α      in ANC's #15, #5, #24, ...

........................................................................
.............................. CYCLE   78 ..............................
........................................................................

 iter      E             dE          RMSdq      gap      omega  full diag
   1   -111.8177476 -0.111818E+03  0.721E-02    3.40       0.0  T
   2   -111.8177495 -0.188415E-05  0.423E-02    3.41       1.0  T
   3   -111.8177475  0.198846E-05  0.677E-03    3.41       1.7  T
   4   -111.8177502 -0.275502E-05  0.187E-03    3.41       6.1  T
   5   -111.8177503 -0.586542E-07  0.957E-04    3.41      12.0  T
   6   -111.8177503 -0.212656E-07  0.429E-04    3.41      26.8  T
     SCC iter.                  ...        0 min,  0.076 sec
     gradient                   ...        0 min,  0.014 sec
 * total energy  :  -110.2534261 Eh     change       -0.2821796E-03 Eh
   gradient norm :     0.0052256 Eh/α   predicted    -0.2289035E-03 ( -18.88%)
   displ. norm   :     0.6031344 α      lambda       -0.3198288E-03
   maximum displ.:     0.2843032 α      in ANC's #15, #5, #24, ...

........................................................................
.............................. CYCLE   79 ..............................
........................................................................

 iter      E             dE          RMSdq      gap      omega  full diag
   1   -111.8130565 -0.111813E+03  0.992E-02    3.36       0.0  T
   2   -111.8130606 -0.416068E-05  0.582E-02    3.37       1.0  T
   3   -111.8130567  0.389898E-05  0.952E-03    3.37       1.2  T
   4   -111.8130620 -0.529633E-05  0.254E-03    3.38       4.5  T
   5   -111.8130622 -0.172725E-06  0.135E-03    3.38       8.5  T
   6   -111.8130622 -0.257146E-07  0.567E-04    3.38      20.2  T
   7   -111.8130622 -0.664070E-08  0.247E-04    3.38      46.4  T
     SCC iter.                  ...        0 min,  0.088 sec
     gradient                   ...        0 min,  0.009 sec
 * total energy  :  -110.2536369 Eh     change       -0.2108053E-03 Eh
   gradient norm :     0.0105783 Eh/α   predicted    -0.2180889E-03 (   3.46%)
   displ. norm   :     0.3538084 α      lambda       -0.3245928E-03
   maximum displ.:     0.1758871 α      in ANC's #5, #15, #21, ...

........................................................................
.............................. CYCLE   80 ..............................
........................................................................

 iter      E             dE          RMSdq      gap      omega  full diag
   1   -111.8176710 -0.111818E+03  0.518E-02    3.39       0.0  T
   2   -111.8176727 -0.173469E-05  0.304E-02    3.39       1.0  T
   3   -111.8176719  0.782691E-06  0.472E-03    3.40       2.4  T
   4   -111.8176732 -0.128815E-05  0.137E-03    3.39       8.4  T
   5   -111.8176733 -0.353136E-07  0.746E-04    3.39      15.4  T
   6   -111.8176733 -0.886108E-08  0.322E-04    3.39      35.7  T
     SCC iter.                  ...        0 min,  0.113 sec
     gradient                   ...        0 min,  0.022 sec
 * total energy  :  -110.2538636 Eh     change       -0.2266263E-03 Eh
   gradient norm :     0.0105555 Eh/α   predicted    -0.1826136E-03 ( -19.42%)
   displ. norm   :     0.5022514 α      lambda       -0.3206525E-03
   maximum displ.:     0.2547485 α      in ANC's #5, #15, #4, ...

........................................................................
.............................. CYCLE   81 ..............................
........................................................................

 iter      E             dE          RMSdq      gap      omega  full diag
   1   -111.8156786 -0.111816E+03  0.732E-02    3.40       0.0  T
   2   -111.8156828 -0.412602E-05  0.429E-02    3.40       1.0  T
   3   -111.8156806  0.217907E-05  0.721E-03    3.40       1.6  T
   4   -111.8156835 -0.289367E-05  0.250E-03    3.40       4.6  T
   5   -111.8156838 -0.288878E-06  0.106E-03    3.40      10.9  T
   6   -111.8156838 -0.375452E-08  0.524E-04    3.40      21.9  T
   7   -111.8156838 -0.121182E-07  0.174E-04    3.40      65.8  T
     SCC iter.                  ...        0 min,  0.109 sec
     gradient                   ...        0 min,  0.015 sec
 * total energy  :  -110.2541183 Eh     change       -0.2547111E-03 Eh
   gradient norm :     0.0070813 Eh/α   predicted    -0.2007702E-03 ( -21.18%)
   displ. norm   :     0.4996481 α      lambda       -0.3734930E-03
   maximum displ.:     0.2523502 α      in ANC's #5, #15, #2, ...

........................................................................
.............................. CYCLE   82 ..............................
........................................................................

 iter      E             dE          RMSdq      gap      omega  full diag
   1   -111.8208019 -0.111821E+03  0.713E-02    3.41       0.0  T
   2   -111.8208080 -0.608132E-05  0.420E-02    3.41       1.0  T
   3   -111.8208041  0.384459E-05  0.874E-03    3.41       1.3  T
   4   -111.8208092 -0.504647E-05  0.242E-03    3.41       4.7  T
   5   -111.8208095 -0.305032E-06  0.112E-03    3.41      10.2  T
   6   -111.8208095 -0.514547E-09  0.524E-04    3.41      21.9  T
   7   -111.8208095 -0.113920E-07  0.186E-04    3.41      61.5  T
     SCC iter.                  ...        0 min,  0.104 sec
     gradient                   ...        0 min,  0.013 sec
 * total energy  :  -110.2543522 Eh     change       -0.2339134E-03 Eh
   gradient norm :     0.0056292 Eh/α   predicted    -0.2333681E-03 (  -0.23%)
   displ. norm   :     0.6760129 α      lambda       -0.2894750E-03
   maximum displ.:     0.3354414 α      in ANC's #5, #15, #24, ...

........................................................................
.............................. CYCLE   83 ..............................
........................................................................

 iter      E             dE          RMSdq      gap      omega  full diag
   1   -111.8125120 -0.111813E+03  0.100E-01    3.38       0.0  T
   2   -111.8125180 -0.597882E-05  0.586E-02    3.38       1.0  T
   3   -111.8125138  0.415461E-05  0.951E-03    3.38       1.2  T
   4   -111.8125194 -0.557501E-05  0.284E-03    3.38       4.0  T
   5   -111.8125197 -0.339755E-06  0.138E-03    3.38       8.3  T
   6   -111.8125198 -0.124372E-07  0.663E-04    3.38      17.3  T
   7   -111.8125198 -0.152258E-07  0.206E-04    3.38      55.8  T
     SCC iter.                  ...        0 min,  0.104 sec
     gradient                   ...        0 min,  0.007 sec
 * total energy  :  -110.2545106 Eh     change       -0.1584172E-03 Eh
   gradient norm :     0.0094774 Eh/α   predicted    -0.2108819E-03 (  33.12%)
   displ. norm   :     0.2463154 α      lambda       -0.2556982E-03
   maximum displ.:     0.1231700 α      in ANC's #5, #2, #15, ...

........................................................................
.............................. CYCLE   84 ..............................
........................................................................

 iter      E             dE          RMSdq      gap      omega  full diag
   1   -111.8163402 -0.111816E+03  0.359E-02    3.44       0.0  T
   2   -111.8163446 -0.441898E-05  0.214E-02    3.43       1.0  T
   3   -111.8163433  0.135693E-05  0.696E-03    3.43       1.6  T
   4   -111.8163454 -0.215009E-05  0.165E-03    3.42       6.9  T
   5   -111.8163455 -0.113636E-06  0.895E-04    3.42      12.8  T
   6   -111.8163456 -0.243138E-07  0.362E-04    3.42      31.7  T
     SCC iter.                  ...        0 min,  0.087 sec
     gradient                   ...        0 min,  0.014 sec
 * total energy  :  -110.2546236 Eh     change       -0.1130007E-03 Eh
   gradient norm :     0.0089152 Eh/α   predicted    -0.1356060E-03 (  20.00%)
   displ. norm   :     0.3237953 α      lambda       -0.2344098E-03
   maximum displ.:     0.1629668 α      in ANC's #5, #15, #2, ...

........................................................................
.............................. CYCLE   85 ..............................
........................................................................

 iter      E             dE          RMSdq      gap      omega  full diag
   1   -111.8188978 -0.111819E+03  0.498E-02    3.39       0.0  T
   2   -111.8189079 -0.100908E-04  0.293E-02    3.41       1.0  T
   3   -111.8189069  0.105092E-05  0.895E-03    3.40       1.3  T
   4   -111.8189087 -0.178689E-05  0.268E-03    3.41       4.3  T
   5   -111.8189091 -0.439312E-06  0.101E-03    3.41      11.4  T
   6   -111.8189091 -0.206405E-07  0.493E-04    3.41      23.3  T
   7   -111.8189091 -0.433113E-08  0.218E-04    3.41      52.5  T
     SCC iter.                  ...        0 min,  0.102 sec
     gradient                   ...        0 min,  0.014 sec
 * total energy  :  -110.2547573 Eh     change       -0.1337130E-03 Eh
   gradient norm :     0.0065845 Eh/α   predicted    -0.1294958E-03 (  -3.15%)
   displ. norm   :     0.4070790 α      lambda       -0.1788414E-03
   maximum displ.:     0.2005079 α      in ANC's #5, #15, #2, ...

........................................................................
.............................. CYCLE   86 ..............................
........................................................................

 iter      E             dE          RMSdq      gap      omega  full diag
   1   -111.8180747 -0.111818E+03  0.580E-02    3.40       0.0  T
   2   -111.8180775 -0.275278E-05  0.339E-02    3.40       1.0  T
   3   -111.8180758  0.164369E-05  0.611E-03    3.40       1.9  T
   4   -111.8180782 -0.235480E-05  0.179E-03    3.40       6.4  T
   5   -111.8180783 -0.121727E-06  0.920E-04    3.40      12.5  T
   6   -111.8180783 -0.858421E-09  0.385E-04    3.40      29.8  T
     SCC iter.                  ...        0 min,  0.090 sec
     gradient                   ...        0 min,  0.013 sec
 * total energy  :  -110.2548520 Eh     change       -0.9468604E-04 Eh
   gradient norm :     0.0064530 Eh/α   predicted    -0.1042403E-03 (  10.09%)
   displ. norm   :     0.2374079 α      lambda       -0.1057945E-03
   maximum displ.:     0.1135878 α      in ANC's #5, #2, #15, ...

........................................................................
.............................. CYCLE   87 ..............................
........................................................................

 iter      E             dE          RMSdq      gap      omega  full diag
   1   -111.8178972 -0.111818E+03  0.327E-02    3.41       0.0  T
   2   -111.8178981 -0.837628E-06  0.191E-02    3.41       1.0  T
   3   -111.8178976  0.511637E-06  0.322E-03    3.41       3.6  T
   4   -111.8178982 -0.637912E-06  0.108E-03    3.41      10.6  T
   5   -111.8178983 -0.621115E-07  0.443E-04    3.41      25.9  T
   6   -111.8178983 -0.107681E-08  0.237E-04    3.41      48.3  T
     SCC iter.                  ...        0 min,  0.088 sec
     gradient                   ...        0 min,  0.014 sec
 * total energy  :  -110.2549306 Eh     change       -0.7856444E-04 Eh
   gradient norm :     0.0042439 Eh/α   predicted    -0.5588000E-04 ( -28.87%)
   displ. norm   :     0.3261947 α      lambda       -0.1513599E-03
   maximum displ.:     0.1291174 α      in ANC's #2, #5, #6, ...

........................................................................
.............................. CYCLE   88 ..............................
........................................................................

 iter      E             dE          RMSdq      gap      omega  full diag
   1   -111.8214033 -0.111821E+03  0.431E-02    3.43       0.0  T
   2   -111.8214050 -0.167647E-05  0.255E-02    3.42       1.0  T
   3   -111.8214030  0.195995E-05  0.582E-03    3.42       2.0  T
   4   -111.8214054 -0.236814E-05  0.155E-03    3.42       7.4  T
   5   -111.8214055 -0.104734E-06  0.710E-04    3.42      16.1  T
   6   -111.8214055 -0.371409E-08  0.358E-04    3.42      32.1  T
     SCC iter.                  ...        0 min,  0.090 sec
     gradient                   ...        0 min,  0.014 sec
 * total energy  :  -110.2550062 Eh     change       -0.7566188E-04 Eh
   gradient norm :     0.0053899 Eh/α   predicted    -0.8373343E-04 (  10.67%)
   displ. norm   :     0.4178857 α      lambda       -0.1205923E-03
   maximum displ.:     0.1964564 α      in ANC's #5, #2, #15, ...

........................................................................
.............................. CYCLE   89 ..............................
........................................................................

 iter      E             dE          RMSdq      gap      omega  full diag
   1   -111.8166758 -0.111817E+03  0.598E-02    3.40       0.0  T
   2   -111.8166776 -0.176253E-05  0.351E-02    3.41       1.0  T
   3   -111.8166765  0.105881E-05  0.478E-03    3.41       2.4  T
   4   -111.8166780 -0.148355E-05  0.147E-03    3.41       7.8  T
   5   -111.8166781 -0.829783E-07  0.763E-04    3.41      15.0  T
   6   -111.8166781 -0.627030E-08  0.376E-04    3.41      30.5  T
     SCC iter.                  ...        0 min,  0.083 sec
     gradient                   ...        0 min,  0.019 sec
 * total energy  :  -110.2550837 Eh     change       -0.7747328E-04 Eh
   gradient norm :     0.0046855 Eh/α   predicted    -0.7083051E-04 (  -8.57%)
   displ. norm   :     0.2456905 α      lambda       -0.1270795E-03
   maximum displ.:     0.1126809 α      in ANC's #2, #12, #6, ...

........................................................................
.............................. CYCLE   90 ..............................
........................................................................

 iter      E             dE          RMSdq      gap      omega  full diag
   1   -111.8200500 -0.111820E+03  0.305E-02    3.42       0.0  T
   2   -111.8200509 -0.864028E-06  0.180E-02    3.42       1.0  T
   3   -111.8200503  0.634000E-06  0.380E-03    3.42       3.0  T
   4   -111.8200511 -0.817202E-06  0.128E-03    3.42       8.9  T
   5   -111.8200512 -0.701688E-07  0.579E-04    3.42      19.8  T
   6   -111.8200512 -0.191969E-08  0.277E-04    3.42      41.3  T
     SCC iter.                  ...        0 min,  0.089 sec
     gradient                   ...        0 min,  0.015 sec
 * total energy  :  -110.2551529 Eh     change       -0.6915010E-04 Eh
   gradient norm :     0.0068386 Eh/α   predicted    -0.6737755E-04 (  -2.56%)
   displ. norm   :     0.3938939 α      lambda       -0.1589310E-03
   maximum displ.:     0.1704978 α      in ANC's #2, #5, #6, ...

........................................................................
.............................. CYCLE   91 ..............................
........................................................................

 iter      E             dE          RMSdq      gap      omega  full diag
   1   -111.8187096 -0.111819E+03  0.504E-02    3.40       0.0  T
   2   -111.8187111 -0.148071E-05  0.296E-02    3.40       1.0  T
   3   -111.8187102  0.895383E-06  0.433E-03    3.40       2.6  T
   4   -111.8187114 -0.126197E-05  0.114E-03    3.40      10.1  T
   5   -111.8187115 -0.417178E-07  0.622E-04    3.40      18.4  T
   6   -111.8187115 -0.549815E-08  0.234E-04    3.40      49.0  T
     SCC iter.                  ...        0 min,  0.084 sec
     gradient                   ...        0 min,  0.015 sec
 * total energy  :  -110.2552677 Eh     change       -0.1148280E-03 Eh
   gradient norm :     0.0057522 Eh/α   predicted    -0.9179587E-04 ( -20.06%)
   displ. norm   :     0.4314393 α      lambda       -0.2072744E-03
   maximum displ.:     0.1972596 α      in ANC's #2, #12, #8, ...

........................................................................
.............................. CYCLE   92 ..............................
........................................................................

 iter      E             dE          RMSdq      gap      omega  full diag
   1   -111.8193157 -0.111819E+03  0.554E-02    3.42       0.0  T
   2   -111.8193185 -0.285427E-05  0.328E-02    3.42       1.0  T
   3   -111.8193148  0.370703E-05  0.790E-03    3.41       1.5  T
   4   -111.8193194 -0.456730E-05  0.188E-03    3.41       6.1  T
   5   -111.8193195 -0.144787E-06  0.898E-04    3.41      12.8  T
   6   -111.8193195 -0.255504E-08  0.463E-04    3.41      24.8  T
     SCC iter.                  ...        0 min,  0.089 sec
     gradient                   ...        0 min,  0.014 sec
 * total energy  :  -110.2553765 Eh     change       -0.1087908E-03 Eh
   gradient norm :     0.0088757 Eh/α   predicted    -0.1229307E-03 (  13.00%)
   displ. norm   :     0.3701294 α      lambda       -0.1584688E-03
   maximum displ.:     0.1715864 α      in ANC's #2, #8, #6, ...
 * RMSD in coord.:     0.9658852 α      energy gain  -0.4033029E-02 Eh

generating ANC from exact Hessian ...
Using Lindh-Hessian (1995)
 Shifting diagonal of input Hessian by   1.013298665742211E-002
 Lowest  eigenvalues of input Hessian
    0.010000    0.010015    0.010087    0.000000    0.000000    0.000000
    0.000000    0.000000    0.000000    0.010163    0.010205    0.010230
    0.010295    0.010383    0.010410    0.010445    0.010572    0.010773
 Highest eigenvalues
    2.036609    2.073335    2.079186    2.206229    2.315654    2.345146
 

........................................................................
.............................. CYCLE   93 ..............................
........................................................................

 iter      E             dE          RMSdq      gap      omega  full diag
   1   -111.8200047 -0.111820E+03  0.444E-02    3.41       0.0  T
   2   -111.8200055 -0.888440E-06  0.262E-02    3.41       1.0  T
   3   -111.8200047  0.799813E-06  0.430E-03    3.41       2.7  T
   4   -111.8200059 -0.114706E-05  0.118E-03    3.41       9.7  T
   5   -111.8200059 -0.271282E-07  0.648E-04    3.41      17.7  T
   6   -111.8200059 -0.463602E-08  0.293E-04    3.41      39.2  T
     SCC iter.                  ...        0 min,  0.067 sec
     gradient                   ...        0 min,  0.028 sec
 * total energy  :  -110.2554799 Eh     change       -0.1034256E-03 Eh
   gradient norm :     0.0058822 Eh/α   predicted     0.0000000E+00 (-100.00%)
   displ. norm   :     0.0658592 α      lambda       -0.1101436E-03
   maximum displ.:     0.0200540 α      in ANC's #4, #3, #14, ...

........................................................................
.............................. CYCLE   94 ..............................
........................................................................

 iter      E             dE          RMSdq      gap      omega  full diag
   1   -111.8207780 -0.111821E+03  0.155E-02    3.41       0.0  T
   2   -111.8207785 -0.488158E-06  0.923E-03    3.41       1.2  T
   3   -111.8207782  0.381594E-06  0.307E-03    3.41       3.7  T
   4   -111.8207787 -0.501473E-06  0.787E-04    3.41      14.6  T
   5   -111.8207787 -0.261398E-07  0.351E-04    3.41      32.7  T
     SCC iter.                  ...        0 min,  0.070 sec
     gradient                   ...        0 min,  0.013 sec
 * total energy  :  -110.2555636 Eh     change       -0.8367734E-04 Eh
   gradient norm :     0.0023688 Eh/α   predicted    -0.5606100E-04 ( -33.00%)
   displ. norm   :     0.1290087 α      lambda       -0.1058449E-03
   maximum displ.:     0.0480806 α      in ANC's #4, #3, #7, ...

........................................................................
.............................. CYCLE   95 ..............................
........................................................................

 iter      E             dE          RMSdq      gap      omega  full diag
   1   -111.8212968 -0.111821E+03  0.223E-02    3.40       0.0  T
   2   -111.8212973 -0.568025E-06  0.133E-02    3.40       1.0  T
   3   -111.8212970  0.324996E-06  0.291E-03    3.40       3.9  T
   4   -111.8212975 -0.486333E-06  0.979E-04    3.40      11.7  T
   5   -111.8212975 -0.336432E-07  0.513E-04    3.40      22.4  T
     SCC iter.                  ...        0 min,  0.073 sec
     gradient                   ...        0 min,  0.007 sec
 * total energy  :  -110.2556365 Eh     change       -0.7290016E-04 Eh
   gradient norm :     0.0024970 Eh/α   predicted    -0.5380370E-04 ( -26.20%)
   displ. norm   :     0.1452748 α      lambda       -0.6897408E-04
   maximum displ.:     0.0599365 α      in ANC's #4, #7, #3, ...

........................................................................
.............................. CYCLE   96 ..............................
........................................................................

 iter      E             dE          RMSdq      gap      omega  full diag
   1   -111.8212184 -0.111821E+03  0.208E-02    3.40       0.0  T
   2   -111.8212187 -0.287035E-06  0.124E-02    3.40       1.0  T
   3   -111.8212185  0.197179E-06  0.221E-03    3.40       5.2  T
   4   -111.8212188 -0.330513E-06  0.721E-04    3.40      15.9  T
   5   -111.8212188 -0.672057E-08  0.438E-04    3.40      26.2  T
     SCC iter.                  ...        0 min,  0.069 sec
     gradient                   ...        0 min,  0.016 sec
 * total energy  :  -110.2556927 Eh     change       -0.5617752E-04 Eh
   gradient norm :     0.0037942 Eh/α   predicted    -0.3521498E-04 ( -37.31%)
   displ. norm   :     0.2673304 α      lambda       -0.1165144E-03
   maximum displ.:     0.1142918 α      in ANC's #4, #7, #3, ...

........................................................................
.............................. CYCLE   97 ..............................
........................................................................

 iter      E             dE          RMSdq      gap      omega  full diag
   1   -111.8206218 -0.111821E+03  0.346E-02    3.40       0.0  T
   2   -111.8206225 -0.683771E-06  0.206E-02    3.40       1.0  T
   3   -111.8206219  0.588780E-06  0.374E-03    3.40       3.1  T
   4   -111.8206228 -0.904802E-06  0.113E-03    3.40      10.2  T
   5   -111.8206228 -0.150333E-07  0.667E-04    3.40      17.2  T
   6   -111.8206228 -0.725370E-08  0.270E-04    3.40      42.5  T
     SCC iter.                  ...        0 min,  0.087 sec
     gradient                   ...        0 min,  0.010 sec
 * total energy  :  -110.2557863 Eh     change       -0.9364384E-04 Eh
   gradient norm :     0.0040429 Eh/α   predicted    -0.6242120E-04 ( -33.34%)
   displ. norm   :     0.3512959 α      lambda       -0.1379135E-03
   maximum displ.:     0.1562727 α      in ANC's #4, #7, #3, ...

........................................................................
.............................. CYCLE   98 ..............................
........................................................................

 iter      E             dE          RMSdq      gap      omega  full diag
   1   -111.8196973 -0.111820E+03  0.417E-02    3.40       0.0  T
   2   -111.8196983 -0.962452E-06  0.247E-02    3.40       1.0  T
   3   -111.8196977  0.581904E-06  0.389E-03    3.40       2.9  T
   4   -111.8196986 -0.929794E-06  0.126E-03    3.40       9.1  T
   5   -111.8196986 -0.312727E-07  0.699E-04    3.40      16.4  T
   6   -111.8196986 -0.392612E-08  0.307E-04    3.40      37.4  T
     SCC iter.                  ...        0 min,  0.085 sec
     gradient                   ...        0 min,  0.014 sec
 * total energy  :  -110.2558946 Eh     change       -0.1082936E-03 Eh
   gradient norm :     0.0036300 Eh/α   predicted    -0.7746861E-04 ( -28.46%)
   displ. norm   :     0.3595578 α      lambda       -0.1351230E-03
   maximum displ.:     0.1670172 α      in ANC's #4, #7, #3, ...

........................................................................
.............................. CYCLE   99 ..............................
........................................................................

 iter      E             dE          RMSdq      gap      omega  full diag
   1   -111.8193895 -0.111819E+03  0.389E-02    3.41       0.0  T
   2   -111.8193903 -0.769328E-06  0.230E-02    3.41       1.0  T
   3   -111.8193900  0.289741E-06  0.286E-03    3.41       4.0  T
   4   -111.8193905 -0.501689E-06  0.101E-03    3.41      11.4  T
   5   -111.8193905 -0.284500E-07  0.527E-04    3.41      21.8  T
   6   -111.8193905 -0.217857E-08  0.175E-04    3.41      65.6  T
     SCC iter.                  ...        0 min,  0.084 sec
     gradient                   ...        0 min,  0.013 sec
 * total energy  :  -110.2560044 Eh     change       -0.1097795E-03 Eh
   gradient norm :     0.0036026 Eh/α   predicted    -0.7629729E-04 ( -30.50%)
   displ. norm   :     0.4027715 α      lambda       -0.1619325E-03
   maximum displ.:     0.1925941 α      in ANC's #4, #7, #3, ...

........................................................................
.............................. CYCLE  100 ..............................
........................................................................

 iter      E             dE          RMSdq      gap      omega  full diag
   1   -111.8196741 -0.111820E+03  0.411E-02    3.41       0.0  T
   2   -111.8196749 -0.857958E-06  0.243E-02    3.41       1.0  T
   3   -111.8196745  0.444952E-06  0.347E-03    3.41       3.3  T
   4   -111.8196751 -0.648295E-06  0.129E-03    3.41       8.9  T
   5   -111.8196752 -0.587475E-07  0.613E-04    3.41      18.7  T
   6   -111.8196752 -0.263191E-08  0.250E-04    3.41      45.8  T
     SCC iter.                  ...        0 min,  0.090 sec
     gradient                   ...        0 min,  0.014 sec
 * total energy  :  -110.2561395 Eh     change       -0.1350795E-03 Eh
   gradient norm :     0.0039786 Eh/α   predicted    -0.9412845E-04 ( -30.32%)
   displ. norm   :     0.4893483 α      lambda       -0.2024184E-03
   maximum displ.:     0.2363590 α      in ANC's #4, #7, #3, ...

........................................................................
.............................. CYCLE  101 ..............................
........................................................................

 iter      E             dE          RMSdq      gap      omega  full diag
   1   -111.8199748 -0.111820E+03  0.480E-02    3.41       0.0  T
   2   -111.8199760 -0.120401E-05  0.283E-02    3.42       1.0  T
   3   -111.8199747  0.124398E-05  0.536E-03    3.42       2.1  T
   4   -111.8199763 -0.159657E-05  0.158E-03    3.42       7.2  T
   5   -111.8199764 -0.797940E-07  0.729E-04    3.42      15.7  T
   6   -111.8199764 -0.499134E-08  0.292E-04    3.42      39.3  T
     SCC iter.                  ...        0 min,  0.087 sec
     gradient                   ...        0 min,  0.009 sec
 * total energy  :  -110.2563077 Eh     change       -0.1682015E-03 Eh
   gradient norm :     0.0045789 Eh/α   predicted    -0.1254469E-03 ( -25.42%)
   displ. norm   :     0.5622978 α      lambda       -0.2229881E-03
   maximum displ.:     0.2712077 α      in ANC's #4, #7, #3, ...

........................................................................
.............................. CYCLE  102 ..............................
........................................................................

 iter      E             dE          RMSdq      gap      omega  full diag
   1   -111.8194665 -0.111819E+03  0.546E-02    3.42       0.0  T
   2   -111.8194678 -0.138851E-05  0.322E-02    3.42       1.0  T
   3   -111.8194662  0.167535E-05  0.610E-03    3.42       1.9  T
   4   -111.8194683 -0.215775E-05  0.164E-03    3.42       7.0  T
   5   -111.8194684 -0.635639E-07  0.789E-04    3.42      14.5  T
   6   -111.8194684 -0.775371E-08  0.352E-04    3.42      32.6  T
     SCC iter.                  ...        0 min,  0.082 sec
     gradient                   ...        0 min,  0.015 sec
 * total energy  :  -110.2564897 Eh     change       -0.1820368E-03 Eh
   gradient norm :     0.0056565 Eh/α   predicted    -0.1467484E-03 ( -19.39%)
   displ. norm   :     0.5738722 α      lambda       -0.2792958E-03
   maximum displ.:     0.2660939 α      in ANC's #4, #7, #3, ...

........................................................................
.............................. CYCLE  103 ..............................
........................................................................

 iter      E             dE          RMSdq      gap      omega  full diag
   1   -111.8226812 -0.111823E+03  0.549E-02    3.42       0.0  T
   2   -111.8226837 -0.255911E-05  0.323E-02    3.42       1.0  T
   3   -111.8226802  0.355427E-05  0.884E-03    3.42       1.3  T
   4   -111.8226846 -0.444544E-05  0.216E-03    3.41       5.3  T
   5   -111.8226847 -0.105844E-06  0.950E-04    3.41      12.1  T
   6   -111.8226847 -0.145387E-07  0.474E-04    3.41      24.2  T
     SCC iter.                  ...        0 min,  0.088 sec
     gradient                   ...        0 min,  0.014 sec
 * total energy  :  -110.2566049 Eh     change       -0.1152303E-03 Eh
   gradient norm :     0.0124863 Eh/α   predicted    -0.1856387E-03 (  61.10%)
   displ. norm   :     0.4824229 α      lambda       -0.3480017E-03
   maximum displ.:     0.2290436 α      in ANC's #4, #7, #3, ...

........................................................................
.............................. CYCLE  104 ..............................
........................................................................

 iter      E             dE          RMSdq      gap      omega  full diag
   1   -111.8188968 -0.111819E+03  0.550E-02    3.42       0.0  T
   2   -111.8188983 -0.149599E-05  0.326E-02    3.42       1.0  T
   3   -111.8188966  0.171793E-05  0.572E-03    3.42       2.0  T
   4   -111.8188989 -0.235620E-05  0.157E-03    3.42       7.3  T
   5   -111.8188990 -0.420921E-07  0.814E-04    3.42      14.1  T
   6   -111.8188990 -0.857348E-08  0.353E-04    3.42      32.5  T
     SCC iter.                  ...        0 min,  0.086 sec
     gradient                   ...        0 min,  0.014 sec
 * total energy  :  -110.2568145 Eh     change       -0.2096060E-03 Eh
   gradient norm :     0.0085499 Eh/α   predicted    -0.2144984E-03 (   2.33%)
   displ. norm   :     0.2855487 α      lambda       -0.1760300E-03
   maximum displ.:     0.1264320 α      in ANC's #4, #7, #3, ...

........................................................................
.............................. CYCLE  105 ..............................
........................................................................

 iter      E             dE          RMSdq      gap      omega  full diag
   1   -111.8192608 -0.111819E+03  0.310E-02    3.41       0.0  T
   2   -111.8192615 -0.708226E-06  0.183E-02    3.41       1.0  T
   3   -111.8192591  0.242272E-05  0.626E-03    3.41       1.8  T
   4   -111.8192619 -0.282687E-05  0.843E-04    3.41      13.6  T
   5   -111.8192619 -0.228174E-07  0.424E-04    3.41      27.0  T
   6   -111.8192619 -0.771962E-09  0.219E-04    3.41      52.4  T
     SCC iter.                  ...        0 min,  0.083 sec
     gradient                   ...        0 min,  0.017 sec
 * total energy  :  -110.2569670 Eh     change       -0.1524429E-03 Eh
   gradient norm :     0.0072999 Eh/α   predicted    -0.9519272E-04 ( -37.56%)
   displ. norm   :     0.4983830 α      lambda       -0.4761624E-03
   maximum displ.:     0.1864703 α      in ANC's #4, #7, #3, ...

........................................................................
.............................. CYCLE  106 ..............................
........................................................................

 iter      E             dE          RMSdq      gap      omega  full diag
   1   -111.8223385 -0.111822E+03  0.716E-02    3.41       0.0  T
   2   -111.8223452 -0.669285E-05  0.428E-02    3.40       1.0  T
   3   -111.8223341  0.110470E-04  0.145E-02    3.40       1.0  T
   4   -111.8223481 -0.140243E-04  0.329E-03    3.40       3.5  T
   5   -111.8223484 -0.280163E-06  0.177E-03    3.40       6.5  T
   6   -111.8223484 -0.250031E-07  0.885E-04    3.40      13.0  T
   7   -111.8223485 -0.255823E-07  0.331E-04    3.40      34.7  T
     SCC iter.                  ...        0 min,  0.101 sec
     gradient                   ...        0 min,  0.014 sec
 * total energy  :  -110.2572308 Eh     change       -0.2637919E-03 Eh
   gradient norm :     0.0096356 Eh/α   predicted    -0.2972173E-03 (  12.67%)
   displ. norm   :     0.5708738 α      lambda       -0.3489743E-03
   maximum displ.:     0.2445040 α      in ANC's #4, #7, #3, ...

........................................................................
.............................. CYCLE  107 ..............................
........................................................................

 iter      E             dE          RMSdq      gap      omega  full diag
   1   -111.8203170 -0.111820E+03  0.624E-02    3.40       0.0  T
   2   -111.8203201 -0.305412E-05  0.367E-02    3.39       1.0  T
   3   -111.8203162  0.388534E-05  0.820E-03    3.39       1.4  T
   4   -111.8203209 -0.465685E-05  0.189E-03    3.39       6.1  T
   5   -111.8203210 -0.148133E-06  0.834E-04    3.39      13.7  T
   6   -111.8203210 -0.175486E-08  0.394E-04    3.39      29.1  T
     SCC iter.                  ...        0 min,  0.088 sec
     gradient                   ...        0 min,  0.014 sec
 * total energy  :  -110.2574322 Eh     change       -0.2014803E-03 Eh
   gradient norm :     0.0080594 Eh/α   predicted    -0.2313600E-03 (  14.83%)
   displ. norm   :     0.5420027 α      lambda       -0.2854077E-03
   maximum displ.:     0.2556817 α      in ANC's #4, #7, #3, ...

........................................................................
.............................. CYCLE  108 ..............................
........................................................................

 iter      E             dE          RMSdq      gap      omega  full diag
   1   -111.8156616 -0.111816E+03  0.585E-02    3.38       0.0  T
   2   -111.8156641 -0.248592E-05  0.346E-02    3.38       1.0  T
   3   -111.8156618  0.227906E-05  0.736E-03    3.38       1.6  T
   4   -111.8156651 -0.326075E-05  0.211E-03    3.38       5.4  T
   5   -111.8156651 -0.924751E-07  0.119E-03    3.38       9.6  T
   6   -111.8156652 -0.130154E-07  0.555E-04    3.38      20.7  T
   7   -111.8156652 -0.871039E-08  0.195E-04    3.38      58.9  T
     SCC iter.                  ...        0 min,  0.102 sec
     gradient                   ...        0 min,  0.013 sec
 * total energy  :  -110.2575759 Eh     change       -0.1436459E-03 Eh
   gradient norm :     0.0126843 Eh/α   predicted    -0.1846281E-03 (  28.53%)
   displ. norm   :     0.4346779 α      lambda       -0.8193533E-03
   maximum displ.:     0.1855754 α      in ANC's #15, #2, #45, ...

........................................................................
.............................. CYCLE  109 ..............................
........................................................................

 iter      E             dE          RMSdq      gap      omega  full diag
   1   -111.8352272 -0.111835E+03  0.106E-01    3.37       0.0  T
   2   -111.8352597 -0.324947E-04  0.609E-02    3.38       1.0  T
   3   -111.8352564  0.325261E-05  0.153E-02    3.38       1.0  T
   4   -111.8352631 -0.664155E-05  0.554E-03    3.38       2.1  T
   5   -111.8352644 -0.136233E-05  0.252E-03    3.38       4.6  T
   6   -111.8352645 -0.468366E-07  0.131E-03    3.38       8.8  T
   7   -111.8352645 -0.531704E-07  0.412E-04    3.38      27.8  T
   8   -111.8352645 -0.570725E-08  0.178E-04    3.38      64.5  T
     SCC iter.                  ...        0 min,  0.120 sec
     gradient                   ...        0 min,  0.005 sec
 * total energy  :  -110.2565166 Eh     change        0.1059326E-02 Eh
   gradient norm :     0.0378123 Eh/α   predicted    -0.4870867E-03 (-145.98%)
   displ. norm   :     0.2141626 α      lambda       -0.2503437E-02
   maximum displ.:     0.0664428 α      in ANC's #16, #45, #2, ...

........................................................................
.............................. CYCLE  110 ..............................
........................................................................

 iter      E             dE          RMSdq      gap      omega  full diag
   1   -111.8233451 -0.111823E+03  0.676E-02    3.39       0.0  T
   2   -111.8233634 -0.182964E-04  0.389E-02    3.38       1.0  T
   3   -111.8233630  0.390924E-06  0.113E-02    3.39       1.0  T
   4   -111.8233655 -0.250563E-05  0.383E-03    3.38       3.0  T
   5   -111.8233662 -0.670435E-06  0.192E-03    3.38       6.0  T
   6   -111.8233662 -0.405777E-07  0.806E-04    3.38      14.2  T
   7   -111.8233662 -0.202492E-07  0.273E-04    3.38      42.0  T
     SCC iter.                  ...        0 min,  0.100 sec
     gradient                   ...        0 min,  0.013 sec
 * total energy  :  -110.2578525 Eh     change       -0.1335921E-02 Eh
   gradient norm :     0.0046564 Eh/α   predicted    -0.1309129E-02 (  -2.01%)
   displ. norm   :     0.4839455 α      lambda       -0.2468374E-03
   maximum displ.:     0.2170912 α      in ANC's #4, #7, #3, ...

........................................................................
.............................. CYCLE  111 ..............................
........................................................................

 iter      E             dE          RMSdq      gap      omega  full diag
   1   -111.8186735 -0.111819E+03  0.537E-02    3.39       0.0  T
   2   -111.8186767 -0.317295E-05  0.315E-02    3.39       1.0  T
   3   -111.8186747  0.196089E-05  0.651E-03    3.39       1.8  T
   4   -111.8186773 -0.262254E-05  0.216E-03    3.39       5.3  T
   5   -111.8186775 -0.188571E-06  0.105E-03    3.39      10.9  T
   6   -111.8186775 -0.638389E-08  0.579E-04    3.39      19.8  T
   7   -111.8186775 -0.113858E-07  0.157E-04    3.39      73.3  T
     SCC iter.                  ...        0 min,  0.101 sec
     gradient                   ...        0 min,  0.013 sec
 * total energy  :  -110.2579692 Eh     change       -0.1167071E-03 Eh
   gradient norm :     0.0114801 Eh/α   predicted    -0.1523241E-03 (  30.52%)
   displ. norm   :     0.2415675 α      lambda       -0.1999212E-03
   maximum displ.:     0.1067838 α      in ANC's #7, #4, #3, ...

........................................................................
.............................. CYCLE  112 ..............................
........................................................................

 iter      E             dE          RMSdq      gap      omega  full diag
   1   -111.8175850 -0.111818E+03  0.330E-02    3.39       0.0  T
   2   -111.8175860 -0.105713E-05  0.194E-02    3.39       1.0  T
   3   -111.8175851  0.952464E-06  0.456E-03    3.39       2.5  T
   4   -111.8175863 -0.120285E-05  0.137E-03    3.39       8.4  T
   5   -111.8175864 -0.694875E-07  0.629E-04    3.39      18.2  T
   6   -111.8175864 -0.155248E-08  0.314E-04    3.39      36.5  T
     SCC iter.                  ...        0 min,  0.086 sec
     gradient                   ...        0 min,  0.016 sec
 * total energy  :  -110.2580993 Eh     change       -0.1301365E-03 Eh
   gradient norm :     0.0079298 Eh/α   predicted    -0.1057959E-03 ( -18.70%)
   displ. norm   :     0.2497950 α      lambda       -0.2815964E-03
   maximum displ.:     0.0737274 α      in ANC's #15, #6, #7, ...

........................................................................
.............................. CYCLE  113 ..............................
........................................................................

 iter      E             dE          RMSdq      gap      omega  full diag
   1   -111.8230063 -0.111823E+03  0.469E-02    3.40       0.0  T
   2   -111.8230082 -0.187238E-05  0.276E-02    3.40       1.0  T
   3   -111.8230071  0.102888E-05  0.443E-03    3.40       2.6  T
   4   -111.8230086 -0.147952E-05  0.162E-03    3.40       7.1  T
   5   -111.8230087 -0.103392E-06  0.747E-04    3.40      15.4  T
   6   -111.8230087 -0.848925E-08  0.390E-04    3.40      29.4  T
     SCC iter.                  ...        0 min,  0.084 sec
     gradient                   ...        0 min,  0.015 sec
 * total energy  :  -110.2582808 Eh     change       -0.1814320E-03 Eh
   gradient norm :     0.0062389 Eh/α   predicted    -0.1495884E-03 ( -17.55%)
   displ. norm   :     0.4996792 α      lambda       -0.3207612E-03
   maximum displ.:     0.1882677 α      in ANC's #3, #7, #1, ...

........................................................................
.............................. CYCLE  114 ..............................
........................................................................

 iter      E             dE          RMSdq      gap      omega  full diag
   1   -111.8203052 -0.111820E+03  0.773E-02    3.41       0.0  T
   2   -111.8203087 -0.344640E-05  0.458E-02    3.41       1.0  T
   3   -111.8203059  0.279067E-05  0.755E-03    3.41       1.5  T
   4   -111.8203102 -0.433741E-05  0.231E-03    3.41       5.0  T
   5   -111.8203103 -0.584959E-07  0.125E-03    3.41       9.2  T
   6   -111.8203103 -0.191333E-07  0.472E-04    3.41      24.3  T
   7   -111.8203103 -0.589583E-08  0.208E-04    3.41      55.3  T
     SCC iter.                  ...        0 min,  0.099 sec
     gradient                   ...        0 min,  0.017 sec
 * total energy  :  -110.2584200 Eh     change       -0.1392770E-03 Eh
   gradient norm :     0.0120904 Eh/α   predicted    -0.2004305E-03 (  43.91%)
   displ. norm   :     0.3617567 α      lambda       -0.3199347E-03
   maximum displ.:     0.1370373 α      in ANC's #7, #3, #4, ...

........................................................................
.............................. CYCLE  115 ..............................
........................................................................

 iter      E             dE          RMSdq      gap      omega  full diag
   1   -111.8198765 -0.111820E+03  0.532E-02    3.40       0.0  T
   2   -111.8198786 -0.205537E-05  0.313E-02    3.41       1.0  T
   3   -111.8198764  0.216693E-05  0.624E-03    3.40       1.8  T
   4   -111.8198794 -0.298049E-05  0.181E-03    3.41       6.3  T
   5   -111.8198795 -0.825759E-07  0.101E-03    3.40      11.3  T
   6   -111.8198795 -0.939332E-08  0.485E-04    3.40      23.7  T
   7   -111.8198795 -0.714441E-08  0.188E-04    3.40      61.1  T
     SCC iter.                  ...        0 min,  0.101 sec
     gradient                   ...        0 min,  0.010 sec
 * total energy  :  -110.2585848 Eh     change       -0.1648104E-03 Eh
   gradient norm :     0.0095440 Eh/α   predicted    -0.1809042E-03 (   9.77%)
   displ. norm   :     0.1678238 α      lambda       -0.2658653E-03
   maximum displ.:     0.0671708 α      in ANC's #12, #6, #5, ...

........................................................................
.............................. CYCLE  116 ..............................
........................................................................

 iter      E             dE          RMSdq      gap      omega  full diag
   1   -111.8260350 -0.111826E+03  0.368E-02    3.43       0.0  T
   2   -111.8260386 -0.359857E-05  0.215E-02    3.43       1.0  T
   3   -111.8260358  0.281123E-05  0.835E-03    3.43       1.4  T
   4   -111.8260394 -0.360690E-05  0.211E-03    3.43       5.4  T
   5   -111.8260396 -0.206306E-06  0.871E-04    3.43      13.2  T
   6   -111.8260396 -0.693535E-08  0.487E-04    3.43      23.6  T
     SCC iter.                  ...        0 min,  0.091 sec
     gradient                   ...        0 min,  0.014 sec
 * total energy  :  -110.2586265 Eh     change       -0.4162562E-04 Eh
   gradient norm :     0.0106452 Eh/α   predicted    -0.1366813E-03 ( 228.36%)
   displ. norm   :     0.3897774 α      lambda       -0.2900067E-03
   maximum displ.:     0.1650190 α      in ANC's #3, #7, #4, ...

........................................................................
.............................. CYCLE  117 ..............................
........................................................................

 iter      E             dE          RMSdq      gap      omega  full diag
   1   -111.8218166 -0.111822E+03  0.500E-02    3.42       0.0  T
   2   -111.8218189 -0.224457E-05  0.294E-02    3.42       1.0  T
   3   -111.8218186  0.276435E-06  0.421E-03    3.42       2.7  T
   4   -111.8218195 -0.866296E-06  0.193E-03    3.42       5.9  T
   5   -111.8218196 -0.131596E-06  0.984E-04    3.43      11.7  T
   6   -111.8218196 -0.636132E-08  0.429E-04    3.42      26.8  T
     SCC iter.                  ...        0 min,  0.093 sec
     gradient                   ...        0 min,  0.016 sec
 * total energy  :  -110.2588146 Eh     change       -0.1881518E-03 Eh
   gradient norm :     0.0053757 Eh/α   predicted    -0.1670338E-03 ( -11.22%)
   displ. norm   :     0.3003156 α      lambda       -0.1573205E-03
   maximum displ.:     0.1143324 α      in ANC's #3, #7, #1, ...

........................................................................
.............................. CYCLE  118 ..............................
........................................................................

 iter      E             dE          RMSdq      gap      omega  full diag
   1   -111.8199403 -0.111820E+03  0.459E-02    3.43       0.0  T
   2   -111.8199416 -0.132605E-05  0.271E-02    3.43       1.0  T
   3   -111.8199390  0.258833E-05  0.603E-03    3.43       1.9  T
   4   -111.8199422 -0.313096E-05  0.144E-03    3.43       8.0  T
   5   -111.8199422 -0.620545E-07  0.788E-04    3.43      14.6  T
   6   -111.8199422 -0.369479E-08  0.421E-04    3.43      27.2  T
     SCC iter.                  ...        0 min,  0.084 sec
     gradient                   ...        0 min,  0.021 sec
 * total energy  :  -110.2589055 Eh     change       -0.9088015E-04 Eh
   gradient norm :     0.0079867 Eh/α   predicted    -0.8575900E-04 (  -5.64%)
   displ. norm   :     0.1999850 α      lambda       -0.1352897E-03
   maximum displ.:     0.0802252 α      in ANC's #7, #3, #8, ...

........................................................................
.............................. CYCLE  119 ..............................
........................................................................

 iter      E             dE          RMSdq      gap      omega  full diag
   1   -111.8210387 -0.111821E+03  0.258E-02    3.43       0.0  T
   2   -111.8210393 -0.602577E-06  0.153E-02    3.43       1.0  T
   3   -111.8210380  0.126882E-05  0.428E-03    3.43       2.7  T
   4   -111.8210395 -0.152056E-05  0.979E-04    3.43      11.7  T
   5   -111.8210395 -0.312729E-07  0.510E-04    3.43      22.5  T
   6   -111.8210395 -0.311734E-08  0.265E-04    3.43      43.2  T
     SCC iter.                  ...        0 min,  0.093 sec
     gradient                   ...        0 min,  0.007 sec
 * total energy  :  -110.2590168 Eh     change       -0.1112710E-03 Eh
   gradient norm :     0.0065397 Eh/α   predicted    -0.7035392E-04 ( -36.77%)
   displ. norm   :     0.4283733 α      lambda       -0.2648560E-03
   maximum displ.:     0.1660227 α      in ANC's #7, #3, #8, ...

........................................................................
.............................. CYCLE  120 ..............................
........................................................................

 iter      E             dE          RMSdq      gap      omega  full diag
   1   -111.8224996 -0.111822E+03  0.563E-02    3.44       0.0  T
   2   -111.8225012 -0.158569E-05  0.335E-02    3.44       1.0  T
   3   -111.8224964  0.477043E-05  0.824E-03    3.45       1.4  T
   4   -111.8225020 -0.561057E-05  0.177E-03    3.45       6.5  T
   5   -111.8225021 -0.636175E-07  0.979E-04    3.45      11.7  T
   6   -111.8225021 -0.159006E-07  0.432E-04    3.45      26.5  T
     SCC iter.                  ...        0 min,  0.087 sec
     gradient                   ...        0 min,  0.014 sec
 * total energy  :  -110.2591995 Eh     change       -0.1827061E-03 Eh
   gradient norm :     0.0060386 Eh/α   predicted    -0.1567344E-03 ( -14.22%)
   displ. norm   :     0.4056427 α      lambda       -0.2261916E-03
   maximum displ.:     0.1496225 α      in ANC's #6, #8, #7, ...
 * RMSD in coord.:     0.9169396 α      energy gain  -0.3823005E-02 Eh

generating ANC from exact Hessian ...
Using Lindh-Hessian (1995)
 Shifting diagonal of input Hessian by   1.079514645586536E-002
 Lowest  eigenvalues of input Hessian
    0.010000    0.000000    0.010758    0.000000    0.000000    0.000000
    0.000000    0.000000    0.010852    0.010867    0.010937    0.011052
    0.011071    0.011143    0.011159    0.011180    0.011265    0.011427
 Highest eigenvalues
    2.037464    2.075663    2.080881    2.208118    2.314272    2.348250
 

........................................................................
.............................. CYCLE  121 ..............................
........................................................................

 iter      E             dE          RMSdq      gap      omega  full diag
   1   -111.8238157 -0.111824E+03  0.508E-02    3.44       0.0  T
   2   -111.8238176 -0.188121E-05  0.301E-02    3.44       1.0  T
   3   -111.8238119  0.572124E-05  0.942E-03    3.44       1.2  T
   4   -111.8238186 -0.670270E-05  0.189E-03    3.44       6.1  T
   5   -111.8238187 -0.955011E-07  0.985E-04    3.44      11.6  T
   6   -111.8238187 -0.893758E-08  0.498E-04    3.44      23.0  T
     SCC iter.                  ...        0 min,  0.074 sec
     gradient                   ...        0 min,  0.015 sec
 * total energy  :  -110.2593211 Eh     change       -0.1215699E-03 Eh
   gradient norm :     0.0067295 Eh/α   predicted     0.0000000E+00 (-100.00%)
   displ. norm   :     0.0675590 α      lambda       -0.1168511E-03
   maximum displ.:     0.0311478 α      in ANC's #14, #23, #8, ...

........................................................................
.............................. CYCLE  122 ..............................
........................................................................

 iter      E             dE          RMSdq      gap      omega  full diag
   1   -111.8236201 -0.111824E+03  0.179E-02    3.44       0.0  T
   2   -111.8236208 -0.780943E-06  0.110E-02    3.44       1.0  T
   3   -111.8236199  0.915122E-06  0.415E-03    3.44       2.8  T
   4   -111.8236211 -0.120863E-05  0.938E-04    3.44      12.2  T
   5   -111.8236212 -0.379057E-07  0.459E-04    3.44      25.0  T
   6   -111.8236212 -0.975490E-09  0.225E-04    3.44      50.9  T
     SCC iter.                  ...        0 min,  0.078 sec
     gradient                   ...        0 min,  0.014 sec
 * total energy  :  -110.2594045 Eh     change       -0.8343807E-04 Eh
   gradient norm :     0.0031457 Eh/α   predicted    -0.6013627E-04 ( -27.93%)
   displ. norm   :     0.1255160 α      lambda       -0.1353888E-03
   maximum displ.:     0.0391621 α      in ANC's #28, #31, #2, ...

........................................................................
.............................. CYCLE  123 ..............................
........................................................................

 iter      E             dE          RMSdq      gap      omega  full diag
   1   -111.8234845 -0.111823E+03  0.223E-02    3.43       0.0  T
   2   -111.8234855 -0.949384E-06  0.131E-02    3.43       1.0  T
   3   -111.8234847  0.783624E-06  0.385E-03    3.43       3.0  T
   4   -111.8234857 -0.104705E-05  0.107E-03    3.43      10.7  T
   5   -111.8234858 -0.465379E-07  0.523E-04    3.43      21.9  T
   6   -111.8234858 -0.309801E-08  0.235E-04    3.43      48.8  T
     SCC iter.                  ...        0 min,  0.069 sec
     gradient                   ...        0 min,  0.020 sec
 * total energy  :  -110.2594870 Eh     change       -0.8251245E-04 Eh
   gradient norm :     0.0041978 Eh/α   predicted    -0.6876997E-04 ( -16.66%)
   displ. norm   :     0.1137419 α      lambda       -0.7090648E-04
   maximum displ.:     0.0342210 α      in ANC's #2, #31, #28, ...

........................................................................
.............................. CYCLE  124 ..............................
........................................................................

 iter      E             dE          RMSdq      gap      omega  full diag
   1   -111.8233118 -0.111823E+03  0.189E-02    3.43       0.0  T
   2   -111.8233122 -0.353407E-06  0.112E-02    3.43       1.0  T
   3   -111.8233114  0.807177E-06  0.326E-03    3.43       3.5  T
   4   -111.8233124 -0.978153E-06  0.686E-04    3.43      16.7  T
   5   -111.8233124 -0.122394E-07  0.395E-04    3.43      29.1  T
     SCC iter.                  ...        0 min,  0.065 sec
     gradient                   ...        0 min,  0.015 sec
 * total energy  :  -110.2595452 Eh     change       -0.5820177E-04 Eh
   gradient norm :     0.0047973 Eh/α   predicted    -0.3592146E-04 ( -38.28%)
   displ. norm   :     0.2596805 α      lambda       -0.1523106E-03
   maximum displ.:     0.0856673 α      in ANC's #2, #31, #28, ...

........................................................................
.............................. CYCLE  125 ..............................
........................................................................

 iter      E             dE          RMSdq      gap      omega  full diag
   1   -111.8226998 -0.111823E+03  0.415E-02    3.42       0.0  T
   2   -111.8227010 -0.122581E-05  0.244E-02    3.42       1.0  T
   3   -111.8226990  0.205204E-05  0.533E-03    3.42       2.2  T
   4   -111.8227015 -0.246422E-05  0.136E-03    3.42       8.4  T
   5   -111.8227015 -0.782246E-07  0.688E-04    3.42      16.7  T
   6   -111.8227015 -0.258142E-08  0.383E-04    3.42      29.9  T
     SCC iter.                  ...        0 min,  0.067 sec
     gradient                   ...        0 min,  0.021 sec
 * total energy  :  -110.2596535 Eh     change       -0.1083446E-03 Eh
   gradient norm :     0.0047184 Eh/α   predicted    -0.8133935E-04 ( -24.93%)
   displ. norm   :     0.2224698 α      lambda       -0.1100241E-03
   maximum displ.:     0.0827343 α      in ANC's #2, #7, #3, ...

........................................................................
.............................. CYCLE  126 ..............................
........................................................................

 iter      E             dE          RMSdq      gap      omega  full diag
   1   -111.8225764 -0.111823E+03  0.356E-02    3.42       0.0  T
   2   -111.8225771 -0.679601E-06  0.209E-02    3.42       1.0  T
   3   -111.8225766  0.558122E-06  0.334E-03    3.42       3.4  T
   4   -111.8225773 -0.694634E-06  0.119E-03    3.42       9.7  T
   5   -111.8225773 -0.679396E-07  0.514E-04    3.42      22.3  T
   6   -111.8225773  0.311601E-09  0.260E-04    3.42      44.2  T
     SCC iter.                  ...        0 min,  0.075 sec
     gradient                   ...        0 min,  0.015 sec
 * total energy  :  -110.2597374 Eh     change       -0.8385541E-04 Eh
   gradient norm :     0.0040143 Eh/α   predicted    -0.5773516E-04 ( -31.15%)
   displ. norm   :     0.2510701 α      lambda       -0.1210607E-03
   maximum displ.:     0.1038562 α      in ANC's #2, #7, #3, ...

........................................................................
.............................. CYCLE  127 ..............................
........................................................................

 iter      E             dE          RMSdq      gap      omega  full diag
   1   -111.8229769 -0.111823E+03  0.404E-02    3.42       0.0  T
   2   -111.8229777 -0.734076E-06  0.239E-02    3.42       1.0  T
   3   -111.8229771  0.526415E-06  0.345E-03    3.42       3.3  T
   4   -111.8229779 -0.742408E-06  0.119E-03    3.42       9.7  T
   5   -111.8229779 -0.471803E-07  0.610E-04    3.42      18.8  T
   6   -111.8229779 -0.222973E-08  0.258E-04    3.42      44.4  T
     SCC iter.                  ...        0 min,  0.078 sec
     gradient                   ...        0 min,  0.015 sec
 * total energy  :  -110.2598276 Eh     change       -0.9017190E-04 Eh
   gradient norm :     0.0032810 Eh/α   predicted    -0.6434632E-04 ( -28.64%)
   displ. norm   :     0.2719186 α      lambda       -0.1000885E-03
   maximum displ.:     0.1193778 α      in ANC's #2, #7, #3, ...

........................................................................
.............................. CYCLE  128 ..............................
........................................................................

 iter      E             dE          RMSdq      gap      omega  full diag
   1   -111.8228408 -0.111823E+03  0.425E-02    3.43       0.0  T
   2   -111.8228415 -0.713731E-06  0.251E-02    3.43       1.0  T
   3   -111.8228411  0.379014E-06  0.303E-03    3.43       3.8  T
   4   -111.8228417 -0.605049E-06  0.112E-03    3.43      10.2  T
   5   -111.8228418 -0.326258E-07  0.608E-04    3.43      18.9  T
   6   -111.8228418 -0.449386E-08  0.238E-04    3.43      48.2  T
     SCC iter.                  ...        0 min,  0.075 sec
     gradient                   ...        0 min,  0.013 sec
 * total energy  :  -110.2599017 Eh     change       -0.7412250E-04 Eh
   gradient norm :     0.0034776 Eh/α   predicted    -0.5374921E-04 ( -27.49%)
   displ. norm   :     0.2395822 α      lambda       -0.1075549E-03
   maximum displ.:     0.1156966 α      in ANC's #2, #3, #15, ...

........................................................................
.............................. CYCLE  129 ..............................
........................................................................

 iter      E             dE          RMSdq      gap      omega  full diag
   1   -111.8249956 -0.111825E+03  0.372E-02    3.44       0.0  T
   2   -111.8249972 -0.159953E-05  0.220E-02    3.44       1.0  T
   3   -111.8249963  0.942570E-06  0.422E-03    3.44       2.7  T
   4   -111.8249976 -0.127255E-05  0.130E-03    3.44       8.8  T
   5   -111.8249976 -0.738117E-07  0.642E-04    3.44      17.9  T
   6   -111.8249976 -0.377042E-08  0.255E-04    3.44      45.0  T
     SCC iter.                  ...        0 min,  0.067 sec
     gradient                   ...        0 min,  0.027 sec
 * total energy  :  -110.2599549 Eh     change       -0.5316999E-04 Eh
   gradient norm :     0.0048046 Eh/α   predicted    -0.5686447E-04 (   6.95%)
   displ. norm   :     0.3561335 α      lambda       -0.1037431E-03
   maximum displ.:     0.1634648 α      in ANC's #2, #3, #7, ...

........................................................................
.............................. CYCLE  130 ..............................
........................................................................

 iter      E             dE          RMSdq      gap      omega  full diag
   1   -111.8219773 -0.111822E+03  0.524E-02    3.43       0.0  T
   2   -111.8219794 -0.211404E-05  0.308E-02    3.43       1.0  T
   3   -111.8219792  0.265392E-06  0.355E-03    3.43       3.2  T
   4   -111.8219797 -0.578296E-06  0.152E-03    3.43       7.6  T
   5   -111.8219798 -0.866707E-07  0.768E-04    3.43      14.9  T
   6   -111.8219798 -0.332008E-09  0.364E-04    3.43      31.5  T
     SCC iter.                  ...        0 min,  0.077 sec
     gradient                   ...        0 min,  0.013 sec
 * total energy  :  -110.2599742 Eh     change       -0.1934310E-04 Eh
   gradient norm :     0.0062245 Eh/α   predicted    -0.5846552E-04 ( 202.26%)
   displ. norm   :     0.1217636 α      lambda       -0.9454634E-04
   maximum displ.:     0.0363725 α      in ANC's #2, #39, #7, ...

........................................................................
.............................. CYCLE  131 ..............................
........................................................................

 iter      E             dE          RMSdq      gap      omega  full diag
   1   -111.8245181 -0.111825E+03  0.229E-02    3.44       0.0  T
   2   -111.8245191 -0.934809E-06  0.134E-02    3.44       1.0  T
   3   -111.8245188  0.251865E-06  0.274E-03    3.44       4.2  T
   4   -111.8245191 -0.322345E-06  0.106E-03    3.44      10.8  T
   5   -111.8245192 -0.640475E-07  0.399E-04    3.44      28.7  T
   6   -111.8245192 -0.442967E-09  0.197E-04    3.44      58.2  T
     SCC iter.                  ...        0 min,  0.068 sec
     gradient                   ...        0 min,  0.021 sec
 * total energy  :  -110.2600291 Eh     change       -0.5485134E-04 Eh
   gradient norm :     0.0020077 Eh/α   predicted    -0.4797550E-04 ( -12.54%)
   displ. norm   :     0.1062284 α      lambda       -0.3973440E-04
   maximum displ.:     0.0559054 α      in ANC's #2, #3, #7, ...

........................................................................
.............................. CYCLE  132 ..............................
........................................................................

 iter      E             dE          RMSdq      gap      omega  full diag
   1   -111.8251516 -0.111825E+03  0.136E-02    3.44       0.0  T
   2   -111.8251518 -0.223560E-06  0.800E-03    3.44       1.4  T
   3   -111.8251513  0.436603E-06  0.264E-03    3.44       4.3  T
   4   -111.8251519 -0.524332E-06  0.412E-04    3.44      27.8  T
   5   -111.8251519 -0.567962E-08  0.195E-04    3.44      58.7  T
     SCC iter.                  ...        0 min,  0.065 sec
     gradient                   ...        0 min,  0.015 sec
 * total energy  :  -110.2600615 Eh     change       -0.3239460E-04 Eh
   gradient norm :     0.0016254 Eh/α   predicted    -0.2009137E-04 ( -37.98%)
   displ. norm   :     0.3460395 α      lambda       -0.6018164E-04
   maximum displ.:     0.1836724 α      in ANC's #2, #3, #7, ...

........................................................................
.............................. CYCLE  133 ..............................
........................................................................

 iter      E             dE          RMSdq      gap      omega  full diag
   1   -111.8248584 -0.111825E+03  0.432E-02    3.43       0.0  T
   2   -111.8248595 -0.107676E-05  0.255E-02    3.43       1.0  T
   3   -111.8248560  0.352537E-05  0.700E-03    3.43       1.6  T
   4   -111.8248602 -0.416847E-05  0.940E-04    3.43      12.2  T
   5   -111.8248602 -0.138773E-07  0.542E-04    3.43      21.2  T
   6   -111.8248602 -0.391499E-08  0.242E-04    3.43      47.5  T
     SCC iter.                  ...        0 min,  0.079 sec
     gradient                   ...        0 min,  0.015 sec
 * total energy  :  -110.2601186 Eh     change       -0.5717203E-04 Eh
   gradient norm :     0.0028144 Eh/α   predicted    -0.3169274E-04 ( -44.57%)
   displ. norm   :     0.1583286 α      lambda       -0.2917694E-04
   maximum displ.:     0.0876830 α      in ANC's #2, #3, #7, ...

........................................................................
.............................. CYCLE  134 ..............................
........................................................................

 iter      E             dE          RMSdq      gap      omega  full diag
   1   -111.8243103 -0.111824E+03  0.199E-02    3.42       0.0  T
   2   -111.8243105 -0.180252E-06  0.117E-02    3.43       1.0  T
   3   -111.8243102  0.306508E-06  0.204E-03    3.42       5.6  T
   4   -111.8243106 -0.374178E-06  0.464E-04    3.43      24.7  T
   5   -111.8243106 -0.632259E-08  0.250E-04    3.43      45.8  T
     SCC iter.                  ...        0 min,  0.066 sec
     gradient                   ...        0 min,  0.015 sec
 * total energy  :  -110.2601438 Eh     change       -0.2512456E-04 Eh
   gradient norm :     0.0021731 Eh/α   predicted    -0.1495449E-04 ( -40.48%)
   displ. norm   :     0.2243400 α      lambda       -0.4737706E-04
   maximum displ.:     0.1283274 α      in ANC's #2, #3, #7, ...

........................................................................
.............................. CYCLE  135 ..............................
........................................................................

 iter      E             dE          RMSdq      gap      omega  full diag
   1   -111.8240604 -0.111824E+03  0.289E-02    3.42       0.0  T
   2   -111.8240608 -0.403486E-06  0.170E-02    3.42       1.0  T
   3   -111.8240604  0.401542E-06  0.245E-03    3.42       4.7  T
   4   -111.8240609 -0.517223E-06  0.704E-04    3.42      16.3  T
   5   -111.8240609 -0.183607E-07  0.366E-04    3.42      31.3  T
     SCC iter.                  ...        0 min,  0.064 sec
     gradient                   ...        0 min,  0.014 sec
 * total energy  :  -110.2601806 Eh     change       -0.3680251E-04 Eh
   gradient norm :     0.0015320 Eh/α   predicted    -0.2488361E-04 ( -32.39%)
   displ. norm   :     0.3089052 α      lambda       -0.3521506E-04
   maximum displ.:     0.1822903 α      in ANC's #2, #3, #7, ...

........................................................................
.............................. CYCLE  136 ..............................
........................................................................

 iter      E             dE          RMSdq      gap      omega  full diag
   1   -111.8239346 -0.111824E+03  0.403E-02    3.42       0.0  T
   2   -111.8239353 -0.681972E-06  0.237E-02    3.42       1.0  T
   3   -111.8239349  0.455366E-06  0.286E-03    3.41       4.0  T
   4   -111.8239355 -0.638075E-06  0.929E-04    3.42      12.3  T
   5   -111.8239355 -0.284155E-07  0.491E-04    3.42      23.4  T
     SCC iter.                  ...        0 min,  0.066 sec
     gradient                   ...        0 min,  0.014 sec
 * total energy  :  -110.2602153 Eh     change       -0.3475503E-04 Eh
   gradient norm :     0.0020369 Eh/α   predicted    -0.1835914E-04 ( -47.18%)
   displ. norm   :     0.1015007 α      lambda       -0.1945217E-04
   maximum displ.:     0.0625566 α      in ANC's #2, #3, #6, ...

........................................................................
.............................. CYCLE  137 ..............................
........................................................................

 iter      E             dE          RMSdq      gap      omega  full diag
   1   -111.8243398 -0.111824E+03  0.135E-02    3.42       0.0  T
   2   -111.8243399 -0.614368E-07  0.795E-03    3.42       1.4  T
   3   -111.8243399  0.382510E-07  0.929E-04    3.42      12.3  T
   4   -111.8243399 -0.586477E-07  0.313E-04    3.42      36.6  T
     SCC iter.                  ...        0 min,  0.054 sec
     gradient                   ...        0 min,  0.010 sec
 * total energy  :  -110.2602330 Eh     change       -0.1773117E-04 Eh
   gradient norm :     0.0016435 Eh/α   predicted    -0.9829504E-05 ( -44.56%)
   displ. norm   :     0.3060284 α      lambda       -0.4690227E-04
   maximum displ.:     0.1846986 α      in ANC's #2, #3, #6, ...

........................................................................
.............................. CYCLE  138 ..............................
........................................................................

 iter      E             dE          RMSdq      gap      omega  full diag
   1   -111.8252931 -0.111825E+03  0.422E-02    3.42       0.0  T
   2   -111.8252938 -0.650553E-06  0.248E-02    3.41       1.0  T
   3   -111.8252932  0.595198E-06  0.333E-03    3.41       3.4  T
   4   -111.8252940 -0.826543E-06  0.102E-03    3.41      11.3  T
   5   -111.8252940 -0.255477E-07  0.541E-04    3.41      21.2  T
   6   -111.8252940 -0.368236E-08  0.237E-04    3.41      48.4  T
     SCC iter.                  ...        0 min,  0.079 sec
     gradient                   ...        0 min,  0.007 sec
 * total energy  :  -110.2602841 Eh     change       -0.5103161E-04 Eh
   gradient norm :     0.0018085 Eh/α   predicted    -0.2443242E-04 ( -52.12%)
   displ. norm   :     0.3068601 α      lambda       -0.3121310E-04
   maximum displ.:     0.1878758 α      in ANC's #2, #3, #6, ...

........................................................................
.............................. CYCLE  139 ..............................
........................................................................

 iter      E             dE          RMSdq      gap      omega  full diag
   1   -111.8245515 -0.111825E+03  0.414E-02    3.41       0.0  T
   2   -111.8245519 -0.421872E-06  0.243E-02    3.41       1.0  T
   3   -111.8245515  0.410721E-06  0.290E-03    3.41       4.0  T
   4   -111.8245521 -0.572661E-06  0.875E-04    3.41      13.1  T
   5   -111.8245521 -0.169611E-07  0.472E-04    3.41      24.3  T
     SCC iter.                  ...        0 min,  0.065 sec
     gradient                   ...        0 min,  0.008 sec
 * total energy  :  -110.2603221 Eh     change       -0.3801260E-04 Eh
   gradient norm :     0.0021616 Eh/α   predicted    -0.1626095E-04 ( -57.22%)
   displ. norm   :     0.2196312 α      lambda       -0.3746308E-04
   maximum displ.:     0.1339893 α      in ANC's #2, #3, #6, ...

........................................................................
.............................. CYCLE  140 ..............................
........................................................................

 iter      E             dE          RMSdq      gap      omega  full diag
   1   -111.8248529 -0.111825E+03  0.295E-02    3.41       0.0  T
   2   -111.8248530 -0.178355E-06  0.173E-02    3.41       1.0  T
   3   -111.8248530  0.525665E-07  0.139E-03    3.41       8.3  T
   4   -111.8248531 -0.109800E-06  0.505E-04    3.41      22.7  T
   5   -111.8248531 -0.412766E-08  0.303E-04    3.41      37.9  T
     SCC iter.                  ...        0 min,  0.064 sec
     gradient                   ...        0 min,  0.013 sec
 * total energy  :  -110.2603547 Eh     change       -0.3257825E-04 Eh
   gradient norm :     0.0021585 Eh/α   predicted    -0.1963605E-04 ( -39.73%)
   displ. norm   :     0.3563899 α      lambda       -0.6014785E-04
   maximum displ.:     0.2175066 α      in ANC's #2, #3, #6, ...

........................................................................
.............................. CYCLE  141 ..............................
........................................................................

 iter      E             dE          RMSdq      gap      omega  full diag
   1   -111.8245816 -0.111825E+03  0.481E-02    3.41       0.0  T
   2   -111.8245821 -0.467528E-06  0.283E-02    3.41       1.0  T
   3   -111.8245818  0.226093E-06  0.265E-03    3.41       4.3  T
   4   -111.8245822 -0.387831E-06  0.970E-04    3.41      11.8  T
   5   -111.8245822 -0.218651E-07  0.518E-04    3.41      22.2  T
     SCC iter.                  ...        0 min,  0.063 sec
     gradient                   ...        0 min,  0.012 sec
 * total energy  :  -110.2604047 Eh     change       -0.5001886E-04 Eh
   gradient norm :     0.0020820 Eh/α   predicted    -0.3389756E-04 ( -32.23%)
   displ. norm   :     0.3907430 α      lambda       -0.5606457E-04
   maximum displ.:     0.2409196 α      in ANC's #2, #3, #6, ...

........................................................................
.............................. CYCLE  142 ..............................
........................................................................

 iter      E             dE          RMSdq      gap      omega  full diag
   1   -111.8240476 -0.111824E+03  0.515E-02    3.41       0.0  T
   2   -111.8240481 -0.531271E-06  0.302E-02    3.41       1.0  T
   3   -111.8240478  0.369404E-06  0.285E-03    3.41       4.0  T
   4   -111.8240483 -0.549918E-06  0.843E-04    3.41      13.6  T
   5   -111.8240483 -0.150043E-07  0.471E-04    3.41      24.4  T
     SCC iter.                  ...        0 min,  0.064 sec
     gradient                   ...        0 min,  0.007 sec
 * total energy  :  -110.2604494 Eh     change       -0.4467074E-04 Eh
   gradient norm :     0.0022710 Eh/α   predicted    -0.3231512E-04 ( -27.66%)
   displ. norm   :     0.3260249 α      lambda       -0.4244013E-04
   maximum displ.:     0.2048635 α      in ANC's #2, #3, #6, ...

........................................................................
.............................. CYCLE  143 ..............................
........................................................................

 iter      E             dE          RMSdq      gap      omega  full diag
   1   -111.8239327 -0.111824E+03  0.422E-02    3.40       0.0  T
   2   -111.8239330 -0.369978E-06  0.248E-02    3.41       1.0  T
   3   -111.8239329  0.159914E-06  0.214E-03    3.40       5.4  T
   4   -111.8239332 -0.292008E-06  0.789E-04    3.41      14.5  T
   5   -111.8239332 -0.117253E-07  0.431E-04    3.41      26.6  T
     SCC iter.                  ...        0 min,  0.063 sec
     gradient                   ...        0 min,  0.011 sec
 * total energy  :  -110.2604835 Eh     change       -0.3412771E-04 Eh
   gradient norm :     0.0027304 Eh/α   predicted    -0.2347773E-04 ( -31.21%)
   displ. norm   :     0.3111875 α      lambda       -0.4596500E-04
   maximum displ.:     0.1989890 α      in ANC's #2, #3, #6, ...

........................................................................
.............................. CYCLE  144 ..............................
........................................................................

 iter      E             dE          RMSdq      gap      omega  full diag
   1   -111.8247603 -0.111825E+03  0.387E-02    3.40       0.0  T
   2   -111.8247609 -0.599796E-06  0.227E-02    3.40       1.0  T
   3   -111.8247594  0.146014E-05  0.435E-03    3.40       2.6  T
   4   -111.8247612 -0.172207E-05  0.757E-04    3.40      15.1  T
   5   -111.8247612 -0.186875E-07  0.390E-04    3.40      29.4  T
   6   -111.8247612 -0.320327E-09  0.204E-04    3.40      56.1  T
     SCC iter.                  ...        0 min,  0.077 sec
     gradient                   ...        0 min,  0.009 sec
 * total energy  :  -110.2605171 Eh     change       -0.3361096E-04 Eh
   gradient norm :     0.0019002 Eh/α   predicted    -0.2520963E-04 ( -25.00%)
   displ. norm   :     0.5655979 α      lambda       -0.5383775E-04
   maximum displ.:     0.3666308 α      in ANC's #2, #3, #12, ...

........................................................................
.............................. CYCLE  145 ..............................
........................................................................

 iter      E             dE          RMSdq      gap      omega  full diag
   1   -111.8245699 -0.111825E+03  0.724E-02    3.40       0.0  T
   2   -111.8245712 -0.133174E-05  0.425E-02    3.40       1.0  T
   3   -111.8245697  0.152213E-05  0.498E-03    3.40       2.3  T
   4   -111.8245717 -0.202984E-05  0.140E-03    3.40       8.2  T
   5   -111.8245717 -0.394057E-07  0.711E-04    3.40      16.1  T
   6   -111.8245717 -0.559228E-08  0.254E-04    3.40      45.2  T
     SCC iter.                  ...        0 min,  0.070 sec
     gradient                   ...        0 min,  0.014 sec
 * total energy  :  -110.2605685 Eh     change       -0.5142848E-04 Eh
   gradient norm :     0.0038302 Eh/α   predicted    -0.3075070E-04 ( -40.21%)
   displ. norm   :     0.2215111 α      lambda       -0.4278903E-04
   maximum displ.:     0.1482026 α      in ANC's #2, #3, #12, ...

........................................................................
.............................. CYCLE  146 ..............................
........................................................................

 iter      E             dE          RMSdq      gap      omega  full diag
   1   -111.8247624 -0.111825E+03  0.281E-02    3.40       0.0  T
   2   -111.8247627 -0.233339E-06  0.165E-02    3.40       1.0  T
   3   -111.8247622  0.511990E-06  0.264E-03    3.39       4.3  T
   4   -111.8247628 -0.611989E-06  0.517E-04    3.40      22.2  T
   5   -111.8247628 -0.787387E-08  0.269E-04    3.40      42.6  T
     SCC iter.                  ...        0 min,  0.060 sec
     gradient                   ...        0 min,  0.016 sec
 * total energy  :  -110.2606057 Eh     change       -0.3721662E-04 Eh
   gradient norm :     0.0025568 Eh/α   predicted    -0.2244635E-04 ( -39.69%)
   displ. norm   :     0.4635939 α      lambda       -0.9786490E-04
   maximum displ.:     0.3151385 α      in ANC's #2, #3, #12, ...

........................................................................
.............................. CYCLE  147 ..............................
........................................................................

 iter      E             dE          RMSdq      gap      omega  full diag
   1   -111.8260143 -0.111826E+03  0.594E-02    3.39       0.0  T
   2   -111.8260153 -0.974178E-06  0.349E-02    3.39       1.0  T
   3   -111.8260133  0.199565E-05  0.521E-03    3.39       2.2  T
   4   -111.8260157 -0.241794E-05  0.105E-03    3.39      10.9  T
   5   -111.8260157 -0.296211E-07  0.562E-04    3.39      20.4  T
   6   -111.8260157 -0.214105E-08  0.259E-04    3.39      44.3  T
     SCC iter.                  ...        0 min,  0.079 sec
     gradient                   ...        0 min,  0.013 sec
 * total energy  :  -110.2606834 Eh     change       -0.7766160E-04 Eh
   gradient norm :     0.0023385 Eh/α   predicted    -0.5945160E-04 ( -23.45%)
   displ. norm   :     0.6172647 α      lambda       -0.9859655E-04
   maximum displ.:     0.4200054 α      in ANC's #2, #3, #12, ...

........................................................................
.............................. CYCLE  148 ..............................
........................................................................

 iter      E             dE          RMSdq      gap      omega  full diag
   1   -111.8239722 -0.111824E+03  0.820E-02    3.38       0.0  T
   2   -111.8239734 -0.123252E-05  0.481E-02    3.38       1.0  T
   3   -111.8239722  0.118637E-05  0.470E-03    3.38       2.4  T
   4   -111.8239739 -0.167530E-05  0.124E-03    3.38       9.3  T
   5   -111.8239739 -0.217525E-07  0.659E-04    3.38      17.4  T
   6   -111.8239739 -0.638273E-08  0.226E-04    3.38      50.8  T
     SCC iter.                  ...        0 min,  0.073 sec
     gradient                   ...        0 min,  0.017 sec
 * total energy  :  -110.2607580 Eh     change       -0.7458326E-04 Eh
   gradient norm :     0.0031525 Eh/α   predicted    -0.6808608E-04 (  -8.71%)
   displ. norm   :     0.4288627 α      lambda       -0.9346879E-04
   maximum displ.:     0.2974862 α      in ANC's #2, #3, #12, ...

........................................................................
.............................. CYCLE  149 ..............................
........................................................................

 iter      E             dE          RMSdq      gap      omega  full diag
   1   -111.8256370 -0.111826E+03  0.563E-02    3.37       0.0  T
   2   -111.8256381 -0.109481E-05  0.331E-02    3.37       1.0  T
   3   -111.8256364  0.162530E-05  0.487E-03    3.37       2.4  T
   4   -111.8256385 -0.201116E-05  0.117E-03    3.37       9.8  T
   5   -111.8256385 -0.410000E-07  0.596E-04    3.37      19.2  T
   6   -111.8256385 -0.203082E-08  0.265E-04    3.37      43.3  T
     SCC iter.                  ...        0 min,  0.073 sec
     gradient                   ...        0 min,  0.015 sec
 * total energy  :  -110.2608283 Eh     change       -0.7035653E-04 Eh
   gradient norm :     0.0032704 Eh/α   predicted    -0.5533283E-04 ( -21.35%)
   displ. norm   :     0.5810888 α      lambda       -0.1032168E-03
   maximum displ.:     0.4045799 α      in ANC's #2, #3, #12, ...

........................................................................
.............................. CYCLE  150 ..............................
........................................................................

 iter      E             dE          RMSdq      gap      omega  full diag
   1   -111.8243571 -0.111824E+03  0.769E-02    3.36       0.0  T
   2   -111.8243581 -0.999430E-06  0.451E-02    3.36       1.0  T
   3   -111.8243569  0.115542E-05  0.462E-03    3.36       2.5  T
   4   -111.8243585 -0.158363E-05  0.113E-03    3.36      10.1  T
   5   -111.8243585 -0.198031E-07  0.611E-04    3.36      18.8  T
   6   -111.8243585 -0.320377E-08  0.198E-04    3.36      58.0  T
     SCC iter.                  ...        0 min,  0.077 sec
     gradient                   ...        0 min,  0.015 sec
 * total energy  :  -110.2609151 Eh     change       -0.8675793E-04 Eh
   gradient norm :     0.0038746 Eh/α   predicted    -0.6904019E-04 ( -20.42%)
   displ. norm   :     0.5413527 α      lambda       -0.1752278E-03
   maximum displ.:     0.3716373 α      in ANC's #2, #3, #12, ...
 * RMSD in coord.:     0.7927256 α      energy gain  -0.1715616E-02 Eh

generating ANC from exact Hessian ...
Using Lindh-Hessian (1995)
 Shifting diagonal of input Hessian by   1.007590845565432E-002
 Lowest  eigenvalues of input Hessian
    0.010000    0.010047    0.000000    0.000000    0.000000    0.000000
    0.000000    0.000000    0.010156    0.010219    0.010332    0.010362
    0.010475    0.010544    0.010557    0.010594    0.010743    0.010889
 Highest eigenvalues
    2.039080    2.076284    2.082752    2.208736    2.316348    2.346423
 

........................................................................
.............................. CYCLE  151 ..............................
........................................................................

 iter      E             dE          RMSdq      gap      omega  full diag
   1   -111.8269787 -0.111827E+03  0.720E-02    3.36       0.0  T
   2   -111.8269805 -0.183775E-05  0.423E-02    3.36       1.0  T
   3   -111.8269777  0.286495E-05  0.679E-03    3.36       1.7  T
   4   -111.8269813 -0.357406E-05  0.163E-03    3.36       7.0  T
   5   -111.8269813 -0.673800E-07  0.837E-04    3.36      13.7  T
   6   -111.8269813 -0.203515E-08  0.368E-04    3.36      31.1  T
     SCC iter.                  ...        0 min,  0.084 sec
     gradient                   ...        0 min,  0.015 sec
 * total energy  :  -110.2610380 Eh     change       -0.1229329E-03 Eh
   gradient norm :     0.0038114 Eh/α   predicted     0.0000000E+00 (-100.00%)
   displ. norm   :     0.0456283 α      lambda       -0.5458446E-04
   maximum displ.:     0.0198160 α      in ANC's #28, #25, #18, ...

........................................................................
.............................. CYCLE  152 ..............................
........................................................................

 iter      E             dE          RMSdq      gap      omega  full diag
   1   -111.8262420 -0.111826E+03  0.101E-02    3.36       0.0  T
   2   -111.8262422 -0.193367E-06  0.606E-03    3.36       1.9  T
   3   -111.8262419  0.316760E-06  0.244E-03    3.36       4.7  T
   4   -111.8262423 -0.392899E-06  0.488E-04    3.36      23.5  T
   5   -111.8262423 -0.890661E-08  0.234E-04    3.36      48.9  T
     SCC iter.                  ...        0 min,  0.065 sec
     gradient                   ...        0 min,  0.019 sec
 * total energy  :  -110.2610815 Eh     change       -0.4343989E-04 Eh
   gradient norm :     0.0017428 Eh/α   predicted    -0.2736720E-04 ( -37.00%)
   displ. norm   :     0.1730696 α      lambda       -0.7792778E-04
   maximum displ.:     0.0724865 α      in ANC's #28, #25, #18, ...

........................................................................
.............................. CYCLE  153 ..............................
........................................................................

 iter      E             dE          RMSdq      gap      omega  full diag
   1   -111.8246227 -0.111825E+03  0.329E-02    3.37       0.0  T
   2   -111.8246241 -0.144099E-05  0.195E-02    3.37       1.0  T
   3   -111.8246211  0.304573E-05  0.728E-03    3.37       1.6  T
   4   -111.8246248 -0.370669E-05  0.131E-03    3.38       8.7  T
   5   -111.8246248 -0.554660E-07  0.671E-04    3.38      17.1  T
   6   -111.8246248 -0.667804E-08  0.327E-04    3.38      35.1  T
     SCC iter.                  ...        0 min,  0.078 sec
     gradient                   ...        0 min,  0.012 sec
 * total energy  :  -110.2611326 Eh     change       -0.5114275E-04 Eh
   gradient norm :     0.0038197 Eh/α   predicted    -0.3948350E-04 ( -22.80%)
   displ. norm   :     0.0351260 α      lambda       -0.2372223E-04
   maximum displ.:     0.0127635 α      in ANC's #2, #3, #11, ...

........................................................................
.............................. CYCLE  154 ..............................
........................................................................

 iter      E             dE          RMSdq      gap      omega  full diag
   1   -111.8251854 -0.111825E+03  0.776E-03    3.38       0.0  T
   2   -111.8251855 -0.665794E-07  0.468E-03    3.38       2.5  T
   3   -111.8251854  0.595458E-07  0.106E-03    3.38      10.8  T
   4   -111.8251855 -0.833480E-07  0.350E-04    3.38      32.8  T
   5   -111.8251855 -0.334867E-08  0.186E-04    3.38      61.8  T
     SCC iter.                  ...        0 min,  0.059 sec
     gradient                   ...        0 min,  0.017 sec
 * total energy  :  -110.2611520 Eh     change       -0.1938686E-04 Eh
   gradient norm :     0.0024916 Eh/α   predicted    -0.1187671E-04 ( -38.74%)
   displ. norm   :     0.1194272 α      lambda       -0.5674765E-04
   maximum displ.:     0.0482047 α      in ANC's #2, #3, #11, ...

........................................................................
.............................. CYCLE  155 ..............................
........................................................................

 iter      E             dE          RMSdq      gap      omega  full diag
   1   -111.8267045 -0.111827E+03  0.206E-02    3.39       0.0  T
   2   -111.8267048 -0.351953E-06  0.121E-02    3.39       1.0  T
   3   -111.8267046  0.189129E-06  0.195E-03    3.39       5.9  T
   4   -111.8267049 -0.259459E-06  0.648E-04    3.39      17.7  T
   5   -111.8267049 -0.169795E-07  0.309E-04    3.39      37.1  T
     SCC iter.                  ...        0 min,  0.060 sec
     gradient                   ...        0 min,  0.018 sec
 * total energy  :  -110.2611847 Eh     change       -0.3266262E-04 Eh
   gradient norm :     0.0016894 Eh/α   predicted    -0.2877859E-04 ( -11.89%)
   displ. norm   :     0.1341904 α      lambda       -0.1874027E-04
   maximum displ.:     0.0566283 α      in ANC's #2, #3, #11, ...

........................................................................
.............................. CYCLE  156 ..............................
........................................................................

 iter      E             dE          RMSdq      gap      omega  full diag
   1   -111.8264920 -0.111826E+03  0.220E-02    3.39       0.0  T
   2   -111.8264923 -0.246310E-06  0.131E-02    3.39       1.0  T
   3   -111.8264917  0.555693E-06  0.289E-03    3.39       4.0  T
   4   -111.8264924 -0.694958E-06  0.637E-04    3.39      18.0  T
   5   -111.8264924 -0.167707E-08  0.384E-04    3.39      29.9  T
     SCC iter.                  ...        0 min,  0.067 sec
     gradient                   ...        0 min,  0.008 sec
 * total energy  :  -110.2612050 Eh     change       -0.2037432E-04 Eh
   gradient norm :     0.0019532 Eh/α   predicted    -0.9461826E-05 ( -53.56%)
   displ. norm   :     0.1918665 α      lambda       -0.2753084E-04
   maximum displ.:     0.0874737 α      in ANC's #2, #3, #11, ...

........................................................................
.............................. CYCLE  157 ..............................
........................................................................

 iter      E             dE          RMSdq      gap      omega  full diag
   1   -111.8260258 -0.111826E+03  0.288E-02    3.40       0.0  T
   2   -111.8260260 -0.254068E-06  0.169E-02    3.40       1.0  T
   3   -111.8260256  0.406766E-06  0.255E-03    3.40       4.5  T
   4   -111.8260262 -0.523007E-06  0.563E-04    3.40      20.4  T
   5   -111.8260262 -0.357765E-08  0.293E-04    3.40      39.2  T
     SCC iter.                  ...        0 min,  0.065 sec
     gradient                   ...        0 min,  0.014 sec
 * total energy  :  -110.2612360 Eh     change       -0.3098134E-04 Eh
   gradient norm :     0.0015780 Eh/α   predicted    -0.1399189E-04 ( -54.84%)
   displ. norm   :     0.2268381 α      lambda       -0.2992823E-04
   maximum displ.:     0.1123430 α      in ANC's #2, #3, #11, ...

........................................................................
.............................. CYCLE  158 ..............................
........................................................................

 iter      E             dE          RMSdq      gap      omega  full diag
   1   -111.8255196 -0.111826E+03  0.335E-02    3.40       0.0  T
   2   -111.8255200 -0.348091E-06  0.197E-02    3.40       1.0  T
   3   -111.8255194  0.556197E-06  0.294E-03    3.40       3.9  T
   4   -111.8255201 -0.709985E-06  0.655E-04    3.40      17.5  T
   5   -111.8255201 -0.523887E-08  0.374E-04    3.40      30.7  T
     SCC iter.                  ...        0 min,  0.062 sec
     gradient                   ...        0 min,  0.013 sec
 * total energy  :  -110.2612696 Eh     change       -0.3362340E-04 Eh
   gradient norm :     0.0019379 Eh/α   predicted    -0.1530722E-04 ( -54.47%)
   displ. norm   :     0.2460081 α      lambda       -0.3041874E-04
   maximum displ.:     0.1274670 α      in ANC's #2, #3, #11, ...

........................................................................
.............................. CYCLE  159 ..............................
........................................................................

 iter      E             dE          RMSdq      gap      omega  full diag
   1   -111.8253801 -0.111825E+03  0.364E-02    3.40       0.0  T
   2   -111.8253806 -0.450606E-06  0.214E-02    3.40       1.0  T
   3   -111.8253796  0.103534E-05  0.384E-03    3.39       3.0  T
   4   -111.8253808 -0.123315E-05  0.815E-04    3.39      14.1  T
   5   -111.8253808 -0.177566E-07  0.428E-04    3.39      26.8  T
   6   -111.8253808 -0.262492E-08  0.201E-04    3.39      57.2  T
     SCC iter.                  ...        0 min,  0.081 sec
     gradient                   ...        0 min,  0.012 sec
 * total energy  :  -110.2613055 Eh     change       -0.3583103E-04 Eh
   gradient norm :     0.0019423 Eh/α   predicted    -0.1561958E-04 ( -56.41%)
   displ. norm   :     0.2820546 α      lambda       -0.3543866E-04
   maximum displ.:     0.1513806 α      in ANC's #2, #3, #11, ...

........................................................................
.............................. CYCLE  160 ..............................
........................................................................

 iter      E             dE          RMSdq      gap      omega  full diag
   1   -111.8255397 -0.111826E+03  0.425E-02    3.39       0.0  T
   2   -111.8255405 -0.772029E-06  0.251E-02    3.39       1.0  T
   3   -111.8255376  0.286702E-05  0.631E-03    3.39       1.8  T
   4   -111.8255409 -0.330371E-05  0.101E-03    3.39      11.4  T
   5   -111.8255410 -0.268385E-07  0.542E-04    3.39      21.1  T
   6   -111.8255410 -0.335265E-08  0.287E-04    3.39      40.0  T
     SCC iter.                  ...        0 min,  0.077 sec
     gradient                   ...        0 min,  0.013 sec
 * total energy  :  -110.2613468 Eh     change       -0.4129301E-04 Eh
   gradient norm :     0.0016286 Eh/α   predicted    -0.1834830E-04 ( -55.57%)
   displ. norm   :     0.3739341 α      lambda       -0.3885151E-04
   maximum displ.:     0.2006828 α      in ANC's #2, #3, #5, ...

........................................................................
.............................. CYCLE  161 ..............................
........................................................................

 iter      E             dE          RMSdq      gap      omega  full diag
   1   -111.8245798 -0.111825E+03  0.564E-02    3.38       0.0  T
   2   -111.8245812 -0.140577E-05  0.333E-02    3.38       1.0  T
   3   -111.8245760  0.520126E-05  0.838E-03    3.38       1.4  T
   4   -111.8245820 -0.598197E-05  0.127E-03    3.38       9.0  T
   5   -111.8245821 -0.451629E-07  0.681E-04    3.38      16.9  T
   6   -111.8245821 -0.321472E-08  0.383E-04    3.38      29.9  T
     SCC iter.                  ...        0 min,  0.079 sec
     gradient                   ...        0 min,  0.008 sec
 * total energy  :  -110.2613901 Eh     change       -0.4335652E-04 Eh
   gradient norm :     0.0022219 Eh/α   predicted    -0.2063649E-04 ( -52.40%)
   displ. norm   :     0.2457581 α      lambda       -0.5035485E-04
   maximum displ.:     0.1353310 α      in ANC's #2, #3, #5, ...

........................................................................
.............................. CYCLE  162 ..............................
........................................................................

 iter      E             dE          RMSdq      gap      omega  full diag
   1   -111.8254506 -0.111825E+03  0.384E-02    3.37       0.0  T
   2   -111.8254517 -0.106467E-05  0.228E-02    3.37       1.0  T
   3   -111.8254471  0.458169E-05  0.809E-03    3.36       1.4  T
   4   -111.8254524 -0.530906E-05  0.106E-03    3.36      10.8  T
   5   -111.8254524 -0.266864E-07  0.598E-04    3.36      19.2  T
   6   -111.8254524 -0.369612E-08  0.340E-04    3.36      33.8  T
     SCC iter.                  ...        0 min,  0.076 sec
     gradient                   ...        0 min,  0.012 sec
 * total energy  :  -110.2614288 Eh     change       -0.3865999E-04 Eh
   gradient norm :     0.0025092 Eh/α   predicted    -0.2670225E-04 ( -30.93%)
   displ. norm   :     0.3354179 α      lambda       -0.5619502E-04
   maximum displ.:     0.1844615 α      in ANC's #2, #3, #5, ...

........................................................................
.............................. CYCLE  163 ..............................
........................................................................

 iter      E             dE          RMSdq      gap      omega  full diag
   1   -111.8254055 -0.111825E+03  0.510E-02    3.36       0.0  T
   2   -111.8254067 -0.116068E-05  0.301E-02    3.36       1.0  T
   3   -111.8254019  0.475141E-05  0.795E-03    3.36       1.4  T
   4   -111.8254074 -0.547487E-05  0.108E-03    3.36      10.6  T
   5   -111.8254074 -0.259780E-07  0.606E-04    3.36      18.9  T
   6   -111.8254074 -0.265011E-08  0.332E-04    3.36      34.6  T
     SCC iter.                  ...        0 min,  0.077 sec
     gradient                   ...        0 min,  0.007 sec
 * total energy  :  -110.2614768 Eh     change       -0.4804188E-04 Eh
   gradient norm :     0.0029554 Eh/α   predicted    -0.3126421E-04 ( -34.92%)
   displ. norm   :     0.4224597 α      lambda       -0.7956652E-04
   maximum displ.:     0.2340067 α      in ANC's #2, #3, #5, ...

........................................................................
.............................. CYCLE  164 ..............................
........................................................................

 iter      E             dE          RMSdq      gap      omega  full diag
   1   -111.8256321 -0.111826E+03  0.635E-02    3.35       0.0  T
   2   -111.8256334 -0.131096E-05  0.373E-02    3.35       1.0  T
   3   -111.8256299  0.348224E-05  0.675E-03    3.35       1.7  T
   4   -111.8256340 -0.409842E-05  0.119E-03    3.35       9.6  T
   5   -111.8256340 -0.346171E-07  0.625E-04    3.35      18.4  T
   6   -111.8256340 -0.212736E-08  0.311E-04    3.35      36.8  T
     SCC iter.                  ...        0 min,  0.077 sec
     gradient                   ...        0 min,  0.013 sec
 * total energy  :  -110.2615424 Eh     change       -0.6557766E-04 Eh
   gradient norm :     0.0024119 Eh/α   predicted    -0.4688739E-04 ( -28.50%)
   displ. norm   :     0.4802134 α      lambda       -0.8079378E-04
   maximum displ.:     0.2676440 α      in ANC's #2, #3, #5, ...

........................................................................
.............................. CYCLE  165 ..............................
........................................................................

 iter      E             dE          RMSdq      gap      omega  full diag
   1   -111.8254616 -0.111825E+03  0.718E-02    3.34       0.0  T
   2   -111.8254633 -0.171612E-05  0.422E-02    3.34       1.0  T
   3   -111.8254587  0.457886E-05  0.775E-03    3.35       1.5  T
   4   -111.8254641 -0.539822E-05  0.137E-03    3.35       8.3  T
   5   -111.8254641 -0.433781E-07  0.731E-04    3.35      15.7  T
   6   -111.8254641 -0.309299E-08  0.376E-04    3.35      30.5  T
     SCC iter.                  ...        0 min,  0.075 sec
     gradient                   ...        0 min,  0.013 sec
 * total energy  :  -110.2616086 Eh     change       -0.6616498E-04 Eh
   gradient norm :     0.0024881 Eh/α   predicted    -0.4971866E-04 ( -24.86%)
   displ. norm   :     0.4385715 α      lambda       -0.7918709E-04
   maximum displ.:     0.2470421 α      in ANC's #2, #3, #5, ...

........................................................................
.............................. CYCLE  166 ..............................
........................................................................

 iter      E             dE          RMSdq      gap      omega  full diag
   1   -111.8266614 -0.111827E+03  0.636E-02    3.34       0.0  T
   2   -111.8266627 -0.130573E-05  0.373E-02    3.34       1.0  T
   3   -111.8266601  0.256593E-05  0.586E-03    3.35       2.0  T
   4   -111.8266632 -0.308147E-05  0.124E-03    3.34       9.3  T
   5   -111.8266632 -0.454565E-07  0.623E-04    3.34      18.4  T
   6   -111.8266632 -0.196555E-08  0.323E-04    3.34      35.5  T
     SCC iter.                  ...        0 min,  0.074 sec
     gradient                   ...        0 min,  0.015 sec
 * total energy  :  -110.2616717 Eh     change       -0.6316207E-04 Eh
   gradient norm :     0.0026207 Eh/α   predicted    -0.4721126E-04 ( -25.25%)
   displ. norm   :     0.5158118 α      lambda       -0.7987920E-04
   maximum displ.:     0.2907894 α      in ANC's #2, #3, #5, ...

........................................................................
.............................. CYCLE  167 ..............................
........................................................................

 iter      E             dE          RMSdq      gap      omega  full diag
   1   -111.8247843 -0.111825E+03  0.753E-02    3.34       0.0  T
   2   -111.8247862 -0.186638E-05  0.443E-02    3.34       1.0  T
   3   -111.8247819  0.431975E-05  0.736E-03    3.34       1.6  T
   4   -111.8247870 -0.514302E-05  0.142E-03    3.34       8.1  T
   5   -111.8247870 -0.499222E-07  0.761E-04    3.34      15.1  T
   6   -111.8247870 -0.360492E-08  0.412E-04    3.34      27.8  T
     SCC iter.                  ...        0 min,  0.075 sec
     gradient                   ...        0 min,  0.018 sec
 * total energy  :  -110.2617320 Eh     change       -0.6028615E-04 Eh
   gradient norm :     0.0029469 Eh/α   predicted    -0.5057107E-04 ( -16.11%)
   displ. norm   :     0.4119621 α      lambda       -0.1065570E-03
   maximum displ.:     0.2315214 α      in ANC's #2, #3, #5, ...

........................................................................
.............................. CYCLE  168 ..............................
........................................................................

 iter      E             dE          RMSdq      gap      omega  full diag
   1   -111.8284171 -0.111828E+03  0.538E-02    3.34       0.0  T
   2   -111.8284181 -0.101179E-05  0.315E-02    3.34       1.0  T
   3   -111.8284170  0.107588E-05  0.390E-03    3.35       2.9  T
   4   -111.8284184 -0.137380E-05  0.111E-03    3.35      10.4  T
   5   -111.8284185 -0.515360E-07  0.547E-04    3.35      21.0  T
   6   -111.8284185 -0.123184E-08  0.303E-04    3.35      37.8  T
     SCC iter.                  ...        0 min,  0.078 sec
     gradient                   ...        0 min,  0.014 sec
 * total energy  :  -110.2618027 Eh     change       -0.7067108E-04 Eh
   gradient norm :     0.0036086 Eh/α   predicted    -0.6232161E-04 ( -11.81%)
   displ. norm   :     0.5056280 α      lambda       -0.8152160E-04
   maximum displ.:     0.2889306 α      in ANC's #2, #3, #5, ...

........................................................................
.............................. CYCLE  169 ..............................
........................................................................

 iter      E             dE          RMSdq      gap      omega  full diag
   1   -111.8262720 -0.111826E+03  0.706E-02    3.34       0.0  T
   2   -111.8262731 -0.114957E-05  0.413E-02    3.35       1.0  T
   3   -111.8262713  0.178724E-05  0.505E-03    3.35       2.3  T
   4   -111.8262736 -0.227310E-05  0.101E-03    3.35      11.4  T
   5   -111.8262736 -0.205791E-07  0.538E-04    3.35      21.3  T
   6   -111.8262736 -0.702741E-09  0.236E-04    3.35      48.7  T
     SCC iter.                  ...        0 min,  0.078 sec
     gradient                   ...        0 min,  0.012 sec
 * total energy  :  -110.2618669 Eh     change       -0.6425727E-04 Eh
   gradient norm :     0.0039318 Eh/α   predicted    -0.5118372E-04 ( -20.35%)
   displ. norm   :     0.4247431 α      lambda       -0.1110425E-03
   maximum displ.:     0.2403577 α      in ANC's #2, #3, #5, ...

........................................................................
.............................. CYCLE  170 ..............................
........................................................................

 iter      E             dE          RMSdq      gap      omega  full diag
   1   -111.8264084 -0.111826E+03  0.534E-02    3.34       0.0  T
   2   -111.8264093 -0.912739E-06  0.313E-02    3.35       1.0  T
   3   -111.8264082  0.103163E-05  0.372E-03    3.34       3.1  T
   4   -111.8264096 -0.131743E-05  0.968E-04    3.35      11.8  T
   5   -111.8264096 -0.344192E-07  0.493E-04    3.34      23.3  T
   6   -111.8264096 -0.112786E-08  0.266E-04    3.34      43.1  T
     SCC iter.                  ...        0 min,  0.079 sec
     gradient                   ...        0 min,  0.014 sec
 * total energy  :  -110.2619526 Eh     change       -0.8569311E-04 Eh
   gradient norm :     0.0032860 Eh/α   predicted    -0.6554013E-04 ( -23.52%)
   displ. norm   :     0.4767058 α      lambda       -0.1329434E-03
   maximum displ.:     0.2615104 α      in ANC's #2, #3, #5, ...

........................................................................
.............................. CYCLE  171 ..............................
........................................................................

 iter      E             dE          RMSdq      gap      omega  full diag
   1   -111.8269954 -0.111827E+03  0.603E-02    3.35       0.0  T
   2   -111.8269969 -0.148480E-05  0.354E-02    3.35       1.0  T
   3   -111.8269925  0.439703E-05  0.859E-03    3.35       1.3  T
   4   -111.8269978 -0.522211E-05  0.134E-03    3.35       8.5  T
   5   -111.8269978 -0.313283E-07  0.751E-04    3.35      15.3  T
   6   -111.8269978 -0.551994E-08  0.352E-04    3.35      32.6  T
     SCC iter.                  ...        0 min,  0.077 sec
     gradient                   ...        0 min,  0.016 sec
 * total energy  :  -110.2620466 Eh     change       -0.9396831E-04 Eh
   gradient norm :     0.0045503 Eh/α   predicted    -0.8157952E-04 ( -13.18%)
   displ. norm   :     0.4716114 α      lambda       -0.1067987E-03
   maximum displ.:     0.2639358 α      in ANC's #2, #3, #5, ...

........................................................................
.............................. CYCLE  172 ..............................
........................................................................

 iter      E             dE          RMSdq      gap      omega  full diag
   1   -111.8263024 -0.111826E+03  0.584E-02    3.34       0.0  T
   2   -111.8263035 -0.107178E-05  0.343E-02    3.35       1.0  T
   3   -111.8263018  0.164044E-05  0.508E-03    3.34       2.3  T
   4   -111.8263039 -0.204039E-05  0.103E-03    3.35      11.1  T
   5   -111.8263039 -0.272227E-07  0.560E-04    3.35      20.5  T
   6   -111.8263039 -0.109280E-08  0.281E-04    3.35      40.8  T
     SCC iter.                  ...        0 min,  0.078 sec
     gradient                   ...        0 min,  0.014 sec
 * total energy  :  -110.2621300 Eh     change       -0.8339931E-04 Eh
   gradient norm :     0.0048075 Eh/α   predicted    -0.6527965E-04 ( -21.73%)
   displ. norm   :     0.4600392 α      lambda       -0.1369163E-03
   maximum displ.:     0.2487286 α      in ANC's #2, #3, #9, ...

........................................................................
.............................. CYCLE  173 ..............................
........................................................................

 iter      E             dE          RMSdq      gap      omega  full diag
   1   -111.8275650 -0.111828E+03  0.538E-02    3.34       0.0  T
   2   -111.8275662 -0.117227E-05  0.317E-02    3.34       1.0  T
   3   -111.8275652  0.100483E-05  0.439E-03    3.34       2.6  T
   4   -111.8275665 -0.134342E-05  0.122E-03    3.34       9.4  T
   5   -111.8275666 -0.397822E-07  0.665E-04    3.34      17.2  T
   6   -111.8275666 -0.398238E-08  0.318E-04    3.34      36.0  T
     SCC iter.                  ...        0 min,  0.068 sec
     gradient                   ...        0 min,  0.022 sec
 * total energy  :  -110.2622283 Eh     change       -0.9828840E-04 Eh
   gradient norm :     0.0044816 Eh/α   predicted    -0.8295070E-04 ( -15.60%)
   displ. norm   :     0.6444989 α      lambda       -0.1451722E-03
   maximum displ.:     0.3701651 α      in ANC's #2, #3, #5, ...

........................................................................
.............................. CYCLE  174 ..............................
........................................................................

 iter      E             dE          RMSdq      gap      omega  full diag
   1   -111.8239038 -0.111824E+03  0.817E-02    3.34       0.0  T
   2   -111.8239058 -0.199485E-05  0.480E-02    3.34       1.0  T
   3   -111.8238994  0.637151E-05  0.967E-03    3.34       1.2  T
   4   -111.8239069 -0.749871E-05  0.121E-03    3.34       9.5  T
   5   -111.8239069 -0.241499E-07  0.743E-04    3.34      15.4  T
   6   -111.8239069 -0.117685E-07  0.352E-04    3.34      32.6  T
     SCC iter.                  ...        0 min,  0.073 sec
     gradient                   ...        0 min,  0.014 sec
 * total energy  :  -110.2623265 Eh     change       -0.9817926E-04 Eh
   gradient norm :     0.0052601 Eh/α   predicted    -0.1027424E-03 (   4.65%)
   displ. norm   :     0.3438979 α      lambda       -0.1500292E-03
   maximum displ.:     0.1775365 α      in ANC's #2, #3, #7, ...

........................................................................
.............................. CYCLE  175 ..............................
........................................................................

 iter      E             dE          RMSdq      gap      omega  full diag
   1   -111.8278036 -0.111828E+03  0.383E-02    3.34       0.0  T
   2   -111.8278051 -0.145041E-05  0.225E-02    3.34       1.0  T
   3   -111.8278035  0.158022E-05  0.518E-03    3.34       2.2  T
   4   -111.8278055 -0.201805E-05  0.107E-03    3.34      10.7  T
   5   -111.8278055 -0.347440E-07  0.546E-04    3.34      21.0  T
   6   -111.8278055 -0.133295E-08  0.262E-04    3.34      43.9  T
     SCC iter.                  ...        0 min,  0.076 sec
     gradient                   ...        0 min,  0.015 sec
 * total energy  :  -110.2624118 Eh     change       -0.8534265E-04 Eh
   gradient norm :     0.0054785 Eh/α   predicted    -0.8389042E-04 (  -1.70%)
   displ. norm   :     0.5428134 α      lambda       -0.1077148E-03
   maximum displ.:     0.3060495 α      in ANC's #2, #3, #7, ...

........................................................................
.............................. CYCLE  176 ..............................
........................................................................

 iter      E             dE          RMSdq      gap      omega  full diag
   1   -111.8256661 -0.111826E+03  0.629E-02    3.34       0.0  T
   2   -111.8256671 -0.102905E-05  0.370E-02    3.34       1.0  T
   3   -111.8256640  0.306881E-05  0.657E-03    3.34       1.7  T
   4   -111.8256677 -0.365946E-05  0.970E-04    3.34      11.8  T
   5   -111.8256677 -0.105980E-07  0.552E-04    3.34      20.8  T
   6   -111.8256677 -0.497758E-08  0.234E-04    3.34      49.0  T
     SCC iter.                  ...        0 min,  0.114 sec
     gradient                   ...        0 min,  0.018 sec
 * total energy  :  -110.2625016 Eh     change       -0.8976442E-04 Eh
   gradient norm :     0.0049371 Eh/α   predicted    -0.6972965E-04 ( -22.32%)
   displ. norm   :     0.5323120 α      lambda       -0.1678197E-03
   maximum displ.:     0.2918397 α      in ANC's #2, #3, #7, ...

........................................................................
.............................. CYCLE  177 ..............................
........................................................................

 iter      E             dE          RMSdq      gap      omega  full diag
   1   -111.8263889 -0.111826E+03  0.586E-02    3.35       0.0  T
   2   -111.8263903 -0.148441E-05  0.344E-02    3.36       1.0  T
   3   -111.8263863  0.401107E-05  0.701E-03    3.36       1.6  T
   4   -111.8263911 -0.474996E-05  0.122E-03    3.36       9.4  T
   5   -111.8263911 -0.387708E-07  0.676E-04    3.36      17.0  T
   6   -111.8263911 -0.344828E-08  0.362E-04    3.36      31.7  T
     SCC iter.                  ...        0 min,  0.104 sec
     gradient                   ...        0 min,  0.014 sec
 * total energy  :  -110.2626151 Eh     change       -0.1135466E-03 Eh
   gradient norm :     0.0034474 Eh/α   predicted    -0.1076909E-03 (  -5.16%)
   displ. norm   :     0.6182569 α      lambda       -0.1120104E-03
   maximum displ.:     0.3485787 α      in ANC's #2, #3, #7, ...

........................................................................
.............................. CYCLE  178 ..............................
........................................................................

 iter      E             dE          RMSdq      gap      omega  full diag
   1   -111.8244704 -0.111824E+03  0.704E-02    3.35       0.0  T
   2   -111.8244719 -0.143074E-05  0.413E-02    3.36       1.0  T
   3   -111.8244658  0.606454E-05  0.906E-03    3.36       1.3  T
   4   -111.8244729 -0.710035E-05  0.105E-03    3.36      10.9  T
   5   -111.8244729 -0.742543E-08  0.669E-04    3.36      17.1  T
   6   -111.8244729 -0.117127E-07  0.214E-04    3.36      53.7  T
     SCC iter.                  ...        0 min,  0.090 sec
     gradient                   ...        0 min,  0.020 sec
 * total energy  :  -110.2626941 Eh     change       -0.7901075E-04 Eh
   gradient norm :     0.0046880 Eh/α   predicted    -0.7741946E-04 (  -2.01%)
   displ. norm   :     0.4059049 α      lambda       -0.1102532E-03
   maximum displ.:     0.2113966 α      in ANC's #2, #7, #9, ...

........................................................................
.............................. CYCLE  179 ..............................
........................................................................

 iter      E             dE          RMSdq      gap      omega  full diag
   1   -111.8270431 -0.111827E+03  0.436E-02    3.36       0.0  T
   2   -111.8270438 -0.701376E-06  0.257E-02    3.36       1.0  T
   3   -111.8270418  0.203725E-05  0.512E-03    3.36       2.2  T
   4   -111.8270442 -0.242993E-05  0.798E-04    3.36      14.4  T
   5   -111.8270442 -0.870362E-08  0.458E-04    3.36      25.0  T
   6   -111.8270442 -0.298698E-08  0.182E-04    3.36      62.9  T
     SCC iter.                  ...        0 min,  0.090 sec
     gradient                   ...        0 min,  0.017 sec
 * total energy  :  -110.2627751 Eh     change       -0.8092680E-04 Eh
   gradient norm :     0.0046398 Eh/α   predicted    -0.6421129E-04 ( -20.66%)
   displ. norm   :     0.5804086 α      lambda       -0.1421598E-03
   maximum displ.:     0.3083033 α      in ANC's #2, #7, #9, ...

........................................................................
.............................. CYCLE  180 ..............................
........................................................................

 iter      E             dE          RMSdq      gap      omega  full diag
   1   -111.8268391 -0.111827E+03  0.640E-02    3.36       0.0  T
   2   -111.8268408 -0.171955E-05  0.378E-02    3.36       1.0  T
   3   -111.8268332  0.765602E-05  0.102E-02    3.36       1.1  T
   4   -111.8268420 -0.884310E-05  0.123E-03    3.36       9.3  T
   5   -111.8268420 -0.367437E-07  0.688E-04    3.36      16.7  T
   6   -111.8268421 -0.937473E-08  0.318E-04    3.36      36.1  T
     SCC iter.                  ...        0 min,  0.091 sec
     gradient                   ...        0 min,  0.015 sec
 * total energy  :  -110.2628679 Eh     change       -0.9285627E-04 Eh
   gradient norm :     0.0047712 Eh/α   predicted    -0.9502788E-04 (   2.34%)
   displ. norm   :     0.4685797 α      lambda       -0.1178910E-03
   maximum displ.:     0.2430161 α      in ANC's #2, #7, #9, ...

........................................................................
.............................. CYCLE  181 ..............................
........................................................................

 iter      E             dE          RMSdq      gap      omega  full diag
   1   -111.8277130 -0.111828E+03  0.528E-02    3.36       0.0  T
   2   -111.8277142 -0.127320E-05  0.311E-02    3.36       1.0  T
   3   -111.8277110  0.321257E-05  0.668E-03    3.36       1.7  T
   4   -111.8277148 -0.378783E-05  0.105E-03    3.36      11.0  T
   5   -111.8277148 -0.327311E-07  0.596E-04    3.36      19.2  T
   6   -111.8277148 -0.486983E-08  0.279E-04    3.36      41.1  T
     SCC iter.                  ...        0 min,  0.083 sec
     gradient                   ...        0 min,  0.020 sec
 * total energy  :  -110.2629519 Eh     change       -0.8400579E-04 Eh
   gradient norm :     0.0038036 Eh/α   predicted    -0.7188941E-04 ( -14.42%)
   displ. norm   :     0.5183729 α      lambda       -0.1037532E-03
   maximum displ.:     0.2809412 α      in ANC's #2, #7, #9, ...

........................................................................
.............................. CYCLE  182 ..............................
........................................................................

 iter      E             dE          RMSdq      gap      omega  full diag
   1   -111.8248157 -0.111825E+03  0.613E-02    3.36       0.0  T
   2   -111.8248173 -0.151389E-05  0.361E-02    3.36       1.0  T
   3   -111.8248112  0.602790E-05  0.922E-03    3.36       1.2  T
   4   -111.8248182 -0.699023E-05  0.113E-03    3.36      10.1  T
   5   -111.8248182 -0.313174E-07  0.614E-04    3.36      18.7  T
   6   -111.8248183 -0.771668E-08  0.295E-04    3.36      38.9  T
     SCC iter.                  ...        0 min,  0.087 sec
     gradient                   ...        0 min,  0.017 sec
 * total energy  :  -110.2630007 Eh     change       -0.4874842E-04 Eh
   gradient norm :     0.0064606 Eh/α   predicted    -0.6582118E-04 (  35.02%)
   displ. norm   :     0.2511342 α      lambda       -0.1270940E-03
   maximum displ.:     0.1175024 α      in ANC's #7, #2, #9, ...

........................................................................
.............................. CYCLE  183 ..............................
........................................................................

 iter      E             dE          RMSdq      gap      omega  full diag
   1   -111.8290812 -0.111829E+03  0.310E-02    3.36       0.0  T
   2   -111.8290821 -0.856922E-06  0.182E-02    3.36       1.0  T
   3   -111.8290810  0.107208E-05  0.452E-03    3.36       2.5  T
   4   -111.8290823 -0.130047E-05  0.949E-04    3.36      12.1  T
   5   -111.8290823 -0.408070E-07  0.470E-04    3.36      24.4  T
   6   -111.8290823 -0.306605E-08  0.235E-04    3.36      48.9  T
     SCC iter.                  ...        0 min,  0.089 sec
     gradient                   ...        0 min,  0.014 sec
 * total energy  :  -110.2630722 Eh     change       -0.7149201E-04 Eh
   gradient norm :     0.0059274 Eh/α   predicted    -0.6755808E-04 (  -5.50%)
   displ. norm   :     0.2661980 α      lambda       -0.1095424E-03
   maximum displ.:     0.1469977 α      in ANC's #2, #7, #9, ...
 * RMSD in coord.:     1.0778090 α      energy gain  -0.2157068E-02 Eh

generating ANC from exact Hessian ...
Using Lindh-Hessian (1995)
 Shifting diagonal of input Hessian by   1.009761817060032E-002
 Lowest  eigenvalues of input Hessian
    0.010000    0.010048    0.000000    0.000000    0.000000    0.000000
    0.000000    0.000000    0.010214    0.010242    0.010300    0.010402
    0.010475    0.010553    0.010571    0.010777    0.010879    0.011069
 Highest eigenvalues
    2.035822    2.075960    2.078801    2.205230    2.317158    2.347949
 

........................................................................
.............................. CYCLE  184 ..............................
........................................................................

 iter      E             dE          RMSdq      gap      omega  full diag
   1   -111.8278163 -0.111828E+03  0.363E-02    3.37       0.0  T
   2   -111.8278174 -0.113395E-05  0.213E-02    3.37       1.0  T
   3   -111.8278145  0.296156E-05  0.673E-03    3.37       1.7  T
   4   -111.8278179 -0.342423E-05  0.111E-03    3.37      10.3  T
   5   -111.8278179 -0.619618E-07  0.475E-04    3.37      24.2  T
   6   -111.8278179 -0.111291E-08  0.277E-04    3.37      41.4  T
     SCC iter.                  ...        0 min,  0.078 sec
     gradient                   ...        0 min,  0.015 sec
 * total energy  :  -110.2631360 Eh     change       -0.6382925E-04 Eh
   gradient norm :     0.0058013 Eh/α   predicted     0.0000000E+00 (-100.00%)
   displ. norm   :     0.0510105 α      lambda       -0.7797685E-04
   maximum displ.:     0.0282314 α      in ANC's #12, #7, #1, ...

........................................................................
.............................. CYCLE  185 ..............................
........................................................................

 iter      E             dE          RMSdq      gap      omega  full diag
   1   -111.8289001 -0.111829E+03  0.127E-02    3.37       0.0  T
   2   -111.8289003 -0.243180E-06  0.753E-03    3.37       1.5  T
   3   -111.8289000  0.374182E-06  0.248E-03    3.37       4.6  T
   4   -111.8289004 -0.456259E-06  0.536E-04    3.37      21.4  T
   5   -111.8289004 -0.133487E-07  0.250E-04    3.37      45.8  T
     SCC iter.                  ...        0 min,  0.076 sec
     gradient                   ...        0 min,  0.015 sec
 * total energy  :  -110.2631938 Eh     change       -0.5784059E-04 Eh
   gradient norm :     0.0018567 Eh/α   predicted    -0.3938585E-04 ( -31.91%)
   displ. norm   :     0.1637133 α      lambda       -0.7119253E-04
   maximum displ.:     0.0932767 α      in ANC's #12, #7, #1, ...

........................................................................
.............................. CYCLE  186 ..............................
........................................................................

 iter      E             dE          RMSdq      gap      omega  full diag
   1   -111.8300567 -0.111830E+03  0.328E-02    3.37       0.0  T
   2   -111.8300576 -0.852600E-06  0.193E-02    3.37       1.0  T
   3   -111.8300554  0.212097E-05  0.546E-03    3.37       2.1  T
   4   -111.8300579 -0.247187E-05  0.105E-03    3.37      10.9  T
   5   -111.8300580 -0.510305E-07  0.486E-04    3.37      23.6  T
   6   -111.8300580 -0.401464E-08  0.257E-04    3.37      44.6  T
     SCC iter.                  ...        0 min,  0.085 sec
     gradient                   ...        0 min,  0.019 sec
 * total energy  :  -110.2632576 Eh     change       -0.6377271E-04 Eh
   gradient norm :     0.0046031 Eh/α   predicted    -0.3602350E-04 ( -43.51%)
   displ. norm   :     0.1124911 α      lambda       -0.5232764E-04
   maximum displ.:     0.0603334 α      in ANC's #12, #7, #1, ...

........................................................................
.............................. CYCLE  187 ..............................
........................................................................

 iter      E             dE          RMSdq      gap      omega  full diag
   1   -111.8298487 -0.111830E+03  0.212E-02    3.37       0.0  T
   2   -111.8298489 -0.158705E-06  0.125E-02    3.37       1.0  T
   3   -111.8298482  0.633835E-06  0.289E-03    3.37       4.0  T
   4   -111.8298490 -0.723771E-06  0.463E-04    3.37      24.8  T
   5   -111.8298490 -0.828736E-08  0.239E-04    3.37      48.1  T
     SCC iter.                  ...        0 min,  0.074 sec
     gradient                   ...        0 min,  0.014 sec
 * total energy  :  -110.2633075 Eh     change       -0.4985530E-04 Eh
   gradient norm :     0.0045809 Eh/α   predicted    -0.2649516E-04 ( -46.86%)
   displ. norm   :     0.4428041 α      lambda       -0.2119674E-03
   maximum displ.:     0.2234553 α      in ANC's #12, #7, #10, ...

........................................................................
.............................. CYCLE  188 ..............................
........................................................................

 iter      E             dE          RMSdq      gap      omega  full diag
   1   -111.8276398 -0.111828E+03  0.822E-02    3.37       0.0  T
   2   -111.8276419 -0.209540E-05  0.484E-02    3.36       1.0  T
   3   -111.8276319  0.100175E-04  0.114E-02    3.36       1.0  T
   4   -111.8276433 -0.114381E-04  0.170E-03    3.36       6.8  T
   5   -111.8276434 -0.909482E-07  0.950E-04    3.36      12.1  T
   6   -111.8276434 -0.178426E-07  0.395E-04    3.36      29.0  T
     SCC iter.                  ...        0 min,  0.080 sec
     gradient                   ...        0 min,  0.021 sec
 * total energy  :  -110.2634851 Eh     change       -0.1775946E-03 Eh
   gradient norm :     0.0032518 Eh/α   predicted    -0.1267702E-03 ( -28.62%)
   displ. norm   :     0.5729837 α      lambda       -0.2115999E-03
   maximum displ.:     0.2852862 α      in ANC's #12, #7, #1, ...

........................................................................
.............................. CYCLE  189 ..............................
........................................................................

 iter      E             dE          RMSdq      gap      omega  full diag
   1   -111.8237882 -0.111824E+03  0.103E-01    3.37       0.0  T
   2   -111.8237915 -0.322706E-05  0.607E-02    3.36       1.0  T
   3   -111.8237725  0.189876E-04  0.154E-02    3.36       1.0  T
   4   -111.8237940 -0.215272E-04  0.202E-03    3.36       5.7  T
   5   -111.8237941 -0.130808E-06  0.111E-03    3.36      10.3  T
   6   -111.8237941 -0.262476E-07  0.463E-04    3.36      24.8  T
   7   -111.8237941 -0.220642E-08  0.176E-04    3.36      65.3  T
     SCC iter.                  ...        0 min,  0.103 sec
     gradient                   ...        0 min,  0.014 sec
 * total energy  :  -110.2636318 Eh     change       -0.1467876E-03 Eh
   gradient norm :     0.0057721 Eh/α   predicted    -0.1405410E-03 (  -4.26%)
   displ. norm   :     0.3268941 α      lambda       -0.1341774E-03
   maximum displ.:     0.1502707 α      in ANC's #12, #7, #1, ...

........................................................................
.............................. CYCLE  190 ..............................
........................................................................

 iter      E             dE          RMSdq      gap      omega  full diag
   1   -111.8241980 -0.111824E+03  0.543E-02    3.36       0.0  T
   2   -111.8241988 -0.825447E-06  0.319E-02    3.36       1.0  T
   3   -111.8241943  0.450825E-05  0.768E-03    3.36       1.5  T
   4   -111.8241995 -0.514863E-05  0.103E-03    3.36      11.2  T
   5   -111.8241995 -0.259894E-07  0.609E-04    3.36      18.8  T
   6   -111.8241995 -0.818079E-08  0.243E-04    3.36      47.3  T
     SCC iter.                  ...        0 min,  0.083 sec
     gradient                   ...        0 min,  0.014 sec
 * total energy  :  -110.2637477 Eh     change       -0.1158119E-03 Eh
   gradient norm :     0.0062343 Eh/α   predicted    -0.7425800E-04 ( -35.88%)
   displ. norm   :     0.4461430 α      lambda       -0.2966559E-03
   maximum displ.:     0.2051987 α      in ANC's #7, #12, #1, ...

........................................................................
.............................. CYCLE  191 ..............................
........................................................................

 iter      E             dE          RMSdq      gap      omega  full diag
   1   -111.8296419 -0.111830E+03  0.680E-02    3.36       0.0  T
   2   -111.8296437 -0.174666E-05  0.400E-02    3.36       1.0  T
   3   -111.8296383  0.538465E-05  0.894E-03    3.36       1.3  T
   4   -111.8296446 -0.633246E-05  0.157E-03    3.36       7.3  T
   5   -111.8296447 -0.692999E-07  0.894E-04    3.36      12.8  T
   6   -111.8296447 -0.138059E-07  0.385E-04    3.36      29.8  T
     SCC iter.                  ...        0 min,  0.090 sec
     gradient                   ...        0 min,  0.014 sec
 * total energy  :  -110.2639680 Eh     change       -0.2203729E-03 Eh
   gradient norm :     0.0056584 Eh/α   predicted    -0.1778543E-03 ( -19.29%)
   displ. norm   :     0.7079826 α      lambda       -0.3046817E-03
   maximum displ.:     0.3356776 α      in ANC's #7, #12, #1, ...

........................................................................
.............................. CYCLE  192 ..............................
........................................................................

 iter      E             dE          RMSdq      gap      omega  full diag
   1   -111.8264225 -0.111826E+03  0.112E-01    3.36       0.0  T
   2   -111.8264259 -0.340992E-05  0.660E-02    3.35       1.0  T
   3   -111.8264107  0.152171E-04  0.145E-02    3.35       1.0  T
   4   -111.8264282 -0.174905E-04  0.217E-03    3.35       5.3  T
   5   -111.8264283 -0.792571E-07  0.124E-03    3.35       9.2  T
   6   -111.8264283 -0.341964E-07  0.560E-04    3.35      20.5  T
   7   -111.8264283 -0.758135E-08  0.209E-04    3.35      54.9  T
     SCC iter.                  ...        0 min,  0.105 sec
     gradient                   ...        0 min,  0.013 sec
 * total energy  :  -110.2642138 Eh     change       -0.2458002E-03 Eh
   gradient norm :     0.0060797 Eh/α   predicted    -0.2287231E-03 (  -6.95%)
   displ. norm   :     0.5479871 α      lambda       -0.2562211E-03
   maximum displ.:     0.2855577 α      in ANC's #7, #1, #12, ...

........................................................................
.............................. CYCLE  193 ..............................
........................................................................

 iter      E             dE          RMSdq      gap      omega  full diag
   1   -111.8261066 -0.111826E+03  0.799E-02    3.35       0.0  T
   2   -111.8261089 -0.224152E-05  0.469E-02    3.35       1.0  T
   3   -111.8260947  0.142091E-04  0.141E-02    3.34       1.0  T
   4   -111.8261108 -0.161346E-04  0.154E-03    3.34       7.4  T
   5   -111.8261108 -0.549779E-07  0.862E-04    3.34      13.3  T
   6   -111.8261109 -0.148957E-07  0.438E-04    3.34      26.2  T
     SCC iter.                  ...        0 min,  0.089 sec
     gradient                   ...        0 min,  0.015 sec
 * total energy  :  -110.2644192 Eh     change       -0.2053501E-03 Eh
   gradient norm :     0.0052897 Eh/α   predicted    -0.1665858E-03 ( -18.88%)
   displ. norm   :     0.5280763 α      lambda       -0.3206709E-03
   maximum displ.:     0.3039419 α      in ANC's #7, #1, #5, ...

........................................................................
.............................. CYCLE  194 ..............................
........................................................................

 iter      E             dE          RMSdq      gap      omega  full diag
   1   -111.8306506 -0.111831E+03  0.704E-02    3.34       0.0  T
   2   -111.8306533 -0.272986E-05  0.415E-02    3.33       1.0  T
   3   -111.8306522  0.116940E-05  0.611E-03    3.33       1.9  T
   4   -111.8306541 -0.194200E-05  0.203E-03    3.33       5.6  T
   5   -111.8306542 -0.858434E-07  0.108E-03    3.33      10.6  T
   6   -111.8306542 -0.266458E-07  0.466E-04    3.33      24.6  T
   7   -111.8306542 -0.590379E-08  0.168E-04    3.33      68.1  T
     SCC iter.                  ...        0 min,  0.102 sec
     gradient                   ...        0 min,  0.015 sec
 * total energy  :  -110.2646306 Eh     change       -0.2113757E-03 Eh
   gradient norm :     0.0084990 Eh/α   predicted    -0.2050474E-03 (  -2.99%)
   displ. norm   :     0.6392598 α      lambda       -0.3208639E-03
   maximum displ.:     0.3724104 α      in ANC's #7, #1, #5, ...

........................................................................
.............................. CYCLE  195 ..............................
........................................................................

 iter      E             dE          RMSdq      gap      omega  full diag
   1   -111.8276587 -0.111828E+03  0.886E-02    3.33       0.0  T
   2   -111.8276614 -0.269116E-05  0.520E-02    3.33       1.0  T
   3   -111.8276481  0.132994E-04  0.134E-02    3.32       1.0  T
   4   -111.8276633 -0.152198E-04  0.172E-03    3.33       6.7  T
   5   -111.8276633 -0.639644E-07  0.985E-04    3.33      11.6  T
   6   -111.8276634 -0.193962E-07  0.475E-04    3.33      24.1  T
     SCC iter.                  ...        0 min,  0.090 sec
     gradient                   ...        0 min,  0.007 sec
 * total energy  :  -110.2648929 Eh     change       -0.2623123E-03 Eh
   gradient norm :     0.0060835 Eh/α   predicted    -0.2259963E-03 ( -13.84%)
   displ. norm   :     0.6024239 α      lambda       -0.3615274E-03
   maximum displ.:     0.3934740 α      in ANC's #7, #1, #5, ...

........................................................................
.............................. CYCLE  196 ..............................
........................................................................

 iter      E             dE          RMSdq      gap      omega  full diag
   1   -111.8295917 -0.111830E+03  0.722E-02    3.33       0.0  T
   2   -111.8295942 -0.246651E-05  0.423E-02    3.32       1.0  T
   3   -111.8295907  0.345794E-05  0.731E-03    3.32       1.6  T
   4   -111.8295951 -0.438881E-05  0.157E-03    3.32       7.3  T
   5   -111.8295952 -0.612192E-07  0.916E-04    3.32      12.5  T
   6   -111.8295952 -0.170329E-07  0.417E-04    3.32      27.5  T
     SCC iter.                  ...        0 min,  0.089 sec
     gradient                   ...        0 min,  0.015 sec
 * total energy  :  -110.2651550 Eh     change       -0.2620840E-03 Eh
   gradient norm :     0.0104951 Eh/α   predicted    -0.2463695E-03 (  -6.00%)
   displ. norm   :     0.6814852 α      lambda       -0.5488424E-03
   maximum displ.:     0.4478432 α      in ANC's #7, #1, #5, ...

........................................................................
.............................. CYCLE  197 ..............................
........................................................................

 iter      E             dE          RMSdq      gap      omega  full diag
   1   -111.8227382 -0.111823E+03  0.931E-02    3.30       0.0  T
   2   -111.8227444 -0.617230E-05  0.551E-02    3.29       1.0  T
   3   -111.8227404  0.394736E-05  0.101E-02    3.28       1.1  T
   4   -111.8227463 -0.590220E-05  0.305E-03    3.28       3.8  T
   5   -111.8227465 -0.171926E-06  0.132E-03    3.28       8.7  T
   6   -111.8227465 -0.421571E-07  0.625E-04    3.28      18.4  T
   7   -111.8227465 -0.665223E-08  0.273E-04    3.28      42.0  T
     SCC iter.                  ...        0 min,  0.103 sec
     gradient                   ...        0 min,  0.016 sec
 * total energy  :  -110.2654194 Eh     change       -0.2644567E-03 Eh
   gradient norm :     0.0138707 Eh/α   predicted    -0.4018731E-03 (  51.96%)
   displ. norm   :     0.3351787 α      lambda       -0.4350360E-03
   maximum displ.:     0.2346116 α      in ANC's #7, #1, #5, ...

........................................................................
.............................. CYCLE  198 ..............................
........................................................................

 iter      E             dE          RMSdq      gap      omega  full diag
   1   -111.8283943 -0.111828E+03  0.347E-02    3.28       0.0  T
   2   -111.8283961 -0.182356E-05  0.206E-02    3.28       1.0  T
   3   -111.8283942  0.185053E-05  0.599E-03    3.28       1.9  T
   4   -111.8283967 -0.245293E-05  0.146E-03    3.28       7.9  T
   5   -111.8283967 -0.485482E-07  0.713E-04    3.28      16.1  T
   6   -111.8283967 -0.553642E-08  0.339E-04    3.28      33.9  T
     SCC iter.                  ...        0 min,  0.084 sec
     gradient                   ...        0 min,  0.017 sec
 * total energy  :  -110.2657418 Eh     change       -0.3223645E-03 Eh
   gradient norm :     0.0067942 Eh/α   predicted    -0.2419560E-03 ( -24.94%)
   displ. norm   :     0.7597223 α      lambda       -0.4424511E-03
   maximum displ.:     0.5119625 α      in ANC's #7, #1, #5, ...

........................................................................
.............................. CYCLE  199 ..............................
........................................................................

 iter      E             dE          RMSdq      gap      omega  full diag
   1   -111.8248840 -0.111825E+03  0.885E-02    3.28       0.0  T
   2   -111.8248914 -0.747933E-05  0.522E-02    3.28       1.0  T
   3   -111.8248620  0.294540E-04  0.225E-02    3.26       1.0  T
   4   -111.8248965 -0.345192E-04  0.252E-03    3.27       4.5  T
   5   -111.8248967 -0.204446E-06  0.123E-03    3.27       9.3  T
   6   -111.8248967 -0.198104E-07  0.751E-04    3.27      15.3  T
   7   -111.8248967 -0.133229E-07  0.222E-04    3.27      51.7  T
     SCC iter.                  ...        0 min,  0.098 sec
     gradient                   ...        0 min,  0.017 sec
 * total energy  :  -110.2660268 Eh     change       -0.2850218E-03 Eh
   gradient norm :     0.0088939 Eh/α   predicted    -0.3489146E-03 (  22.42%)
   displ. norm   :     0.5488324 α      lambda       -0.5884410E-03
   maximum displ.:     0.3682150 α      in ANC's #7, #1, #10, ...

........................................................................
.............................. CYCLE  200 ..............................
........................................................................

 iter      E             dE          RMSdq      gap      omega  full diag
   1   -111.8381833 -0.111838E+03  0.555E-02    3.26       0.0  T
   2   -111.8381884 -0.511952E-05  0.330E-02    3.25       1.0  T
   3   -111.8381838  0.456829E-05  0.100E-02    3.25       1.1  T
   4   -111.8381899 -0.608210E-05  0.223E-03    3.25       5.1  T
   5   -111.8381901 -0.136988E-06  0.114E-03    3.25      10.0  T
   6   -111.8381901 -0.136754E-07  0.635E-04    3.25      18.1  T
   7   -111.8381901 -0.146144E-07  0.207E-04    3.25      55.5  T
     SCC iter.                  ...        0 min,  0.103 sec
     gradient                   ...        0 min,  0.008 sec
 * total energy  :  -110.2662592 Eh     change       -0.2323842E-03 Eh
   gradient norm :     0.0125773 Eh/α   predicted    -0.3828504E-03 (  64.75%)
   displ. norm   :     0.5860124 α      lambda       -0.5622599E-03
   maximum displ.:     0.3902948 α      in ANC's #7, #1, #5, ...

........................................................................
.............................. CYCLE  201 ..............................
........................................................................

 iter      E             dE          RMSdq      gap      omega  full diag
   1   -111.8302551 -0.111830E+03  0.748E-02    3.25       0.0  T
   2   -111.8302598 -0.463851E-05  0.444E-02    3.24       1.0  T
   3   -111.8302560  0.378995E-05  0.869E-03    3.23       1.3  T
   4   -111.8302612 -0.520076E-05  0.242E-03    3.23       4.7  T
   5   -111.8302613 -0.116937E-06  0.113E-03    3.23      10.2  T
   6   -111.8302613 -0.279340E-07  0.542E-04    3.23      21.2  T
   7   -111.8302613 -0.493202E-08  0.255E-04    3.23      45.0  T
     SCC iter.                  ...        0 min,  0.103 sec
     gradient                   ...        0 min,  0.014 sec
 * total energy  :  -110.2665955 Eh     change       -0.3363623E-03 Eh
   gradient norm :     0.0122284 Eh/α   predicted    -0.3776738E-03 (  12.28%)
   displ. norm   :     0.4933318 α      lambda       -0.4416937E-03
   maximum displ.:     0.3081731 α      in ANC's #7, #1, #5, ...

........................................................................
.............................. CYCLE  202 ..............................
........................................................................

 iter      E             dE          RMSdq      gap      omega  full diag
   1   -111.8252895 -0.111825E+03  0.576E-02    3.23       0.0  T
   2   -111.8252910 -0.148657E-05  0.338E-02    3.23       1.0  T
   3   -111.8252890  0.190725E-05  0.555E-03    3.22       2.1  T
   4   -111.8252915 -0.245559E-05  0.137E-03    3.22       8.3  T
   5   -111.8252916 -0.576421E-07  0.806E-04    3.22      14.2  T
   6   -111.8252916 -0.935458E-08  0.372E-04    3.22      30.8  T
     SCC iter.                  ...        0 min,  0.081 sec
     gradient                   ...        0 min,  0.023 sec
 * total energy  :  -110.2668942 Eh     change       -0.2986990E-03 Eh
   gradient norm :     0.0068556 Eh/α   predicted    -0.2745986E-03 (  -8.07%)
   displ. norm   :     0.5575460 α      lambda       -0.4202396E-03
   maximum displ.:     0.3580667 α      in ANC's #7, #1, #5, ...

........................................................................
.............................. CYCLE  203 ..............................
........................................................................

 iter      E             dE          RMSdq      gap      omega  full diag
   1   -111.8255919 -0.111826E+03  0.547E-02    3.21       0.0  T
   2   -111.8255944 -0.249991E-05  0.326E-02    3.21       1.0  T
   3   -111.8255924  0.196427E-05  0.596E-03    3.20       1.9  T
   4   -111.8255950 -0.251202E-05  0.191E-03    3.20       6.0  T
   5   -111.8255951 -0.152613E-06  0.917E-04    3.20      12.5  T
   6   -111.8255951 -0.111127E-07  0.449E-04    3.20      25.6  T
     SCC iter.                  ...        0 min,  0.085 sec
     gradient                   ...        0 min,  0.018 sec
 * total energy  :  -110.2672378 Eh     change       -0.3435428E-03 Eh
   gradient norm :     0.0072100 Eh/α   predicted    -0.2754431E-03 ( -19.82%)
   displ. norm   :     0.5989051 α      lambda       -0.5812772E-03
   maximum displ.:     0.3189709 α      in ANC's #7, #1, #10, ...

........................................................................
.............................. CYCLE  204 ..............................
........................................................................

 iter      E             dE          RMSdq      gap      omega  full diag
   1   -111.8336545 -0.111834E+03  0.626E-02    3.20       0.0  T
   2   -111.8336573 -0.281720E-05  0.371E-02    3.20       1.0  T
   3   -111.8336555  0.186772E-05  0.696E-03    3.20       1.6  T
   4   -111.8336583 -0.285582E-05  0.212E-03    3.20       5.4  T
   5   -111.8336584 -0.795938E-07  0.112E-03    3.20      10.2  T
   6   -111.8336584 -0.242340E-07  0.450E-04    3.20      25.5  T
   7   -111.8336584 -0.351891E-08  0.200E-04    3.20      57.4  T
     SCC iter.                  ...        0 min,  0.104 sec
     gradient                   ...        0 min,  0.014 sec
 * total energy  :  -110.2675801 Eh     change       -0.3423132E-03 Eh
   gradient norm :     0.0086977 Eh/α   predicted    -0.3948876E-03 (  15.36%)
   displ. norm   :     0.7472704 α      lambda       -0.5503880E-03
   maximum displ.:     0.4976646 α      in ANC's #7, #1, #3, ...

........................................................................
.............................. CYCLE  205 ..............................
........................................................................

 iter      E             dE          RMSdq      gap      omega  full diag
   1   -111.8278849 -0.111828E+03  0.800E-02    3.20       0.0  T
   2   -111.8278923 -0.745255E-05  0.476E-02    3.20       1.0  T
   3   -111.8278737  0.186241E-04  0.177E-02    3.19       1.0  T
   4   -111.8278956 -0.218793E-04  0.292E-03    3.19       3.9  T
   5   -111.8278959 -0.297736E-06  0.130E-03    3.19       8.8  T
   6   -111.8278959 -0.834859E-08  0.733E-04    3.19      15.6  T
   7   -111.8278959 -0.173922E-07  0.267E-04    3.19      43.0  T
     SCC iter.                  ...        0 min,  0.104 sec
     gradient                   ...        0 min,  0.014 sec
 * total energy  :  -110.2679453 Eh     change       -0.3651668E-03 Eh
   gradient norm :     0.0103049 Eh/α   predicted    -0.4288717E-03 (  17.45%)
   displ. norm   :     0.5380851 α      lambda       -0.3438045E-03
   maximum displ.:     0.3154455 α      in ANC's #7, #1, #3, ...

........................................................................
.............................. CYCLE  206 ..............................
........................................................................

 iter      E             dE          RMSdq      gap      omega  full diag
   1   -111.8262917 -0.111826E+03  0.541E-02    3.18       0.0  T
   2   -111.8262932 -0.145788E-05  0.319E-02    3.17       1.0  T
   3   -111.8262919  0.132704E-05  0.503E-03    3.17       2.3  T
   4   -111.8262937 -0.181989E-05  0.138E-03    3.17       8.3  T
   5   -111.8262937 -0.358913E-07  0.783E-04    3.17      14.6  T
   6   -111.8262937 -0.123142E-07  0.355E-04    3.17      32.3  T
     SCC iter.                  ...        0 min,  0.090 sec
     gradient                   ...        0 min,  0.014 sec
 * total energy  :  -110.2682039 Eh     change       -0.2586644E-03 Eh
   gradient norm :     0.0099806 Eh/α   predicted    -0.2216766E-03 ( -14.30%)
   displ. norm   :     0.5001691 α      lambda       -0.5173465E-03
   maximum displ.:     0.2671242 α      in ANC's #1, #7, #10, ...

........................................................................
.............................. CYCLE  207 ..............................
........................................................................

 iter      E             dE          RMSdq      gap      omega  full diag
   1   -111.8305495 -0.111831E+03  0.626E-02    3.15       0.0  T
   2   -111.8305544 -0.482228E-05  0.367E-02    3.14       1.0  T
   3   -111.8305412  0.131355E-04  0.178E-02    3.14       1.0  T
   4   -111.8305577 -0.164977E-04  0.210E-03    3.14       5.5  T
   5   -111.8305579 -0.157516E-06  0.113E-03    3.14      10.2  T
   6   -111.8305579 -0.129438E-07  0.475E-04    3.14      24.1  T
   7   -111.8305579 -0.774253E-08  0.178E-04    3.14      64.5  T
     SCC iter.                  ...        0 min,  0.103 sec
     gradient                   ...        0 min,  0.014 sec
 * total energy  :  -110.2684346 Eh     change       -0.2306570E-03 Eh
   gradient norm :     0.0113263 Eh/α   predicted    -0.3233908E-03 (  40.20%)
   displ. norm   :     0.5516345 α      lambda       -0.4417275E-03
   maximum displ.:     0.3197298 α      in ANC's #7, #1, #3, ...

........................................................................
.............................. CYCLE  208 ..............................
........................................................................

 iter      E             dE          RMSdq      gap      omega  full diag
   1   -111.8274581 -0.111827E+03  0.589E-02    3.14       0.0  T
   2   -111.8274606 -0.248860E-05  0.344E-02    3.15       1.0  T
   3   -111.8274502  0.103779E-04  0.143E-02    3.14       1.0  T
   4   -111.8274625 -0.123000E-04  0.162E-03    3.14       7.1  T
   5   -111.8274626 -0.594464E-07  0.951E-04    3.14      12.1  T
   6   -111.8274626 -0.100956E-07  0.467E-04    3.14      24.6  T
     SCC iter.                  ...        0 min,  0.087 sec
     gradient                   ...        0 min,  0.015 sec
 * total energy  :  -110.2686671 Eh     change       -0.2324777E-03 Eh
   gradient norm :     0.0085360 Eh/α   predicted    -0.2880753E-03 (  23.92%)
   displ. norm   :     0.3629005 α      lambda       -0.3296688E-03
   maximum displ.:     0.2293110 α      in ANC's #1, #7, #3, ...

........................................................................
.............................. CYCLE  209 ..............................
........................................................................

 iter      E             dE          RMSdq      gap      omega  full diag
   1   -111.8296621 -0.111830E+03  0.432E-02    3.15       0.0  T
   2   -111.8296635 -0.140654E-05  0.257E-02    3.15       1.0  T
   3   -111.8296583  0.516398E-05  0.969E-03    3.15       1.2  T
   4   -111.8296644 -0.606445E-05  0.141E-03    3.15       8.2  T
   5   -111.8296645 -0.694901E-07  0.677E-04    3.15      16.9  T
   6   -111.8296645 -0.254607E-08  0.334E-04    3.15      34.4  T
     SCC iter.                  ...        0 min,  0.087 sec
     gradient                   ...        0 min,  0.014 sec
 * total energy  :  -110.2688058 Eh     change       -0.1387008E-03 Eh
   gradient norm :     0.0111708 Eh/α   predicted    -0.1865444E-03 (  34.49%)
   displ. norm   :     0.3897936 α      lambda       -0.2741892E-03
   maximum displ.:     0.2443266 α      in ANC's #1, #7, #3, ...

........................................................................
.............................. CYCLE  210 ..............................
........................................................................

 iter      E             dE          RMSdq      gap      omega  full diag
   1   -111.8275277 -0.111828E+03  0.427E-02    3.14       0.0  T
   2   -111.8275294 -0.163401E-05  0.251E-02    3.14       1.0  T
   3   -111.8275261  0.324568E-05  0.768E-03    3.14       1.5  T
   4   -111.8275301 -0.397740E-05  0.147E-03    3.13       7.8  T
   5   -111.8275301 -0.388444E-07  0.677E-04    3.13      17.0  T
   6   -111.8275301 -0.110775E-07  0.302E-04    3.13      38.0  T
     SCC iter.                  ...        0 min,  0.089 sec
     gradient                   ...        0 min,  0.015 sec
 * total energy  :  -110.2689764 Eh     change       -0.1706737E-03 Eh
   gradient norm :     0.0089397 Eh/α   predicted    -0.1579286E-03 (  -7.47%)
   displ. norm   :     0.3009827 α      lambda       -0.3806238E-03
   maximum displ.:     0.1582852 α      in ANC's #1, #3, #2, ...

........................................................................
.............................. CYCLE  211 ..............................
........................................................................

 iter      E             dE          RMSdq      gap      omega  full diag
   1   -111.8367240 -0.111837E+03  0.500E-02    3.12       0.0  T
   2   -111.8367293 -0.537660E-05  0.302E-02    3.11       1.0  T
   3   -111.8367194  0.999162E-05  0.154E-02    3.12       1.0  T
   4   -111.8367328 -0.134272E-04  0.220E-03    3.12       5.2  T
   5   -111.8367330 -0.218307E-06  0.102E-03    3.12      11.2  T
   6   -111.8367330 -0.115204E-07  0.451E-04    3.12      25.4  T
   7   -111.8367330 -0.511024E-08  0.186E-04    3.12      61.8  T
     SCC iter.                  ...        0 min,  0.104 sec
     gradient                   ...        0 min,  0.014 sec
 * total energy  :  -110.2690307 Eh     change       -0.5422183E-04 Eh
   gradient norm :     0.0130078 Eh/α   predicted    -0.2075564E-03 ( 282.79%)
   displ. norm   :     0.4139999 α      lambda       -0.4081056E-03
   maximum displ.:     0.2497476 α      in ANC's #1, #7, #3, ...

........................................................................
.............................. CYCLE  212 ..............................
........................................................................

 iter      E             dE          RMSdq      gap      omega  full diag
   1   -111.8309746 -0.111831E+03  0.475E-02    3.12       0.0  T
   2   -111.8309768 -0.229858E-05  0.284E-02    3.12       1.0  T
   3   -111.8309694  0.744212E-05  0.119E-02    3.11       1.0  T
   4   -111.8309784 -0.899063E-05  0.158E-03    3.11       7.2  T
   5   -111.8309785 -0.820383E-07  0.762E-04    3.11      15.1  T
   6   -111.8309785 -0.107749E-07  0.310E-04    3.11      37.0  T
     SCC iter.                  ...        0 min,  0.088 sec
     gradient                   ...        0 min,  0.011 sec
 * total energy  :  -110.2692299 Eh     change       -0.1992655E-03 Eh
   gradient norm :     0.0092865 Eh/α   predicted    -0.2390305E-03 (  19.96%)
   displ. norm   :     0.2849655 α      lambda       -0.3009706E-03
   maximum displ.:     0.1950065 α      in ANC's #1, #3, #7, ...

........................................................................
.............................. CYCLE  213 ..............................
........................................................................

 iter      E             dE          RMSdq      gap      omega  full diag
   1   -111.8284903 -0.111828E+03  0.363E-02    3.12       0.0  T
   2   -111.8284923 -0.193332E-05  0.213E-02    3.12       1.0  T
   3   -111.8284910  0.124132E-05  0.573E-03    3.11       2.0  T
   4   -111.8284927 -0.169653E-05  0.171E-03    3.11       6.7  T
   5   -111.8284928 -0.101249E-06  0.860E-04    3.11      13.3  T
   6   -111.8284928 -0.195220E-07  0.367E-04    3.12      31.3  T
     SCC iter.                  ...        0 min,  0.087 sec
     gradient                   ...        0 min,  0.014 sec
 * total energy  :  -110.2693319 Eh     change       -0.1019679E-03 Eh
   gradient norm :     0.0122014 Eh/α   predicted    -0.1627073E-03 (  59.57%)
   displ. norm   :     0.2475140 α      lambda       -0.2132673E-03
   maximum displ.:     0.1674774 α      in ANC's #1, #3, #2, ...

........................................................................
.............................. CYCLE  214 ..............................
........................................................................

 iter      E             dE          RMSdq      gap      omega  full diag
   1   -111.8308046 -0.111831E+03  0.275E-02    3.12       0.0  T
   2   -111.8308052 -0.622294E-06  0.164E-02    3.12       1.0  T
   3   -111.8308036  0.162886E-05  0.491E-03    3.11       2.3  T
   4   -111.8308055 -0.195951E-05  0.957E-04    3.11      12.0  T
   5   -111.8308056 -0.229412E-07  0.530E-04    3.11      21.6  T
   6   -111.8308056 -0.381502E-08  0.263E-04    3.11      43.6  T
     SCC iter.                  ...        0 min,  0.089 sec
     gradient                   ...        0 min,  0.014 sec
 * total energy  :  -110.2694665 Eh     change       -0.1345771E-03 Eh
   gradient norm :     0.0063130 Eh/α   predicted    -0.1131705E-03 ( -15.91%)
   displ. norm   :     0.4335674 α      lambda       -0.2590872E-03
   maximum displ.:     0.2979231 α      in ANC's #1, #3, #2, ...

........................................................................
.............................. CYCLE  215 ..............................
........................................................................

 iter      E             dE          RMSdq      gap      omega  full diag
   1   -111.8310862 -0.111831E+03  0.463E-02    3.10       0.0  T
   2   -111.8310893 -0.309480E-05  0.274E-02    3.10       1.0  T
   3   -111.8310831  0.620297E-05  0.101E-02    3.10       1.1  T
   4   -111.8310907 -0.759992E-05  0.163E-03    3.10       7.0  T
   5   -111.8310908 -0.111806E-06  0.783E-04    3.10      14.7  T
   6   -111.8310908 -0.110486E-07  0.381E-04    3.10      30.1  T
     SCC iter.                  ...        0 min,  0.087 sec
     gradient                   ...        0 min,  0.013 sec
 * total energy  :  -110.2695811 Eh     change       -0.1146611E-03 Eh
   gradient norm :     0.0075956 Eh/α   predicted    -0.1538990E-03 (  34.22%)
   displ. norm   :     0.3377117 α      lambda       -0.2267918E-03
   maximum displ.:     0.2214694 α      in ANC's #1, #3, #2, ...

........................................................................
.............................. CYCLE  216 ..............................
........................................................................

 iter      E             dE          RMSdq      gap      omega  full diag
   1   -111.8329321 -0.111833E+03  0.354E-02    3.09       0.0  T
   2   -111.8329338 -0.176493E-05  0.210E-02    3.08       1.0  T
   3   -111.8329306  0.323214E-05  0.745E-03    3.08       1.5  T
   4   -111.8329346 -0.394102E-05  0.134E-03    3.08       8.6  T
   5   -111.8329346 -0.389614E-07  0.742E-04    3.08      15.5  T
   6   -111.8329346 -0.152538E-07  0.346E-04    3.08      33.1  T
     SCC iter.                  ...        0 min,  0.090 sec
     gradient                   ...        0 min,  0.015 sec
 * total energy  :  -110.2696979 Eh     change       -0.1167968E-03 Eh
   gradient norm :     0.0080438 Eh/α   predicted    -0.1263324E-03 (   8.16%)
   displ. norm   :     0.4363649 α      lambda       -0.2276116E-03
   maximum displ.:     0.3120171 α      in ANC's #1, #3, #2, ...

........................................................................
.............................. CYCLE  217 ..............................
........................................................................

 iter      E             dE          RMSdq      gap      omega  full diag
   1   -111.8307499 -0.111831E+03  0.446E-02    3.09       0.0  T
   2   -111.8307526 -0.262453E-05  0.266E-02    3.09       1.0  T
   3   -111.8307476  0.497496E-05  0.993E-03    3.08       1.2  T
   4   -111.8307536 -0.604328E-05  0.170E-03    3.08       6.7  T
   5   -111.8307538 -0.142359E-06  0.827E-04    3.08      13.9  T
   6   -111.8307538 -0.932539E-08  0.401E-04    3.08      28.6  T
     SCC iter.                  ...        0 min,  0.088 sec
     gradient                   ...        0 min,  0.014 sec
 * total energy  :  -110.2698136 Eh     change       -0.1156626E-03 Eh
   gradient norm :     0.0072401 Eh/α   predicted    -0.1354804E-03 (  17.13%)
   displ. norm   :     0.3199725 α      lambda       -0.1712024E-03
   maximum displ.:     0.2298866 α      in ANC's #1, #3, #2, ...

........................................................................
.............................. CYCLE  218 ..............................
........................................................................

 iter      E             dE          RMSdq      gap      omega  full diag
   1   -111.8301715 -0.111830E+03  0.306E-02    3.09       0.0  T
   2   -111.8301726 -0.113921E-05  0.179E-02    3.09       1.0  T
   3   -111.8301701  0.256514E-05  0.709E-03    3.08       1.6  T
   4   -111.8301732 -0.314319E-05  0.112E-03    3.08      10.2  T
   5   -111.8301732 -0.249272E-07  0.581E-04    3.08      19.7  T
   6   -111.8301732 -0.130485E-07  0.219E-04    3.08      52.3  T
     SCC iter.                  ...        0 min,  0.088 sec
     gradient                   ...        0 min,  0.014 sec
 * total energy  :  -110.2698872 Eh     change       -0.7362762E-04 Eh
   gradient norm :     0.0091477 Eh/α   predicted    -0.9436854E-04 (  28.17%)
   displ. norm   :     0.3182824 α      lambda       -0.2435886E-03
   maximum displ.:     0.2213201 α      in ANC's #1, #3, #2, ...

........................................................................
.............................. CYCLE  219 ..............................
........................................................................

 iter      E             dE          RMSdq      gap      omega  full diag
   1   -111.8309434 -0.111831E+03  0.304E-02    3.08       0.0  T
   2   -111.8309456 -0.226184E-05  0.182E-02    3.07       1.0  T
   3   -111.8309432  0.240963E-05  0.761E-03    3.08       1.5  T
   4   -111.8309465 -0.326932E-05  0.140E-03    3.07       8.2  T
   5   -111.8309466 -0.889890E-07  0.673E-04    3.07      17.0  T
   6   -111.8309466 -0.602611E-08  0.290E-04    3.07      39.6  T
     SCC iter.                  ...        0 min,  0.089 sec
     gradient                   ...        0 min,  0.012 sec
 * total energy  :  -110.2700261 Eh     change       -0.1388613E-03 Eh
   gradient norm :     0.0064759 Eh/α   predicted    -0.1341376E-03 (  -3.40%)
   displ. norm   :     0.3817298 α      lambda       -0.1966318E-03
   maximum displ.:     0.2628000 α      in ANC's #1, #3, #2, ...
 * RMSD in coord.:     1.4744402 α      energy gain  -0.6953914E-02 Eh

generating ANC from exact Hessian ...
Using Lindh-Hessian (1995)
 Shifting diagonal of input Hessian by   1.010754938432711E-002
 Lowest  eigenvalues of input Hessian
    0.010000    0.000000    0.000000    0.000000    0.000000    0.000000
    0.000000    0.010184    0.010232    0.010277    0.010400    0.010541
    0.010593    0.010671    0.010790    0.010908    0.011101    0.011192
 Highest eigenvalues
    2.034382    2.070850    2.081863    2.214146    2.315471    2.346371
 

........................................................................
.............................. CYCLE  220 ..............................
........................................................................

 iter      E             dE          RMSdq      gap      omega  full diag
   1   -111.8328448 -0.111833E+03  0.357E-02    3.07       0.0  T
   2   -111.8328472 -0.239277E-05  0.215E-02    3.07       1.0  T
   3   -111.8328434  0.382664E-05  0.864E-03    3.06       1.3  T
   4   -111.8328483 -0.488317E-05  0.122E-03    3.06       9.4  T
   5   -111.8328483 -0.547636E-07  0.584E-04    3.06      19.7  T
   6   -111.8328483 -0.470177E-08  0.319E-04    3.06      36.0  T
     SCC iter.                  ...        0 min,  0.073 sec
     gradient                   ...        0 min,  0.006 sec
 * total energy  :  -110.2701409 Eh     change       -0.1148458E-03 Eh
   gradient norm :     0.0058458 Eh/α   predicted     0.0000000E+00 (-100.00%)
   displ. norm   :     0.0774765 α      lambda       -0.1447200E-03
   maximum displ.:     0.0312093 α      in ANC's #23, #2, #25, ...

........................................................................
.............................. CYCLE  221 ..............................
........................................................................

 iter      E             dE          RMSdq      gap      omega  full diag
   1   -111.8323674 -0.111832E+03  0.225E-02    3.06       0.0  T
   2   -111.8323682 -0.853838E-06  0.138E-02    3.05       1.0  T
   3   -111.8323665  0.170123E-05  0.548E-03    3.05       2.1  T
   4   -111.8323686 -0.212538E-05  0.107E-03    3.05      10.7  T
   5   -111.8323687 -0.290897E-07  0.566E-04    3.05      20.3  T
   6   -111.8323687 -0.315751E-08  0.285E-04    3.05      40.3  T
     SCC iter.                  ...        0 min,  0.068 sec
     gradient                   ...        0 min,  0.019 sec
 * total energy  :  -110.2702514 Eh     change       -0.1104831E-03 Eh
   gradient norm :     0.0025825 Eh/α   predicted    -0.7374054E-04 ( -33.26%)
   displ. norm   :     0.1608782 α      lambda       -0.1566565E-03
   maximum displ.:     0.0655024 α      in ANC's #2, #23, #8, ...

........................................................................
.............................. CYCLE  222 ..............................
........................................................................

 iter      E             dE          RMSdq      gap      omega  full diag
   1   -111.8315226 -0.111832E+03  0.342E-02    3.04       0.0  T
   2   -111.8315240 -0.138612E-05  0.209E-02    3.04       1.0  T
   3   -111.8315212  0.283426E-05  0.681E-03    3.04       1.7  T
   4   -111.8315247 -0.348636E-05  0.141E-03    3.04       8.2  T
   5   -111.8315247 -0.505424E-07  0.740E-04    3.04      15.5  T
   6   -111.8315247 -0.372977E-08  0.373E-04    3.04      30.8  T
     SCC iter.                  ...        0 min,  0.077 sec
     gradient                   ...        0 min,  0.014 sec
 * total energy  :  -110.2703466 Eh     change       -0.9524238E-04 Eh
   gradient norm :     0.0065919 Eh/α   predicted    -0.8036066E-04 ( -15.63%)
   displ. norm   :     0.1082595 α      lambda       -0.7975044E-04
   maximum displ.:     0.0534499 α      in ANC's #2, #8, #23, ...

........................................................................
.............................. CYCLE  223 ..............................
........................................................................

 iter      E             dE          RMSdq      gap      omega  full diag
   1   -111.8317825 -0.111832E+03  0.161E-02    3.04       0.0  T
   2   -111.8317827 -0.198852E-06  0.964E-03    3.04       1.2  T
   3   -111.8317827 -0.107561E-07  0.112E-03    3.04      10.3  T
   4   -111.8317827 -0.482670E-07  0.542E-04    3.04      21.2  T
   5   -111.8317827 -0.687557E-08  0.264E-04    3.04      43.4  T
     SCC iter.                  ...        0 min,  0.064 sec
     gradient                   ...        0 min,  0.013 sec
 * total energy  :  -110.2704123 Eh     change       -0.6568574E-04 Eh
   gradient norm :     0.0055379 Eh/α   predicted    -0.4034726E-04 ( -38.58%)
   displ. norm   :     0.2431720 α      lambda       -0.1532607E-03
   maximum displ.:     0.1246287 α      in ANC's #2, #8, #6, ...

........................................................................
.............................. CYCLE  224 ..............................
........................................................................

 iter      E             dE          RMSdq      gap      omega  full diag
   1   -111.8322267 -0.111832E+03  0.350E-02    3.03       0.0  T
   2   -111.8322277 -0.102194E-05  0.211E-02    3.03       1.0  T
   3   -111.8322264  0.126366E-05  0.472E-03    3.03       2.4  T
   4   -111.8322282 -0.174236E-05  0.130E-03    3.03       8.8  T
   5   -111.8322282 -0.247322E-07  0.640E-04    3.03      17.9  T
   6   -111.8322282 -0.769013E-08  0.282E-04    3.03      40.7  T
     SCC iter.                  ...        0 min,  0.077 sec
     gradient                   ...        0 min,  0.015 sec
 * total energy  :  -110.2705254 Eh     change       -0.1130608E-03 Eh
   gradient norm :     0.0035879 Eh/α   predicted    -0.8117990E-04 ( -28.20%)
   displ. norm   :     0.2622449 α      lambda       -0.1144419E-03
   maximum displ.:     0.1426996 α      in ANC's #2, #8, #1, ...

........................................................................
.............................. CYCLE  225 ..............................
........................................................................

 iter      E             dE          RMSdq      gap      omega  full diag
   1   -111.8323229 -0.111832E+03  0.344E-02    3.03       0.0  T
   2   -111.8323238 -0.819419E-06  0.207E-02    3.03       1.0  T
   3   -111.8323226  0.110762E-05  0.446E-03    3.03       2.6  T
   4   -111.8323242 -0.152150E-05  0.116E-03    3.03       9.8  T
   5   -111.8323242 -0.178339E-07  0.594E-04    3.03      19.3  T
   6   -111.8323242 -0.547689E-08  0.248E-04    3.03      46.2  T
     SCC iter.                  ...        0 min,  0.079 sec
     gradient                   ...        0 min,  0.015 sec
 * total energy  :  -110.2706105 Eh     change       -0.8509639E-04 Eh
   gradient norm :     0.0041771 Eh/α   predicted    -0.6115811E-04 ( -28.13%)
   displ. norm   :     0.2950934 α      lambda       -0.1401247E-03
   maximum displ.:     0.1722195 α      in ANC's #2, #1, #8, ...

........................................................................
.............................. CYCLE  226 ..............................
........................................................................

 iter      E             dE          RMSdq      gap      omega  full diag
   1   -111.8336212 -0.111834E+03  0.363E-02    3.02       0.0  T
   2   -111.8336228 -0.155537E-05  0.215E-02    3.02       1.0  T
   3   -111.8336222  0.580369E-06  0.435E-03    3.02       2.6  T
   4   -111.8336232 -0.985616E-06  0.173E-03    3.02       6.6  T
   5   -111.8336233 -0.918122E-07  0.798E-04    3.02      14.4  T
   6   -111.8336233 -0.124185E-07  0.397E-04    3.02      28.9  T
     SCC iter.                  ...        0 min,  0.080 sec
     gradient                   ...        0 min,  0.014 sec
 * total energy  :  -110.2706744 Eh     change       -0.6391060E-04 Eh
   gradient norm :     0.0067274 Eh/α   predicted    -0.7616664E-04 (  19.18%)
   displ. norm   :     0.4223572 α      lambda       -0.1820066E-03
   maximum displ.:     0.2395300 α      in ANC's #2, #8, #1, ...

........................................................................
.............................. CYCLE  227 ..............................
........................................................................

 iter      E             dE          RMSdq      gap      omega  full diag
   1   -111.8306040 -0.111831E+03  0.562E-02    3.01       0.0  T
   2   -111.8306063 -0.225197E-05  0.338E-02    3.01       1.0  T
   3   -111.8306025  0.380901E-05  0.787E-03    3.01       1.5  T
   4   -111.8306076 -0.510640E-05  0.188E-03    3.01       6.1  T
   5   -111.8306076 -0.245586E-07  0.100E-03    3.01      11.4  T
   6   -111.8306076 -0.216922E-07  0.389E-04    3.01      29.5  T
   7   -111.8306076 -0.349419E-08  0.122E-04    3.01      94.1  T
     SCC iter.                  ...        0 min,  0.083 sec
     gradient                   ...        0 min,  0.020 sec
 * total energy  :  -110.2707027 Eh     change       -0.2828984E-04 Eh
   gradient norm :     0.0116312 Eh/α   predicted    -0.1072404E-03 ( 279.08%)
   displ. norm   :     0.1492431 α      lambda       -0.1813875E-03
   maximum displ.:     0.0613898 α      in ANC's #2, #8, #23, ...

........................................................................
.............................. CYCLE  228 ..............................
........................................................................

 iter      E             dE          RMSdq      gap      omega  full diag
   1   -111.8334706 -0.111833E+03  0.263E-02    3.02       0.0  T
   2   -111.8334714 -0.811983E-06  0.160E-02    3.02       1.0  T
   3   -111.8334699  0.152895E-05  0.506E-03    3.02       2.3  T
   4   -111.8334719 -0.196700E-05  0.109E-03    3.02      10.5  T
   5   -111.8334719 -0.174946E-07  0.583E-04    3.02      19.7  T
   6   -111.8334719 -0.414207E-08  0.256E-04    3.02      44.9  T
     SCC iter.                  ...        0 min,  0.077 sec
     gradient                   ...        0 min,  0.014 sec
 * total energy  :  -110.2707884 Eh     change       -0.8568149E-04 Eh
   gradient norm :     0.0026913 Eh/α   predicted    -0.9271408E-04 (   8.21%)
   displ. norm   :     0.1253411 α      lambda       -0.4710749E-04
   maximum displ.:     0.0810855 α      in ANC's #2, #1, #8, ...

........................................................................
.............................. CYCLE  229 ..............................
........................................................................

 iter      E             dE          RMSdq      gap      omega  full diag
   1   -111.8335180 -0.111834E+03  0.133E-02    3.02       0.0  T
   2   -111.8335181 -0.120926E-06  0.788E-03    3.02       1.5  T
   3   -111.8335181  0.361538E-07  0.130E-03    3.01       8.9  T
   4   -111.8335181 -0.840560E-07  0.490E-04    3.01      23.4  T
   5   -111.8335181 -0.436914E-08  0.260E-04    3.01      44.1  T
     SCC iter.                  ...        0 min,  0.063 sec
     gradient                   ...        0 min,  0.015 sec
 * total energy  :  -110.2708293 Eh     change       -0.4095620E-04 Eh
   gradient norm :     0.0014893 Eh/α   predicted    -0.2392468E-04 ( -41.58%)
   displ. norm   :     0.4796450 α      lambda       -0.9619596E-04
   maximum displ.:     0.3104542 α      in ANC's #2, #1, #8, ...

........................................................................
.............................. CYCLE  230 ..............................
........................................................................

 iter      E             dE          RMSdq      gap      omega  full diag
   1   -111.8325444 -0.111833E+03  0.475E-02    3.01       0.0  T
   2   -111.8325460 -0.155643E-05  0.283E-02    3.01       1.0  T
   3   -111.8325457  0.239688E-06  0.404E-03    3.01       2.8  T
   4   -111.8325466 -0.848066E-06  0.165E-03    3.01       6.9  T
   5   -111.8325466 -0.460134E-07  0.816E-04    3.01      14.1  T
   6   -111.8325466 -0.959427E-08  0.328E-04    3.01      34.9  T
     SCC iter.                  ...        0 min,  0.076 sec
     gradient                   ...        0 min,  0.013 sec
 * total energy  :  -110.2709081 Eh     change       -0.7879523E-04 Eh
   gradient norm :     0.0052825 Eh/α   predicted    -0.5301635E-04 ( -32.72%)
   displ. norm   :     0.1200491 α      lambda       -0.4714238E-04
   maximum displ.:     0.0795162 α      in ANC's #2, #1, #3, ...

........................................................................
.............................. CYCLE  231 ..............................
........................................................................

 iter      E             dE          RMSdq      gap      omega  full diag
   1   -111.8328403 -0.111833E+03  0.107E-02    3.01       0.0  T
   2   -111.8328405 -0.146931E-06  0.640E-03    3.00       1.8  T
   3   -111.8328403  0.115103E-06  0.163E-03    3.00       7.0  T
   4   -111.8328405 -0.181672E-06  0.524E-04    3.00      21.9  T
   5   -111.8328405 -0.422817E-08  0.263E-04    3.00      43.7  T
     SCC iter.                  ...        0 min,  0.063 sec
     gradient                   ...        0 min,  0.014 sec
 * total energy  :  -110.2709433 Eh     change       -0.3513684E-04 Eh
   gradient norm :     0.0028363 Eh/α   predicted    -0.2391322E-04 ( -31.94%)
   displ. norm   :     0.3027348 α      lambda       -0.7472705E-04
   maximum displ.:     0.2063094 α      in ANC's #2, #1, #3, ...

........................................................................
.............................. CYCLE  232 ..............................
........................................................................

 iter      E             dE          RMSdq      gap      omega  full diag
   1   -111.8333304 -0.111833E+03  0.238E-02    3.00       0.0  T
   2   -111.8333310 -0.601924E-06  0.143E-02    3.00       1.0  T
   3   -111.8333300  0.100101E-05  0.392E-03    3.00       2.9  T
   4   -111.8333313 -0.132109E-05  0.923E-04    3.00      12.4  T
   5   -111.8333314 -0.124004E-07  0.475E-04    3.00      24.1  T
   6   -111.8333314 -0.131840E-08  0.209E-04    3.00      54.8  T
     SCC iter.                  ...        0 min,  0.077 sec
     gradient                   ...        0 min,  0.014 sec
 * total energy  :  -110.2710025 Eh     change       -0.5920683E-04 Eh
   gradient norm :     0.0020349 Eh/α   predicted    -0.4079009E-04 ( -31.11%)
   displ. norm   :     0.3896450 α      lambda       -0.7689375E-04
   maximum displ.:     0.2674448 α      in ANC's #2, #1, #3, ...

........................................................................
.............................. CYCLE  233 ..............................
........................................................................

 iter      E             dE          RMSdq      gap      omega  full diag
   1   -111.8332174 -0.111833E+03  0.311E-02    3.00       0.0  T
   2   -111.8332183 -0.866355E-06  0.187E-02    3.00       1.0  T
   3   -111.8332168  0.145012E-05  0.468E-03    3.00       2.5  T
   4   -111.8332187 -0.190892E-05  0.111E-03    3.00      10.3  T
   5   -111.8332187 -0.178131E-07  0.610E-04    3.00      18.8  T
   6   -111.8332187 -0.340007E-08  0.284E-04    3.00      40.4  T
     SCC iter.                  ...        0 min,  0.080 sec
     gradient                   ...        0 min,  0.014 sec
 * total energy  :  -110.2710583 Eh     change       -0.5583408E-04 Eh
   gradient norm :     0.0025482 Eh/α   predicted    -0.4428646E-04 ( -20.68%)
   displ. norm   :     0.3026010 α      lambda       -0.5618353E-04
   maximum displ.:     0.2054044 α      in ANC's #2, #1, #3, ...

........................................................................
.............................. CYCLE  234 ..............................
........................................................................

 iter      E             dE          RMSdq      gap      omega  full diag
   1   -111.8340235 -0.111834E+03  0.277E-02    3.00       0.0  T
   2   -111.8340243 -0.846665E-06  0.165E-02    3.00       1.0  T
   3   -111.8340220  0.227931E-05  0.571E-03    3.00       2.0  T
   4   -111.8340248 -0.279781E-05  0.104E-03    3.00      11.0  T
   5   -111.8340248 -0.178284E-07  0.640E-04    3.00      17.9  T
   6   -111.8340248 -0.773049E-08  0.284E-04    3.00      40.4  T
     SCC iter.                  ...        0 min,  0.078 sec
     gradient                   ...        0 min,  0.012 sec
 * total energy  :  -110.2710966 Eh     change       -0.3830099E-04 Eh
   gradient norm :     0.0021173 Eh/α   predicted    -0.3066934E-04 ( -19.93%)
   displ. norm   :     0.2547037 α      lambda       -0.3741448E-04
   maximum displ.:     0.1739974 α      in ANC's #2, #1, #3, ...

........................................................................
.............................. CYCLE  235 ..............................
........................................................................

 iter      E             dE          RMSdq      gap      omega  full diag
   1   -111.8337495 -0.111834E+03  0.236E-02    3.00       0.0  T
   2   -111.8337499 -0.401821E-06  0.140E-02    3.00       1.0  T
   3   -111.8337487  0.122997E-05  0.411E-03    3.00       2.8  T
   4   -111.8337502 -0.149340E-05  0.754E-04    3.00      15.2  T
   5   -111.8337502 -0.676910E-08  0.488E-04    3.00      23.5  T
   6   -111.8337502 -0.581078E-08  0.167E-04    3.00      68.8  T
     SCC iter.                  ...        0 min,  0.069 sec
     gradient                   ...        0 min,  0.024 sec
 * total energy  :  -110.2711259 Eh     change       -0.2932386E-04 Eh
   gradient norm :     0.0024174 Eh/α   predicted    -0.1992234E-04 ( -32.06%)
   displ. norm   :     0.3063500 α      lambda       -0.6352054E-04
   maximum displ.:     0.1881821 α      in ANC's #2, #1, #10, ...

........................................................................
.............................. CYCLE  236 ..............................
........................................................................

 iter      E             dE          RMSdq      gap      omega  full diag
   1   -111.8342688 -0.111834E+03  0.355E-02    3.00       0.0  T
   2   -111.8342696 -0.772117E-06  0.209E-02    3.00       1.0  T
   3   -111.8342665  0.304140E-05  0.654E-03    3.00       1.8  T
   4   -111.8342701 -0.358832E-05  0.107E-03    3.00      10.7  T
   5   -111.8342702 -0.275501E-07  0.639E-04    3.00      18.0  T
   6   -111.8342702 -0.837632E-08  0.213E-04    3.00      53.8  T
     SCC iter.                  ...        0 min,  0.072 sec
     gradient                   ...        0 min,  0.019 sec
 * total energy  :  -110.2711671 Eh     change       -0.4114350E-04 Eh
   gradient norm :     0.0020589 Eh/α   predicted    -0.3474313E-04 ( -15.56%)
   displ. norm   :     0.3207953 α      lambda       -0.4930878E-04
   maximum displ.:     0.2186708 α      in ANC's #2, #1, #3, ...

........................................................................
.............................. CYCLE  237 ..............................
........................................................................

 iter      E             dE          RMSdq      gap      omega  full diag
   1   -111.8328890 -0.111833E+03  0.337E-02    3.00       0.0  T
   2   -111.8328896 -0.577400E-06  0.199E-02    2.99       1.0  T
   3   -111.8328880  0.157678E-05  0.480E-03    2.99       2.4  T
   4   -111.8328900 -0.192904E-05  0.989E-04    2.99      11.6  T
   5   -111.8328900 -0.126150E-07  0.625E-04    2.99      18.3  T
   6   -111.8328900 -0.920946E-08  0.202E-04    2.99      56.7  T
     SCC iter.                  ...        0 min,  0.069 sec
     gradient                   ...        0 min,  0.021 sec
 * total energy  :  -110.2711948 Eh     change       -0.2776579E-04 Eh
   gradient norm :     0.0039567 Eh/α   predicted    -0.2719298E-04 (  -2.06%)
   displ. norm   :     0.1257702 α      lambda       -0.4074617E-04
   maximum displ.:     0.0739520 α      in ANC's #8, #15, #2, ...

........................................................................
.............................. CYCLE  238 ..............................
........................................................................

 iter      E             dE          RMSdq      gap      omega  full diag
   1   -111.8336025 -0.111834E+03  0.177E-02    2.99       0.0  T
   2   -111.8336028 -0.343938E-06  0.103E-02    2.99       1.1  T
   3   -111.8336024  0.431813E-06  0.269E-03    2.99       4.3  T
   4   -111.8336029 -0.531092E-06  0.703E-04    2.99      16.3  T
   5   -111.8336030 -0.174789E-07  0.328E-04    2.99      35.0  T
     SCC iter.                  ...        0 min,  0.060 sec
     gradient                   ...        0 min,  0.016 sec
 * total energy  :  -110.2712217 Eh     change       -0.2687044E-04 Eh
   gradient norm :     0.0021192 Eh/α   predicted    -0.2070057E-04 ( -22.96%)
   displ. norm   :     0.1520683 α      lambda       -0.3379115E-04
   maximum displ.:     0.0844733 α      in ANC's #2, #1, #8, ...

........................................................................
.............................. CYCLE  239 ..............................
........................................................................

 iter      E             dE          RMSdq      gap      omega  full diag
   1   -111.8335596 -0.111834E+03  0.195E-02    2.99       0.0  T
   2   -111.8335599 -0.324700E-06  0.116E-02    2.99       1.0  T
   3   -111.8335593  0.617274E-06  0.308E-03    2.99       3.7  T
   4   -111.8335600 -0.764630E-06  0.703E-04    2.99      16.3  T
   5   -111.8335600 -0.126791E-07  0.387E-04    2.99      29.6  T
     SCC iter.                  ...        0 min,  0.054 sec
     gradient                   ...        0 min,  0.023 sec
 * total energy  :  -110.2712436 Eh     change       -0.2187130E-04 Eh
   gradient norm :     0.0018797 Eh/α   predicted    -0.1729051E-04 ( -20.94%)
   displ. norm   :     0.2445160 α      lambda       -0.2963210E-04
   maximum displ.:     0.1526466 α      in ANC's #2, #1, #15, ...

........................................................................
.............................. CYCLE  240 ..............................
........................................................................

 iter      E             dE          RMSdq      gap      omega  full diag
   1   -111.8333869 -0.111833E+03  0.280E-02    2.99       0.0  T
   2   -111.8333877 -0.778704E-06  0.164E-02    2.99       1.0  T
   3   -111.8333873  0.355487E-06  0.309E-03    2.99       3.7  T
   4   -111.8333879 -0.556432E-06  0.986E-04    2.99      11.6  T
   5   -111.8333879 -0.231437E-07  0.420E-04    2.99      27.3  T
     SCC iter.                  ...        0 min,  0.052 sec
     gradient                   ...        0 min,  0.027 sec
 * total energy  :  -110.2712636 Eh     change       -0.1997798E-04 Eh
   gradient norm :     0.0021275 Eh/α   predicted    -0.1521345E-04 ( -23.85%)
   displ. norm   :     0.0942699 α      lambda       -0.1556848E-04
   maximum displ.:     0.0677212 α      in ANC's #2, #1, #3, ...

........................................................................
.............................. CYCLE  241 ..............................
........................................................................

 iter      E             dE          RMSdq      gap      omega  full diag
   1   -111.8333846 -0.111833E+03  0.852E-03    2.99       0.0  T
   2   -111.8333847 -0.914724E-07  0.506E-03    2.99       2.3  T
   3   -111.8333845  0.118870E-06  0.149E-03    2.99       7.7  T
   4   -111.8333847 -0.153763E-06  0.395E-04    2.99      29.0  T
   5   -111.8333847 -0.508030E-08  0.212E-04    2.99      54.0  T
     SCC iter.                  ...        0 min,  0.065 sec
     gradient                   ...        0 min,  0.015 sec
 * total energy  :  -110.2712757 Eh     change       -0.1211220E-04 Eh
   gradient norm :     0.0016873 Eh/α   predicted    -0.7855882E-05 ( -35.14%)
   displ. norm   :     0.2694034 α      lambda       -0.2148694E-04
   maximum displ.:     0.1923198 α      in ANC's #2, #1, #3, ...

........................................................................
.............................. CYCLE  242 ..............................
........................................................................

 iter      E             dE          RMSdq      gap      omega  full diag
   1   -111.8335487 -0.111834E+03  0.239E-02    2.99       0.0  T
   2   -111.8335493 -0.551294E-06  0.141E-02    2.99       1.0  T
   3   -111.8335486  0.662870E-06  0.338E-03    2.99       3.4  T
   4   -111.8335495 -0.877403E-06  0.936E-04    2.99      12.3  T
   5   -111.8335495 -0.290159E-07  0.514E-04    2.99      22.3  T
     SCC iter.                  ...        0 min,  0.066 sec
     gradient                   ...        0 min,  0.013 sec
 * total energy  :  -110.2712917 Eh     change       -0.1599025E-04 Eh
   gradient norm :     0.0019354 Eh/α   predicted    -0.1109296E-04 ( -30.63%)
   displ. norm   :     0.1036876 α      lambda       -0.6778670E-05
   maximum displ.:     0.0701117 α      in ANC's #2, #1, #3, ...

........................................................................
.............................. CYCLE  243 ..............................
........................................................................

 iter      E             dE          RMSdq      gap      omega  full diag
   1   -111.8337588 -0.111834E+03  0.107E-02    2.99       0.0  T
   2   -111.8337589 -0.529028E-07  0.630E-03    2.99       1.8  T
   3   -111.8337589  0.255633E-07  0.805E-04    2.99      14.3  T
   4   -111.8337589 -0.459205E-07  0.290E-04    2.99      39.5  T
     SCC iter.                  ...        0 min,  0.055 sec
     gradient                   ...        0 min,  0.014 sec
 * total energy  :  -110.2712997 Eh     change       -0.8034052E-05 Eh
   gradient norm :     0.0012851 Eh/α   predicted    -0.3406992E-05 ( -57.59%)
   displ. norm   :     0.2220043 α      lambda       -0.1007344E-04
   maximum displ.:     0.1531791 α      in ANC's #2, #1, #3, ...

........................................................................
.............................. CYCLE  244 ..............................
........................................................................

 iter      E             dE          RMSdq      gap      omega  full diag
   1   -111.8338301 -0.111834E+03  0.217E-02    2.99       0.0  T
   2   -111.8338303 -0.202668E-06  0.128E-02    2.98       1.0  T
   3   -111.8338302  0.657652E-07  0.149E-03    2.98       7.7  T
   4   -111.8338304 -0.149677E-06  0.644E-04    2.98      17.8  T
   5   -111.8338304 -0.881792E-08  0.341E-04    2.98      33.7  T
     SCC iter.                  ...        0 min,  0.056 sec
     gradient                   ...        0 min,  0.026 sec
 * total energy  :  -110.2713080 Eh     change       -0.8352171E-05 Eh
   gradient norm :     0.0007849 Eh/α   predicted    -0.5151510E-05 ( -38.32%)
   displ. norm   :     0.1121677 α      lambda       -0.4161028E-05
   maximum displ.:     0.0784708 α      in ANC's #2, #1, #3, ...

........................................................................
.............................. CYCLE  245 ..............................
........................................................................

 iter      E             dE          RMSdq      gap      omega  full diag
   1   -111.8341744 -0.111834E+03  0.977E-03    2.98       0.0  T
   2   -111.8341745 -0.539463E-07  0.579E-03    2.98       2.0  T
   3   -111.8341745  0.137423E-07  0.809E-04    2.98      14.2  T
   4   -111.8341745 -0.369520E-07  0.348E-04    2.98      33.0  T
     SCC iter.                  ...        0 min,  0.052 sec
     gradient                   ...        0 min,  0.017 sec
 * total energy  :  -110.2713116 Eh     change       -0.3514151E-05 Eh
   gradient norm :     0.0009946 Eh/α   predicted    -0.2094023E-05 ( -40.41%)
   displ. norm   :     0.0880890 α      lambda       -0.2936744E-05
   maximum displ.:     0.0626730 α      in ANC's #2, #1, #3, ...

........................................................................
.............................. CYCLE  246 ..............................
........................................................................

 iter      E             dE          RMSdq      gap      omega  full diag
   1   -111.8340443 -0.111834E+03  0.725E-03    2.98       0.0  T
   2   -111.8340443 -0.346647E-07  0.433E-03    2.98       2.6  T
   3   -111.8340443  0.450068E-07  0.928E-04    2.98      12.4  T
   4   -111.8340444 -0.648827E-07  0.265E-04    2.98      43.3  T
     SCC iter.                  ...        0 min,  0.057 sec
     gradient                   ...        0 min,  0.012 sec
 * total energy  :  -110.2713150 Eh     change       -0.3450088E-05 Eh
   gradient norm :     0.0007687 Eh/α   predicted    -0.1474160E-05 ( -57.27%)
   displ. norm   :     0.0957950 α      lambda       -0.4746596E-05
   maximum displ.:     0.0567087 α      in ANC's #2, #1, #4, ...

........................................................................
.............................. CYCLE  247 ..............................
........................................................................

 iter      E             dE          RMSdq      gap      omega  full diag
   1   -111.8343350 -0.111834E+03  0.912E-03    2.98       0.0  T
   2   -111.8343350 -0.690384E-07  0.544E-03    2.98       2.1  T
   3   -111.8343349  0.851936E-07  0.138E-03    2.98       8.3  T
   4   -111.8343351 -0.120796E-06  0.406E-04    2.98      28.3  T
   5   -111.8343351 -0.269799E-08  0.213E-04    2.98      53.9  T
     SCC iter.                  ...        0 min,  0.070 sec
     gradient                   ...        0 min,  0.013 sec
 * total energy  :  -110.2713182 Eh     change       -0.3187726E-05 Eh
   gradient norm :     0.0010523 Eh/α   predicted    -0.2384359E-05 ( -25.20%)
   displ. norm   :     0.1125397 α      lambda       -0.2866636E-05
   maximum displ.:     0.0817188 α      in ANC's #2, #1, #3, ...

........................................................................
.............................. CYCLE  248 ..............................
........................................................................

 iter      E             dE          RMSdq      gap      omega  full diag
   1   -111.8335441 -0.111834E+03  0.943E-03    2.98       0.0  T
   2   -111.8335441 -0.714806E-07  0.562E-03    2.98       2.0  T
   3   -111.8335441  0.398055E-07  0.988E-04    2.98      11.6  T
   4   -111.8335442 -0.687138E-07  0.332E-04    2.98      34.6  T
     SCC iter.                  ...        0 min,  0.057 sec
     gradient                   ...        0 min,  0.013 sec
 * total energy  :  -110.2713186 Eh     change       -0.3885636E-06 Eh
   gradient norm :     0.0016818 Eh/α   predicted    -0.1445035E-05 ( 271.89%)
   displ. norm   :     0.0710733 α      lambda       -0.3137620E-05
   maximum displ.:     0.0511656 α      in ANC's #2, #1, #3, ...

........................................................................
.............................. CYCLE  249 ..............................
........................................................................

 iter      E             dE          RMSdq      gap      omega  full diag
   1   -111.8340383 -0.111834E+03  0.680E-03    2.98       0.0  T
   2   -111.8340383 -0.267208E-07  0.405E-03    2.98       2.8  T
   3   -111.8340383  0.653415E-09  0.479E-04    2.98      24.0  T
   4   -111.8340383 -0.119443E-07  0.226E-04    2.98      50.7  T
     SCC iter.                  ...        0 min,  0.052 sec
     gradient                   ...        0 min,  0.015 sec
 * total energy  :  -110.2713210 Eh     change       -0.2394749E-05 Eh
   gradient norm :     0.0008441 Eh/α   predicted    -0.1575553E-05 ( -34.21%)
   displ. norm   :     0.0243027 α      lambda       -0.1492448E-05
   maximum displ.:     0.0121512 α      in ANC's #4, #2, #6, ...

........................................................................
.............................. CYCLE  250 ..............................
........................................................................

 iter      E             dE          RMSdq      gap      omega  full diag
   1   -111.8341398 -0.111834E+03  0.309E-03    2.98       0.0  T
   2   -111.8341398 -0.923743E-08  0.184E-03    2.98       6.2  T
   3   -111.8341398  0.120950E-07  0.459E-04    2.98      25.0  T
   4   -111.8341398 -0.158072E-07  0.127E-04    2.98      90.0  T
     SCC iter.                  ...        0 min,  0.052 sec
     gradient                   ...        0 min,  0.014 sec
 * total energy  :  -110.2713226 Eh     change       -0.1614526E-05 Eh
   gradient norm :     0.0003687 Eh/α   predicted    -0.7495812E-06 ( -53.57%)
   displ. norm   :     0.0418517 α      lambda       -0.1861333E-05
   maximum displ.:     0.0279858 α      in ANC's #4, #6, #9, ...

........................................................................
.............................. CYCLE  251 ..............................
........................................................................

 iter      E             dE          RMSdq      gap      omega  full diag
   1   -111.8341950 -0.111834E+03  0.495E-03    2.98       0.0  T
   2   -111.8341950 -0.107037E-07  0.293E-03    2.98       3.9  T
   3   -111.8341950  0.148794E-07  0.493E-04    2.98      23.3  T
   4   -111.8341950 -0.195059E-07  0.132E-04    2.98      86.6  T
     SCC iter.                  ...        0 min,  0.053 sec
     gradient                   ...        0 min,  0.014 sec
 * total energy  :  -110.2713249 Eh     change       -0.2316215E-05 Eh
   gradient norm :     0.0004462 Eh/α   predicted    -0.9340422E-06 ( -59.67%)
   displ. norm   :     0.0668514 α      lambda       -0.2471146E-05
   maximum displ.:     0.0435310 α      in ANC's #4, #9, #6, ...

........................................................................
.............................. CYCLE  252 ..............................
........................................................................

 iter      E             dE          RMSdq      gap      omega  full diag
   1   -111.8340890 -0.111834E+03  0.790E-03    2.98       0.0  T
   2   -111.8340890 -0.174074E-07  0.467E-03    2.98       2.5  T
   3   -111.8340890  0.213128E-07  0.645E-04    2.98      17.8  T
   4   -111.8340890 -0.290886E-07  0.173E-04    2.98      66.3  T
     SCC iter.                  ...        0 min,  0.049 sec
     gradient                   ...        0 min,  0.017 sec
 * total energy  :  -110.2713280 Eh     change       -0.3062588E-05 Eh
   gradient norm :     0.0005704 Eh/α   predicted    -0.1242546E-05 ( -59.43%)
   displ. norm   :     0.0945570 α      lambda       -0.3001734E-05
   maximum displ.:     0.0586176 α      in ANC's #4, #1, #9, ...

........................................................................
.............................. CYCLE  253 ..............................
........................................................................

 iter      E             dE          RMSdq      gap      omega  full diag
   1   -111.8339927 -0.111834E+03  0.103E-02    2.98       0.0  T
   2   -111.8339927 -0.302303E-07  0.607E-03    2.98       1.9  T
   3   -111.8339927  0.125656E-07  0.683E-04    2.98      16.8  T
   4   -111.8339927 -0.270657E-07  0.240E-04    2.98      47.8  T
     SCC iter.                  ...        0 min,  0.057 sec
     gradient                   ...        0 min,  0.013 sec
 * total energy  :  -110.2713318 Eh     change       -0.3791215E-05 Eh
   gradient norm :     0.0005378 Eh/α   predicted    -0.1511129E-05 ( -60.14%)
   displ. norm   :     0.1542355 α      lambda       -0.4280691E-05
   maximum displ.:     0.0918976 α      in ANC's #4, #1, #9, ...

........................................................................
.............................. CYCLE  254 ..............................
........................................................................

 iter      E             dE          RMSdq      gap      omega  full diag
   1   -111.8338165 -0.111834E+03  0.155E-02    2.98       0.0  T
   2   -111.8338165 -0.652965E-07  0.917E-03    2.98       1.3  T
   3   -111.8338165  0.705063E-07  0.125E-03    2.98       9.2  T
   4   -111.8338166 -0.103704E-06  0.352E-04    2.98      32.5  T
   5   -111.8338166 -0.113609E-08  0.203E-04    2.98      56.5  T
     SCC iter.                  ...        0 min,  0.065 sec
     gradient                   ...        0 min,  0.015 sec
 * total energy  :  -110.2713369 Eh     change       -0.5177933E-05 Eh
   gradient norm :     0.0006654 Eh/α   predicted    -0.2167292E-05 ( -58.14%)
   displ. norm   :     0.1838950 α      lambda       -0.4410726E-05
   maximum displ.:     0.1094027 α      in ANC's #4, #1, #9, ...

........................................................................
.............................. CYCLE  255 ..............................
........................................................................

 iter      E             dE          RMSdq      gap      omega  full diag
   1   -111.8337460 -0.111834E+03  0.182E-02    2.98       0.0  T
   2   -111.8337461 -0.846244E-07  0.108E-02    2.98       1.1  T
   3   -111.8337460  0.926806E-07  0.135E-03    2.98       8.5  T
   4   -111.8337461 -0.136494E-06  0.380E-04    2.98      30.2  T
   5   -111.8337461 -0.108454E-08  0.192E-04    2.98      59.9  T
     SCC iter.                  ...        0 min,  0.065 sec
     gradient                   ...        0 min,  0.016 sec
 * total energy  :  -110.2713420 Eh     change       -0.5008006E-05 Eh
   gradient norm :     0.0008058 Eh/α   predicted    -0.2242373E-05 ( -55.22%)
   displ. norm   :     0.1769998 α      lambda       -0.3782736E-05
   maximum displ.:     0.1067804 α      in ANC's #4, #1, #9, ...

........................................................................
.............................. CYCLE  256 ..............................
........................................................................

 iter      E             dE          RMSdq      gap      omega  full diag
   1   -111.8338230 -0.111834E+03  0.176E-02    2.98       0.0  T
   2   -111.8338231 -0.830116E-07  0.104E-02    2.98       1.1  T
   3   -111.8338230  0.902348E-07  0.132E-03    2.98       8.7  T
   4   -111.8338231 -0.132305E-06  0.375E-04    2.98      30.6  T
   5   -111.8338231 -0.130986E-08  0.211E-04    2.98      54.5  T
     SCC iter.                  ...        0 min,  0.063 sec
     gradient                   ...        0 min,  0.015 sec
 * total energy  :  -110.2713461 Eh     change       -0.4162599E-05 Eh
   gradient norm :     0.0006257 Eh/α   predicted    -0.1919965E-05 ( -53.88%)
   displ. norm   :     0.1578928 α      lambda       -0.3388536E-05
   maximum displ.:     0.0963773 α      in ANC's #4, #1, #9, ...

........................................................................
.............................. CYCLE  257 ..............................
........................................................................

 iter      E             dE          RMSdq      gap      omega  full diag
   1   -111.8340229 -0.111834E+03  0.156E-02    2.98       0.0  T
   2   -111.8340230 -0.628540E-07  0.925E-03    2.98       1.2  T
   3   -111.8340229  0.109182E-06  0.129E-03    2.98       8.9  T
   4   -111.8340230 -0.141351E-06  0.304E-04    2.98      37.8  T
   5   -111.8340230 -0.971511E-09  0.171E-04    2.98      67.2  T
     SCC iter.                  ...        0 min,  0.062 sec
     gradient                   ...        0 min,  0.019 sec
 * total energy  :  -110.2713498 Eh     change       -0.3661969E-05 Eh
   gradient norm :     0.0004582 Eh/α   predicted    -0.1714847E-05 ( -53.17%)
   displ. norm   :     0.1493302 α      lambda       -0.3104316E-05
   maximum displ.:     0.0918848 α      in ANC's #4, #1, #9, ...

........................................................................
.............................. CYCLE  258 ..............................
........................................................................

 iter      E             dE          RMSdq      gap      omega  full diag
   1   -111.8342152 -0.111834E+03  0.149E-02    2.98       0.0  T
   2   -111.8342153 -0.644195E-07  0.880E-03    2.98       1.3  T
   3   -111.8342152  0.489573E-07  0.102E-03    2.99      11.3  T
   4   -111.8342153 -0.777214E-07  0.324E-04    2.98      35.4  T
   5   -111.8342153 -0.146157E-08  0.167E-04    2.98      68.6  T
     SCC iter.                  ...        0 min,  0.067 sec
     gradient                   ...        0 min,  0.013 sec
 * total energy  :  -110.2713530 Eh     change       -0.3242631E-05 Eh
   gradient norm :     0.0004319 Eh/α   predicted    -0.1569224E-05 ( -51.61%)
   displ. norm   :     0.1225095 α      lambda       -0.2656461E-05
   maximum displ.:     0.0749213 α      in ANC's #4, #1, #9, ...
 * RMSD in coord.:     0.5496192 α      energy gain  -0.1326941E-02 Eh

generating ANC from exact Hessian ...
Using Lindh-Hessian (1995)
 Shifting diagonal of input Hessian by   1.009807241052811E-002
 Lowest  eigenvalues of input Hessian
    0.010000    0.000000    0.000000    0.000000    0.000000    0.000000
    0.000000    0.010183    0.010218    0.010246    0.010357    0.010419
    0.010580    0.010581    0.010729    0.010908    0.011109    0.011197
 Highest eigenvalues
    2.034929    2.070834    2.081229    2.210309    2.315884    2.346544
 

........................................................................
.............................. CYCLE  259 ..............................
........................................................................

 iter      E             dE          RMSdq      gap      omega  full diag
   1   -111.8342329 -0.111834E+03  0.123E-02    2.98       0.0  T
   2   -111.8342330 -0.458908E-07  0.727E-03    2.98       1.6  T
   3   -111.8342329  0.563703E-07  0.978E-04    2.98      11.7  T
   4   -111.8342330 -0.760281E-07  0.268E-04    2.98      42.9  T
     SCC iter.                  ...        0 min,  0.048 sec
     gradient                   ...        0 min,  0.017 sec
 * total energy  :  -110.2713557 Eh     change       -0.2648580E-05 Eh
   gradient norm :     0.0004697 Eh/α   predicted     0.0000000E+00 (-100.00%)
   displ. norm   :     0.0125296 α      lambda       -0.1333219E-05
   maximum displ.:     0.0042911 α      in ANC's #10, #5, #3, ...

........................................................................
.............................. CYCLE  260 ..............................
........................................................................

 iter      E             dE          RMSdq      gap      omega  full diag
   1   -111.8342536 -0.111834E+03  0.249E-03    2.99       0.0  T
   2   -111.8342536 -0.134322E-07  0.153E-03    2.98       7.5  T
   3   -111.8342536  0.247087E-07  0.689E-04    2.98      16.6  T
   4   -111.8342536 -0.315827E-07  0.134E-04    2.98      85.7  T
     SCC iter.                  ...        0 min,  0.051 sec
     gradient                   ...        0 min,  0.013 sec
 * total energy  :  -110.2713572 Eh     change       -0.1549900E-05 Eh
   gradient norm :     0.0001971 Eh/α   predicted    -0.6764064E-06 ( -56.36%)
   displ. norm   :     0.0364258 α      lambda       -0.2409362E-05
   maximum displ.:     0.0130415 α      in ANC's #5, #10, #3, ...

........................................................................
.............................. CYCLE  261 ..............................
........................................................................

 iter      E             dE          RMSdq      gap      omega  full diag
   1   -111.8342030 -0.111834E+03  0.564E-03    2.99       0.0  T
   2   -111.8342030 -0.377278E-07  0.342E-03    2.99       3.4  T
   3   -111.8342029  0.116422E-06  0.126E-03    2.99       9.1  T
   4   -111.8342030 -0.142484E-06  0.210E-04    2.99      54.5  T
   5   -111.8342030 -0.627196E-09  0.122E-04    2.99      94.0  T
     SCC iter.                  ...        0 min,  0.063 sec
     gradient                   ...        0 min,  0.015 sec
 * total energy  :  -110.2713595 Eh     change       -0.2316661E-05 Eh
   gradient norm :     0.0005843 Eh/α   predicted    -0.1205539E-05 ( -47.96%)
   displ. norm   :     0.0341865 α      lambda       -0.1509438E-05
   maximum displ.:     0.0130415 α      in ANC's #5, #3, #10, ...

........................................................................
.............................. CYCLE  262 ..............................
........................................................................

 iter      E             dE          RMSdq      gap      omega  full diag
   1   -111.8341700 -0.111834E+03  0.455E-03    2.98       0.0  T
   2   -111.8341700 -0.196107E-07  0.276E-03    2.98       4.2  T
   3   -111.8341700  0.397573E-07  0.793E-04    2.98      14.5  T
   4   -111.8341700 -0.516094E-07  0.176E-04    2.98      65.1  T
     SCC iter.                  ...        0 min,  0.051 sec
     gradient                   ...        0 min,  0.013 sec
 * total energy  :  -110.2713610 Eh     change       -0.1487811E-05 Eh
   gradient norm :     0.0004080 Eh/α   predicted    -0.7554314E-06 ( -49.23%)
   displ. norm   :     0.0527056 α      lambda       -0.2083224E-05
   maximum displ.:     0.0208722 α      in ANC's #5, #3, #10, ...

........................................................................
.............................. CYCLE  263 ..............................
........................................................................

 iter      E             dE          RMSdq      gap      omega  full diag
   1   -111.8341620 -0.111834E+03  0.637E-03    2.98       0.0  T
   2   -111.8341620 -0.342234E-07  0.387E-03    2.98       3.0  T
   3   -111.8341619  0.843450E-07  0.115E-03    2.98      10.0  T
   4   -111.8341620 -0.104742E-06  0.227E-04    2.98      50.5  T
   5   -111.8341620 -0.701704E-09  0.125E-04    2.98      91.5  T
     SCC iter.                  ...        0 min,  0.063 sec
     gradient                   ...        0 min,  0.017 sec
 * total energy  :  -110.2713630 Eh     change       -0.2001526E-05 Eh
   gradient norm :     0.0002953 Eh/α   predicted    -0.1043847E-05 ( -47.85%)
   displ. norm   :     0.0575784 α      lambda       -0.2175863E-05
   maximum displ.:     0.0241776 α      in ANC's #5, #3, #6, ...

........................................................................
.............................. CYCLE  264 ..............................
........................................................................

 iter      E             dE          RMSdq      gap      omega  full diag
   1   -111.8342064 -0.111834E+03  0.609E-03    2.98       0.0  T
   2   -111.8342064 -0.185673E-07  0.366E-03    2.98       3.1  T
   3   -111.8342064  0.481315E-07  0.818E-04    2.98      14.0  T
   4   -111.8342064 -0.584757E-07  0.169E-04    2.98      67.8  T
     SCC iter.                  ...        0 min,  0.053 sec
     gradient                   ...        0 min,  0.013 sec
 * total energy  :  -110.2713654 Eh     change       -0.2406659E-05 Eh
   gradient norm :     0.0003385 Eh/α   predicted    -0.1089743E-05 ( -54.72%)
   displ. norm   :     0.0722715 α      lambda       -0.2413213E-05
   maximum displ.:     0.0308553 α      in ANC's #5, #3, #6, ...

........................................................................
.............................. CYCLE  265 ..............................
........................................................................

 iter      E             dE          RMSdq      gap      omega  full diag
   1   -111.8341926 -0.111834E+03  0.792E-03    2.98       0.0  T
   2   -111.8341927 -0.308620E-07  0.478E-03    2.98       2.4  T
   3   -111.8341925  0.119904E-06  0.138E-03    2.98       8.3  T
   4   -111.8341927 -0.142267E-06  0.248E-04    2.98      46.3  T
   5   -111.8341927 -0.615131E-09  0.140E-04    2.98      82.2  T
     SCC iter.                  ...        0 min,  0.064 sec
     gradient                   ...        0 min,  0.013 sec
 * total energy  :  -110.2713679 Eh     change       -0.2503198E-05 Eh
   gradient norm :     0.0002930 Eh/α   predicted    -0.1213331E-05 ( -51.53%)
   displ. norm   :     0.0530041 α      lambda       -0.1311908E-05
   maximum displ.:     0.0234838 α      in ANC's #5, #3, #6, ...

........................................................................
.............................. CYCLE  266 ..............................
........................................................................

 iter      E             dE          RMSdq      gap      omega  full diag
   1   -111.8342299 -0.111834E+03  0.578E-03    2.98       0.0  T
   2   -111.8342299 -0.194882E-07  0.348E-03    2.98       3.3  T
   3   -111.8342298  0.579982E-07  0.981E-04    2.98      11.7  T
   4   -111.8342299 -0.691574E-07  0.196E-04    2.98      58.6  T
     SCC iter.                  ...        0 min,  0.050 sec
     gradient                   ...        0 min,  0.016 sec
 * total energy  :  -110.2713693 Eh     change       -0.1341639E-05 Eh
   gradient norm :     0.0002281 Eh/α   predicted    -0.6612436E-06 ( -50.71%)
   displ. norm   :     0.0337892 α      lambda       -0.7788509E-06
   maximum displ.:     0.0153500 α      in ANC's #5, #3, #6, ...

........................................................................
.............................. CYCLE  267 ..............................
........................................................................

 iter      E             dE          RMSdq      gap      omega  full diag
   1   -111.8342548 -0.111834E+03  0.399E-03    2.98       0.0  T
   2   -111.8342548 -0.107161E-07  0.239E-03    2.98       4.8  T
   3   -111.8342548  0.173418E-07  0.557E-04    2.98      20.6  T
   4   -111.8342548 -0.223858E-07  0.131E-04    2.98      87.5  T
     SCC iter.                  ...        0 min,  0.048 sec
     gradient                   ...        0 min,  0.018 sec
 * total energy  :  -110.2713701 Eh     change       -0.8049932E-06 Eh
   gradient norm :     0.0002028 Eh/α   predicted    -0.3932292E-06 ( -51.15%)
   displ. norm   :     0.0337892 α      lambda        0.0000000E+00
   maximum displ.:     0.0153500 α      in ANC's #5, #3, #6, ...

   *** GEOMETRY OPTIMIZATION CONVERGED AFTER 267 ITERATIONS ***

------------------------------------------------------------------------
 total energy gain   :        -0.2196397 Eh     -137.8260 kcal/mol
 total RMSD          :         3.9139191 a0        2.0712 Å
 total power (kW/mol):        -2.1597905 (step)  -19.0898 (real)
------------------------------------------------------------------------

 ANCopt (total)                0 d,  0 h,  0 min, 30.208 sec
 optimizer setup                ...        0 min,  0.001 sec (  0.003%)
 model hessian                  ...        0 min,  0.350 sec (  1.159%)
 ANC generation                 ...        0 min,  0.142 sec (  0.470%)
 coordinate transformation      ...        0 min,  0.068 sec (  0.225%)
 single point calculation       ...        0 min, 29.473 sec ( 97.567%)
 optimization log               ...        0 min,  0.088 sec (  0.291%)
 hessian update                 ...        0 min,  0.028 sec (  0.093%)
 rational function              ...        0 min,  0.048 sec (  0.159%)

================
 final structure:
================
76
 xtb: 6.7.1pre (5071a88)
N           -0.10845334560934        0.24889643096049       -0.06539946323794
C            1.28809713916086        0.18088225214254        0.16972456369310
C            1.97074373346852        1.28852573206998        0.66283494633302
C            3.34989687565130        1.29446459781507        0.66561328799249
C            4.06545784624193        0.19289351951770        0.21480466306127
C            3.37466986589142       -0.96791820955464       -0.10698716048337
C            1.99478974571970       -0.97877244696307       -0.12734372021894
C            5.50721270378758        0.33321518198966       -0.16421387926717
C            5.52191615170953        0.91290468542224       -1.60932171659438
C           -0.48935187715849        1.14943190912435       -1.16997580586733
C           -0.11454768661524        2.57678813096595       -0.89568756520083
C           -0.84533782606883        3.43042375223376       -0.19705022720798
C           -0.45878241060702        4.84848900440535        0.05748391731050
C           -1.56361707464446        5.81770477545893       -0.36973699448242
C           -1.17893537016692        7.26155249876208       -0.07763618703635
O            0.04386703816850        0.71409803191138       -2.39681559049406
N           -0.75837856935786        3.12384232355688        3.47557225268704
C           -1.47933615560064        4.27559410208628        3.37928677696038
C           -0.64425229751488        5.34494724661618        3.79643753691555
C            0.60637550688840        4.76201894738933        4.13976638557943
C           -2.78718183981808        4.49183125566631        2.96617160151113
C           -1.14698540338347        6.64568178280975        3.79368025736771
C            0.49784672702426        3.41506784231627        3.93317656097712
C           -3.25593028808723        5.78845343606210        2.97274309064026
C           -2.44515710492962        6.85086984378995        3.38179781563272
C            1.48799651891434        2.32979195797305        4.16755867782780
O           -1.54672843584169        0.62596993283654        2.30056052137509
H           -0.44149882181036       -0.68611619312020       -0.29621939277541
H           -0.01717643293417       -1.06382855302412       -2.52767190161047
H            1.42277179484161        2.16297023196389        0.97279347936222
H            3.87543661214247        2.18584580340377        0.97731732272114
H            3.91965376754418       -1.85165023400668       -0.40676609682474
H            1.46362820574918       -1.86070127691482       -0.45550654271083
H            6.01546655821646       -0.63227340397533       -0.16735699456870
H            6.03894653417932        1.01482589072908        0.50084134814641
H            5.04774867365750        1.89975941275193       -1.60569483501795
H            5.34454405199402       -0.67291046526938       -2.92323371189201
H            7.21097619411171        2.72079720967124       -1.08601152270221
H           -1.57938505648131        1.05555570728789       -1.26873590683930
H            0.82536032413931        2.88148394152700       -1.33667123061238
H           -1.78568937689925        3.11896365042507        0.23832190624773
H           -0.28127986236841        4.98288810644232        1.12787158994304
H            0.46583935999550        5.08221429077615       -0.47400609219241
H           -1.75768082518298        5.69459619785198       -1.43795488482745
H           -2.47920211943716        5.57398650640927        0.17224389967833
H           -1.97136453313124        7.93825172300951       -0.38882766777907
H           -1.01163547595336        7.39450714779761        0.98870294321685
H           -0.26823986416941        7.53117319325906       -0.60863710827900
H           -1.07790501281167        2.20106569749359        3.20621142762272
H            1.47208237690415        5.28308073317162        4.49935351860947
H           -3.41362101627995        3.66798999818805        2.65560631026610
H           -0.52718316181464        7.47261203119771        4.11028182976583
H           -4.26958170524275        5.99257639652592        2.65836371941623
H           -2.85271746807317        7.85190350498254        3.37279670280740
H            2.49349371960283        2.73954563817252        4.21342768112447
H            1.27935776785260        1.82606925072816        5.11241347713490
H            1.44014371904904        1.58588363675534        3.37433875185242
H           -2.41304864028714        0.29743164356305        2.05620992940603
H           -0.98585488975322        0.56510145979439        1.50132161785012
O            0.00192688451783       -2.04008370898839       -2.49850844333277
H            1.00251481736135        0.94259056683303       -2.42758596965946
H           -0.50000892368487       -2.33846016463243       -3.25803535915902
N            4.78674382827517        0.06550029580028       -2.51392685786108
C            6.96714681816515        0.97111486402445       -2.10529966540293
O            7.42888589058260        0.10045398825069       -2.81501893301361
C            2.94378830163283       -0.84181346386430       -3.76365344593106
C            3.49502408763174        0.22138776081299       -2.84856410846673
O            2.80728650118832        1.14868150548422       -2.44111203363744
H            3.72907777302240       -1.43306689471841       -4.22379143277390
H            2.33617693920541       -0.37205121102260       -4.53364156354985
H            2.29298559850499       -1.49517846488599       -3.18245640457835
N            7.66827577221062        2.02607273495231       -1.65438281721137
C            9.06100229030959        2.23190338147206       -1.97369264448044
H            9.66329447713236        2.26181480930238       -1.06432797504923
H            9.19685589229962        3.16328083435490       -2.52559100981504
H            9.38074348597535        1.39560577144623       -2.59257944859754
 
 Bond Distances (Angstroems)
 ---------------------------
N1-C2=1.4178         N1-C10=1.4752        N1-H28=1.0190        C2-N1=1.4178         C2-C3=1.3914         C2-C7=1.3901         
C3-C2=1.3914         C3-C4=1.3792         C3-H30=1.0775        C4-C3=1.3792         C4-C5=1.3888         C4-H31=1.0807        
C5-C4=1.3888         C5-C6=1.3886         C5-C8=1.4973         C6-C5=1.3886         C6-C7=1.3801         C6-H32=1.0807        
C7-C2=1.3901         C7-C6=1.3801         C7-H33=1.0806        C8-C5=1.4973         C8-C9=1.5571         C8-H34=1.0911        
C8-H35=1.0907        C9-C8=1.5571         C9-H36=1.0949        C9-N63=1.4411        C9-C64=1.5291        C10-N1=1.4752        
C10-C11=1.5010       C10-O16=1.4068       C10-H39=1.0985       C11-C10=1.5010       C11-C12=1.3232       C11-H40=1.0820       
C12-C11=1.3232       C12-C13=1.4917       C12-H41=1.0820       C13-C12=1.4917       C13-C14=1.5305       C13-H42=1.0933       
C13-H43=1.0918       C14-C13=1.5305       C14-C15=1.5225       C14-H44=1.0927       C14-H45=1.0915       C15-C14=1.5225       
C15-H46=1.0875       C15-H47=1.0875       C15-H48=1.0881       O16-C10=1.4068       O16-H61=0.9860       N17-C18=1.3622       
N17-C23=1.3683       N17-H49=1.0130       C18-N17=1.3622       C18-C19=1.4195       C18-C21=1.3885       C19-C18=1.4195       
C19-C20=1.4219       C19-C22=1.3945       C20-C19=1.4219       C20-C23=1.3670       C20-H50=1.0725       C21-C18=1.3885       
C21-C24=1.3788       C21-H51=1.0806       C22-C19=1.3945       C22-C25=1.3773       C22-H52=1.0808       C23-N17=1.3683       
C23-C20=1.3670       C23-C26=1.4877       C24-C21=1.3788       C24-C25=1.3976       C24-H53=1.0807       C25-C22=1.3773       
C25-C24=1.3976       C25-H54=1.0809       C26-C23=1.4877       C26-H55=1.0868       C26-H56=1.0909       C26-H57=1.0885       
O27-H58=0.9582       O27-H59=0.9783       H28-N1=1.0190        H29-O60=0.9769       H30-C3=1.0775        H31-C4=1.0807        
H32-C6=1.0807        H33-C7=1.0806        H34-C8=1.0911        H35-C8=1.0907        H36-C9=1.0949        H37-N63=1.0119       
H38-N72=1.0074       H39-C10=1.0985       H40-C11=1.0820       H41-C12=1.0820       H42-C13=1.0933       H43-C13=1.0918       
H44-C14=1.0927       H45-C14=1.0915       H46-C15=1.0875       H47-C15=1.0875       H48-C15=1.0881       H49-N17=1.0130       
H50-C20=1.0725       H51-C21=1.0806       H52-C22=1.0808       H53-C24=1.0807       H54-C25=1.0809       H55-C26=1.0868       
H56-C26=1.0909       H57-C26=1.0885       H58-O27=0.9582       H59-O27=0.9783       O60-H29=0.9769       O60-H62=0.9580       
H61-O16=0.9860       H62-O60=0.9580       N63-C9=1.4411        N63-H37=1.0119       N63-C67=1.3434       C64-C9=1.5291        
C64-O65=1.2145       C64-N72=1.3446       O65-C64=1.2145       C66-C67=1.5072       C66-H69=1.0854       C66-H70=1.0875       
C66-H71=1.0901       C67-N63=1.3434       C67-C66=1.5072       C67-O68=1.2243       O68-C67=1.2243       H69-C66=1.0854       
H70-C66=1.0875       H71-C66=1.0901       N72-H38=1.0074       N72-C64=1.3446       N72-C73=1.4436       C73-N72=1.4436       
C73-H74=1.0911       C73-H75=1.0911       C73-H76=1.0884       H74-C73=1.0911       H75-C73=1.0911       H76-C73=1.0884       
 C  H  Rav=1.0867 sigma=0.0058  Rmin=1.0725  Rmax=1.0985    31
 C  C  Rav=1.4338 sigma=0.0657  Rmin=1.3232  Rmax=1.5571    24
 N  H  Rav=1.0128 sigma=0.0042  Rmin=1.0074  Rmax=1.0190     4
 N  C  Rav=1.3995 sigma=0.0478  Rmin=1.3434  Rmax=1.4752     8
 O  H  Rav=0.9715 sigma=0.0113  Rmin=0.9580  Rmax=0.9860     5
 O  C  Rav=1.2818 sigma=0.0884  Rmin=1.2145  Rmax=1.4068     3
 
 selected bond angles (degree)
 --------------------
C10-N1-C2=114.07               H28-N1-C2=108.39               H28-N1-C10=107.83              C3-C2-N1=120.25                
C7-C2-N1=120.35                C7-C2-C3=119.37                C4-C3-C2=119.65                H30-C3-C2=119.90               
H30-C3-C4=120.30               C5-C4-C3=120.74                H31-C4-C3=119.37               H31-C4-C5=119.82               
C6-C5-C4=118.81                C8-C5-C4=120.26                C8-C5-C6=119.91                C7-C6-C5=120.49                
H32-C6-C5=119.80               H32-C6-C7=119.58               C6-C7-C2=119.91                H33-C7-C2=119.73               
H33-C7-C6=120.16               C9-C8-C5=106.19                H34-C8-C5=111.49               H34-C8-C9=108.81               
H35-C8-C5=111.94               H35-C8-C9=109.19               H35-C8-H34=109.13              H36-C9-C8=109.17               
N63-C9-C8=111.03               N63-C9-H36=108.13              C64-C9-C8=108.91               C64-C9-H36=112.09              
C64-C9-N63=107.51              C11-C10-N1=112.28              O16-C10-N1=111.48              O16-C10-C11=111.04             
H39-C10-N1=105.75              H39-C10-C11=110.21             H39-C10-O16=105.74             
 
 selected dihedral angles (degree)
 ---------------------------------
C3-C2-N1-C10= 67.69           C3-C2-N1-H28=187.81           C7-C2-N1-C10=249.62           C7-C2-N1-H28=  9.73           
C4-C3-C2-N1=191.41            C4-C3-C2-C7=  9.51            H30-C3-C2-N1=  6.97           H30-C3-C2-C7=185.06           
C5-C4-C3-C2=358.27            C5-C4-C3-H30=182.73           H31-C4-C3-C2=175.26           H31-C4-C3-H30=359.73          
C6-C5-C4-C3=353.29            C6-C5-C4-H31=176.31           C8-C5-C4-C3=161.79            C8-C5-C4-H31=344.80           
C7-C6-C5-C4=  7.42            C7-C6-C5-C8=198.88            H32-C6-C5-C4=183.39           H32-C6-C5-C8= 14.85           
C6-C7-C2-N1=169.28            C6-C7-C2-C3=351.19            H33-C7-C2-N1=354.52           H33-C7-C2-C3=176.43           
C2-C7-C6-C5=  0.31            C2-C7-C6-H32=184.34           H33-C7-C6-C5=175.04           H33-C7-C6-H32=359.07          
C9-C8-C5-C4=279.00            C9-C8-C5-C6= 87.37            H34-C8-C5-C4=160.63           H34-C8-C5-C6=329.00           
H35-C8-C5-C4= 38.07           H35-C8-C5-C6=206.44           H36-C9-C8-C5= 62.06           H36-C9-C8-H34=182.19          
H36-C9-C8-H35=301.20          N63-C9-C8-C5=302.95           N63-C9-C8-H34= 63.07          N63-C9-C8-H35=182.08          
C64-C9-C8-C5=184.75           C64-C9-C8-H34=304.87          C64-C9-C8-H35= 63.88          C11-C10-N1-C2=297.13          
C11-C10-N1-H28=176.70         O16-C10-N1-C2= 62.45          O16-C10-N1-H28=302.02         H39-C10-N1-C2=176.90          
H39-C10-N1-H28= 56.47         
 
 CMA Distance (Angstroems)
 ---------------------------
R(CMA):  5.3799
           -------------------------------------------------
          |                Final Singlepoint                |
           -------------------------------------------------

          ...................................................
          :                      SETUP                      :
          :.................................................:
          :  # basis functions                 184          :
          :  # atomic orbitals                 184          :
          :  # shells                          112          :
          :  # electrons                       198          :
          :  max. iterations                   250          :
          :  Hamiltonian                  GFN2-xTB          :
          :  restarted?                      false          :
          :  GBSA solvation                  false          :
          :  PC potential                    false          :
          :  electronic temp.          500.0000000     K    :
          :  accuracy                    1.0000000          :
          :  -> integral cutoff          0.2500000E+02      :
          :  -> integral neglect         0.1000000E-07      :
          :  -> SCF convergence          0.1000000E-05 Eh   :
          :  -> wf. convergence          0.1000000E-03 e    :
          :  Broyden damping             0.4000000          :
          :  net charge                          0          :
          :  unpaired electrons                  0          :
          ...................................................

 iter      E             dE          RMSdq      gap      omega  full diag
   1   -111.8342548 -0.111834E+03  0.734E-05    2.98       0.0  T
   2   -111.8342548 -0.387388E-10  0.496E-05    2.98     231.3  T
   3   -111.8342548 -0.665779E-10  0.308E-05    2.98     372.8  T

   *** convergence criteria satisfied after 3 iterations ***

         #    Occupation            Energy/Eh            Energy/eV
      -------------------------------------------------------------
         1        2.0000           -0.7188596             -19.5612
       ...           ...                  ...                  ...
        93        2.0000           -0.3997575             -10.8780
        94        2.0000           -0.3961742             -10.7804
        95        2.0000           -0.3958170             -10.7707
        96        2.0000           -0.3889775             -10.5846
        97        2.0000           -0.3702180             -10.0741
        98        2.0000           -0.3569735              -9.7137
        99        2.0000           -0.3416420              -9.2966 (HOMO)
       100                         -0.2319595              -6.3119 (LUMO)
       101                         -0.2220594              -6.0425
       102                         -0.2153185              -5.8591
       103                         -0.2130068              -5.7962
       104                         -0.2088784              -5.6839
       ...                                ...                  ...
       184                          0.7487143              20.3736
      -------------------------------------------------------------
                  HL-Gap            0.1096825 Eh            2.9846 eV
             Fermi-level           -0.2868008 Eh           -7.8042 eV

 SCC (total)                   0 d,  0 h,  0 min,  0.064 sec
 SCC setup                      ...        0 min,  0.000 sec (  0.000%)
 Dispersion                     ...        0 min,  0.000 sec (  0.000%)
 classical contributions        ...        0 min,  0.000 sec (  0.000%)
 integral evaluation            ...        0 min,  0.010 sec ( 15.625%)
 iterations                     ...        0 min,  0.039 sec ( 60.938%)
 molecular gradient             ...        0 min,  0.015 sec ( 23.437%)
 printout                       ...        0 min,  0.000 sec (  0.000%)

         :::::::::::::::::::::::::::::::::::::::::::::::::::::
         ::                     SUMMARY                     ::
         :::::::::::::::::::::::::::::::::::::::::::::::::::::
         :: total energy            -110.271370080662 Eh    ::
         :: gradient norm              0.000204298881 Eh/a0 ::
         :: HOMO-LUMO gap              2.984611397569 eV    ::
         ::.................................................::
         :: SCC energy              -111.831577898723 Eh    ::
         :: -> isotropic ES            0.186465206624 Eh    ::
         :: -> anisotropic ES         -0.003501123659 Eh    ::
         :: -> anisotropic XC          0.043686495675 Eh    ::
         :: -> dispersion             -0.087702684802 Eh    ::
         :: repulsion energy           1.560207818061 Eh    ::
         :: add. restraining           0.000000000000 Eh    ::
         :: total charge               0.000000000000 e     ::
         :::::::::::::::::::::::::::::::::::::::::::::::::::::

           -------------------------------------------------
          |                Property Printout                |
           -------------------------------------------------

    * Orbital Energies and Occupations

         #    Occupation            Energy/Eh            Energy/eV
      -------------------------------------------------------------
         1        2.0000           -0.7188596             -19.5612
       ...           ...                  ...                  ...
        87        2.0000           -0.4204958             -11.4423
        88        2.0000           -0.4160749             -11.3220
        89        2.0000           -0.4116200             -11.2007
        90        2.0000           -0.4086060             -11.1187
        91        2.0000           -0.4066852             -11.0665
        92        2.0000           -0.4054980             -11.0342
        93        2.0000           -0.3997575             -10.8780
        94        2.0000           -0.3961742             -10.7804
        95        2.0000           -0.3958170             -10.7707
        96        2.0000           -0.3889775             -10.5846
        97        2.0000           -0.3702180             -10.0741
        98        2.0000           -0.3569735              -9.7137
        99        2.0000           -0.3416420              -9.2966 (HOMO)
       100                         -0.2319595              -6.3119 (LUMO)
       101                         -0.2220594              -6.0425
       102                         -0.2153185              -5.8591
       103                         -0.2130068              -5.7962
       104                         -0.2088784              -5.6839
       105                         -0.2013786              -5.4798
       106                         -0.1761979              -4.7946
       107                         -0.1330122              -3.6194
       108                         -0.0981901              -2.6719
       109                         -0.0493395              -1.3426
       110                         -0.0258833              -0.7043
       ...                                ...                  ...
       184                          0.7487143              20.3736
      -------------------------------------------------------------
                  HL-Gap            0.1096825 Eh            2.9846 eV
             Fermi-level           -0.2868008 Eh           -7.8042 eV

     #   Z          covCN         q      C6AA      α(0)
     1   7 N        2.684    -0.280    27.221     7.749
     2   6 C        2.916     0.076    26.313     8.412
     3   6 C        2.922    -0.047    29.171     8.857
     4   6 C        2.926    -0.034    28.836     8.806
     5   6 C        2.978     0.005    27.915     8.667
     6   6 C        2.926    -0.039    28.966     8.826
     7   6 C        2.922    -0.055    29.362     8.886
     8   6 C        3.810    -0.065    21.731     6.635
     9   6 C        3.798     0.021    20.226     6.404
    10   6 C        3.672     0.184    17.879     6.061
    11   6 C        2.890    -0.071    29.780     8.947
    12   6 C        2.891    -0.033    28.824     8.802
    13   6 C        3.808    -0.063    21.695     6.630
    14   6 C        3.802    -0.051    21.492     6.600
    15   6 C        3.752    -0.104    22.551     6.772
    16   8 O        1.653    -0.485    22.566     6.413
    17   7 N        2.783    -0.128    23.783     7.243
    18   6 C        3.092     0.044    26.915     8.503
    19   6 C        3.108    -0.017    28.285     8.714
    20   6 C        3.015    -0.094    30.334     9.034
    21   6 C        2.908    -0.054    29.336     8.881
    22   6 C        2.911    -0.042    29.044     8.837
    23   6 C        3.074     0.049    26.821     8.491
    24   6 C        2.924    -0.041    29.013     8.833
    25   6 C        2.919    -0.044    29.098     8.846
    26   6 C        3.754    -0.115    22.762     6.803
    27   8 O        1.609    -0.595    25.063     6.757
    28   1 H        0.860     0.173     1.255     1.755
    29   1 H        0.803     0.312     0.687     1.302
    30   1 H        0.926     0.051     2.310     2.377
    31   1 H        0.926     0.028     2.609     2.526
    32   1 H        0.926     0.029     2.599     2.521
    33   1 H        0.926     0.052     2.300     2.372
    34   1 H        0.924     0.049     2.335     2.389
    35   1 H        0.924     0.039     2.456     2.451
    36   1 H        0.924     0.064     2.154     2.295
    37   1 H        0.860     0.198     1.114     1.654
    38   1 H        0.860     0.171     1.265     1.762
    39   1 H        0.923     0.035     2.513     2.479
    40   1 H        0.925     0.057     2.233     2.337
    41   1 H        0.925     0.039     2.468     2.457
    42   1 H        0.924     0.056     2.252     2.347
    43   1 H        0.924     0.037     2.484     2.464
    44   1 H        0.924     0.029     2.607     2.525
    45   1 H        0.924     0.036     2.503     2.474
    46   1 H        0.925     0.033     2.543     2.494
    47   1 H        0.925     0.041     2.433     2.439
    48   1 H        0.925     0.032     2.559     2.501
    49   1 H        0.860     0.201     1.103     1.645
    50   1 H        0.926     0.016     2.800     2.617
    51   1 H        0.926     0.016     2.791     2.613
    52   1 H        0.926     0.017     2.780     2.608
    53   1 H        0.926     0.016     2.792     2.613
    54   1 H        0.926     0.016     2.796     2.615
    55   1 H        0.925     0.044     2.399     2.422
    56   1 H        0.924     0.048     2.347     2.396
    57   1 H        0.925     0.052     2.297     2.370
    58   1 H        0.806     0.274     0.805     1.409
    59   1 H        0.803     0.302     0.717     1.330
    60   8 O        1.609    -0.612    25.475     6.812
    61   1 H        0.802     0.335     0.624     1.241
    62   1 H        0.806     0.268     0.825     1.427
    63   7 N        2.695    -0.168    24.631     7.371
    64   6 C        2.759     0.265    22.536     7.774
    65   8 O        0.858    -0.434    22.369     6.341
    66   6 C        3.757    -0.154    23.533     6.916
    67   6 C        2.748     0.282    22.226     7.720
    68   8 O        0.858    -0.474    23.225     6.461
    69   1 H        0.925     0.049     2.327     2.386
    70   1 H        0.925     0.073     2.051     2.239
    71   1 H        0.925     0.096     1.819     2.109
    72   7 N        2.685    -0.166    24.583     7.364
    73   6 C        3.690    -0.047    21.609     6.653
    74   1 H        0.924     0.055     2.254     2.348
    75   1 H        0.924     0.056     2.249     2.345
    76   1 H        0.925     0.091     1.870     2.139

 Mol. C6AA /au·bohr⁶  :      56335.442642
 Mol. C8AA /au·bohr⁸  :    1285473.316034
 Mol. α(0) /au        :        366.612866


Wiberg/Mayer (AO) data.
largest (>0.10) Wiberg bond orders for each atom

 ---------------------------------------------------------------------------
     #   Z sym  total        # sym  WBO       # sym  WBO       # sym  WBO
 ---------------------------------------------------------------------------
     1   7 N    3.204 --     2 C    1.051    10 C    0.949    28 H    0.938
     2   6 C    3.972 --     7 C    1.387     3 C    1.375     1 N    1.051
     3   6 C    3.990 --     4 C    1.460     2 C    1.375    30 H    0.961
                             6 C    0.103
     4   6 C    3.991 --     3 C    1.460     5 C    1.401    31 H    0.969
                             7 C    0.104
     5   6 C    3.985 --     6 C    1.402     4 C    1.401     8 C    1.012
     6   6 C    3.990 --     7 C    1.452     5 C    1.402    32 H    0.969
                             3 C    0.103
     7   6 C    3.989 --     6 C    1.452     2 C    1.387    33 H    0.963
                             4 C    0.104
     8   6 C    3.992 --     5 C    1.012    34 H    0.974    35 H    0.972
                             9 C    0.937
     9   6 C    3.973 --    63 N    1.000    36 H    0.954    64 C    0.939
                             8 C    0.937
    10   6 C    3.947 --    11 C    0.997    16 O    0.989    39 H    0.955
                             1 N    0.949
    11   6 C    3.984 --    12 C    1.921    10 C    0.997    40 H    0.958
    12   6 C    3.989 --    11 C    1.921    13 C    1.031    41 H    0.963
    13   6 C    3.996 --    12 C    1.031    14 C    0.992    43 H    0.975
                            42 H    0.950
    14   6 C    3.996 --    15 C    1.019    13 C    0.992    44 H    0.980
                            45 H    0.977
    15   6 C    3.996 --    14 C    1.019    48 H    0.988    46 H    0.987
                            47 H    0.985
    16   8 O    1.997 --    10 C    0.989    61 H    0.821
    17   7 N    3.548 --    23 C    1.200    18 C    1.189    49 H    0.900
    18   6 C    3.962 --    21 C    1.340    19 C    1.233    17 N    1.189
    19   6 C    3.985 --    22 C    1.331    20 C    1.233    18 C    1.233
    20   6 C    3.969 --    23 C    1.564    19 C    1.233    50 H    0.974
    21   6 C    3.988 --    24 C    1.487    18 C    1.340    51 H    0.969
                            22 C    0.109
    22   6 C    3.989 --    25 C    1.499    19 C    1.331    52 H    0.970
                            21 C    0.109
    23   6 C    3.959 --    20 C    1.564    17 N    1.200    26 C    1.029
    24   6 C    3.989 --    21 C    1.487    25 C    1.372    53 H    0.973
    25   6 C    3.991 --    22 C    1.499    24 C    1.372    54 H    0.972
    26   6 C    3.995 --    23 C    1.029    55 H    0.983    57 H    0.974
                            56 H    0.967
    27   8 O    1.851 --    58 H    0.920    59 H    0.848
    28   1 H    0.969 --     1 N    0.938
    29   1 H    0.903 --    60 O    0.849
    30   1 H    0.997 --     3 C    0.961
    31   1 H    0.999 --     4 C    0.969
    32   1 H    0.999 --     6 C    0.969
    33   1 H    0.997 --     7 C    0.963
    34   1 H    0.997 --     8 C    0.974
    35   1 H    0.998 --     8 C    0.972
    36   1 H    0.996 --     9 C    0.954
    37   1 H    0.960 --    63 N    0.921
    38   1 H    0.971 --    72 N    0.943
    39   1 H    0.998 --    10 C    0.955
    40   1 H    0.997 --    11 C    0.958
    41   1 H    0.998 --    12 C    0.963
    42   1 H    0.997 --    13 C    0.950
    43   1 H    0.999 --    13 C    0.975
    44   1 H    0.999 --    14 C    0.980
    45   1 H    0.999 --    14 C    0.977
    46   1 H    0.998 --    15 C    0.987
    47   1 H    0.998 --    15 C    0.985
    48   1 H    0.999 --    15 C    0.988
    49   1 H    0.959 --    17 N    0.900
    50   1 H    0.999 --    20 C    0.974
    51   1 H    0.999 --    21 C    0.969
    52   1 H    0.999 --    22 C    0.970
    53   1 H    0.999 --    24 C    0.973
    54   1 H    0.999 --    25 C    0.972
    55   1 H    0.997 --    26 C    0.983
    56   1 H    0.993 --    26 C    0.967
    57   1 H    0.996 --    26 C    0.974
    58   1 H    0.925 --    27 O    0.920
    59   1 H    0.909 --    27 O    0.848
    60   8 O    1.817 --    62 H    0.926    29 H    0.849
    61   1 H    0.887 --    16 O    0.821
    62   1 H    0.928 --    60 O    0.926
    63   7 N    3.464 --    67 C    1.279     9 C    1.000    37 H    0.921
                            68 O    0.183
    64   6 C    3.953 --    65 O    1.676    72 N    1.270     9 C    0.939
    65   8 O    2.011 --    64 C    1.676    72 N    0.201
    66   6 C    3.991 --    67 C    0.992    69 H    0.983    70 H    0.971
                            71 H    0.950
    67   6 C    3.945 --    68 O    1.621    63 N    1.279    66 C    0.992
    68   8 O    1.982 --    67 C    1.621    63 N    0.183
    69   1 H    0.998 --    66 C    0.983
    70   1 H    0.994 --    66 C    0.971
    71   1 H    0.991 --    66 C    0.950
    72   7 N    3.453 --    64 C    1.270    73 C    1.002    38 H    0.943
                            65 O    0.201
    73   6 C    3.959 --    72 N    1.002    74 H    0.977    75 H    0.977
                            76 H    0.975
    74   1 H    0.997 --    73 C    0.977
    75   1 H    0.997 --    73 C    0.977
    76   1 H    0.992 --    73 C    0.975
 ---------------------------------------------------------------------------

Topologies differ in total number of bonds
Writing topology from bond orders to xtbtopo.mol

molecular dipole:
                 x           y           z       tot (Debye)
 q only:        1.587      -0.271      -0.469
   full:        1.586      -0.495      -0.984       4.907
molecular quadrupole (traceless):
                xx          xy          yy          xz          yz          zz
 q only:       35.498      28.961     -18.479       8.898     -12.498     -17.020
  q+dip:       40.343      33.536     -16.418      11.784     -11.674     -23.924
   full:       38.223      33.814     -19.365      11.411     -14.349     -18.858

           -------------------------------------------------
          |                Geometry Summary                 |
           -------------------------------------------------

      molecular mass/u    :      500.6313367
   center of mass at/Å    :        1.5777517       2.1350752       0.1870592
  moments of inertia/u·Å² :        0.3151519E+04   0.9083582E+04   0.9964164E+04
rotational constants/cm⁻¹ :        0.5349049E-02   0.1855835E-02   0.1691826E-02

 * 69 selected distances

     #   Z          #   Z                                           value/Å
     1   7 N        2   6 C                                       1.4178374
     2   6 C        3   6 C                                       1.3914161
     3   6 C        4   6 C                                       1.3791689
     4   6 C        5   6 C                                       1.3887819
     5   6 C        6   6 C                                       1.3886044
     2   6 C        7   6 C                                       1.3901307
     6   6 C        7   6 C                                       1.3800731
     1   7 N       10   6 C                                       1.4751736
    11   6 C       12   6 C                                       1.3231940
    13   6 C       14   6 C                                       1.5305414 (max)
    14   6 C       15   6 C                                       1.5224978
    10   6 C       16   8 O                                       1.4067602
    17   7 N       18   6 C                                       1.3621979
    18   6 C       19   6 C                                       1.4194704
    19   6 C       20   6 C                                       1.4218827
    18   6 C       21   6 C                                       1.3884824
    19   6 C       22   6 C                                       1.3945103
    17   7 N       23   6 C                                       1.3683261
    20   6 C       23   6 C                                       1.3670170
    21   6 C       24   6 C                                       1.3787667
    22   6 C       25   6 C                                       1.3773160
    24   6 C       25   6 C                                       1.3976437
    23   6 C       26   6 C                                       1.4876679
     1   7 N       28   1 H                                       1.0190417
     3   6 C       30   1 H                                       1.0774975
     4   6 C       31   1 H                                       1.0806998
     6   6 C       32   1 H                                       1.0806745
     7   6 C       33   1 H                                       1.0805656
     8   6 C       34   1 H                                       1.0911005
     8   6 C       35   1 H                                       1.0907028
     9   6 C       36   1 H                                       1.0948655
    10   6 C       39   1 H                                       1.0985167
    11   6 C       40   1 H                                       1.0820044
    12   6 C       41   1 H                                       1.0820432
    13   6 C       42   1 H                                       1.0932979
    13   6 C       43   1 H                                       1.0918035
    14   6 C       44   1 H                                       1.0926601
    14   6 C       45   1 H                                       1.0915302
    15   6 C       46   1 H                                       1.0875230
    15   6 C       47   1 H                                       1.0875411
    15   6 C       48   1 H                                       1.0881286
    17   7 N       49   1 H                                       1.0130001
    20   6 C       50   1 H                                       1.0725003
    21   6 C       51   1 H                                       1.0805515
    22   6 C       52   1 H                                       1.0808354
    24   6 C       53   1 H                                       1.0807359
    25   6 C       54   1 H                                       1.0808585
    26   6 C       55   1 H                                       1.0867506
    26   6 C       56   1 H                                       1.0908792
    26   6 C       57   1 H                                       1.0885254
    27   8 O       58   1 H                                       0.9582043
    27   8 O       59   1 H                                       0.9782981
    29   1 H       60   8 O                                       0.9768776
    16   8 O       61   1 H                                       0.9859825
    60   8 O       62   1 H                                       0.9580446 (min)
     9   6 C       63   7 N                                       1.4411396
    37   1 H       63   7 N                                       1.0118912
    64   6 C       65   8 O                                       1.2144773
    63   7 N       67   6 C                                       1.3434371
    67   6 C       68   8 O                                       1.2242852
    66   6 C       69   1 H                                       1.0853513
    66   6 C       70   1 H                                       1.0875431
    66   6 C       71   1 H                                       1.0900551
    38   1 H       72   7 N                                       1.0073783
    64   6 C       72   7 N                                       1.3445610
    72   7 N       73   6 C                                       1.4436109
    73   6 C       74   1 H                                       1.0911438
    73   6 C       75   1 H                                       1.0911059
    73   6 C       76   1 H                                       1.0884159

 * 6 distinct bonds (by element types)

   Z      Z             #   av. dist./Å        max./Å        min./Å
   1 H    6 C          31     1.0866583     1.0985167     1.0725003
   6 C    6 C          18     1.4070647     1.5305414     1.3231940
   1 H    7 N           4     1.0128278     1.0190417     1.0073783
   6 C    7 N           8     1.3995355     1.4751736     1.3434371
   1 H    8 O           5     0.9714814     0.9859825     0.9580446
   6 C    8 O           3     1.2818409     1.4067602     1.2144773


optimized geometry written to: xtbopt.xyz


           -------------------------------------------------
          | TOTAL ENERGY             -110.271370080662 Eh   |
          | GRADIENT NORM               0.000204298881 Eh/α |
          | HOMO-LUMO GAP               2.984611397569 eV   |
           -------------------------------------------------

------------------------------------------------------------------------
 * finished run on 2026/08/20 at 20:37:08.319     
------------------------------------------------------------------------
 total:
 * wall-time:     0 d,  0 h,  0 min, 30.646 sec
 *  cpu-time:     0 d,  0 h,  1 min,  5.516 sec
 * ratio c/w:     2.138 speedup
 SCF:
 * wall-time:     0 d,  0 h,  0 min,  0.347 sec
 *  cpu-time:     0 d,  0 h,  0 min,  0.781 sec
 * ratio c/w:     2.251 speedup
 ANC optimizer:
 * wall-time:     0 d,  0 h,  0 min, 30.273 sec
 *  cpu-time:     0 d,  0 h,  1 min,  4.719 sec
 * ratio c/w:     2.138 speedup



===== STDERR =====

normal termination of xtb
