76
 xtb: 6.7.1pre (5071a88)
N           -0.13014611493761        0.25293245230359       -0.07463670943564
C            1.26700201805083        0.19084932031790        0.16881111497032
C            1.94294614781790        1.30360632730998        0.65981752553507
C            3.32213546592921        1.31475716611226        0.66986044572832
C            4.04409745718426        0.21346421517331        0.22856368527142
C            3.35930397409088       -0.95157603469254       -0.09088252699360
C            1.97958452254598       -0.96770818376258       -0.11849205187270
C            5.48732577819867        0.35716993142626       -0.14354635225502
C            5.50749495009244        0.92954312936151       -1.59153618245391
C           -0.50680853201569        1.14638758136622       -1.18489070477794
C           -0.13777593145490        2.57622890278578       -0.91557202335901
C           -0.87406297504170        3.43084402461196       -0.22391735818275
C           -0.49230760198430        4.85086485169819        0.02714271179820
C           -1.59677797769972        5.81601887609317       -0.41016229475163
C           -1.21696998311323        7.26176239733444       -0.12104593861688
O            0.03246944603853        0.70575875033185       -2.40847221721432
N           -0.72032593538240        3.09688752370188        3.47718284694350
C           -1.43297092974705        4.25709507540992        3.37494339432662
C           -0.58940595363933        5.32001229972177        3.79165868073266
C            0.65430951976899        4.72629367114892        4.14189535926133
C           -2.73799576152179        4.48402158534329        2.95820753513399
C           -1.08020081884869        6.62531640924272        3.78352159753505
C            0.53395870231661        3.37981491348695        3.93933398156577
C           -3.19499725127829        5.78489085930582        2.95982958861584
C           -2.37541435991595        6.84116615837084        3.36751106349872
C            1.51288816800637        2.28612496102666        4.18113355822138
O           -1.57321998464729        0.62532359952760        2.29071951765526
H           -0.44604612956611       -0.68570945003714       -0.29777681487172
H           -0.01754977939765       -1.06622367157811       -2.52840655348630
H            1.41329042616113        2.16725559053365        0.96965619896877
H            3.86591336645352        2.19273969370617        0.97810046256768
H            3.91660803113933       -1.84678880515459       -0.39995452846598
H            1.46066092305916       -1.85855534298991       -0.45243967996818
H            6.01073652540047       -0.62481949194680       -0.15917674159873
H            6.03143454543417        1.02329983655107        0.50662054627586
H            5.04253365410795        1.90406693085894       -1.60272373188259
H            5.34410785946017       -0.67014880135939       -2.91612564016411
H            7.20418757184792        2.72797818549407       -1.08068708130138
H           -1.58421322134821        1.05351482266183       -1.27453376207786
H            0.81897331582978        2.88155700067743       -1.34155126551857
H           -1.79434339909215        3.11887254749530        0.22965090357583
H           -0.29286233467830        4.98482534288368        1.11925459257927
H            0.45687120795868        5.08290395039402       -0.48152293234967
H           -1.76540178164313        5.69285324528124       -1.44986169581490
H           -2.48955229861711        5.57345173744337        0.15922193225561
H           -1.98220436014318        7.93753129246787       -0.40352521990606
H           -1.02446904672848        7.39577177578772        0.97627177312084
H           -0.27847432105725        7.53120420356151       -0.61992432303471
H           -1.07031317755096        2.19458466859972        3.20706441976305
H            1.48694779678651        5.27070607984564        4.50060943561988
H           -3.40134048825567        3.66710880828377        2.65372443357195
H           -0.50586595657569        7.46535567937856        4.10708863774604
H           -4.25118830233672        5.99397712028087        2.65389893874394
H           -2.82988582318977        7.85016285211829        3.36760033152598
H            2.49934858050117        2.72750824847615        4.24103091507348
H            1.26993548592749        1.79963408469281        5.10527593531210
H            1.46260807219520        1.58430460354036        3.36683984937082
H           -2.42415189685947        0.31219270335943        2.04949860620423
H           -0.99240271404017        0.56446576391903        1.49897908253656
O            0.00622554296380       -2.04934153564489       -2.49710343673293
H            0.99949206935743        0.94132518087004       -2.42941924919603
H           -0.49794509967226       -2.34238930262814       -3.25771226863657
N            4.77971804519878        0.07562288035382       -2.49430317832932
C            6.95512410069962        0.99055568324040       -2.08022635238459
O            7.42280651153238        0.12106101473065       -2.77876251460676
C            2.94761797390375       -0.84538016053576       -3.75127231381894
C            3.48974796301897        0.22420588008539       -2.83815537034790
O            2.79448571772214        1.15109737966769       -2.43844740592046
H            3.73154871886593       -1.43403618531232       -4.21796864289580
H            2.33819475617681       -0.37479070046343       -4.53182189376341
H            2.29366025235821       -1.49600636801312       -3.17909494441405
N            7.64876330578321        2.05191062319793       -1.62850775560061
C            9.04390606571071        2.25921564573554       -1.94334928716312
H            9.65693323709979        2.27146830098369       -1.05468546147202
H            9.19181138509700        3.17058129250398       -2.51782119948565
H            9.37756955862146        1.40300198605057       -2.58224949823342
