76
 energy: -110.268061237445 gnorm: 0.000257708273 xtb: 6.7.1pre (5071a88)
N           -0.21071519489152        0.50858021797988        0.13333350735351
C            1.14845006816880        0.19341784509387        0.10160824273786
C            1.96596317855667        0.38727116906204        1.21375889962885
C            3.31164818829374        0.09693215766041        1.14450106206263
C            3.87231929397997       -0.39504743138361       -0.02690831470098
C            3.03473141289412       -0.66889432063834       -1.10094335752796
C            1.68281729317773       -0.39792919654687       -1.03997070410244
C            5.36108082975963       -0.45777362023807       -0.18355934912519
C            5.83508102307442        0.95501141713780       -0.57271131299499
C           -0.64228738471847        1.67193209722829        0.40670654919249
C            0.12775884615464        2.90498580515622        0.65701619310047
C           -0.58667173987325        4.20559913738848        0.21119276504353
C            0.24415301953736        5.12136543761403       -0.67321105045129
C            0.27811487083858        4.64385292344275       -2.12270330251527
C            1.12703060346952        5.56609345785914       -2.98873370774837
O           -1.57272513072036       -0.24854764996826       -2.20189620832831
N           -0.75945970915164        2.72488955258647        3.07074022254794
C           -2.03719586190463        3.22918988274124        3.01934880518686
C           -2.08135052269188        4.41655532801232        2.27309348177386
C           -0.72696989241259        4.65727131336833        1.67924920216067
C           -3.17740449037243        2.74153191520006        3.63517212012656
C           -3.25153875326120        5.12565048291914        2.14932900120361
C            0.09279512602186        3.43153312951315        2.14748548597805
C           -4.35466827563423        3.46366137271142        3.50036554323108
C           -4.39782529997148        4.64055435199341        2.77288812197641
C            1.46368223913440        3.69801252949076        2.73932322490648
O           -0.74723603684845       -0.31991238210271        3.02695263102172
H           -1.14074142361847       -0.15904908771607       -1.33130493364920
H           -0.36769861708262        0.81147092824843       -3.12018971565495
H            1.53350539498878        0.76912346011271        2.12548218105285
H            3.94268850461715        0.28539777181405        2.00107636823468
H            3.44657655093813       -1.08800233158917       -2.00828760716721
H            1.05301075177024       -0.58590334748960       -1.89387742043769
H            5.65462448488478       -1.16174714818906       -0.96387390641392
H            5.85801151690872       -0.74618903117845        0.74230078270151
H            5.55081920583416        1.66178949724263        0.21769742715851
H            5.27377728636232        0.83202311117762       -2.58729136218402
H            7.10529353747055        2.96442804132614       -1.27397504898814
H           -1.72607494896778        1.76855379310503        0.44676935931634
H            1.14816769165077        2.80215511845070        0.28188861966275
H           -1.55529104363634        4.02146819159782       -0.26328340228336
H           -0.18269273741350        6.12782015295400       -0.63432921374426
H            1.26425981564174        5.17471743173374       -0.28785730611440
H            0.67916089438624        3.63027236085610       -2.16136638224109
H           -0.74109832391023        4.61455061494178       -2.51667936267374
H            1.16791795722886        5.20343757137130       -4.01350178218049
H            0.71233939967384        6.57243454434768       -2.99746905529437
H            2.14091748636017        5.62186165227771       -2.59806778377604
H           -0.61107093435001        1.74665037055617        3.26927008725034
H           -0.32003532084076        5.64332860104997        1.90278464120098
H           -3.14559874622115        1.82261557669970        4.20015022041692
H           -3.28394878623641        6.03828737422436        1.57176000063160
H           -5.25493474114958        3.09737299621232        3.97283132358366
H           -5.32656701172427        5.18394955804632        2.68328786225249
H            2.08711967392855        4.23438780074940        2.02954337903177
H            1.35452859057032        4.29399032586461        3.64320289187511
H            1.96131686762742        2.76711040818495        2.99835521631843
H           -0.69539926673642       -1.19740285848670        3.40979751905211
H           -0.71412224958258       -0.42346166062590        2.06947460761634
O            0.27831914691327        1.43248642194108       -3.49478856376527
H           -2.50745576436058       -0.08672129213405       -2.06390338239018
H           -0.16140070046736        1.86850914306758       -4.22594816227299
N            5.16989177878039        1.41853251054100       -1.77360372908174
C            7.35569278338451        1.00886052060739       -0.76761181453759
O            8.08737118498114        0.05927051159022       -0.59151002907237
C            3.41371151556562        2.46053043882433       -3.05189608657419
C            4.13166370558145        2.29819352383193       -1.73848741890042
O            3.85273512591721        2.92711522834783       -0.73746086605281
H            3.99860056028594        2.08196472040311       -3.88517902349518
H            3.18459998602152        3.51046703626338       -3.20989232903951
H            2.46615584790571        1.92266473711073       -3.00834730234939
N            7.78155083452858        2.22502233946710       -1.16348738400249
C            9.16837361178651        2.52597465607448       -1.41748880649860
H            9.52381791055113        3.30968052976103       -0.74613306657158
H            9.31161254105201        2.84808569558949       -2.45067067982429
H            9.73642077133412        1.61413456760617       -1.24033731177415
