76
 energy: -110.267246378021 gnorm: 0.000179476825 xtb: 6.7.1pre (5071a88)
N            0.67906315279466        0.77178862467348        0.50097875854647
C            2.03864454353669        0.59626806995109        0.41158971823665
C            2.96577635237545        1.59161654012305        0.73562405220720
C            4.31984468101601        1.34210453431793        0.65747711769676
C            4.80676765758416        0.10088242050405        0.26489868679082
C            3.88621692040355       -0.89989476321162       -0.02427149556758
C            2.52947803233918       -0.66383129399327        0.05267139492356
C            6.28248926105505       -0.12953273707894        0.10895237494723
C            6.80557503554344        0.55192456577053       -1.15861455478558
C           -0.06326822722504        1.93002460273231        0.42392796284013
C            0.29288747832477        3.12988787488786       -0.03183538753641
C           -0.67945227098363        4.28220988320736       -0.08734862367305
C            0.03124712442587        5.64737431832041       -0.13317692119338
C            0.76987289069542        5.90182223031094       -1.44529976521528
C            1.40224066835825        7.28830065512743       -1.46922291118245
O           -1.65818125535560       -0.99836908360567        0.32203448276043
N           -2.52749127967654        4.14776835717729        3.11851151642581
C           -3.59100023769718        4.17434007416609        2.26815189173433
C           -3.07385682439201        4.22667919225214        0.94755057438881
C           -1.64886078424874        4.23719672090672        1.05911721868085
C           -4.95586353996221        4.13961205902394        2.51945424494986
C           -3.96386684833658        4.24454167194082       -0.12970724387925
C           -1.35777052082287        4.18974962589292        2.39921322921878
C           -5.80849905066642        4.15715696076588        1.43509898694654
C           -5.31721616836787        4.20876588539089        0.12763512738917
C           -0.05330180916080        4.17052921008006        3.10979276970169
O           -3.61531560566075        1.04920793497410        0.49602065903240
H            0.11855350563914       -0.07349408803344        0.49233301460272
H           -1.99136121732627       -1.58860984606528       -0.35552423642553
H            2.62042831512361        2.55157544837708        1.08274304008796
H            5.01712174765622        2.12620175667892        0.91697309787770
H            4.23651274594655       -1.88569486326070       -0.30136442321708
H            1.82711371112945       -1.45671615645272       -0.16283362985697
H            6.50624080435342       -1.19594622015005        0.04453794757729
H            6.83189513834286        0.27314915817444        0.96131643606073
H            6.74799533019760        1.64381781187373       -1.06417362622491
H            5.41165263074721       -0.64987613435685       -2.17968840291555
H            8.24927130153076        1.61240944504488       -2.85860830262870
H           -1.07728052813731        1.77816044195652        0.76959678126865
H            1.27441889759145        3.30630750423219       -0.43905994917133
H           -1.26261545908402        4.19515996386540       -1.01526049326628
H           -0.72480980962604        6.42933100971154       -0.01159178707228
H            0.73067551809774        5.72540263777603        0.70116552167486
H            1.54969906559601        5.15256392797241       -1.58810789171357
H            0.06759173806522        5.80883458612415       -2.27741362216245
H            1.92974528876837        7.45164862614282       -2.40595310827505
H            0.64109447116825        8.05934051748941       -1.36594461526994
H            2.11273904855748        7.39779790195325       -0.65259329346619
H           -2.57615076366163        4.16786082373279        4.12266414049026
H           -1.40185444251609        6.64188054162635        2.27248720998896
H           -5.33400390627105        4.10467601713397        3.53042206495511
H           -3.59835392184421        4.29089262878874       -1.14544215813688
H           -6.87588960516255        4.13389917383307        1.59532502112287
H           -6.01769563109758        4.22361122371146       -0.69406862281225
H            0.75080048214580        3.97879260912298        2.40686658211965
H            0.12172858101998        5.12589186762187        3.60528674151442
H           -0.04726202375313        3.38755363314004        3.86711602327273
H           -4.24700138054578        1.11981759383534        1.21442755565246
H           -3.45201148274792        1.94796153677233        0.18684644413114
O           -1.31663115604380        7.26093050448692        3.00407091783029
H           -2.32454679487617       -0.30067700867098        0.41874007813217
H           -1.41159019912121        8.14286883862486        2.64027549855546
N            5.98075882009063        0.17431202098919       -2.29439853976252
C            8.27819578445268        0.17011658013884       -1.42770793793998
O            8.84627860342188       -0.72772873512012       -0.84048012362295
C            4.77375656428098        0.45249984639963       -4.34826395061597
C            5.81872192422148        0.95355259578682       -3.37822435508241
O            6.47233434140660        1.96818206983110       -3.55851682696408
H            5.03371298419807       -0.54509051975617       -4.69532534414051
H            4.71852478330266        1.12603978546102       -5.19830709453262
H            3.80409377570245        0.41115776375118       -3.85639272909867
N            8.83797922859089        0.94281360240811       -2.37074292659415
C           10.18817091552980        0.74669780818344       -2.83651922349329
H           10.76084522902747        1.66986456542481       -2.73440242266459
H           10.19701621213799        0.43743527169366       -3.88378613127512
H           10.64223145833480       -0.03230020251689       -2.22572221304773
