      -----------------------------------------------------------      
     |                   =====================                   |     
     |                           x T B                           |     
     |                   =====================                   |     
     |                         S. Grimme                         |     
     |          Mulliken Center for Theoretical Chemistry        |     
     |                    University of Bonn                     |     
      -----------------------------------------------------------      

   * xtb version 6.7.1pre (5071a88) compiled by 'Marcel@Raven' on 2024-07-23

   xtb is free software: you can redistribute it and/or modify it under
   the terms of the GNU Lesser General Public License as published by
   the Free Software Foundation, either version 3 of the License, or
   (at your option) any later version.
   
   xtb is distributed in the hope that it will be useful,
   but WITHOUT ANY WARRANTY; without even the implied warranty of
   MERCHANTABILITY or FITNESS FOR A PARTICULAR PURPOSE.  See the
   GNU Lesser General Public License for more details.
   
   Cite this work as:
   * C. Bannwarth, E. Caldeweyher, S. Ehlert, A. Hansen, P. Pracht,
     J. Seibert, S. Spicher, S. Grimme, WIREs Comput. Mol. Sci., 2020, 11,
     e01493. DOI: 10.1002/wcms.1493
   
   for GFN2-xTB:
   * C. Bannwarth, S. Ehlert and S. Grimme., J. Chem. Theory Comput., 2019,
     15, 1652-1671. DOI: 10.1021/acs.jctc.8b01176
   for GFN1-xTB:
   * S. Grimme, C. Bannwarth, P. Shushkov, J. Chem. Theory Comput., 2017,
     13, 1989-2009. DOI: 10.1021/acs.jctc.7b00118
   for GFN0-xTB:
   * P. Pracht, E. Caldeweyher, S. Ehlert, S. Grimme, ChemRxiv, 2019, preprint.
     DOI: 10.26434/chemrxiv.8326202.v1
   for GFN-FF:
   * S. Spicher and S. Grimme, Angew. Chem. Int. Ed., 2020, 59, 15665-15673.
     DOI: 10.1002/anie.202004239
   
   for ALPB and GBSA implicit solvation:
   * S. Ehlert, M. Stahn, S. Spicher, S. Grimme, J. Chem. Theory Comput.,
     2021, 17, 4250-4261. DOI: 10.1021/acs.jctc.1c00471
   
   for ddCOSMO and CPCM-X implicit solvation:
   * M. Stahn, S. Ehlert, S. Grimme, J. Phys. Chem. A,
     2023, XX, XXXX-XXXX. DOI: 10.1021/acs.jpca.3c04382
   
   for DFT-D4:
   * E. Caldeweyher, C. Bannwarth and S. Grimme, J. Chem. Phys., 2017,
     147, 034112. DOI: 10.1063/1.4993215
   * E. Caldeweyher, S. Ehlert, A. Hansen, H. Neugebauer, S. Spicher,
     C. Bannwarth and S. Grimme, J. Chem. Phys., 2019, 150, 154122.
     DOI: 10.1063/1.5090222
   * E. Caldeweyher, J.-M. Mewes, S. Ehlert and S. Grimme, Phys. Chem. Chem. Phys.
     2020, 22, 8499-8512. DOI: 10.1039/D0CP00502A
   
   for sTDA-xTB:
   * S. Grimme and C. Bannwarth, J. Chem. Phys., 2016, 145, 054103.
     DOI: 10.1063/1.4959605
   
   in the mass-spec context:
   * V. Asgeirsson, C. Bauer and S. Grimme, Chem. Sci., 2017, 8, 4879.
     DOI: 10.1039/c7sc00601b
   * J. Koopman and S. Grimme, ACS Omega 2019, 4, 12, 15120-15133.
     DOI: 10.1021/acsomega.9b02011
   
   for metadynamics refer to:
   * S. Grimme, J. Chem. Theory Comput., 2019, 155, 2847-2862
     DOI: 10.1021/acs.jctc.9b00143
   
   for SPH calculations refer to:
   * S. Spicher and S. Grimme, J. Chem. Theory Comput., 2021, 17, 1701-1714
     DOI: 10.1021/acs.jctc.0c01306
   
   for ONIOM refer to:
   * C. Plett, A. Katbashev, S. Ehlert, S. Grimme, M. Bursch,
     Phys. Chem. Chem. Phys., 2023, 25, 17860-17868. DOI: 10.1039/D3CP02178E
   
   for DIPRO refer to:
   * J. Kohn, N. Gildemeister, S. Grimme, D. Fazzi, A. Hansen,
     J. Chem. Phys., 2023, just accepted.
   
   for PTB refer to:
   * S. Grimme, M. Mueller, A. Hansen, J. Chem. Phys., 2023, 158, 124111.
     DOI: 10.1063/5.0137838
   
   with help from (in alphabetical order)
   P. Atkinson, C. Bannwarth, F. Bohle, G. Brandenburg, E. Caldeweyher
   M. Checinski, S. Dohm, S. Ehlert, S. Ehrlich, I. Gerasimov, C. Hölzer
   A. Katbashev, J. Kohn, J. Koopman, C. Lavigne, S. Lehtola, F. März, M. Müller,
   F. Musil, H. Neugebauer, J. Pisarek, C. Plett, P. Pracht, F. Pultar,
   J. Seibert, P. Shushkov, S. Spicher, M. Stahn, M. Steiner, T. Strunk,
   J. Stückrath, T. Rose, and J. Unsleber
   
 * started run on 2026/08/20 at 01:06:41.451     
   ID    Z sym.   atoms
    1    7 N      1, 17, 63, 72
    2    6 C      2-15, 18-26, 64, 66, 67, 73
    3    8 O      16, 27, 60, 65, 68
    4    1 H      28-59, 61, 62, 69-71, 74-76

           -------------------------------------------------
          |                Calculation Setup                |
           -------------------------------------------------

          program call               : C:\Users\Nayanika\Downloads\xtb-6.7.1pre-windows-x86_64\xtb-6.7.1\bin\xtb.exe D:\PhD_Thesis\LmrR_EVB\charges\fast_lmrr_evb_qm\pdb_preserving_xtb_qm_inputs\RS2_1_to_TS2_1a\RS2_1_to_TS2_1a_RS.xyz --gfn 2 --opt tight --chrg 0 --uhf 0 --scf normal --etemp 500 --acc 1.0
          coordinate file            : D:\PhD_Thesis\LmrR_EVB\charges\fast_lmrr_evb_qm\pdb_preserving_xtb_qm_inputs\RS2_1_to_TS2_1a\RS2_1_to_TS2_1a_RS.xyz
          omp threads                :                     1


molecular fragmentation (1/2 indicates fragments):
111111111111111222222222222121111111111111111111222222222222221111111111
1111
# atoms in fragment 1/2:    49    27
 fragment masses (1/2) :      316.42      184.21
CMA distance (Bohr)    :  12.741
constraining FC (au)   :  0.0500
########################################################################
[WARNING] Please study the warnings concerning your input carefully
-1- prog_main_parseArguments: Unknown option '--scf' provided
########################################################################

           -------------------------------------------------
          |                 G F N 2 - x T B                 |
           -------------------------------------------------

        Reference                      10.1021/acs.jctc.8b01176
      * Hamiltonian:
        H0-scaling (s, p, d)           1.850000    2.230000    2.230000
        zeta-weighting                 0.500000
      * Dispersion:
        s8                             2.700000
        a1                             0.520000
        a2                             5.000000
        s9                             5.000000
      * Repulsion:
        kExp                           1.500000    1.000000
        rExp                           1.000000
      * Coulomb:
        alpha                          2.000000
        third order                    shell-resolved
        anisotropic                    true
        a3                             3.000000
        a5                             4.000000
        cn-shift                       1.200000
        cn-exp                         4.000000
        max-rad                        5.000000

q/qsh data taken from xtbrestart
CAMM data taken from xtbrestart

          ...................................................
          :                      SETUP                      :
          :.................................................:
          :  # basis functions                 184          :
          :  # atomic orbitals                 184          :
          :  # shells                          112          :
          :  # electrons                       198          :
          :  max. iterations                   250          :
          :  Hamiltonian                  GFN2-xTB          :
          :  restarted?                       true          :
          :  GBSA solvation                  false          :
          :  PC potential                    false          :
          :  electronic temp.          500.0000000     K    :
          :  accuracy                    1.0000000          :
          :  -> integral cutoff          0.2500000E+02      :
          :  -> integral neglect         0.1000000E-07      :
          :  -> SCF convergence          0.1000000E-05 Eh   :
          :  -> wf. convergence          0.1000000E-03 e    :
          :  Broyden damping             0.4000000          :
          :  net charge                          0          :
          :  unpaired electrons                  0          :
          ...................................................

 iter      E             dE          RMSdq      gap      omega  full diag
   1   -111.4911458 -0.111491E+03  0.340E+00    1.64       0.0  T
   2   -110.3179834  0.117316E+01  0.379E+00    0.01       1.0  T
   3   -111.4499820 -0.113200E+01  0.206E+00    2.20       1.0  T
   4   -111.4823636 -0.323816E-01  0.123E+00    1.67       1.0  T
   5   -111.4959173 -0.135536E-01  0.105E+00    1.62       1.0  T
   6   -111.5054219 -0.950461E-02  0.923E-01    1.47       1.0  T
   7   -111.5109422 -0.552032E-02  0.844E-01    1.37       1.0  T
   8   -111.5155333 -0.459109E-02  0.762E-01    0.79       1.0  T
   9   -107.9788646  0.353667E+01  0.513E+00    0.05       1.0  T
  10   -108.7376825 -0.758818E+00  0.457E+00    0.04       1.0  T
  11   -110.5425613 -0.180488E+01  0.294E+00    0.00       1.0  T
  12   -110.7574464 -0.214885E+00  0.261E+00    0.00       1.0  T
  13   -110.7618862 -0.443986E-02  0.258E+00    0.00       1.0  T
  14   -111.4699068 -0.708021E+00  0.956E-01    0.04       1.0  T
  15   -111.2870698  0.182837E+00  0.152E+00    0.00       1.0  T
  16   -111.5201827 -0.233113E+00  0.715E-01    0.48       1.0  T
  17   -111.5139938  0.618889E-02  0.777E-01    0.86       1.0  T
  18   -111.5120026  0.199117E-02  0.809E-01    1.14       1.0  T
  19   -111.5103466  0.165596E-02  0.835E-01    1.36       1.0  T
  20   -111.5134697 -0.312309E-02  0.782E-01    0.88       1.0  T
  21   -111.5584066 -0.449369E-01  0.470E-01    0.25       1.0  T
  22   -110.8365257  0.721881E+00  0.241E+00    0.00       1.0  T
  23   -111.5057399 -0.669214E+00  0.905E-01    1.51       1.0  T
  24   -111.5185941 -0.128542E-01  0.727E-01    0.50       1.0  T
  25   -111.2343821  0.284212E+00  0.164E+00    0.00       1.0  T
  26   -111.5093941 -0.275012E+00  0.847E-01    1.43       1.0  T
  27   -111.5397549 -0.303608E-01  0.600E-01    0.31       1.0  T
  28   -110.7846861  0.755069E+00  0.250E+00    0.00       1.0  T
  29   -111.5055579 -0.720872E+00  0.907E-01    1.52       1.0  T
  30   -111.5186152 -0.130574E-01  0.729E-01    0.49       1.0  T
  31   -110.7760878  0.742527E+00  0.252E+00    0.00       1.0  T
  32   -111.5046986 -0.728611E+00  0.918E-01    1.54       1.0  T
  33   -111.5698159 -0.651173E-01  0.378E-01    0.21       1.0  T
  34   -111.2899317  0.279884E+00  0.150E+00    0.00       1.0  T
  35   -111.5062796 -0.216348E+00  0.893E-01    1.51       1.0  T
  36   -111.5110383 -0.475875E-02  0.764E-01    0.06       1.0  T
  37   -111.5102115  0.826799E-03  0.830E-01    1.21       1.0  T
  38   -110.8324077  0.677804E+00  0.241E+00    0.00       1.0  T
  39   -111.5065342 -0.674126E+00  0.888E-01    1.50       1.0  T
  40   -111.5892010 -0.826668E-01  0.525E-02    0.13       1.0  T
  41   -111.5237780  0.654230E-01  0.701E-01    0.40       1.0  T
  42   -110.7761846  0.747593E+00  0.252E+00    0.00       1.0  T
  43   -111.5098056 -0.733621E+00  0.834E-01    1.21       1.0  T
  44   -111.1437216  0.366084E+00  0.183E+00    0.00       1.0  T
  45   -111.5095094 -0.365788E+00  0.839E-01    1.24       1.0  T
  46   -111.5344405 -0.249312E-01  0.635E-01    0.07       1.0  T
  47   -111.5130314  0.214091E-01  0.782E-01    0.73       1.0  T
  48   -110.7924470  0.720584E+00  0.248E+00    0.00       1.0  T
  49   -111.5102923 -0.717845E+00  0.825E-01    1.09       1.0  T
  50   -111.5451440 -0.348518E-01  0.569E-01    0.07       1.0  T
  51   -111.5145223  0.306218E-01  0.765E-01    0.59       1.0  T
  52   -110.7891670  0.725355E+00  0.248E+00    0.00       1.0  T
  53   -111.5112567 -0.722090E+00  0.808E-01    0.93       1.0  T
  54   -111.5388049 -0.275482E-01  0.607E-01    0.07       1.0  T
  55   -111.5154115  0.233934E-01  0.758E-01    0.54       1.0  T
  56   -110.8020594  0.713352E+00  0.246E+00    0.00       1.0  T
  57   -111.5118364 -0.709777E+00  0.798E-01    0.82       1.0  T
  58   -111.5795491 -0.677127E-01  0.266E-01    0.11       1.0  T
  59   -111.5321795  0.473697E-01  0.657E-01    0.34       1.0  T
  60   -110.7948794  0.737300E+00  0.247E+00    0.00       1.0  T
  61   -111.5126821 -0.717803E+00  0.785E-01    0.71       1.0  T
  62   -111.5799192 -0.672371E-01  0.260E-01    0.11       1.0  T
  63   -111.5384314  0.414878E-01  0.620E-01    0.31       1.0  T
  64   -110.8271602  0.711271E+00  0.241E+00    0.00       1.0  T
  65   -111.5131040 -0.685944E+00  0.780E-01    0.66       1.0  T
  66   -111.5885459 -0.754419E-01  0.969E-02    0.15       1.0  T
  67   -111.5891444 -0.598539E-03  0.671E-02    0.15       1.0  T
  68   -111.5820205  0.712399E-02  0.229E-01    0.11       1.0  T
  69   -111.5519894  0.300310E-01  0.533E-01    0.26       1.0  T
  70   -110.8573997  0.694590E+00  0.236E+00    0.00       1.0  T
  71   -111.5119750 -0.654575E+00  0.795E-01    0.76       1.0  T
  72   -111.5520718 -0.400967E-01  0.533E-01    0.26       1.0  T
  73   -110.9736364  0.578435E+00  0.216E+00    0.00       1.0  T
  74   -111.5112681 -0.537632E+00  0.805E-01    0.84       1.0  T
  75   -111.5561034 -0.448353E-01  0.504E-01    0.25       1.0  T
  76   -110.9834382  0.572665E+00  0.214E+00    0.00       1.0  T
  77   -111.5107230 -0.527285E+00  0.813E-01    0.91       1.0  T
  78   -111.5492580 -0.385351E-01  0.553E-01    0.27       1.0  T
  79   -110.9344880  0.614770E+00  0.223E+00    0.00       1.0  T
  80   -111.5099428 -0.575455E+00  0.826E-01    1.02       1.0  T
  81   -111.5445665 -0.346237E-01  0.584E-01    0.28       1.0  T
  82   -110.9719154  0.572651E+00  0.216E+00    0.00       1.0  T
  83   -111.5093715 -0.537456E+00  0.835E-01    1.09       1.0  T
  84   -111.5462821 -0.369106E-01  0.573E-01    0.28       1.0  T
  85   -111.0733656  0.472916E+00  0.197E+00    0.00       1.0  T
  86   -111.5093697 -0.436004E+00  0.834E-01    1.09       1.0  T
  87   -111.5483379 -0.389682E-01  0.560E-01    0.27       1.0  T
  88   -111.1855831  0.362755E+00  0.174E+00    0.00       1.0  T
  89   -111.5097762 -0.324193E+00  0.828E-01    1.03       1.0  T
  90   -111.5511843 -0.414081E-01  0.540E-01    0.26       1.0  T
  91   -111.2811152  0.270069E+00  0.151E+00    0.00       1.0  T
  92   -111.5103316 -0.229216E+00  0.819E-01    0.95       1.0  T
  93   -111.5542494 -0.439178E-01  0.519E-01    0.25       1.0  T
  94   -111.3616768  0.192573E+00  0.130E+00    0.01       1.0  T
  95   -111.5109678 -0.149291E+00  0.809E-01    0.86       1.0  T
  96   -111.5585100 -0.475422E-01  0.487E-01    0.24       1.0  T
  97   -111.4410525  0.117458E+00  0.104E+00    0.03       1.0  T
  98   -111.5118679 -0.708153E-01  0.796E-01    0.75       1.0  T
  99   -111.5682028 -0.563350E-01  0.405E-01    0.22       1.0  T
 100   -111.5413024  0.269004E-01  0.588E-01    0.07       1.0  T
 101   -111.5150964  0.262060E-01  0.763E-01    0.53       1.0  T
 102   -111.5893543 -0.742579E-01  0.422E-02    0.14       1.0  T
 103   -111.5551882  0.341661E-01  0.511E-01    0.25       1.0  T
 104   -111.5589779 -0.378968E-02  0.466E-01    0.08       1.0  T
 105   -111.5188788  0.400991E-01  0.737E-01    0.45       1.0  T
 106   -111.5893557 -0.704769E-01  0.410E-02    0.14       1.0  T
 107   -111.5570358  0.323199E-01  0.497E-01    0.24       1.0  T
 108   -111.5837714 -0.267356E-01  0.199E-01    0.11       1.0  T
 109   -111.5343052  0.494662E-01  0.646E-01    0.32       1.0  T
 110   -111.5883413 -0.540361E-01  0.897E-02    0.13       1.0  T
 111   -111.5485769  0.397644E-01  0.556E-01    0.27       1.0  T
 112   -111.5893131 -0.407362E-01  0.424E-02    0.14       1.0  T
 113   -111.5532265  0.360866E-01  0.524E-01    0.26       1.0  T
 114   -111.5888656 -0.356391E-01  0.809E-02    0.15       1.0  T
 115   -111.5635097  0.253558E-01  0.444E-01    0.23       1.0  T
 116   -111.5856441 -0.221344E-01  0.177E-01    0.17       1.0  T
 117   -111.5709543  0.146898E-01  0.376E-01    0.21       1.0  T
 118   -111.5810607 -0.101064E-01  0.256E-01    0.18       1.0  T
 119   -111.5750082  0.605246E-02  0.333E-01    0.20       1.0  T
 120   -111.5775722 -0.256401E-02  0.303E-01    0.19       1.0  T
 121   -111.5760013  0.157098E-02  0.321E-01    0.20       1.0  T
 122   -111.5759784  0.228411E-04  0.321E-01    0.20       1.0  T
 123   -111.5743355  0.164295E-02  0.339E-01    0.20       1.0  T
 124   -111.5735503  0.785214E-03  0.347E-01    0.20       1.0  T
 125   -111.5737386 -0.188292E-03  0.345E-01    0.20       1.0  T
 126   -111.5740531 -0.314500E-03  0.341E-01    0.20       1.0  T
 127   -111.5743867 -0.333641E-03  0.338E-01    0.20       1.0  T
 128   -111.5766004 -0.221370E-02  0.312E-01    0.20       1.0  T
 129   -111.5781557 -0.155528E-02  0.293E-01    0.19       1.0  T
 130   -111.5797023 -0.154665E-02  0.272E-01    0.19       1.0  T
 131   -111.5811904 -0.148802E-02  0.251E-01    0.18       1.0  T
 132   -111.5824611 -0.127079E-02  0.231E-01    0.18       1.0  T
 133   -111.5836356 -0.117442E-02  0.211E-01    0.17       1.0  T
 134   -111.5846533 -0.101779E-02  0.192E-01    0.17       1.0  T
 135   -111.5856047 -0.951386E-03  0.172E-01    0.17       1.0  T
 136   -111.5864025 -0.797762E-03  0.154E-01    0.16       1.0  T
 137   -111.5871477 -0.745184E-03  0.135E-01    0.16       1.0  T
 138   -111.5877531 -0.605391E-03  0.117E-01    0.16       1.0  T
 139   -111.5882757 -0.522594E-03  0.982E-02    0.16       1.0  T
 140   -111.5886829 -0.407218E-03  0.811E-02    0.15       1.0  T
 141   -111.5889991 -0.316242E-03  0.648E-02    0.15       1.0  T
 142   -111.5892216 -0.222478E-03  0.502E-02    0.15       1.0  T
 143   -111.5893765 -0.154921E-03  0.369E-02    0.15       1.0  T
 144   -111.5894701 -0.935650E-04  0.256E-02    0.14       1.0  T
 145   -111.5895220 -0.519213E-04  0.162E-02    0.14       1.0  T
 146   -111.5895469 -0.249105E-04  0.858E-03    0.14       1.3  T
 147   -111.5895560 -0.909348E-05  0.221E-03    0.14       5.2  T
 148   -111.5895545  0.151053E-05  0.400E-03    0.14       2.9  T
 149   -111.5895540  0.533442E-06  0.446E-03    0.14       2.6  T
 150   -111.5895540  0.550683E-08  0.440E-03    0.14       2.6  T
 151   -111.5895452  0.871934E-05  0.924E-03    0.14       1.2  T
 152   -111.5895112  0.340563E-04  0.183E-02    0.14       1.0  T
 153   -111.5895562 -0.450264E-04  0.175E-03    0.14       6.6  T
 154   -111.5895224  0.337738E-04  0.158E-02    0.14       1.0  T
 155   -111.5895563 -0.338904E-04  0.153E-03    0.14       7.5  T
 156   -111.5895473  0.905615E-05  0.831E-03    0.14       1.4  T
 157   -111.5895566 -0.931579E-05  0.612E-04    0.14      18.8  T
 158   -111.5895563  0.276256E-06  0.154E-03    0.14       7.4  T
 159   -111.5895566 -0.311253E-06  0.330E-04    0.14      34.8  T
 160   -111.5895566 -0.196260E-08  0.304E-04    0.14      37.7  T

   *** convergence criteria satisfied after 160 iterations ***

         #    Occupation            Energy/Eh            Energy/eV
      -------------------------------------------------------------
         1        2.0000           -0.7142792             -19.4365
       ...           ...                  ...                  ...
        93        2.0000           -0.3965529             -10.7908
        94        2.0000           -0.3800021             -10.3404
        95        2.0000           -0.3750405             -10.2054
        96        2.0000           -0.3681525             -10.0179
        97        2.0000           -0.3438790              -9.3574
        98        1.7866           -0.3025774              -8.2336
        99        1.7653           -0.3024078              -8.2289 (HOMO)
       100        0.4482           -0.2972467              -8.0885 (LUMO)
       101                         -0.2368698              -6.4456
       102                         -0.2332917              -6.3482
       103                         -0.2279267              -6.2022
       104                         -0.2212410              -6.0203
       ...                                ...                  ...
       184                          0.7101676              19.3246
      -------------------------------------------------------------
                  HL-Gap            0.0051612 Eh            0.1404 eV
             Fermi-level           -0.2992132 Eh           -8.1420 eV

 SCC (total)                   0 d,  0 h,  0 min,  0.829 sec
 SCC setup                      ...        0 min,  0.000 sec (  0.000%)
 Dispersion                     ...        0 min,  0.000 sec (  0.000%)
 classical contributions        ...        0 min,  0.000 sec (  0.000%)
 integral evaluation            ...        0 min,  0.017 sec (  2.051%)
 iterations                     ...        0 min,  0.768 sec ( 92.642%)
 molecular gradient             ...        0 min,  0.044 sec (  5.308%)
 printout                       ...        0 min,  0.000 sec (  0.000%)

         :::::::::::::::::::::::::::::::::::::::::::::::::::::
         ::                     SUMMARY                     ::
         :::::::::::::::::::::::::::::::::::::::::::::::::::::
         :: total energy            -110.051730335054 Eh    ::
         :: gradient norm              0.141755720149 Eh/a0 ::
         :: HOMO-LUMO gap              0.140442264423 eV    ::
         ::.................................................::
         :: SCC energy              -111.587809705157 Eh    ::
         :: -> isotropic ES            0.243117634201 Eh    ::
         :: -> anisotropic ES         -0.000782106622 Eh    ::
         :: -> anisotropic XC          0.048560899981 Eh    ::
         :: -> dispersion             -0.080167058021 Eh    ::
         :: repulsion energy           1.536079370103 Eh    ::
         :: add. restraining           0.000000000000 Eh    ::
         :: total charge               0.000000000017 e     ::
         :::::::::::::::::::::::::::::::::::::::::::::::::::::

      ----------------------------------------------------------- 
     |                   =====================                   |
     |                        A N C O P T                        |
     |                   =====================                   |
     |               Approximate Normal Coordinate               |
     |                Rational Function Optimizer                |
      ----------------------------------------------------------- 
      ----------------------------------------------------------- 
     |                   =====================                   |
     |                        A N C O P T                        |
     |                   =====================                   |
     |               Approximate Normal Coordinate               |
     |                Rational Function Optimizer                |
      ----------------------------------------------------------- 

          ...................................................
          :                      SETUP                      :
          :.................................................:
          :   optimization level             tight          :
          :   max. optcycles                   380          :
          :   ANC micro-cycles                  20          :
          :   degrees of freedom               222          :
          :.................................................:
          :   RF solver                   davidson          :
          :   write xtbopt.log                true          :
          :   linear?                        false          :
          :   energy convergence         0.1000000E-05 Eh   :
          :   grad. convergence          0.8000000E-03 Eh/α :
          :   maxmium RF displ.          1.0000000          :
          :   Hlow (freq-cutoff)         0.1000000E-01      :
          :   Hmax (freq-cutoff)         5.0000000          :
          :   S6 in model hess.         20.0000000          :
          ...................................................

generating ANC from exact Hessian ...
Using Lindh-Hessian (1995)
 Shifting diagonal of input Hessian by   1.006772676179029E-002
 Lowest  eigenvalues of input Hessian
    0.010000    0.010012    0.000000    0.000000    0.000000    0.000000
    0.000000    0.000000    0.010086    0.010105    0.010119    0.010183
    0.010211    0.010262    0.010327    0.010420    0.010442    0.010488
 Highest eigenvalues
    2.001196    2.007897    2.089836    2.123179    2.236932    2.249106
 

........................................................................
.............................. CYCLE    1 ..............................
........................................................................

 iter      E             dE          RMSdq      gap      omega  full diag
   1   -111.5895566 -0.111590E+03  0.156E-04    0.14       0.0  T
   2   -111.5895532  0.342667E-05  0.501E-03    0.14       2.3  T
   3   -111.5895566 -0.342999E-05  0.455E-06    0.14    2519.2  T
   4   -111.5895566 -0.198952E-11  0.246E-06    0.14    4656.0  T
   5   -111.5895566 -0.540012E-12  0.985E-07    0.14   11645.6  T
     SCC iter.                  ...        0 min,  0.025 sec
     gradient                   ...        0 min,  0.041 sec
 * total energy  :  -110.0517303 Eh     change       -0.1234534E-07 Eh
   gradient norm :     0.1417582 Eh/α   predicted     0.0000000E+00 (-100.00%)
   displ. norm   :     0.6230785 α      lambda       -0.4888767E-01
   maximum displ.:     0.1908067 α      in ANC's #65, #33, #44, ...

........................................................................
.............................. CYCLE    2 ..............................
........................................................................

 iter      E             dE          RMSdq      gap      omega  full diag
   1   -111.6590792 -0.111659E+03  0.209E-01    0.14       0.0  T
   2   -111.6464395  0.126397E-01  0.336E-01    0.10       1.0  T
   3   -111.5944907  0.519489E-01  0.699E-01    0.39       1.0  T
   4   -111.6478322 -0.533416E-01  0.293E-01    0.19       1.0  T
   5   -111.6519015 -0.406928E-02  0.237E-01    0.11       1.0  T
   6   -111.6571582 -0.525666E-02  0.135E-01    0.16       1.0  T
   7   -111.6587971 -0.163894E-02  0.799E-02    0.13       1.0  T
   8   -111.6596108 -0.813684E-03  0.219E-02    0.14       1.0  T
   9   -111.6596681 -0.573227E-04  0.795E-03    0.14       1.4  T
  10   -111.6596734 -0.527001E-05  0.490E-03    0.14       2.3  T
  11   -111.6596725  0.839822E-06  0.544E-03    0.14       2.1  T
  12   -111.6596763 -0.372463E-05  0.140E-03    0.14       8.2  T
  13   -111.6596748  0.143949E-05  0.351E-03    0.14       3.3  T
  14   -111.6596765 -0.163599E-05  0.487E-04    0.14      23.6  T
  15   -111.6596764  0.341042E-07  0.683E-04    0.14      16.8  T
  16   -111.6596765 -0.631165E-07  0.101E-04    0.14     113.3  T
     SCC iter.                  ...        0 min,  0.071 sec
     gradient                   ...        0 min,  0.039 sec
 * total energy  :  -110.0851676 Eh     change       -0.3343724E-01 Eh
   gradient norm :     0.0752292 Eh/α   predicted    -0.3393358E-01 (   1.48%)
   displ. norm   :     0.5889694 α      lambda       -0.2368952E-01
   maximum displ.:     0.1673209 α      in ANC's #59, #33, #65, ...

........................................................................
.............................. CYCLE    3 ..............................
........................................................................

 iter      E             dE          RMSdq      gap      omega  full diag
   1   -111.6950967 -0.111695E+03  0.261E-01    0.11       0.0  T
   2   -111.6185328  0.765639E-01  0.819E-01    0.96       1.0  T
   3   -111.6900307 -0.714979E-01  0.279E-01    0.18       1.0  T
   4   -110.9310109  0.759020E+00  0.242E+00    0.01       1.0  T
   5   -111.6283233 -0.697312E+00  0.727E-01    0.47       1.0  T
   6   -111.6412570 -0.129337E-01  0.655E-01    0.34       1.0  T
   7   -111.6760522 -0.347952E-01  0.414E-01    0.22       1.0  T
   8   -111.6998887 -0.238365E-01  0.935E-03    0.14       1.2  T
   9   -111.6973405  0.254823E-02  0.136E-01    0.16       1.0  T
  10   -111.6998283 -0.248787E-02  0.225E-02    0.14       1.0  T
  11   -111.6997821  0.461862E-04  0.290E-02    0.14       1.0  T
  12   -111.6998890 -0.106858E-03  0.831E-03    0.14       1.4  T
  13   -111.6996472  0.241773E-03  0.426E-02    0.14       1.0  T
  14   -111.6998934 -0.246180E-03  0.604E-03    0.14       1.9  T
  15   -111.6998593  0.341492E-04  0.168E-02    0.14       1.0  T
  16   -111.6998979 -0.386594E-04  0.176E-03    0.14       6.5  T
  17   -111.6998961  0.178499E-05  0.399E-03    0.14       2.9  T
  18   -111.6998984 -0.221236E-05  0.846E-05    0.14     135.6  T
  19   -111.6998984  0.243136E-08  0.157E-04    0.14      73.1  T
  20   -111.6998984 -0.135746E-08  0.121E-04    0.14      94.7  T
     SCC iter.                  ...        0 min,  0.089 sec
     gradient                   ...        0 min,  0.043 sec
 * total energy  :  -110.1006642 Eh     change       -0.1549665E-01 Eh
   gradient norm :     0.0304471 Eh/α   predicted    -0.1595393E-01 (   2.95%)
   displ. norm   :     0.5597104 α      lambda       -0.9462098E-02
   maximum displ.:     0.1662639 α      in ANC's #33, #23, #32, ...

........................................................................
.............................. CYCLE    4 ..............................
........................................................................

 iter      E             dE          RMSdq      gap      omega  full diag
   1   -111.6939798 -0.111694E+03  0.194E-01    0.16       0.0  T
   2   -110.8962326  0.797747E+00  0.249E+00    0.01       1.0  T
   3   -111.6972970 -0.801064E+00  0.721E-02    0.14       1.0  T
   4   -111.6952797  0.201722E-02  0.127E-01    0.16       1.0  T
   5   -111.6960830 -0.803221E-03  0.996E-02    0.12       1.0  T
   6   -111.6971534 -0.107047E-02  0.475E-02    0.14       1.0  T
   7   -111.6973486 -0.195167E-03  0.297E-02    0.13       1.0  T
   8   -111.6974306 -0.819654E-04  0.166E-02    0.13       1.0  T
   9   -111.6974475 -0.168951E-04  0.121E-02    0.13       1.0  T
  10   -111.6974543 -0.689155E-05  0.972E-03    0.13       1.2  T
  11   -111.6974669 -0.125089E-04  0.135E-03    0.14       8.5  T
  12   -111.6974662  0.660322E-06  0.256E-03    0.14       4.5  T
  13   -111.6974670 -0.802895E-06  0.763E-04    0.14      15.0  T
  14   -111.6974671 -0.757993E-07  0.143E-04    0.14      80.5  T
     SCC iter.                  ...        0 min,  0.055 sec
     gradient                   ...        0 min,  0.040 sec
 * total energy  :  -110.1082325 Eh     change       -0.7568212E-02 Eh
   gradient norm :     0.0256349 Eh/α   predicted    -0.6213184E-02 ( -17.90%)
   displ. norm   :     0.6619233 α      lambda       -0.7556765E-02
   maximum displ.:     0.1842356 α      in ANC's #33, #53, #39, ...

........................................................................
.............................. CYCLE    5 ..............................
........................................................................

 iter      E             dE          RMSdq      gap      omega  full diag
   1   -111.6929656 -0.111693E+03  0.214E-01    0.17       0.0  T
   2   -110.8936214  0.799344E+00  0.251E+00    0.03       1.0  T
   3   -111.6941004 -0.800479E+00  0.170E-01    0.12       1.0  T
   4   -111.6833390  0.107615E-01  0.318E-01    0.20       1.0  T
   5   -111.6960447 -0.127057E-01  0.994E-02    0.13       1.0  T
   6   -111.6974011 -0.135644E-02  0.842E-03    0.14       1.4  T
   7   -111.6973616  0.395766E-04  0.190E-02    0.14       1.0  T
   8   -111.6974063 -0.447290E-04  0.498E-03    0.14       2.3  T
   9   -111.6973929  0.134411E-04  0.110E-02    0.14       1.0  T
  10   -111.6974091 -0.162282E-04  0.959E-04    0.14      12.0  T
  11   -111.6974069  0.220591E-05  0.408E-03    0.14       2.8  T
  12   -111.6974089 -0.201338E-05  0.130E-03    0.14       8.8  T
  13   -111.6974089  0.139054E-07  0.133E-03    0.14       8.6  T
  14   -111.6974091 -0.201777E-06  0.529E-04    0.14      21.7  T
  15   -111.6974091  0.228489E-08  0.542E-04    0.14      21.2  T
     SCC iter.                  ...        0 min,  0.069 sec
     gradient                   ...        0 min,  0.038 sec
 * total energy  :  -110.1142488 Eh     change       -0.6016366E-02 Eh
   gradient norm :     0.0296388 Eh/α   predicted    -0.5433861E-02 (  -9.68%)
   displ. norm   :     0.6761016 α      lambda       -0.5694379E-02
   maximum displ.:     0.2078166 α      in ANC's #21, #19, #15, ...

........................................................................
.............................. CYCLE    6 ..............................
........................................................................

 iter      E             dE          RMSdq      gap      omega  full diag
   1   -111.6837296 -0.111684E+03  0.366E-01    0.22       0.0  T
   2   -110.8689260  0.814804E+00  0.261E+00    0.04       1.0  T
   3   -111.6693652 -0.800439E+00  0.470E-01    0.09       1.0  T
   4   -111.6400089  0.293563E-01  0.673E-01    0.46       1.0  T
   5   -111.6621815 -0.221725E-01  0.525E-01    0.30       1.0  T
   6   -111.6929524 -0.307709E-01  0.220E-01    0.12       1.0  T
   7   -111.6976695 -0.471715E-02  0.117E-01    0.17       1.0  T
   8   -111.6995165 -0.184700E-02  0.752E-03    0.15       1.5  T
   9   -111.6993342  0.182313E-03  0.373E-02    0.16       1.0  T
  10   -111.6994144 -0.801376E-04  0.274E-02    0.15       1.0  T
  11   -111.6995172 -0.102813E-03  0.177E-03    0.15       6.5  T
  12   -111.6994885  0.287222E-04  0.144E-02    0.15       1.0  T
  13   -111.6995170 -0.285283E-04  0.128E-03    0.15       8.9  T
  14   -111.6995170 -0.446986E-07  0.113E-03    0.15      10.1  T
  15   -111.6995171 -0.922858E-07  0.787E-04    0.15      14.6  T
  16   -111.6995172 -0.833933E-07  0.338E-05    0.15     338.9  T
     SCC iter.                  ...        0 min,  0.067 sec
     gradient                   ...        0 min,  0.038 sec
 * total energy  :  -110.1186367 Eh     change       -0.4387866E-02 Eh
   gradient norm :     0.0257009 Eh/α   predicted    -0.4148688E-02 (  -5.45%)
   displ. norm   :     0.7444524 α      lambda       -0.5765464E-02
   maximum displ.:     0.2529582 α      in ANC's #33, #21, #53, ...

........................................................................
.............................. CYCLE    7 ..............................
........................................................................

 iter      E             dE          RMSdq      gap      omega  full diag
   1   -111.7095282 -0.111710E+03  0.157E-01    0.18       0.0  T
   2   -111.6995939  0.993428E-02  0.293E-01    0.14       1.0  T
   3   -111.6880439  0.115500E-01  0.402E-01    0.29       1.0  T
   4   -111.7059072 -0.178633E-01  0.165E-01    0.22       1.0  T
   5   -111.7094615 -0.355428E-02  0.384E-02    0.19       1.0  T
   6   -111.7096165 -0.154945E-03  0.123E-02    0.19       1.0  T
   7   -111.7096135  0.296992E-05  0.893E-03    0.19       1.3  T
   8   -111.7094154  0.198102E-03  0.385E-02    0.19       1.0  T
   9   -111.7096076 -0.192188E-03  0.897E-03    0.19       1.3  T
  10   -111.7096175 -0.995074E-05  0.189E-03    0.19       6.1  T
  11   -111.7096173  0.237872E-06  0.207E-03    0.19       5.6  T
  12   -111.7096178 -0.532524E-06  0.432E-04    0.19      26.6  T
  13   -111.7096178  0.261723E-08  0.448E-04    0.19      25.6  T
     SCC iter.                  ...        0 min,  0.050 sec
     gradient                   ...        0 min,  0.043 sec
 * total energy  :  -110.1212552 Eh     change       -0.2618556E-02 Eh
   gradient norm :     0.0539994 Eh/α   predicted    -0.4480390E-02 (  71.10%)
   displ. norm   :     0.4970171 α      lambda       -0.4839446E-02
   maximum displ.:     0.2145250 α      in ANC's #21, #18, #44, ...

........................................................................
.............................. CYCLE    8 ..............................
........................................................................

 iter      E             dE          RMSdq      gap      omega  full diag
   1   -111.7003484 -0.111700E+03  0.235E-01    0.26       0.0  T
   2   -110.9047117  0.795637E+00  0.252E+00    0.03       1.0  T
   3   -111.7062844 -0.801573E+00  0.734E-02    0.22       1.0  T
   4   -111.7043083  0.197613E-02  0.127E-01    0.24       1.0  T
   5   -111.7056214 -0.131307E-02  0.787E-02    0.20       1.0  T
   6   -111.7063783 -0.756954E-03  0.189E-02    0.22       1.0  T
   7   -111.7062657  0.112591E-03  0.334E-02    0.21       1.0  T
   8   -111.7063155 -0.497359E-04  0.255E-02    0.21       1.0  T
   9   -111.7063900 -0.745312E-04  0.698E-03    0.22       1.6  T
  10   -111.7063944 -0.443363E-05  0.175E-03    0.22       6.6  T
  11   -111.7063946 -0.150278E-06  0.595E-04    0.22      19.3  T
  12   -111.7063944  0.132599E-06  0.109E-03    0.22      10.5  T
  13   -111.7063946 -0.147697E-06  0.684E-05    0.22     167.7  T
     SCC iter.                  ...        0 min,  0.052 sec
     gradient                   ...        0 min,  0.041 sec
 * total energy  :  -110.1246286 Eh     change       -0.3373326E-02 Eh
   gradient norm :     0.0356488 Eh/α   predicted    -0.3017464E-02 ( -10.55%)
   displ. norm   :     0.5865144 α      lambda       -0.5813401E-02
   maximum displ.:     0.2411391 α      in ANC's #21, #17, #18, ...

........................................................................
.............................. CYCLE    9 ..............................
........................................................................

 iter      E             dE          RMSdq      gap      omega  full diag
   1   -111.7052085 -0.111705E+03  0.451E-01    0.39       0.0  T
   2   -110.8765907  0.828618E+00  0.262E+00    0.04       1.0  T
   3   -111.7114630 -0.834872E+00  0.348E-01    0.35       1.0  T
   4   -111.7245163 -0.130533E-01  0.925E-02    0.24       1.0  T
   5   -111.7246596 -0.143283E-03  0.760E-02    0.26       1.0  T
   6   -111.7190336  0.562593E-02  0.218E-01    0.21       1.0  T
   7   -111.7244700 -0.543632E-02  0.613E-02    0.24       1.0  T
   8   -111.7231851  0.128488E-02  0.114E-01    0.23       1.0  T
   9   -111.7246500 -0.146497E-02  0.343E-02    0.25       1.0  T
  10   -111.7246504 -0.366381E-06  0.337E-02    0.25       1.0  T
  11   -111.7247706 -0.120143E-03  0.141E-02    0.26       1.0  T
  12   -111.7247956 -0.250178E-04  0.234E-03    0.26       4.9  T
  13   -111.7247963 -0.745244E-06  0.136E-04    0.26      84.5  T
  14   -111.7247963  0.235316E-08  0.154E-04    0.26      74.5  T
     SCC iter.                  ...        0 min,  0.072 sec
     gradient                   ...        0 min,  0.044 sec
 * total energy  :  -110.1210207 Eh     change        0.3607902E-02 Eh
   gradient norm :     0.1184810 Eh/α   predicted    -0.3906600E-02 (-208.28%)
   displ. norm   :     0.2894415 α      lambda       -0.1336248E-01
   maximum displ.:     0.1425508 α      in ANC's #53, #36, #57, ...

........................................................................
.............................. CYCLE   10 ..............................
........................................................................

 iter      E             dE          RMSdq      gap      omega  full diag
   1   -111.7041648 -0.111704E+03  0.292E-01    0.28       0.0  T
   2   -111.6566231  0.475417E-01  0.691E-01    1.13       1.0  T
   3   -111.7092523 -0.526292E-01  0.940E-02    0.35       1.0  T
   4   -111.5905484  0.118704E+00  0.962E-01    0.17       1.0  T
   5   -111.6986248 -0.108076E+00  0.297E-01    0.45       1.0  T
   6   -111.7100300 -0.114053E-01  0.527E-02    0.31       1.0  T
   7   -111.7083304  0.169967E-02  0.119E-01    0.36       1.0  T
   8   -111.7093333 -0.100294E-02  0.830E-02    0.35       1.0  T
   9   -111.7101337 -0.800382E-03  0.308E-02    0.33       1.0  T
  10   -111.7101459 -0.122122E-04  0.294E-02    0.33       1.0  T
  11   -111.7102029 -0.570219E-04  0.213E-02    0.33       1.0  T
  12   -111.7102540 -0.510576E-04  0.882E-03    0.33       1.3  T
  13   -111.7102646 -0.106622E-04  0.576E-04    0.32      19.9  T
  14   -111.7102644  0.248064E-06  0.142E-03    0.32       8.1  T
  15   -111.7102647 -0.257176E-06  0.621E-05    0.32     184.8  T
  16   -111.7102646  0.123187E-07  0.305E-04    0.32      37.6  T
     SCC iter.                  ...        0 min,  0.070 sec
     gradient                   ...        0 min,  0.042 sec
 * total energy  :  -110.1287717 Eh     change       -0.7751075E-02 Eh
   gradient norm :     0.0292105 Eh/α   predicted    -0.7240992E-02 (  -6.58%)
   displ. norm   :     0.6258845 α      lambda       -0.4664227E-02
   maximum displ.:     0.2335595 α      in ANC's #21, #18, #17, ...

........................................................................
.............................. CYCLE   11 ..............................
........................................................................

 iter      E             dE          RMSdq      gap      omega  full diag
   1   -111.7082732 -0.111708E+03  0.149E-01    0.52       0.0  T
   2   -111.7026306  0.564264E-02  0.233E-01    0.66       1.0  T
   3   -111.6979312  0.469942E-02  0.318E-01    0.42       1.0  T
   4   -111.7079992 -0.100680E-01  0.760E-02    0.56       1.0  T
   5   -111.7086623 -0.663151E-03  0.200E-02    0.53       1.0  T
   6   -111.7086943 -0.319697E-04  0.473E-03    0.52       2.4  T
   7   -111.7086796  0.146479E-04  0.118E-02    0.52       1.0  T
   8   -111.7086929 -0.133053E-04  0.407E-03    0.52       2.8  T
   9   -111.7086946 -0.167145E-05  0.103E-03    0.52      11.1  T
  10   -111.7086947 -0.863917E-07  0.502E-04    0.52      22.9  T
  11   -111.7086947 -0.222770E-07  0.107E-04    0.52     106.8  T
     SCC iter.                  ...        0 min,  0.045 sec
     gradient                   ...        0 min,  0.041 sec
 * total energy  :  -110.1323726 Eh     change       -0.3600814E-02 Eh
   gradient norm :     0.0614145 Eh/α   predicted    -0.3245676E-02 (  -9.86%)
   displ. norm   :     0.7224303 α      lambda       -0.6897904E-02
   maximum displ.:     0.2668967 α      in ANC's #9, #18, #21, ...

........................................................................
.............................. CYCLE   12 ..............................
........................................................................

 iter      E             dE          RMSdq      gap      omega  full diag
   1   -111.7108131 -0.111711E+03  0.250E-01    0.95       0.0  T
   2   -111.7034857  0.732738E-02  0.343E-01    1.38       1.0  T
   3   -111.7142170 -0.107313E-01  0.932E-02    1.02       1.0  T
   4   -111.7143726 -0.155539E-03  0.434E-02    1.03       1.0  T
   5   -111.7143672  0.533067E-05  0.210E-02    1.02       1.0  T
   6   -111.7144044 -0.371798E-04  0.633E-03    1.04       1.8  T
   7   -111.7144056 -0.118715E-05  0.334E-03    1.04       3.4  T
   8   -111.7144058 -0.159901E-06  0.176E-03    1.04       6.5  T
   9   -111.7144058 -0.602772E-07  0.903E-04    1.04      12.7  T
  10   -111.7144059 -0.563958E-07  0.372E-04    1.04      30.8  T
     SCC iter.                  ...        0 min,  0.041 sec
     gradient                   ...        0 min,  0.040 sec
 * total energy  :  -110.1394137 Eh     change       -0.7041103E-02 Eh
   gradient norm :     0.0924349 Eh/α   predicted    -0.5248990E-02 ( -25.45%)
   displ. norm   :     0.5518146 α      lambda       -0.1040675E-01
   maximum displ.:     0.2440462 α      in ANC's #18, #17, #9, ...

........................................................................
.............................. CYCLE   13 ..............................
........................................................................

 iter      E             dE          RMSdq      gap      omega  full diag
   1   -111.7122998 -0.111712E+03  0.221E-01    1.64       0.0  T
   2   -111.7135908 -0.129099E-02  0.133E-01    1.73       1.0  T
   3   -111.7141302 -0.539460E-03  0.786E-02    1.56       1.0  T
   4   -111.7143320 -0.201781E-03  0.378E-02    1.63       1.0  T
   5   -111.7143712 -0.391746E-04  0.116E-02    1.60       1.0  T
   6   -111.7143763 -0.516500E-05  0.485E-03    1.61       2.4  T
   7   -111.7143774 -0.103000E-05  0.273E-03    1.61       4.2  T
   8   -111.7143776 -0.180260E-06  0.120E-03    1.61       9.6  T
   9   -111.7143776 -0.568037E-07  0.464E-04    1.61      24.7  T
  10   -111.7143776 -0.473426E-08  0.218E-04    1.61      52.6  T
     SCC iter.                  ...        0 min,  0.045 sec
     gradient                   ...        0 min,  0.040 sec
 * total energy  :  -110.1500457 Eh     change       -0.1063203E-01 Eh
   gradient norm :     0.1082366 Eh/α   predicted    -0.6787813E-02 ( -36.16%)
   displ. norm   :     0.6511665 α      lambda       -0.1749204E-01
   maximum displ.:     0.2187049 α      in ANC's #17, #18, #15, ...

........................................................................
.............................. CYCLE   14 ..............................
........................................................................

 iter      E             dE          RMSdq      gap      omega  full diag
   1   -111.7299245 -0.111730E+03  0.361E-01    2.59       0.0  T
   2   -111.7346852 -0.476068E-02  0.177E-01    2.96       1.0  T
   3   -111.7354752 -0.790030E-03  0.105E-01    2.86       1.0  T
   4   -111.7356844 -0.209235E-03  0.570E-02    2.88       1.0  T
   5   -111.7357376 -0.531742E-04  0.168E-02    2.88       1.0  T
   6   -111.7357522 -0.145697E-04  0.852E-03    2.88       1.3  T
   7   -111.7357537 -0.148735E-05  0.403E-03    2.88       2.8  T
   8   -111.7357538 -0.180660E-06  0.197E-03    2.88       5.8  T
   9   -111.7357540 -0.154306E-06  0.631E-04    2.88      18.2  T
  10   -111.7357540 -0.495217E-08  0.215E-04    2.88      53.3  T
     SCC iter.                  ...        0 min,  0.036 sec
     gradient                   ...        0 min,  0.041 sec
 * total energy  :  -110.1651186 Eh     change       -0.1507290E-01 Eh
   gradient norm :     0.1444716 Eh/α   predicted    -0.1245450E-01 ( -17.37%)
   displ. norm   :     0.6714648 α      lambda       -0.4277327E-01
   maximum displ.:     0.2248281 α      in ANC's #70, #197, #127, ...

........................................................................
.............................. CYCLE   15 ..............................
........................................................................

 iter      E             dE          RMSdq      gap      omega  full diag
   1   -111.7766659 -0.111777E+03  0.541E-01    3.64       0.0  T
   2   -111.7843892 -0.772327E-02  0.287E-01    3.63       1.0  T
   3   -111.7847568 -0.367594E-03  0.170E-01    3.57       1.0  T
   4   -111.7849337 -0.176860E-03  0.950E-02    3.57       1.0  T
   5   -111.7852413 -0.307639E-03  0.260E-02    3.55       1.0  T
   6   -111.7852659 -0.245795E-04  0.101E-02    3.56       1.1  T
   7   -111.7852672 -0.134184E-05  0.592E-03    3.56       1.9  T
   8   -111.7852681 -0.866428E-06  0.268E-03    3.56       4.3  T
   9   -111.7852682 -0.149767E-06  0.857E-04    3.56      13.4  T
  10   -111.7852682 -0.654002E-08  0.418E-04    3.56      27.4  T
     SCC iter.                  ...        0 min,  0.038 sec
     gradient                   ...        0 min,  0.043 sec
 * total energy  :  -110.1876707 Eh     change       -0.2255214E-01 Eh
   gradient norm :     0.1986856 Eh/α   predicted    -0.3102919E-01 (  37.59%)
   displ. norm   :     0.3857485 α      lambda       -0.3559938E-01
   maximum displ.:     0.1388585 α      in ANC's #61, #52, #197, ...

........................................................................
.............................. CYCLE   16 ..............................
........................................................................

 iter      E             dE          RMSdq      gap      omega  full diag
   1   -111.7755812 -0.111776E+03  0.206E-01    3.55       0.0  T
   2   -111.7763445 -0.763330E-03  0.120E-01    3.55       1.0  T
   3   -111.7763860 -0.415082E-04  0.650E-02    3.54       1.0  T
   4   -111.7763915 -0.550602E-05  0.328E-02    3.55       1.0  T
   5   -111.7764435 -0.519533E-04  0.905E-03    3.54       1.3  T
   6   -111.7764442 -0.695335E-06  0.414E-03    3.54       2.8  T
   7   -111.7764445 -0.289250E-06  0.181E-03    3.54       6.3  T
   8   -111.7764445 -0.324524E-07  0.719E-04    3.54      16.0  T
   9   -111.7764445 -0.214978E-07  0.249E-04    3.54      46.1  T
     SCC iter.                  ...        0 min,  0.035 sec
     gradient                   ...        0 min,  0.041 sec
 * total energy  :  -110.2075528 Eh     change       -0.1988211E-01 Eh
   gradient norm :     0.1045870 Eh/α   predicted    -0.2044832E-01 (   2.85%)
   displ. norm   :     0.6226280 α      lambda       -0.3629886E-01
   maximum displ.:     0.2605596 α      in ANC's #61, #25, #70, ...

........................................................................
.............................. CYCLE   17 ..............................
........................................................................

 iter      E             dE          RMSdq      gap      omega  full diag
   1   -111.7893704 -0.111789E+03  0.396E-01    3.60       0.0  T
   2   -111.7923445 -0.297408E-02  0.221E-01    3.65       1.0  T
   3   -111.7924656 -0.121162E-03  0.117E-01    3.65       1.0  T
   4   -111.7924656  0.774361E-07  0.548E-02    3.65       1.0  T
   5   -111.7925955 -0.129924E-03  0.174E-02    3.65       1.0  T
   6   -111.7926051 -0.964867E-05  0.724E-03    3.65       1.6  T
   7   -111.7926055 -0.371864E-06  0.391E-03    3.65       2.9  T
   8   -111.7926058 -0.314738E-06  0.145E-03    3.65       7.9  T
   9   -111.7926059 -0.544291E-07  0.548E-04    3.65      20.9  T
  10   -111.7926059 -0.101258E-07  0.217E-04    3.65      52.9  T
     SCC iter.                  ...        0 min,  0.038 sec
     gradient                   ...        0 min,  0.040 sec
 * total energy  :  -110.1694352 Eh     change        0.3811764E-01 Eh
   gradient norm :     0.3834799 Eh/α   predicted    -0.2518533E-01 (-166.07%)
   displ. norm   :     0.3480751 α      lambda       -0.1163676E+00
   maximum displ.:     0.2893008 α      in ANC's #61, #57, #36, ...

........................................................................
.............................. CYCLE   18 ..............................
........................................................................

 iter      E             dE          RMSdq      gap      omega  full diag
   1   -111.7811733 -0.111781E+03  0.271E-01    3.64       0.0  T
   2   -111.7821360 -0.962773E-03  0.154E-01    3.63       1.0  T
   3   -111.7821789 -0.428923E-04  0.713E-02    3.63       1.0  T
   4   -111.7821947 -0.157557E-04  0.312E-02    3.64       1.0  T
   5   -111.7822387 -0.440152E-04  0.117E-02    3.63       1.0  T
   6   -111.7822417 -0.303492E-05  0.491E-03    3.63       2.3  T
   7   -111.7822419 -0.154740E-06  0.231E-03    3.63       5.0  T
   8   -111.7822420 -0.820573E-07  0.691E-04    3.63      16.6  T
   9   -111.7822420 -0.179279E-07  0.269E-04    3.63      42.6  T
     SCC iter.                  ...        0 min,  0.038 sec
     gradient                   ...        0 min,  0.037 sec
 * total energy  :  -110.2158343 Eh     change       -0.4639907E-01 Eh
   gradient norm :     0.0733357 Eh/α   predicted    -0.6523321E-01 (  40.59%)
   displ. norm   :     0.5566246 α      lambda       -0.2380376E-01
   maximum displ.:     0.1599277 α      in ANC's #70, #18, #21, ...

........................................................................
.............................. CYCLE   19 ..............................
........................................................................

 iter      E             dE          RMSdq      gap      omega  full diag
   1   -111.7724053 -0.111772E+03  0.373E-01    3.62       0.0  T
   2   -111.7767942 -0.438892E-02  0.227E-01    3.47       1.0  T
   3   -111.7771250 -0.330794E-03  0.133E-01    3.46       1.0  T
   4   -111.7770667  0.583050E-04  0.762E-02    3.43       1.0  T
   5   -111.7772751 -0.208420E-03  0.231E-02    3.45       1.0  T
   6   -111.7772967 -0.215305E-04  0.617E-03    3.44       1.9  T
   7   -111.7772971 -0.444077E-06  0.363E-03    3.44       3.2  T
   8   -111.7772974 -0.262609E-06  0.179E-03    3.44       6.4  T
   9   -111.7772974 -0.535701E-07  0.630E-04    3.44      18.2  T
  10   -111.7772974 -0.993458E-08  0.277E-04    3.44      41.5  T
     SCC iter.                  ...        0 min,  0.039 sec
     gradient                   ...        0 min,  0.041 sec
 * total energy  :  -110.1977604 Eh     change        0.1807389E-01 Eh
   gradient norm :     0.2013098 Eh/α   predicted    -0.1558945E-01 (-186.25%)
   displ. norm   :     0.3941131 α      lambda       -0.6085765E-01
   maximum displ.:     0.1587192 α      in ANC's #18, #15, #70, ...

........................................................................
.............................. CYCLE   20 ..............................
........................................................................

 iter      E             dE          RMSdq      gap      omega  full diag
   1   -111.7885816 -0.111789E+03  0.273E-01    3.50       0.0  T
   2   -111.7909413 -0.235966E-02  0.154E-01    3.58       1.0  T
   3   -111.7910880 -0.146743E-03  0.870E-02    3.58       1.0  T
   4   -111.7910880  0.654449E-07  0.349E-02    3.57       1.0  T
   5   -111.7911196 -0.316229E-04  0.134E-02    3.57       1.0  T
   6   -111.7911286 -0.897927E-05  0.493E-03    3.57       2.3  T
   7   -111.7911289 -0.360197E-06  0.282E-03    3.58       4.1  T
   8   -111.7911291 -0.153254E-06  0.151E-03    3.57       7.6  T
   9   -111.7911292 -0.591845E-07  0.446E-04    3.57      25.7  T
  10   -111.7911292 -0.315796E-08  0.190E-04    3.57      60.5  T
     SCC iter.                  ...        0 min,  0.036 sec
     gradient                   ...        0 min,  0.041 sec
 * total energy  :  -110.2220770 Eh     change       -0.2431661E-01 Eh
   gradient norm :     0.0544723 Eh/α   predicted    -0.3515523E-01 (  44.57%)
   displ. norm   :     0.5276246 α      lambda       -0.1100566E-01
   maximum displ.:     0.2022434 α      in ANC's #4, #29, #25, ...
 * RMSD in coord.:     0.7395684 α      energy gain  -0.1703466E+00 Eh

generating ANC from exact Hessian ...
Using Lindh-Hessian (1995)
 Shifting diagonal of input Hessian by   1.005490717505348E-002
 Lowest  eigenvalues of input Hessian
    0.010000    0.010013    0.000000    0.000000    0.000000    0.000000
    0.000000    0.000000    0.010083    0.010102    0.010156    0.010185
    0.010199    0.010292    0.010304    0.010341    0.010432    0.010519
 Highest eigenvalues
    2.038062    2.079351    2.091638    2.206279    2.321649    2.338804
 

........................................................................
.............................. CYCLE   21 ..............................
........................................................................

 iter      E             dE          RMSdq      gap      omega  full diag
   1   -111.7891115 -0.111789E+03  0.213E-01    3.54       0.0  T
   2   -111.7893667 -0.255160E-03  0.143E-01    3.58       1.0  T
   3   -111.7897220 -0.355315E-03  0.943E-02    3.56       1.0  T
   4   -111.7899009 -0.178901E-03  0.178E-02    3.57       1.0  T
   5   -111.7899122 -0.113154E-04  0.796E-03    3.57       1.4  T
   6   -111.7899121  0.948294E-07  0.450E-03    3.57       2.5  T
   7   -111.7899129 -0.791684E-06  0.151E-03    3.57       7.6  T
   8   -111.7899129 -0.365259E-07  0.561E-04    3.57      20.5  T
   9   -111.7899129 -0.930611E-08  0.252E-04    3.57      45.6  T
     SCC iter.                  ...        0 min,  0.036 sec
     gradient                   ...        0 min,  0.037 sec
 * total energy  :  -110.2179551 Eh     change        0.4121854E-02 Eh
   gradient norm :     0.0791558 Eh/α   predicted     0.0000000E+00 (-100.00%)
   displ. norm   :     0.3278440 α      lambda       -0.1238201E-01
   maximum displ.:     0.1314476 α      in ANC's #43, #23, #45, ...

........................................................................
.............................. CYCLE   22 ..............................
........................................................................

 iter      E             dE          RMSdq      gap      omega  full diag
   1   -111.7968278 -0.111797E+03  0.127E-01    3.63       0.0  T
   2   -111.7968874 -0.596181E-04  0.868E-02    3.59       1.0  T
   3   -111.7970436 -0.156207E-03  0.558E-02    3.60       1.0  T
   4   -111.7971026 -0.590156E-04  0.829E-03    3.60       1.4  T
   5   -111.7971048 -0.218864E-05  0.392E-03    3.60       2.9  T
   6   -111.7971049 -0.103571E-06  0.228E-03    3.60       5.0  T
   7   -111.7971051 -0.180508E-06  0.850E-04    3.60      13.5  T
   8   -111.7971051 -0.766978E-08  0.266E-04    3.60      43.2  T
     SCC iter.                  ...        0 min,  0.034 sec
     gradient                   ...        0 min,  0.039 sec
 * total energy  :  -110.2265773 Eh     change       -0.8622137E-02 Eh
   gradient norm :     0.0290795 Eh/α   predicted    -0.6857572E-02 ( -20.47%)
   displ. norm   :     0.4068908 α      lambda       -0.4910267E-02
   maximum displ.:     0.1588709 α      in ANC's #23, #11, #43, ...

........................................................................
.............................. CYCLE   23 ..............................
........................................................................

 iter      E             dE          RMSdq      gap      omega  full diag
   1   -111.7939172 -0.111794E+03  0.125E-01    3.63       0.0  T
   2   -111.7939914 -0.741514E-04  0.789E-02    3.63       1.0  T
   3   -111.7939982 -0.681527E-05  0.582E-02    3.63       1.0  T
   4   -111.7941012 -0.103028E-03  0.104E-02    3.63       1.1  T
   5   -111.7941034 -0.212267E-05  0.500E-03    3.63       2.3  T
   6   -111.7941040 -0.659286E-06  0.240E-03    3.63       4.8  T
   7   -111.7941042 -0.193479E-06  0.106E-03    3.63      10.8  T
   8   -111.7941042 -0.795450E-08  0.324E-04    3.63      35.4  T
   9   -111.7941042 -0.372459E-08  0.115E-04    3.63      99.4  T
     SCC iter.                  ...        0 min,  0.042 sec
     gradient                   ...        0 min,  0.041 sec
 * total energy  :  -110.2289775 Eh     change       -0.2400248E-02 Eh
   gradient norm :     0.0365965 Eh/α   predicted    -0.2865465E-02 (  19.38%)
   displ. norm   :     0.4005200 α      lambda       -0.3527399E-02
   maximum displ.:     0.1562057 α      in ANC's #23, #15, #33, ...

........................................................................
.............................. CYCLE   24 ..............................
........................................................................

 iter      E             dE          RMSdq      gap      omega  full diag
   1   -111.8033899 -0.111803E+03  0.119E-01    3.62       0.0  T
   2   -111.8034346 -0.447258E-04  0.721E-02    3.60       1.0  T
   3   -111.8033780  0.566061E-04  0.392E-02    3.59       1.0  T
   4   -111.8034569 -0.788756E-04  0.878E-03    3.59       1.3  T
   5   -111.8034581 -0.122663E-05  0.434E-03    3.59       2.6  T
   6   -111.8034588 -0.650443E-06  0.189E-03    3.59       6.1  T
   7   -111.8034589 -0.979292E-07  0.909E-04    3.59      12.6  T
   8   -111.8034589 -0.867134E-08  0.294E-04    3.59      39.0  T
     SCC iter.                  ...        0 min,  0.044 sec
     gradient                   ...        0 min,  0.057 sec
 * total energy  :  -110.2293607 Eh     change       -0.3832372E-03 Eh
   gradient norm :     0.0343164 Eh/α   predicted    -0.2046653E-02 ( 434.04%)
   displ. norm   :     0.2234426 α      lambda       -0.2006016E-02
   maximum displ.:     0.1053415 α      in ANC's #17, #11, #22, ...

........................................................................
.............................. CYCLE   25 ..............................
........................................................................

 iter      E             dE          RMSdq      gap      omega  full diag
   1   -111.8022683 -0.111802E+03  0.624E-02    3.62       0.0  T
   2   -111.8022772 -0.885898E-05  0.376E-02    3.61       1.0  T
   3   -111.8022629  0.142219E-04  0.176E-02    3.62       1.0  T
   4   -111.8022817 -0.187784E-04  0.371E-03    3.62       3.1  T
   5   -111.8022819 -0.186303E-06  0.188E-03    3.62       6.1  T
   6   -111.8022820 -0.111622E-06  0.941E-04    3.62      12.2  T
   7   -111.8022820 -0.203600E-07  0.399E-04    3.62      28.8  T
     SCC iter.                  ...        0 min,  0.038 sec
     gradient                   ...        0 min,  0.052 sec
 * total energy  :  -110.2305994 Eh     change       -0.1238690E-02 Eh
   gradient norm :     0.0157239 Eh/α   predicted    -0.1053086E-02 ( -14.98%)
   displ. norm   :     0.3428135 α      lambda       -0.1477032E-02
   maximum displ.:     0.1492222 α      in ANC's #17, #11, #19, ...

........................................................................
.............................. CYCLE   26 ..............................
........................................................................

 iter      E             dE          RMSdq      gap      omega  full diag
   1   -111.7948497 -0.111795E+03  0.860E-02    3.64       0.0  T
   2   -111.7948710 -0.213725E-04  0.518E-02    3.64       1.0  T
   3   -111.7948384  0.326057E-04  0.282E-02    3.64       1.0  T
   4   -111.7948835 -0.450645E-04  0.512E-03    3.64       2.2  T
   5   -111.7948838 -0.351450E-06  0.231E-03    3.64       5.0  T
   6   -111.7948840 -0.142921E-06  0.112E-03    3.64      10.2  T
   7   -111.7948840 -0.233345E-07  0.499E-04    3.64      23.0  T
   8   -111.7948840 -0.323465E-08  0.212E-04    3.64      54.1  T
     SCC iter.                  ...        0 min,  0.051 sec
     gradient                   ...        0 min,  0.049 sec
 * total energy  :  -110.2311095 Eh     change       -0.5100323E-03 Eh
   gradient norm :     0.0314870 Eh/α   predicted    -0.8253093E-03 (  61.82%)
   displ. norm   :     0.2159986 α      lambda       -0.1203903E-02
   maximum displ.:     0.0966468 α      in ANC's #17, #20, #15, ...

........................................................................
.............................. CYCLE   27 ..............................
........................................................................

 iter      E             dE          RMSdq      gap      omega  full diag
   1   -111.8001070 -0.111800E+03  0.387E-02    3.64       0.0  T
   2   -111.8001090 -0.199699E-05  0.231E-02    3.64       1.0  T
   3   -111.8001068  0.219499E-05  0.710E-03    3.64       1.6  T
   4   -111.8001097 -0.293413E-05  0.175E-03    3.64       6.6  T
   5   -111.8001098 -0.591005E-07  0.786E-04    3.64      14.6  T
   6   -111.8001098 -0.976344E-08  0.409E-04    3.64      28.1  T
     SCC iter.                  ...        0 min,  0.033 sec
     gradient                   ...        0 min,  0.054 sec
 * total energy  :  -110.2318987 Eh     change       -0.7891838E-03 Eh
   gradient norm :     0.0171823 Eh/α   predicted    -0.6300408E-03 ( -20.17%)
   displ. norm   :     0.3769504 α      lambda       -0.9962005E-03
   maximum displ.:     0.1346718 α      in ANC's #15, #22, #11, ...

........................................................................
.............................. CYCLE   28 ..............................
........................................................................

 iter      E             dE          RMSdq      gap      omega  full diag
   1   -111.8030966 -0.111803E+03  0.464E-02    3.64       0.0  T
   2   -111.8031045 -0.790407E-05  0.283E-02    3.64       1.0  T
   3   -111.8030934  0.110274E-04  0.173E-02    3.64       1.0  T
   4   -111.8031091 -0.156984E-04  0.306E-03    3.64       3.8  T
   5   -111.8031094 -0.283617E-06  0.156E-03    3.64       7.3  T
   6   -111.8031095 -0.872197E-07  0.676E-04    3.64      17.0  T
   7   -111.8031095 -0.399466E-08  0.285E-04    3.64      40.2  T
     SCC iter.                  ...        0 min,  0.044 sec
     gradient                   ...        0 min,  0.049 sec
 * total energy  :  -110.2327004 Eh     change       -0.8017784E-03 Eh
   gradient norm :     0.0136285 Eh/α   predicted    -0.5688769E-03 ( -29.05%)
   displ. norm   :     0.6327811 α      lambda       -0.1367666E-02
   maximum displ.:     0.2205631 α      in ANC's #15, #22, #11, ...

........................................................................
.............................. CYCLE   29 ..............................
........................................................................

 iter      E             dE          RMSdq      gap      omega  full diag
   1   -111.8000911 -0.111800E+03  0.870E-02    3.64       0.0  T
   2   -111.8001202 -0.291363E-04  0.522E-02    3.63       1.0  T
   3   -111.8000929  0.273855E-04  0.257E-02    3.63       1.0  T
   4   -111.8001300 -0.371897E-04  0.569E-03    3.63       2.0  T
   5   -111.8001310 -0.995912E-06  0.275E-03    3.63       4.2  T
   6   -111.8001313 -0.265300E-06  0.121E-03    3.63       9.4  T
   7   -111.8001313 -0.246935E-07  0.512E-04    3.63      22.4  T
   8   -111.8001313 -0.460467E-08  0.225E-04    3.63      51.1  T
     SCC iter.                  ...        0 min,  0.042 sec
     gradient                   ...        0 min,  0.049 sec
 * total energy  :  -110.2335806 Eh     change       -0.8801922E-03 Eh
   gradient norm :     0.0240923 Eh/α   predicted    -0.9576496E-03 (   8.80%)
   displ. norm   :     0.5718590 α      lambda       -0.1746753E-02
   maximum displ.:     0.2231246 α      in ANC's #11, #22, #8, ...

........................................................................
.............................. CYCLE   30 ..............................
........................................................................

 iter      E             dE          RMSdq      gap      omega  full diag
   1   -111.8013688 -0.111801E+03  0.798E-02    3.61       0.0  T
   2   -111.8013972 -0.283653E-04  0.481E-02    3.60       1.0  T
   3   -111.8013725  0.247347E-04  0.269E-02    3.60       1.0  T
   4   -111.8014098 -0.373050E-04  0.546E-03    3.60       2.1  T
   5   -111.8014106 -0.810020E-06  0.281E-03    3.60       4.1  T
   6   -111.8014108 -0.231229E-06  0.137E-03    3.60       8.4  T
   7   -111.8014108 -0.232081E-07  0.545E-04    3.60      21.0  T
   8   -111.8014108 -0.757962E-08  0.231E-04    3.60      49.7  T
     SCC iter.                  ...        0 min,  0.036 sec
     gradient                   ...        0 min,  0.051 sec
 * total energy  :  -110.2346949 Eh     change       -0.1114317E-02 Eh
   gradient norm :     0.0182852 Eh/α   predicted    -0.1158993E-02 (   4.01%)
   displ. norm   :     0.4578089 α      lambda       -0.1350696E-02
   maximum displ.:     0.1702654 α      in ANC's #22, #11, #15, ...

........................................................................
.............................. CYCLE   31 ..............................
........................................................................

 iter      E             dE          RMSdq      gap      omega  full diag
   1   -111.8060187 -0.111806E+03  0.717E-02    3.60       0.0  T
   2   -111.8060332 -0.145317E-04  0.424E-02    3.59       1.0  T
   3   -111.8060208  0.123534E-04  0.180E-02    3.59       1.0  T
   4   -111.8060379 -0.170486E-04  0.397E-03    3.59       2.9  T
   5   -111.8060383 -0.434854E-06  0.192E-03    3.59       6.0  T
   6   -111.8060384 -0.478601E-07  0.108E-03    3.59      10.6  T
   7   -111.8060384 -0.319338E-07  0.397E-04    3.59      28.9  T
   8   -111.8060384 -0.314829E-08  0.186E-04    3.59      61.8  T
     SCC iter.                  ...        0 min,  0.037 sec
     gradient                   ...        0 min,  0.052 sec
 * total energy  :  -110.2350859 Eh     change       -0.3909673E-03 Eh
   gradient norm :     0.0309186 Eh/α   predicted    -0.8168962E-03 ( 108.94%)
   displ. norm   :     0.5224732 α      lambda       -0.2004175E-02
   maximum displ.:     0.2002576 α      in ANC's #11, #22, #31, ...

........................................................................
.............................. CYCLE   32 ..............................
........................................................................

 iter      E             dE          RMSdq      gap      omega  full diag
   1   -111.7963516 -0.111796E+03  0.890E-02    3.57       0.0  T
   2   -111.7963742 -0.225530E-04  0.535E-02    3.56       1.0  T
   3   -111.7963464  0.278129E-04  0.244E-02    3.56       1.0  T
   4   -111.7963851 -0.386798E-04  0.527E-03    3.56       2.2  T
   5   -111.7963855 -0.465469E-06  0.259E-03    3.56       4.4  T
   6   -111.7963856 -0.869478E-07  0.141E-03    3.56       8.2  T
   7   -111.7963857 -0.454995E-07  0.488E-04    3.56      23.5  T
   8   -111.7963857 -0.446171E-08  0.183E-04    3.56      62.7  T
     SCC iter.                  ...        0 min,  0.039 sec
     gradient                   ...        0 min,  0.054 sec
 * total energy  :  -110.2359988 Eh     change       -0.9128614E-03 Eh
   gradient norm :     0.0289480 Eh/α   predicted    -0.1275636E-02 (  39.74%)
   displ. norm   :     0.2806530 α      lambda       -0.1821131E-02
   maximum displ.:     0.0886356 α      in ANC's #14, #13, #22, ...

........................................................................
.............................. CYCLE   33 ..............................
........................................................................

 iter      E             dE          RMSdq      gap      omega  full diag
   1   -111.8044006 -0.111804E+03  0.881E-02    3.55       0.0  T
   2   -111.8044297 -0.290999E-04  0.513E-02    3.56       1.0  T
   3   -111.8044181  0.115722E-04  0.205E-02    3.55       1.0  T
   4   -111.8044393 -0.211646E-04  0.724E-03    3.56       1.6  T
   5   -111.8044401 -0.836929E-06  0.282E-03    3.55       4.1  T
   6   -111.8044403 -0.185771E-06  0.153E-03    3.55       7.5  T
   7   -111.8044403 -0.305592E-07  0.557E-04    3.55      20.6  T
   8   -111.8044403 -0.750148E-08  0.221E-04    3.55      51.9  T
     SCC iter.                  ...        0 min,  0.043 sec
     gradient                   ...        0 min,  0.049 sec
 * total energy  :  -110.2346584 Eh     change        0.1340357E-02 Eh
   gradient norm :     0.0555377 Eh/α   predicted    -0.9822893E-03 (-173.29%)
   displ. norm   :     0.1748506 α      lambda       -0.4315855E-02
   maximum displ.:     0.0630118 α      in ANC's #17, #19, #51, ...

........................................................................
.............................. CYCLE   34 ..............................
........................................................................

 iter      E             dE          RMSdq      gap      omega  full diag
   1   -111.8069806 -0.111807E+03  0.646E-02    3.55       0.0  T
   2   -111.8069980 -0.174706E-04  0.374E-02    3.55       1.0  T
   3   -111.8069937  0.434123E-05  0.143E-02    3.55       1.0  T
   4   -111.8070034 -0.969184E-05  0.566E-03    3.55       2.0  T
   5   -111.8070040 -0.614236E-06  0.262E-03    3.55       4.4  T
   6   -111.8070042 -0.157361E-06  0.139E-03    3.55       8.2  T
   7   -111.8070042 -0.224079E-07  0.560E-04    3.55      20.5  T
   8   -111.8070042 -0.105169E-07  0.176E-04    3.55      65.1  T
     SCC iter.                  ...        0 min,  0.040 sec
     gradient                   ...        0 min,  0.047 sec
 * total energy  :  -110.2368335 Eh     change       -0.2175113E-02 Eh
   gradient norm :     0.0167214 Eh/α   predicted    -0.2223904E-02 (   2.24%)
   displ. norm   :     0.4846910 α      lambda       -0.1069924E-02
   maximum displ.:     0.1758473 α      in ANC's #22, #11, #15, ...

........................................................................
.............................. CYCLE   35 ..............................
........................................................................

 iter      E             dE          RMSdq      gap      omega  full diag
   1   -111.7969721 -0.111797E+03  0.842E-02    3.54       0.0  T
   2   -111.7969917 -0.196021E-04  0.505E-02    3.53       1.0  T
   3   -111.7969723  0.193089E-04  0.211E-02    3.53       1.0  T
   4   -111.7969984 -0.260517E-04  0.479E-03    3.53       2.4  T
   5   -111.7969990 -0.583289E-06  0.210E-03    3.53       5.5  T
   6   -111.7969991 -0.904120E-07  0.104E-03    3.53      11.0  T
   7   -111.7969991 -0.206047E-07  0.444E-04    3.53      25.9  T
   8   -111.7969991 -0.293957E-08  0.148E-04    3.53      77.6  T
     SCC iter.                  ...        0 min,  0.038 sec
     gradient                   ...        0 min,  0.043 sec
 * total energy  :  -110.2372365 Eh     change       -0.4029958E-03 Eh
   gradient norm :     0.0223954 Eh/α   predicted    -0.6606360E-03 (  63.93%)
   displ. norm   :     0.2499996 α      lambda       -0.8734660E-03
   maximum displ.:     0.1014185 α      in ANC's #19, #4, #11, ...

........................................................................
.............................. CYCLE   36 ..............................
........................................................................

 iter      E             dE          RMSdq      gap      omega  full diag
   1   -111.8031864 -0.111803E+03  0.452E-02    3.52       0.0  T
   2   -111.8031914 -0.496565E-05  0.265E-02    3.52       1.0  T
   3   -111.8031900  0.130714E-05  0.683E-03    3.52       1.7  T
   4   -111.8031922 -0.216918E-05  0.261E-03    3.52       4.4  T
   5   -111.8031925 -0.293163E-06  0.106E-03    3.52      10.8  T
   6   -111.8031925 -0.645447E-08  0.467E-04    3.52      24.5  T
   7   -111.8031925 -0.320118E-08  0.244E-04    3.52      47.0  T
     SCC iter.                  ...        0 min,  0.031 sec
     gradient                   ...        0 min,  0.036 sec
 * total energy  :  -110.2378622 Eh     change       -0.6256793E-03 Eh
   gradient norm :     0.0150611 Eh/α   predicted    -0.4640283E-03 ( -25.84%)
   displ. norm   :     0.5195254 α      lambda       -0.1193053E-02
   maximum displ.:     0.1882559 α      in ANC's #19, #4, #22, ...

........................................................................
.............................. CYCLE   37 ..............................
........................................................................

 iter      E             dE          RMSdq      gap      omega  full diag
   1   -111.8076099 -0.111808E+03  0.791E-02    3.52       0.0  T
   2   -111.8076198 -0.996508E-05  0.465E-02    3.52       1.0  T
   3   -111.8076121  0.773747E-05  0.140E-02    3.51       1.0  T
   4   -111.8076224 -0.103129E-04  0.405E-03    3.51       2.8  T
   5   -111.8076228 -0.387512E-06  0.172E-03    3.51       6.7  T
   6   -111.8076229 -0.666048E-07  0.924E-04    3.51      12.4  T
   7   -111.8076229 -0.251595E-07  0.397E-04    3.51      28.9  T
     SCC iter.                  ...        0 min,  0.032 sec
     gradient                   ...        0 min,  0.045 sec
 * total energy  :  -110.2385526 Eh     change       -0.6904321E-03 Eh
   gradient norm :     0.0134123 Eh/α   predicted    -0.7575316E-03 (   9.72%)
   displ. norm   :     0.5628137 α      lambda       -0.9833869E-03
   maximum displ.:     0.1866502 α      in ANC's #4, #19, #22, ...

........................................................................
.............................. CYCLE   38 ..............................
........................................................................

 iter      E             dE          RMSdq      gap      omega  full diag
   1   -111.8077375 -0.111808E+03  0.872E-02    3.50       0.0  T
   2   -111.8077464 -0.888063E-05  0.518E-02    3.49       1.0  T
   3   -111.8077341  0.123182E-04  0.150E-02    3.49       1.0  T
   4   -111.8077497 -0.156016E-04  0.325E-03    3.49       3.5  T
   5   -111.8077500 -0.263403E-06  0.168E-03    3.49       6.8  T
   6   -111.8077500 -0.540012E-09  0.873E-04    3.49      13.1  T
   7   -111.8077500 -0.294857E-07  0.278E-04    3.49      41.3  T
     SCC iter.                  ...        0 min,  0.035 sec
     gradient                   ...        0 min,  0.041 sec
 * total energy  :  -110.2392709 Eh     change       -0.7182295E-03 Eh
   gradient norm :     0.0122622 Eh/α   predicted    -0.6474429E-03 (  -9.86%)
   displ. norm   :     0.6470902 α      lambda       -0.8173956E-03
   maximum displ.:     0.2478658 α      in ANC's #19, #22, #4, ...

........................................................................
.............................. CYCLE   39 ..............................
........................................................................

 iter      E             dE          RMSdq      gap      omega  full diag
   1   -111.8005750 -0.111801E+03  0.944E-02    3.48       0.0  T
   2   -111.8005885 -0.135084E-04  0.565E-02    3.47       1.0  T
   3   -111.8005690  0.194513E-04  0.200E-02    3.47       1.0  T
   4   -111.8005939 -0.248571E-04  0.411E-03    3.47       2.8  T
   5   -111.8005943 -0.375194E-06  0.230E-03    3.47       5.0  T
   6   -111.8005943 -0.676305E-07  0.125E-03    3.47       9.1  T
   7   -111.8005944 -0.425620E-07  0.410E-04    3.47      28.0  T
   8   -111.8005944 -0.557920E-08  0.163E-04    3.47      70.4  T
     SCC iter.                  ...        0 min,  0.037 sec
     gradient                   ...        0 min,  0.044 sec
 * total energy  :  -110.2396676 Eh     change       -0.3967335E-03 Eh
   gradient norm :     0.0210119 Eh/α   predicted    -0.5798304E-03 (  46.15%)
   displ. norm   :     0.4296425 α      lambda       -0.1194521E-02
   maximum displ.:     0.1653219 α      in ANC's #4, #25, #10, ...

........................................................................
.............................. CYCLE   40 ..............................
........................................................................

 iter      E             dE          RMSdq      gap      omega  full diag
   1   -111.8151349 -0.111815E+03  0.745E-02    3.51       0.0  T
   2   -111.8151474 -0.125679E-04  0.438E-02    3.51       1.0  T
   3   -111.8151387  0.874936E-05  0.136E-02    3.51       1.0  T
   4   -111.8151503 -0.116540E-04  0.473E-03    3.50       2.4  T
   5   -111.8151512 -0.813735E-06  0.199E-03    3.50       5.8  T
   6   -111.8151512 -0.617401E-07  0.105E-03    3.50      10.9  T
   7   -111.8151512 -0.315304E-07  0.429E-04    3.50      26.7  T
   8   -111.8151512 -0.300957E-08  0.155E-04    3.50      73.9  T
     SCC iter.                  ...        0 min,  0.040 sec
     gradient                   ...        0 min,  0.041 sec
 * total energy  :  -110.2395657 Eh     change        0.1018665E-03 Eh
   gradient norm :     0.0375222 Eh/α   predicted    -0.7075119E-03 (-794.55%)
   displ. norm   :     0.2930609 α      lambda       -0.2064127E-02
   maximum displ.:     0.1017850 α      in ANC's #17, #15, #22, ...

........................................................................
.............................. CYCLE   41 ..............................
........................................................................

 iter      E             dE          RMSdq      gap      omega  full diag
   1   -111.8116809 -0.111812E+03  0.587E-02    3.49       0.0  T
   2   -111.8116918 -0.109232E-04  0.352E-02    3.49       1.0  T
   3   -111.8116890  0.282424E-05  0.113E-02    3.49       1.0  T
   4   -111.8116953 -0.632785E-05  0.426E-03    3.48       2.7  T
   5   -111.8116958 -0.469722E-06  0.224E-03    3.48       5.1  T
   6   -111.8116958 -0.250131E-07  0.115E-03    3.48      10.0  T
   7   -111.8116958 -0.430573E-07  0.435E-04    3.48      26.4  T
   8   -111.8116958 -0.750246E-08  0.138E-04    3.48      83.1  T
     SCC iter.                  ...        0 min,  0.037 sec
     gradient                   ...        0 min,  0.045 sec
 * total energy  :  -110.2403695 Eh     change       -0.8038067E-03 Eh
   gradient norm :     0.0228013 Eh/α   predicted    -0.1120705E-02 (  39.42%)
   displ. norm   :     0.2658903 α      lambda       -0.1189702E-02
   maximum displ.:     0.0805784 α      in ANC's #4, #22, #15, ...

........................................................................
.............................. CYCLE   42 ..............................
........................................................................

 iter      E             dE          RMSdq      gap      omega  full diag
   1   -111.8088024 -0.111809E+03  0.497E-02    3.47       0.0  T
   2   -111.8088081 -0.568970E-05  0.295E-02    3.47       1.0  T
   3   -111.8088025  0.558856E-05  0.124E-02    3.47       1.0  T
   4   -111.8088101 -0.758935E-05  0.333E-03    3.47       3.4  T
   5   -111.8088104 -0.301117E-06  0.169E-03    3.47       6.8  T
   6   -111.8088104 -0.514435E-07  0.715E-04    3.47      16.0  T
   7   -111.8088104 -0.825277E-08  0.352E-04    3.47      32.6  T
     SCC iter.                  ...        0 min,  0.035 sec
     gradient                   ...        0 min,  0.044 sec
 * total energy  :  -110.2406773 Eh     change       -0.3077555E-03 Eh
   gradient norm :     0.0194122 Eh/α   predicted    -0.6369056E-03 ( 106.95%)
   displ. norm   :     0.3638280 α      lambda       -0.7697060E-03
   maximum displ.:     0.1355894 α      in ANC's #4, #19, #25, ...
 * RMSD in coord.:     0.7618245 α      energy gain  -0.1860031E-01 Eh

generating ANC from exact Hessian ...
Using Lindh-Hessian (1995)
 Shifting diagonal of input Hessian by   1.009317549716936E-002
 Lowest  eigenvalues of input Hessian
    0.010000    0.010016    0.010046    0.000000    0.000000    0.000000
    0.000000    0.000000    0.000000    0.010134    0.010194    0.010214
    0.010250    0.010285    0.010321    0.010351    0.010480    0.010578
 Highest eigenvalues
    2.038805    2.068696    2.081391    2.208554    2.317319    2.338166
 

........................................................................
.............................. CYCLE   43 ..............................
........................................................................

 iter      E             dE          RMSdq      gap      omega  full diag
   1   -111.8069403 -0.111807E+03  0.562E-02    3.47       0.0  T
   2   -111.8069443 -0.395844E-05  0.333E-02    3.47       1.0  T
   3   -111.8069431  0.115576E-05  0.688E-03    3.47       1.7  T
   4   -111.8069455 -0.235455E-05  0.284E-03    3.47       4.0  T
   5   -111.8069457 -0.196359E-06  0.133E-03    3.47       8.6  T
   6   -111.8069457 -0.371635E-07  0.635E-04    3.47      18.1  T
   7   -111.8069457 -0.979320E-08  0.281E-04    3.47      40.8  T
     SCC iter.                  ...        0 min,  0.031 sec
     gradient                   ...        0 min,  0.046 sec
 * total energy  :  -110.2411776 Eh     change       -0.5003534E-03 Eh
   gradient norm :     0.0121014 Eh/α   predicted     0.0000000E+00 (-100.00%)
   displ. norm   :     0.2132528 α      lambda       -0.7408902E-03
   maximum displ.:     0.1348758 α      in ANC's #22, #23, #16, ...

........................................................................
.............................. CYCLE   44 ..............................
........................................................................

 iter      E             dE          RMSdq      gap      omega  full diag
   1   -111.8087341 -0.111809E+03  0.751E-02    3.47       0.0  T
   2   -111.8087451 -0.109659E-04  0.470E-02    3.46       1.0  T
   3   -111.8087158  0.293168E-04  0.239E-02    3.47       1.0  T
   4   -111.8087530 -0.372436E-04  0.370E-03    3.46       3.1  T
   5   -111.8087536 -0.598112E-06  0.178E-03    3.46       6.4  T
   6   -111.8087537 -0.476117E-07  0.740E-04    3.46      15.5  T
   7   -111.8087537 -0.101138E-07  0.225E-04    3.46      50.9  T
     SCC iter.                  ...        0 min,  0.032 sec
     gradient                   ...        0 min,  0.045 sec
 * total energy  :  -110.2416873 Eh     change       -0.5096507E-03 Eh
   gradient norm :     0.0133442 Eh/α   predicted    -0.3872939E-03 ( -24.01%)
   displ. norm   :     0.2448823 α      lambda       -0.6123369E-03
   maximum displ.:     0.1080332 α      in ANC's #23, #4, #17, ...

........................................................................
.............................. CYCLE   45 ..............................
........................................................................

 iter      E             dE          RMSdq      gap      omega  full diag
   1   -111.8117447 -0.111812E+03  0.466E-02    3.49       0.0  T
   2   -111.8117493 -0.463463E-05  0.284E-02    3.49       1.0  T
   3   -111.8117434  0.588439E-05  0.109E-02    3.49       1.1  T
   4   -111.8117513 -0.787049E-05  0.227E-03    3.49       5.0  T
   5   -111.8117514 -0.147157E-06  0.131E-03    3.49       8.7  T
   6   -111.8117515 -0.233044E-07  0.659E-04    3.49      17.4  T
   7   -111.8117515 -0.125710E-07  0.234E-04    3.49      49.1  T
     SCC iter.                  ...        0 min,  0.034 sec
     gradient                   ...        0 min,  0.043 sec
 * total energy  :  -110.2421755 Eh     change       -0.4882011E-03 Eh
   gradient norm :     0.0129066 Eh/α   predicted    -0.3245436E-03 ( -33.52%)
   displ. norm   :     0.4368811 α      lambda       -0.9199272E-03
   maximum displ.:     0.1731651 α      in ANC's #4, #23, #18, ...

........................................................................
.............................. CYCLE   46 ..............................
........................................................................

 iter      E             dE          RMSdq      gap      omega  full diag
   1   -111.8131001 -0.111813E+03  0.679E-02    3.53       0.0  T
   2   -111.8131091 -0.902773E-05  0.409E-02    3.52       1.0  T
   3   -111.8130947  0.143890E-04  0.157E-02    3.53       1.0  T
   4   -111.8131134 -0.186851E-04  0.296E-03    3.53       3.9  T
   5   -111.8131136 -0.207046E-06  0.160E-03    3.53       7.2  T
   6   -111.8131137 -0.384822E-07  0.743E-04    3.53      15.4  T
   7   -111.8131137 -0.111626E-07  0.360E-04    3.53      31.9  T
     SCC iter.                  ...        0 min,  0.029 sec
     gradient                   ...        0 min,  0.049 sec
 * total energy  :  -110.2428815 Eh     change       -0.7060078E-03 Eh
   gradient norm :     0.0126089 Eh/α   predicted    -0.5477721E-03 ( -22.41%)
   displ. norm   :     0.5738611 α      lambda       -0.9490860E-03
   maximum displ.:     0.2472006 α      in ANC's #4, #23, #13, ...

........................................................................
.............................. CYCLE   47 ..............................
........................................................................

 iter      E             dE          RMSdq      gap      omega  full diag
   1   -111.8079010 -0.111808E+03  0.852E-02    3.54       0.0  T
   2   -111.8079144 -0.134015E-04  0.517E-02    3.54       1.0  T
   3   -111.8078923  0.220608E-04  0.200E-02    3.54       1.0  T
   4   -111.8079222 -0.299047E-04  0.410E-03    3.54       2.8  T
   5   -111.8079224 -0.222508E-06  0.260E-03    3.54       4.4  T
   6   -111.8079225 -0.826480E-07  0.121E-03    3.54       9.5  T
   7   -111.8079226 -0.557540E-07  0.317E-04    3.54      36.2  T
   8   -111.8079226 -0.161650E-08  0.138E-04    3.54      83.4  T
     SCC iter.                  ...        0 min,  0.033 sec
     gradient                   ...        0 min,  0.042 sec
 * total energy  :  -110.2433960 Eh     change       -0.5145027E-03 Eh
   gradient norm :     0.0265467 Eh/α   predicted    -0.6308186E-03 (  22.61%)
   displ. norm   :     0.4963680 α      lambda       -0.1839176E-02
   maximum displ.:     0.2430100 α      in ANC's #4, #13, #10, ...

........................................................................
.............................. CYCLE   48 ..............................
........................................................................

 iter      E             dE          RMSdq      gap      omega  full diag
   1   -111.8118207 -0.111812E+03  0.689E-02    3.53       0.0  T
   2   -111.8118355 -0.148023E-04  0.396E-02    3.53       1.0  T
   3   -111.8118233  0.121827E-04  0.154E-02    3.53       1.0  T
   4   -111.8118402 -0.168497E-04  0.414E-03    3.53       2.8  T
   5   -111.8118406 -0.365138E-06  0.206E-03    3.53       5.6  T
   6   -111.8118407 -0.162892E-06  0.898E-04    3.53      12.8  T
   7   -111.8118407 -0.195969E-07  0.433E-04    3.53      26.5  T
     SCC iter.                  ...        0 min,  0.032 sec
     gradient                   ...        0 min,  0.047 sec
 * total energy  :  -110.2441428 Eh     change       -0.7467792E-03 Eh
   gradient norm :     0.0180751 Eh/α   predicted    -0.1146165E-02 (  53.48%)
   displ. norm   :     0.5288928 α      lambda       -0.1175920E-02
   maximum displ.:     0.2502277 α      in ANC's #4, #23, #13, ...

........................................................................
.............................. CYCLE   49 ..............................
........................................................................

 iter      E             dE          RMSdq      gap      omega  full diag
   1   -111.8068554 -0.111807E+03  0.683E-02    3.55       0.0  T
   2   -111.8068627 -0.730549E-05  0.409E-02    3.55       1.0  T
   3   -111.8068496  0.130673E-04  0.145E-02    3.55       1.0  T
   4   -111.8068665 -0.168869E-04  0.298E-03    3.55       3.9  T
   5   -111.8068667 -0.179377E-06  0.183E-03    3.55       6.3  T
   6   -111.8068668 -0.414236E-07  0.916E-04    3.55      12.5  T
   7   -111.8068668 -0.239169E-07  0.276E-04    3.55      41.6  T
     SCC iter.                  ...        0 min,  0.030 sec
     gradient                   ...        0 min,  0.048 sec
 * total energy  :  -110.2449047 Eh     change       -0.7619189E-03 Eh
   gradient norm :     0.0134598 Eh/α   predicted    -0.7524308E-03 (  -1.25%)
   displ. norm   :     0.4579500 α      lambda       -0.8547736E-03
   maximum displ.:     0.2399870 α      in ANC's #4, #13, #5, ...

........................................................................
.............................. CYCLE   50 ..............................
........................................................................

 iter      E             dE          RMSdq      gap      omega  full diag
   1   -111.8082443 -0.111808E+03  0.602E-02    3.55       0.0  T
   2   -111.8082519 -0.754485E-05  0.366E-02    3.54       1.0  T
   3   -111.8082398  0.120891E-04  0.156E-02    3.54       1.0  T
   4   -111.8082565 -0.167026E-04  0.325E-03    3.54       3.5  T
   5   -111.8082566 -0.131169E-06  0.205E-03    3.54       5.6  T
   6   -111.8082567 -0.692445E-07  0.867E-04    3.54      13.2  T
   7   -111.8082567 -0.224666E-07  0.256E-04    3.54      44.7  T
     SCC iter.                  ...        0 min,  0.041 sec
     gradient                   ...        0 min,  0.041 sec
 * total energy  :  -110.2453390 Eh     change       -0.4343011E-03 Eh
   gradient norm :     0.0259464 Eh/α   predicted    -0.5170192E-03 (  19.05%)
   displ. norm   :     0.3682039 α      lambda       -0.1221839E-02
   maximum displ.:     0.1813449 α      in ANC's #4, #13, #26, ...

........................................................................
.............................. CYCLE   51 ..............................
........................................................................

 iter      E             dE          RMSdq      gap      omega  full diag
   1   -111.8193077 -0.111819E+03  0.423E-02    3.55       0.0  T
   2   -111.8193126 -0.493809E-05  0.247E-02    3.55       1.0  T
   3   -111.8193080  0.460785E-05  0.101E-02    3.55       1.1  T
   4   -111.8193138 -0.582129E-05  0.297E-03    3.55       3.9  T
   5   -111.8193142 -0.346850E-06  0.117E-03    3.55       9.8  T
   6   -111.8193142 -0.304383E-07  0.575E-04    3.55      20.0  T
   7   -111.8193142 -0.829009E-08  0.239E-04    3.55      48.0  T
     SCC iter.                  ...        0 min,  0.034 sec
     gradient                   ...        0 min,  0.043 sec
 * total energy  :  -110.2461237 Eh     change       -0.7846856E-03 Eh
   gradient norm :     0.0174158 Eh/α   predicted    -0.6937472E-03 ( -11.59%)
   displ. norm   :     0.6416409 α      lambda       -0.1259515E-02
   maximum displ.:     0.3258824 α      in ANC's #4, #13, #5, ...

........................................................................
.............................. CYCLE   52 ..............................
........................................................................

 iter      E             dE          RMSdq      gap      omega  full diag
   1   -111.8164287 -0.111816E+03  0.707E-02    3.54       0.0  T
   2   -111.8164463 -0.176131E-04  0.417E-02    3.54       1.0  T
   3   -111.8164281  0.182665E-04  0.189E-02    3.53       1.0  T
   4   -111.8164534 -0.252864E-04  0.427E-03    3.53       2.7  T
   5   -111.8164537 -0.356202E-06  0.231E-03    3.53       5.0  T
   6   -111.8164539 -0.216813E-06  0.982E-04    3.53      11.7  T
   7   -111.8164539 -0.174535E-07  0.509E-04    3.53      22.5  T
     SCC iter.                  ...        0 min,  0.029 sec
     gradient                   ...        0 min,  0.041 sec
 * total energy  :  -110.2470562 Eh     change       -0.9324853E-03 Eh
   gradient norm :     0.0079363 Eh/α   predicted    -0.8890344E-03 (  -4.66%)
   displ. norm   :     0.7112430 α      lambda       -0.1036566E-02
   maximum displ.:     0.3619231 α      in ANC's #4, #13, #5, ...

........................................................................
.............................. CYCLE   53 ..............................
........................................................................

 iter      E             dE          RMSdq      gap      omega  full diag
   1   -111.8125993 -0.111813E+03  0.735E-02    3.52       0.0  T
   2   -111.8126138 -0.145182E-04  0.436E-02    3.51       1.0  T
   3   -111.8125971  0.166828E-04  0.178E-02    3.50       1.0  T
   4   -111.8126189 -0.217786E-04  0.437E-03    3.50       2.6  T
   5   -111.8126193 -0.391814E-06  0.237E-03    3.50       4.8  T
   6   -111.8126196 -0.251621E-06  0.914E-04    3.50      12.5  T
   7   -111.8126196 -0.137212E-07  0.424E-04    3.50      27.1  T
     SCC iter.                  ...        0 min,  0.029 sec
     gradient                   ...        0 min,  0.041 sec
 * total energy  :  -110.2478710 Eh     change       -0.8148266E-03 Eh
   gradient norm :     0.0089121 Eh/α   predicted    -0.7804703E-03 (  -4.22%)
   displ. norm   :     0.5895548 α      lambda       -0.9129402E-03
   maximum displ.:     0.2790558 α      in ANC's #4, #13, #7, ...

........................................................................
.............................. CYCLE   54 ..............................
........................................................................

 iter      E             dE          RMSdq      gap      omega  full diag
   1   -111.8130975 -0.111813E+03  0.654E-02    3.48       0.0  T
   2   -111.8131058 -0.831595E-05  0.389E-02    3.47       1.0  T
   3   -111.8130945  0.113295E-04  0.155E-02    3.46       1.0  T
   4   -111.8131092 -0.147493E-04  0.342E-03    3.46       3.4  T
   5   -111.8131095 -0.253193E-06  0.186E-03    3.46       6.2  T
   6   -111.8131096 -0.102572E-06  0.825E-04    3.46      13.9  T
   7   -111.8131096 -0.200568E-07  0.319E-04    3.46      35.9  T
     SCC iter.                  ...        0 min,  0.033 sec
     gradient                   ...        0 min,  0.041 sec
 * total energy  :  -110.2484624 Eh     change       -0.5913565E-03 Eh
   gradient norm :     0.0187703 Eh/α   predicted    -0.6151336E-03 (   4.02%)
   displ. norm   :     0.5786880 α      lambda       -0.9624756E-03
   maximum displ.:     0.2704950 α      in ANC's #4, #13, #7, ...

........................................................................
.............................. CYCLE   55 ..............................
........................................................................

 iter      E             dE          RMSdq      gap      omega  full diag
   1   -111.8086968 -0.111809E+03  0.660E-02    3.47       0.0  T
   2   -111.8087081 -0.112627E-04  0.385E-02    3.46       1.0  T
   3   -111.8086921  0.160250E-04  0.191E-02    3.46       1.0  T
   4   -111.8087126 -0.205590E-04  0.411E-03    3.45       2.8  T
   5   -111.8087131 -0.497481E-06  0.204E-03    3.45       5.6  T
   6   -111.8087132 -0.136306E-06  0.842E-04    3.45      13.6  T
   7   -111.8087133 -0.176026E-07  0.384E-04    3.45      29.9  T
     SCC iter.                  ...        0 min,  0.033 sec
     gradient                   ...        0 min,  0.041 sec
 * total energy  :  -110.2489849 Eh     change       -0.5225682E-03 Eh
   gradient norm :     0.0118667 Eh/α   predicted    -0.6423996E-03 (  22.93%)
   displ. norm   :     0.2579965 α      lambda       -0.6211468E-03
   maximum displ.:     0.1035497 α      in ANC's #23, #7, #15, ...

........................................................................
.............................. CYCLE   56 ..............................
........................................................................

 iter      E             dE          RMSdq      gap      omega  full diag
   1   -111.8156163 -0.111816E+03  0.359E-02    3.46       0.0  T
   2   -111.8156246 -0.821305E-05  0.214E-02    3.46       1.0  T
   3   -111.8156222  0.238553E-05  0.114E-02    3.46       1.0  T
   4   -111.8156264 -0.420635E-05  0.330E-03    3.46       3.5  T
   5   -111.8156269 -0.476816E-06  0.121E-03    3.46       9.4  T
   6   -111.8156269 -0.241520E-07  0.689E-04    3.46      16.7  T
   7   -111.8156269 -0.116059E-07  0.309E-04    3.46      37.1  T
     SCC iter.                  ...        0 min,  0.034 sec
     gradient                   ...        0 min,  0.048 sec
 * total energy  :  -110.2492691 Eh     change       -0.2841446E-03 Eh
   gradient norm :     0.0081408 Eh/α   predicted    -0.3312489E-03 (  16.58%)
   displ. norm   :     0.3277123 α      lambda       -0.4259793E-03
   maximum displ.:     0.1638514 α      in ANC's #4, #7, #13, ...

........................................................................
.............................. CYCLE   57 ..............................
........................................................................

 iter      E             dE          RMSdq      gap      omega  full diag
   1   -111.8138768 -0.111814E+03  0.417E-02    3.46       0.0  T
   2   -111.8138822 -0.538595E-05  0.245E-02    3.46       1.0  T
   3   -111.8138771  0.509321E-05  0.115E-02    3.46       1.0  T
   4   -111.8138846 -0.743539E-05  0.230E-03    3.46       5.0  T
   5   -111.8138847 -0.153211E-06  0.128E-03    3.46       8.9  T
   6   -111.8138848 -0.336299E-07  0.626E-04    3.46      18.3  T
   7   -111.8138848 -0.109532E-07  0.242E-04    3.46      47.4  T
     SCC iter.                  ...        0 min,  0.035 sec
     gradient                   ...        0 min,  0.048 sec
 * total energy  :  -110.2495097 Eh     change       -0.2405976E-03 Eh
   gradient norm :     0.0089665 Eh/α   predicted    -0.2358672E-03 (  -1.97%)
   displ. norm   :     0.2010139 α      lambda       -0.2741841E-03
   maximum displ.:     0.0830902 α      in ANC's #4, #7, #5, ...

........................................................................
.............................. CYCLE   58 ..............................
........................................................................

 iter      E             dE          RMSdq      gap      omega  full diag
   1   -111.8145974 -0.111815E+03  0.320E-02    3.46       0.0  T
   2   -111.8146011 -0.369483E-05  0.187E-02    3.46       1.0  T
   3   -111.8145994  0.175734E-05  0.759E-03    3.47       1.5  T
   4   -111.8146019 -0.248802E-05  0.224E-03    3.47       5.1  T
   5   -111.8146021 -0.243246E-06  0.929E-04    3.47      12.3  T
   6   -111.8146021 -0.124028E-07  0.497E-04    3.47      23.1  T
     SCC iter.                  ...        0 min,  0.032 sec
     gradient                   ...        0 min,  0.046 sec
 * total energy  :  -110.2496820 Eh     change       -0.1723493E-03 Eh
   gradient norm :     0.0063105 Eh/α   predicted    -0.1426356E-03 ( -17.24%)
   displ. norm   :     0.3276987 α      lambda       -0.2804882E-03
   maximum displ.:     0.1752410 α      in ANC's #4, #7, #5, ...

........................................................................
.............................. CYCLE   59 ..............................
........................................................................

 iter      E             dE          RMSdq      gap      omega  full diag
   1   -111.8154364 -0.111815E+03  0.418E-02    3.46       0.0  T
   2   -111.8154410 -0.459372E-05  0.247E-02    3.46       1.0  T
   3   -111.8154367  0.427565E-05  0.978E-03    3.46       1.2  T
   4   -111.8154421 -0.542427E-05  0.262E-03    3.46       4.4  T
   5   -111.8154425 -0.352961E-06  0.101E-03    3.46      11.3  T
   6   -111.8154425 -0.140396E-07  0.571E-04    3.46      20.1  T
   7   -111.8154425 -0.881057E-08  0.176E-04    3.46      65.0  T
     SCC iter.                  ...        0 min,  0.034 sec
     gradient                   ...        0 min,  0.050 sec
 * total energy  :  -110.2498901 Eh     change       -0.2081281E-03 Eh
   gradient norm :     0.0047462 Eh/α   predicted    -0.1553088E-03 ( -25.38%)
   displ. norm   :     0.4129089 α      lambda       -0.3192923E-03
   maximum displ.:     0.2076372 α      in ANC's #4, #7, #5, ...

........................................................................
.............................. CYCLE   60 ..............................
........................................................................

 iter      E             dE          RMSdq      gap      omega  full diag
   1   -111.8159146 -0.111816E+03  0.538E-02    3.47       0.0  T
   2   -111.8159197 -0.512300E-05  0.319E-02    3.46       1.0  T
   3   -111.8159110  0.875870E-05  0.125E-02    3.47       1.0  T
   4   -111.8159213 -0.103534E-04  0.306E-03    3.47       3.8  T
   5   -111.8159218 -0.494119E-06  0.111E-03    3.46      10.4  T
   6   -111.8159218 -0.141045E-07  0.603E-04    3.46      19.0  T
   7   -111.8159218 -0.953699E-08  0.176E-04    3.46      65.0  T
     SCC iter.                  ...        0 min,  0.034 sec
     gradient                   ...        0 min,  0.057 sec
 * total energy  :  -110.2501357 Eh     change       -0.2455856E-03 Eh
   gradient norm :     0.0058200 Eh/α   predicted    -0.1868681E-03 ( -23.91%)
   displ. norm   :     0.5147789 α      lambda       -0.3377257E-03
   maximum displ.:     0.2635249 α      in ANC's #4, #7, #5, ...

........................................................................
.............................. CYCLE   61 ..............................
........................................................................

 iter      E             dE          RMSdq      gap      omega  full diag
   1   -111.8145657 -0.111815E+03  0.663E-02    3.45       0.0  T
   2   -111.8145699 -0.424421E-05  0.395E-02    3.45       1.0  T
   3   -111.8145593  0.106230E-04  0.128E-02    3.46       1.0  T
   4   -111.8145719 -0.125920E-04  0.286E-03    3.45       4.0  T
   5   -111.8145722 -0.290234E-06  0.141E-03    3.45       8.1  T
   6   -111.8145722 -0.179169E-07  0.709E-04    3.45      16.2  T
   7   -111.8145722 -0.159055E-07  0.152E-04    3.45      75.3  T
     SCC iter.                  ...        0 min,  0.038 sec
     gradient                   ...        0 min,  0.048 sec
 * total energy  :  -110.2504006 Eh     change       -0.2648978E-03 Eh
   gradient norm :     0.0070932 Eh/α   predicted    -0.2136133E-03 ( -19.36%)
   displ. norm   :     0.5201220 α      lambda       -0.3425559E-03
   maximum displ.:     0.2638621 α      in ANC's #4, #5, #7, ...

........................................................................
.............................. CYCLE   62 ..............................
........................................................................

 iter      E             dE          RMSdq      gap      omega  full diag
   1   -111.8143781 -0.111814E+03  0.643E-02    3.46       0.0  T
   2   -111.8143806 -0.246342E-05  0.383E-02    3.45       1.0  T
   3   -111.8143772  0.343228E-05  0.770E-03    3.46       1.5  T
   4   -111.8143817 -0.454426E-05  0.218E-03    3.46       5.3  T
   5   -111.8143818 -0.892040E-07  0.128E-03    3.46       8.9  T
   6   -111.8143818 -0.253329E-07  0.465E-04    3.46      24.7  T
   7   -111.8143818 -0.914991E-08  0.135E-04    3.46      84.8  T
     SCC iter.                  ...        0 min,  0.035 sec
     gradient                   ...        0 min,  0.048 sec
 * total energy  :  -110.2506616 Eh     change       -0.2609741E-03 Eh
   gradient norm :     0.0071141 Eh/α   predicted    -0.2176183E-03 ( -16.61%)
   displ. norm   :     0.5064929 α      lambda       -0.3042593E-03
   maximum displ.:     0.2651471 α      in ANC's #4, #5, #7, ...

........................................................................
.............................. CYCLE   63 ..............................
........................................................................

 iter      E             dE          RMSdq      gap      omega  full diag
   1   -111.8135596 -0.111814E+03  0.602E-02    3.44       0.0  T
   2   -111.8135633 -0.365571E-05  0.357E-02    3.44       1.0  T
   3   -111.8135613  0.194137E-05  0.676E-03    3.44       1.7  T
   4   -111.8135642 -0.285433E-05  0.209E-03    3.44       5.5  T
   5   -111.8135643 -0.132737E-06  0.115E-03    3.44      10.0  T
   6   -111.8135643 -0.990076E-08  0.533E-04    3.44      21.5  T
   7   -111.8135644 -0.106704E-07  0.181E-04    3.44      63.5  T
     SCC iter.                  ...        0 min,  0.039 sec
     gradient                   ...        0 min,  0.045 sec
 * total energy  :  -110.2508847 Eh     change       -0.2231302E-03 Eh
   gradient norm :     0.0071582 Eh/α   predicted    -0.1911602E-03 ( -14.33%)
   displ. norm   :     0.4182879 α      lambda       -0.2766024E-03
   maximum displ.:     0.2250271 α      in ANC's #4, #5, #8, ...

........................................................................
.............................. CYCLE   64 ..............................
........................................................................

 iter      E             dE          RMSdq      gap      omega  full diag
   1   -111.8165109 -0.111817E+03  0.480E-02    3.46       0.0  T
   2   -111.8165140 -0.305873E-05  0.285E-02    3.45       1.0  T
   3   -111.8165103  0.368159E-05  0.825E-03    3.45       1.4  T
   4   -111.8165148 -0.447147E-05  0.214E-03    3.45       5.3  T
   5   -111.8165150 -0.187588E-06  0.998E-04    3.45      11.5  T
   6   -111.8165150 -0.147948E-07  0.477E-04    3.45      24.0  T
     SCC iter.                  ...        0 min,  0.032 sec
     gradient                   ...        0 min,  0.048 sec
 * total energy  :  -110.2510735 Eh     change       -0.1887878E-03 Eh
   gradient norm :     0.0064359 Eh/α   predicted    -0.1625023E-03 ( -13.92%)
   displ. norm   :     0.5444480 α      lambda       -0.2572552E-03
   maximum displ.:     0.2888320 α      in ANC's #4, #5, #7, ...

........................................................................
.............................. CYCLE   65 ..............................
........................................................................

 iter      E             dE          RMSdq      gap      omega  full diag
   1   -111.8128754 -0.111813E+03  0.669E-02    3.43       0.0  T
   2   -111.8128826 -0.713167E-05  0.394E-02    3.43       1.0  T
   3   -111.8128791  0.347760E-05  0.925E-03    3.43       1.2  T
   4   -111.8128837 -0.461144E-05  0.258E-03    3.43       4.4  T
   5   -111.8128841 -0.362847E-06  0.113E-03    3.43      10.2  T
   6   -111.8128841 -0.107967E-08  0.575E-04    3.43      20.0  T
   7   -111.8128841 -0.111732E-07  0.206E-04    3.43      55.6  T
     SCC iter.                  ...        0 min,  0.038 sec
     gradient                   ...        0 min,  0.045 sec
 * total energy  :  -110.2512400 Eh     change       -0.1665122E-03 Eh
   gradient norm :     0.0088977 Eh/α   predicted    -0.1667580E-03 (   0.15%)
   displ. norm   :     0.4292412 α      lambda       -0.3063920E-03
   maximum displ.:     0.2235435 α      in ANC's #4, #5, #8, ...

........................................................................
.............................. CYCLE   66 ..............................
........................................................................

 iter      E             dE          RMSdq      gap      omega  full diag
   1   -111.8168597 -0.111817E+03  0.570E-02    3.43       0.0  T
   2   -111.8168663 -0.654046E-05  0.334E-02    3.43       1.0  T
   3   -111.8168640  0.223223E-05  0.840E-03    3.44       1.4  T
   4   -111.8168671 -0.306981E-05  0.289E-03    3.43       4.0  T
   5   -111.8168675 -0.415758E-06  0.116E-03    3.43       9.9  T
   6   -111.8168675 -0.159140E-07  0.620E-04    3.43      18.5  T
   7   -111.8168675 -0.111606E-07  0.269E-04    3.43      42.6  T
     SCC iter.                  ...        0 min,  0.037 sec
     gradient                   ...        0 min,  0.043 sec
 * total energy  :  -110.2513184 Eh     change       -0.7836589E-04 Eh
   gradient norm :     0.0137712 Eh/α   predicted    -0.1814237E-03 ( 131.51%)
   displ. norm   :     0.3089523 α      lambda       -0.3553531E-03
   maximum displ.:     0.1434965 α      in ANC's #4, #5, #12, ...
 * RMSD in coord.:     0.9649851 α      energy gain  -0.1064111E-01 Eh

generating ANC from exact Hessian ...
Using Lindh-Hessian (1995)
 Shifting diagonal of input Hessian by   1.024687577294669E-002
 Lowest  eigenvalues of input Hessian
    0.010000    0.010192    0.010216    0.000000    0.000000    0.000000
    0.000000    0.000000    0.000000    0.010317    0.010349    0.010376
    0.010433    0.010458    0.010516    0.010586    0.010693    0.010818
 Highest eigenvalues
    2.037718    2.069448    2.081345    2.208095    2.310711    2.350641
 

........................................................................
.............................. CYCLE   67 ..............................
........................................................................

 iter      E             dE          RMSdq      gap      omega  full diag
   1   -111.8185302 -0.111819E+03  0.520E-02    3.47       0.0  T
   2   -111.8185387 -0.850402E-05  0.310E-02    3.46       1.0  T
   3   -111.8185371  0.160159E-05  0.925E-03    3.46       1.2  T
   4   -111.8185399 -0.283349E-05  0.246E-03    3.46       4.7  T
   5   -111.8185401 -0.236755E-06  0.122E-03    3.46       9.4  T
   6   -111.8185402 -0.266835E-07  0.553E-04    3.46      20.7  T
   7   -111.8185402 -0.592054E-08  0.245E-04    3.46      46.9  T
     SCC iter.                  ...        0 min,  0.039 sec
     gradient                   ...        0 min,  0.049 sec
 * total energy  :  -110.2514894 Eh     change       -0.1710270E-03 Eh
   gradient norm :     0.0087602 Eh/α   predicted     0.0000000E+00 (-100.00%)
   displ. norm   :     0.0821941 α      lambda       -0.1942076E-03
   maximum displ.:     0.0282862 α      in ANC's #1, #15, #16, ...

........................................................................
.............................. CYCLE   68 ..............................
........................................................................

 iter      E             dE          RMSdq      gap      omega  full diag
   1   -111.8169945 -0.111817E+03  0.232E-02    3.45       0.0  T
   2   -111.8169961 -0.159728E-05  0.140E-02    3.45       1.0  T
   3   -111.8169952  0.882792E-06  0.490E-03    3.45       2.3  T
   4   -111.8169964 -0.118208E-05  0.153E-03    3.45       7.5  T
   5   -111.8169965 -0.123146E-06  0.659E-04    3.45      17.4  T
   6   -111.8169965 -0.557431E-08  0.339E-04    3.45      33.9  T
     SCC iter.                  ...        0 min,  0.031 sec
     gradient                   ...        0 min,  0.046 sec
 * total energy  :  -110.2516343 Eh     change       -0.1448982E-03 Eh
   gradient norm :     0.0031256 Eh/α   predicted    -0.9993480E-04 ( -31.03%)
   displ. norm   :     0.1437891 α      lambda       -0.1539605E-03
   maximum displ.:     0.0573154 α      in ANC's #15, #5, #20, ...

........................................................................
.............................. CYCLE   69 ..............................
........................................................................

 iter      E             dE          RMSdq      gap      omega  full diag
   1   -111.8158223 -0.111816E+03  0.306E-02    3.44       0.0  T
   2   -111.8158234 -0.113878E-05  0.183E-02    3.45       1.0  T
   3   -111.8158218  0.159766E-05  0.549E-03    3.44       2.1  T
   4   -111.8158238 -0.201398E-05  0.142E-03    3.44       8.1  T
   5   -111.8158239 -0.660504E-07  0.741E-04    3.44      15.5  T
   6   -111.8158239 -0.533291E-08  0.352E-04    3.44      32.6  T
     SCC iter.                  ...        0 min,  0.032 sec
     gradient                   ...        0 min,  0.048 sec
 * total energy  :  -110.2517435 Eh     change       -0.1091988E-03 Eh
   gradient norm :     0.0031516 Eh/α   predicted    -0.7857346E-04 ( -28.05%)
   displ. norm   :     0.1916475 α      lambda       -0.1226550E-03
   maximum displ.:     0.0849830 α      in ANC's #15, #5, #20, ...

........................................................................
.............................. CYCLE   70 ..............................
........................................................................

 iter      E             dE          RMSdq      gap      omega  full diag
   1   -111.8152017 -0.111815E+03  0.382E-02    3.44       0.0  T
   2   -111.8152024 -0.664098E-06  0.227E-02    3.44       1.0  T
   3   -111.8152003  0.207136E-05  0.597E-03    3.44       1.9  T
   4   -111.8152028 -0.251942E-05  0.120E-03    3.44       9.5  T
   5   -111.8152029 -0.179582E-07  0.726E-04    3.44      15.8  T
   6   -111.8152029 -0.906225E-08  0.242E-04    3.44      47.5  T
     SCC iter.                  ...        0 min,  0.028 sec
     gradient                   ...        0 min,  0.047 sec
 * total energy  :  -110.2518404 Eh     change       -0.9691781E-04 Eh
   gradient norm :     0.0048998 Eh/α   predicted    -0.6361289E-04 ( -34.36%)
   displ. norm   :     0.3181333 α      lambda       -0.1775401E-03
   maximum displ.:     0.1444495 α      in ANC's #15, #5, #24, ...

........................................................................
.............................. CYCLE   71 ..............................
........................................................................

 iter      E             dE          RMSdq      gap      omega  full diag
   1   -111.8146326 -0.111815E+03  0.623E-02    3.43       0.0  T
   2   -111.8146341 -0.146042E-05  0.369E-02    3.43       1.0  T
   3   -111.8146298  0.424844E-05  0.861E-03    3.43       1.3  T
   4   -111.8146349 -0.507683E-05  0.176E-03    3.43       6.5  T
   5   -111.8146350 -0.652196E-07  0.968E-04    3.43      11.8  T
   6   -111.8146350 -0.895170E-08  0.413E-04    3.43      27.7  T
     SCC iter.                  ...        0 min,  0.036 sec
     gradient                   ...        0 min,  0.045 sec
 * total energy  :  -110.2519823 Eh     change       -0.1418936E-03 Eh
   gradient norm :     0.0055797 Eh/α   predicted    -0.9775458E-04 ( -31.11%)
   displ. norm   :     0.4175843 α      lambda       -0.2235551E-03
   maximum displ.:     0.1917409 α      in ANC's #15, #5, #24, ...

........................................................................
.............................. CYCLE   72 ..............................
........................................................................

 iter      E             dE          RMSdq      gap      omega  full diag
   1   -111.8144074 -0.111814E+03  0.798E-02    3.42       0.0  T
   2   -111.8144098 -0.242550E-05  0.470E-02    3.42       1.0  T
   3   -111.8144047  0.517342E-05  0.961E-03    3.42       1.2  T
   4   -111.8144107 -0.607513E-05  0.223E-03    3.42       5.1  T
   5   -111.8144109 -0.185075E-06  0.998E-04    3.42      11.5  T
   6   -111.8144109 -0.426860E-08  0.472E-04    3.42      24.3  T
     SCC iter.                  ...        0 min,  0.034 sec
     gradient                   ...        0 min,  0.047 sec
 * total energy  :  -110.2521646 Eh     change       -0.1822801E-03 Eh
   gradient norm :     0.0051377 Eh/α   predicted    -0.1312702E-03 ( -27.98%)
   displ. norm   :     0.4903730 α      lambda       -0.2704296E-03
   maximum displ.:     0.2266247 α      in ANC's #15, #5, #24, ...

........................................................................
.............................. CYCLE   73 ..............................
........................................................................

 iter      E             dE          RMSdq      gap      omega  full diag
   1   -111.8145155 -0.111815E+03  0.920E-02    3.41       0.0  T
   2   -111.8145190 -0.350767E-05  0.541E-02    3.41       1.0  T
   3   -111.8145139  0.511046E-05  0.980E-03    3.41       1.2  T
   4   -111.8145199 -0.600774E-05  0.277E-03    3.41       4.1  T
   5   -111.8145202 -0.347873E-06  0.109E-03    3.41      10.6  T
   6   -111.8145202 -0.326752E-08  0.489E-04    3.41      23.5  T
   7   -111.8145202 -0.791005E-08  0.142E-04    3.41      80.7  T
     SCC iter.                  ...        0 min,  0.035 sec
     gradient                   ...        0 min,  0.042 sec
 * total energy  :  -110.2523877 Eh     change       -0.2231157E-03 Eh
   gradient norm :     0.0050565 Eh/α   predicted    -0.1677393E-03 ( -24.82%)
   displ. norm   :     0.5251885 α      lambda       -0.3221169E-03
   maximum displ.:     0.2434726 α      in ANC's #15, #5, #24, ...

........................................................................
.............................. CYCLE   74 ..............................
........................................................................

 iter      E             dE          RMSdq      gap      omega  full diag
   1   -111.8162351 -0.111816E+03  0.942E-02    3.40       0.0  T
   2   -111.8162390 -0.392226E-05  0.554E-02    3.40       1.0  T
   3   -111.8162345  0.450810E-05  0.943E-03    3.41       1.2  T
   4   -111.8162399 -0.537768E-05  0.280E-03    3.40       4.1  T
   5   -111.8162403 -0.375587E-06  0.108E-03    3.40      10.6  T
   6   -111.8162403 -0.380321E-08  0.554E-04    3.40      20.7  T
   7   -111.8162403 -0.942273E-08  0.165E-04    3.40      69.7  T
     SCC iter.                  ...        0 min,  0.042 sec
     gradient                   ...        0 min,  0.050 sec
 * total energy  :  -110.2526466 Eh     change       -0.2588422E-03 Eh
   gradient norm :     0.0063422 Eh/α   predicted    -0.2054819E-03 ( -20.62%)
   displ. norm   :     0.6065199 α      lambda       -0.3644681E-03
   maximum displ.:     0.2777305 α      in ANC's #15, #5, #24, ...

........................................................................
.............................. CYCLE   75 ..............................
........................................................................

 iter      E             dE          RMSdq      gap      omega  full diag
   1   -111.8139770 -0.111814E+03  0.110E-01    3.39       0.0  T
   2   -111.8139828 -0.588334E-05  0.646E-02    3.39       1.0  T
   3   -111.8139767  0.615531E-05  0.113E-02    3.39       1.0  T
   4   -111.8139846 -0.793683E-05  0.342E-03    3.39       3.4  T
   5   -111.8139850 -0.402285E-06  0.163E-03    3.39       7.0  T
   6   -111.8139850 -0.162781E-07  0.821E-04    3.39      14.0  T
   7   -111.8139851 -0.207322E-07  0.279E-04    3.39      41.2  T
     SCC iter.                  ...        0 min,  0.043 sec
     gradient                   ...        0 min,  0.048 sec
 * total energy  :  -110.2528504 Eh     change       -0.2038047E-03 Eh
   gradient norm :     0.0131533 Eh/α   predicted    -0.2492753E-03 (  22.31%)
   displ. norm   :     0.4372306 α      lambda       -0.5252772E-03
   maximum displ.:     0.1895114 α      in ANC's #15, #5, #24, ...

........................................................................
.............................. CYCLE   76 ..............................
........................................................................

 iter      E             dE          RMSdq      gap      omega  full diag
   1   -111.8211072 -0.111821E+03  0.734E-02    3.40       0.0  T
   2   -111.8211114 -0.417860E-05  0.432E-02    3.41       1.0  T
   3   -111.8211080  0.346554E-05  0.877E-03    3.41       1.3  T
   4   -111.8211126 -0.465154E-05  0.247E-03    3.41       4.6  T
   5   -111.8211128 -0.191025E-06  0.123E-03    3.41       9.3  T
   6   -111.8211128 -0.206090E-07  0.610E-04    3.41      18.8  T
   7   -111.8211128 -0.884121E-08  0.270E-04    3.41      42.4  T
     SCC iter.                  ...        0 min,  0.040 sec
     gradient                   ...        0 min,  0.050 sec
 * total energy  :  -110.2530935 Eh     change       -0.2430938E-03 Eh
   gradient norm :     0.0100404 Eh/α   predicted    -0.3128487E-03 (  28.69%)
   displ. norm   :     0.5349162 α      lambda       -0.3099181E-03
   maximum displ.:     0.2558721 α      in ANC's #15, #5, #24, ...

........................................................................
.............................. CYCLE   77 ..............................
........................................................................

 iter      E             dE          RMSdq      gap      omega  full diag
   1   -111.8107033 -0.111811E+03  0.972E-02    3.37       0.0  T
   2   -111.8107074 -0.403619E-05  0.571E-02    3.37       1.0  T
   3   -111.8107019  0.550976E-05  0.103E-02    3.37       1.1  T
   4   -111.8107086 -0.677332E-05  0.262E-03    3.38       4.4  T
   5   -111.8107089 -0.247421E-06  0.124E-03    3.38       9.2  T
   6   -111.8107089 -0.160478E-07  0.559E-04    3.38      20.5  T
   7   -111.8107089 -0.476841E-08  0.226E-04    3.38      50.7  T
     SCC iter.                  ...        0 min,  0.040 sec
     gradient                   ...        0 min,  0.047 sec
 * total energy  :  -110.2532222 Eh     change       -0.1287073E-03 Eh
   gradient norm :     0.0123479 Eh/α   predicted    -0.1993001E-03 (  54.85%)
   displ. norm   :     0.1835926 α      lambda       -0.4274959E-03
   maximum displ.:     0.0887360 α      in ANC's #5, #15, #21, ...

........................................................................
.............................. CYCLE   78 ..............................
........................................................................

 iter      E             dE          RMSdq      gap      omega  full diag
   1   -111.8155868 -0.111816E+03  0.377E-02    3.42       0.0  T
   2   -111.8155926 -0.581868E-05  0.226E-02    3.41       1.0  T
   3   -111.8155906  0.199816E-05  0.896E-03    3.42       1.3  T
   4   -111.8155937 -0.302200E-05  0.254E-03    3.41       4.5  T
   5   -111.8155940 -0.309044E-06  0.102E-03    3.41      11.3  T
   6   -111.8155940 -0.132988E-07  0.443E-04    3.41      25.9  T
   7   -111.8155940 -0.296771E-08  0.180E-04    3.41      63.9  T
     SCC iter.                  ...        0 min,  0.037 sec
     gradient                   ...        0 min,  0.048 sec
 * total energy  :  -110.2534555 Eh     change       -0.2333513E-03 Eh
   gradient norm :     0.0089828 Eh/α   predicted    -0.2209542E-03 (  -5.31%)
   displ. norm   :     0.3660102 α      lambda       -0.3162334E-03
   maximum displ.:     0.1782010 α      in ANC's #5, #15, #10, ...

........................................................................
.............................. CYCLE   79 ..............................
........................................................................

 iter      E             dE          RMSdq      gap      omega  full diag
   1   -111.8171657 -0.111817E+03  0.590E-02    3.40       0.0  T
   2   -111.8171676 -0.196097E-05  0.348E-02    3.41       1.0  T
   3   -111.8171655  0.217167E-05  0.652E-03    3.41       1.8  T
   4   -111.8171683 -0.282345E-05  0.202E-03    3.41       5.7  T
   5   -111.8171684 -0.119839E-06  0.975E-04    3.41      11.8  T
   6   -111.8171684 -0.144762E-07  0.426E-04    3.41      26.9  T
     SCC iter.                  ...        0 min,  0.028 sec
     gradient                   ...        0 min,  0.041 sec
 * total energy  :  -110.2536616 Eh     change       -0.2060486E-03 Eh
   gradient norm :     0.0089565 Eh/α   predicted    -0.1793005E-03 ( -12.98%)
   displ. norm   :     0.5372896 α      lambda       -0.3640097E-03
   maximum displ.:     0.2606237 α      in ANC's #5, #15, #21, ...

........................................................................
.............................. CYCLE   80 ..............................
........................................................................

 iter      E             dE          RMSdq      gap      omega  full diag
   1   -111.8193631 -0.111819E+03  0.837E-02    3.38       0.0  T
   2   -111.8193669 -0.375766E-05  0.493E-02    3.39       1.0  T
   3   -111.8193631  0.379226E-05  0.888E-03    3.39       1.3  T
   4   -111.8193683 -0.527590E-05  0.232E-03    3.39       5.0  T
   5   -111.8193684 -0.103478E-06  0.129E-03    3.39       8.9  T
   6   -111.8193685 -0.164762E-07  0.491E-04    3.39      23.4  T
   7   -111.8193685 -0.695603E-08  0.205E-04    3.39      55.9  T
     SCC iter.                  ...        0 min,  0.030 sec
     gradient                   ...        0 min,  0.038 sec
 * total energy  :  -110.2539082 Eh     change       -0.2466624E-03 Eh
   gradient norm :     0.0088868 Eh/α   predicted    -0.2345489E-03 (  -4.91%)
   displ. norm   :     0.5226357 α      lambda       -0.3811442E-03
   maximum displ.:     0.2691263 α      in ANC's #5, #15, #21, ...

........................................................................
.............................. CYCLE   81 ..............................
........................................................................

 iter      E             dE          RMSdq      gap      omega  full diag
   1   -111.8187101 -0.111819E+03  0.778E-02    3.42       0.0  T
   2   -111.8187164 -0.630583E-05  0.457E-02    3.41       1.0  T
   3   -111.8187131  0.329160E-05  0.917E-03    3.41       1.3  T
   4   -111.8187175 -0.438174E-05  0.290E-03    3.41       4.0  T
   5   -111.8187179 -0.380183E-06  0.123E-03    3.41       9.4  T
   6   -111.8187179 -0.669232E-08  0.598E-04    3.41      19.2  T
   7   -111.8187179 -0.133368E-07  0.220E-04    3.41      52.2  T
     SCC iter.                  ...        0 min,  0.036 sec
     gradient                   ...        0 min,  0.042 sec
 * total energy  :  -110.2541782 Eh     change       -0.2700013E-03 Eh
   gradient norm :     0.0082522 Eh/α   predicted    -0.2426284E-03 ( -10.14%)
   displ. norm   :     0.5977291 α      lambda       -0.3418574E-03
   maximum displ.:     0.3084194 α      in ANC's #5, #15, #2, ...

........................................................................
.............................. CYCLE   82 ..............................
........................................................................

 iter      E             dE          RMSdq      gap      omega  full diag
   1   -111.8138655 -0.111814E+03  0.910E-02    3.39       0.0  T
   2   -111.8138723 -0.679655E-05  0.534E-02    3.40       1.0  T
   3   -111.8138669  0.536946E-05  0.105E-02    3.40       1.1  T
   4   -111.8138737 -0.671738E-05  0.309E-03    3.40       3.7  T
   5   -111.8138741 -0.437616E-06  0.132E-03    3.40       8.7  T
   6   -111.8138741 -0.455367E-08  0.719E-04    3.40      16.0  T
   7   -111.8138741 -0.199178E-07  0.221E-04    3.40      51.9  T
     SCC iter.                  ...        0 min,  0.028 sec
     gradient                   ...        0 min,  0.041 sec
 * total energy  :  -110.2544160 Eh     change       -0.2377654E-03 Eh
   gradient norm :     0.0080796 Eh/α   predicted    -0.2320014E-03 (  -2.42%)
   displ. norm   :     0.4040615 α      lambda       -0.3951381E-03
   maximum displ.:     0.1957529 α      in ANC's #5, #13, #2, ...

........................................................................
.............................. CYCLE   83 ..............................
........................................................................

 iter      E             dE          RMSdq      gap      omega  full diag
   1   -111.8252818 -0.111825E+03  0.620E-02    3.45       0.0  T
   2   -111.8252990 -0.171339E-04  0.362E-02    3.45       1.0  T
   3   -111.8252959  0.307198E-05  0.131E-02    3.45       1.0  T
   4   -111.8253009 -0.499372E-05  0.339E-03    3.45       3.4  T
   5   -111.8253017 -0.778970E-06  0.125E-03    3.45       9.1  T
   6   -111.8253017 -0.125789E-07  0.723E-04    3.45      15.9  T
   7   -111.8253017 -0.129718E-07  0.252E-04    3.45      45.6  T
     SCC iter.                  ...        0 min,  0.033 sec
     gradient                   ...        0 min,  0.042 sec
 * total energy  :  -110.2544910 Eh     change       -0.7499673E-04 Eh
   gradient norm :     0.0092999 Eh/α   predicted    -0.2298278E-03 ( 206.45%)
   displ. norm   :     0.4781343 α      lambda       -0.4300813E-03
   maximum displ.:     0.2261953 α      in ANC's #5, #15, #24, ...

........................................................................
.............................. CYCLE   84 ..............................
........................................................................

 iter      E             dE          RMSdq      gap      omega  full diag
   1   -111.8165487 -0.111817E+03  0.757E-02    3.40       0.0  T
   2   -111.8165674 -0.186822E-04  0.440E-02    3.41       1.0  T
   3   -111.8165658  0.161322E-05  0.124E-02    3.40       1.0  T
   4   -111.8165691 -0.325327E-05  0.285E-03    3.41       4.0  T
   5   -111.8165695 -0.453511E-06  0.119E-03    3.41       9.6  T
   6   -111.8165695 -0.765360E-08  0.640E-04    3.41      17.9  T
   7   -111.8165695 -0.117117E-07  0.220E-04    3.41      52.2  T
     SCC iter.                  ...        0 min,  0.033 sec
     gradient                   ...        0 min,  0.039 sec
 * total energy  :  -110.2547148 Eh     change       -0.2238089E-03 Eh
   gradient norm :     0.0075697 Eh/α   predicted    -0.2642040E-03 (  18.05%)
   displ. norm   :     0.2596268 α      lambda       -0.1519613E-03
   maximum displ.:     0.1383162 α      in ANC's #5, #15, #2, ...

........................................................................
.............................. CYCLE   85 ..............................
........................................................................

 iter      E             dE          RMSdq      gap      omega  full diag
   1   -111.8146421 -0.111815E+03  0.400E-02    3.39       0.0  T
   2   -111.8146447 -0.255585E-05  0.235E-02    3.40       1.0  T
   3   -111.8146432  0.147572E-05  0.595E-03    3.40       1.9  T
   4   -111.8146450 -0.181084E-05  0.195E-03    3.40       5.9  T
   5   -111.8146452 -0.208906E-06  0.749E-04    3.40      15.3  T
   6   -111.8146452 -0.644597E-08  0.383E-04    3.40      30.0  T
     SCC iter.                  ...        0 min,  0.024 sec
     gradient                   ...        0 min,  0.042 sec
 * total energy  :  -110.2548005 Eh     change       -0.8568228E-04 Eh
   gradient norm :     0.0072420 Eh/α   predicted    -0.8110424E-04 (  -5.34%)
   displ. norm   :     0.2632152 α      lambda       -0.1781604E-03
   maximum displ.:     0.1337755 α      in ANC's #5, #2, #15, ...

........................................................................
.............................. CYCLE   86 ..............................
........................................................................

 iter      E             dE          RMSdq      gap      omega  full diag
   1   -111.8169082 -0.111817E+03  0.349E-02    3.42       0.0  T
   2   -111.8169103 -0.217711E-05  0.205E-02    3.42       1.0  T
   3   -111.8169073  0.302679E-05  0.766E-03    3.42       1.5  T
   4   -111.8169109 -0.358726E-05  0.174E-03    3.42       6.6  T
   5   -111.8169111 -0.168835E-06  0.629E-04    3.42      18.2  T
   6   -111.8169111 -0.349398E-08  0.358E-04    3.42      32.0  T
     SCC iter.                  ...        0 min,  0.030 sec
     gradient                   ...        0 min,  0.041 sec
 * total energy  :  -110.2549235 Eh     change       -0.1229618E-03 Eh
   gradient norm :     0.0048843 Eh/α   predicted    -0.9525248E-04 ( -22.53%)
   displ. norm   :     0.4301700 α      lambda       -0.1734737E-03
   maximum displ.:     0.2149400 α      in ANC's #5, #2, #15, ...

........................................................................
.............................. CYCLE   87 ..............................
........................................................................

 iter      E             dE          RMSdq      gap      omega  full diag
   1   -111.8195028 -0.111820E+03  0.562E-02    3.41       0.0  T
   2   -111.8195046 -0.182060E-05  0.329E-02    3.42       1.0  T
   3   -111.8194996  0.496018E-05  0.883E-03    3.42       1.3  T
   4   -111.8195054 -0.582882E-05  0.147E-03    3.42       7.8  T
   5   -111.8195055 -0.590681E-07  0.791E-04    3.42      14.5  T
   6   -111.8195055 -0.833342E-08  0.422E-04    3.42      27.2  T
     SCC iter.                  ...        0 min,  0.029 sec
     gradient                   ...        0 min,  0.043 sec
 * total energy  :  -110.2550316 Eh     change       -0.1081747E-03 Eh
   gradient norm :     0.0051490 Eh/α   predicted    -0.1027919E-03 (  -4.98%)
   displ. norm   :     0.4786416 α      lambda       -0.1461059E-03
   maximum displ.:     0.2402012 α      in ANC's #5, #2, #15, ...

........................................................................
.............................. CYCLE   88 ..............................
........................................................................

 iter      E             dE          RMSdq      gap      omega  full diag
   1   -111.8180971 -0.111818E+03  0.639E-02    3.42       0.0  T
   2   -111.8181018 -0.473020E-05  0.375E-02    3.42       1.0  T
   3   -111.8180984  0.343155E-05  0.832E-03    3.42       1.4  T
   4   -111.8181026 -0.427815E-05  0.250E-03    3.42       4.6  T
   5   -111.8181030 -0.343741E-06  0.103E-03    3.42      11.1  T
   6   -111.8181030  0.172727E-08  0.590E-04    3.42      19.5  T
   7   -111.8181030 -0.146017E-07  0.169E-04    3.42      67.8  T
     SCC iter.                  ...        0 min,  0.027 sec
     gradient                   ...        0 min,  0.041 sec
 * total energy  :  -110.2551140 Eh     change       -0.8234994E-04 Eh
   gradient norm :     0.0050790 Eh/α   predicted    -0.8979087E-04 (   9.04%)
   displ. norm   :     0.2633638 α      lambda       -0.1241415E-03
   maximum displ.:     0.1172186 α      in ANC's #2, #5, #6, ...

........................................................................
.............................. CYCLE   89 ..............................
........................................................................

 iter      E             dE          RMSdq      gap      omega  full diag
   1   -111.8218895 -0.111822E+03  0.325E-02    3.43       0.0  T
   2   -111.8218916 -0.209637E-05  0.192E-02    3.43       1.0  T
   3   -111.8218909  0.605638E-06  0.442E-03    3.43       2.6  T
   4   -111.8218917 -0.799142E-06  0.134E-03    3.43       8.6  T
   5   -111.8218919 -0.105644E-06  0.470E-04    3.43      24.4  T
   6   -111.8218919 -0.183238E-08  0.228E-04    3.43      50.2  T
     SCC iter.                  ...        0 min,  0.028 sec
     gradient                   ...        0 min,  0.044 sec
 * total energy  :  -110.2551932 Eh     change       -0.7920381E-04 Eh
   gradient norm :     0.0057212 Eh/α   predicted    -0.6637873E-04 ( -16.19%)
   displ. norm   :     0.4923562 α      lambda       -0.1651792E-03
   maximum displ.:     0.2291611 α      in ANC's #5, #2, #6, ...

........................................................................
.............................. CYCLE   90 ..............................
........................................................................

 iter      E             dE          RMSdq      gap      omega  full diag
   1   -111.8180765 -0.111818E+03  0.677E-02    3.40       0.0  T
   2   -111.8180814 -0.494242E-05  0.398E-02    3.41       1.0  T
   3   -111.8180804  0.972470E-06  0.610E-03    3.41       1.9  T
   4   -111.8180821 -0.168608E-05  0.147E-03    3.41       7.8  T
   5   -111.8180822 -0.563535E-07  0.828E-04    3.41      13.9  T
   6   -111.8180822 -0.148967E-07  0.365E-04    3.41      31.4  T
     SCC iter.                  ...        0 min,  0.028 sec
     gradient                   ...        0 min,  0.043 sec
 * total energy  :  -110.2552857 Eh     change       -0.9248449E-04 Eh
   gradient norm :     0.0077858 Eh/α   predicted    -0.1026113E-03 (  10.95%)
   displ. norm   :     0.3246918 α      lambda       -0.2082289E-03
   maximum displ.:     0.1448845 α      in ANC's #2, #6, #8, ...

........................................................................
.............................. CYCLE   91 ..............................
........................................................................

 iter      E             dE          RMSdq      gap      omega  full diag
   1   -111.8212773 -0.111821E+03  0.391E-02    3.43       0.0  T
   2   -111.8212815 -0.418312E-05  0.230E-02    3.43       1.0  T
   3   -111.8212807  0.798590E-06  0.601E-03    3.43       1.9  T
   4   -111.8212818 -0.107730E-05  0.193E-03    3.43       5.9  T
   5   -111.8212820 -0.210983E-06  0.723E-04    3.43      15.9  T
   6   -111.8212820 -0.950371E-08  0.322E-04    3.43      35.6  T
     SCC iter.                  ...        0 min,  0.026 sec
     gradient                   ...        0 min,  0.043 sec
 * total energy  :  -110.2553808 Eh     change       -0.9510861E-04 Eh
   gradient norm :     0.0066749 Eh/α   predicted    -0.1150930E-03 (  21.01%)
   displ. norm   :     0.3412336 α      lambda       -0.1715720E-03
   maximum displ.:     0.1597177 α      in ANC's #2, #6, #8, ...

........................................................................
.............................. CYCLE   92 ..............................
........................................................................

 iter      E             dE          RMSdq      gap      omega  full diag
   1   -111.8203020 -0.111820E+03  0.423E-02    3.42       0.0  T
   2   -111.8203032 -0.122286E-05  0.249E-02    3.42       1.0  T
   3   -111.8203024  0.807506E-06  0.399E-03    3.42       2.9  T
   4   -111.8203035 -0.113979E-05  0.120E-03    3.42       9.5  T
   5   -111.8203036 -0.546276E-07  0.632E-04    3.42      18.2  T
   6   -111.8203036 -0.295258E-08  0.235E-04    3.42      48.8  T
     SCC iter.                  ...        0 min,  0.027 sec
     gradient                   ...        0 min,  0.038 sec
 * total energy  :  -110.2554930 Eh     change       -0.1122102E-03 Eh
   gradient norm :     0.0053798 Eh/α   predicted    -0.9577886E-04 ( -14.64%)
   displ. norm   :     0.3575379 α      lambda       -0.1397069E-03
   maximum displ.:     0.1736887 α      in ANC's #2, #6, #8, ...
 * RMSD in coord.:     0.9828971 α      energy gain  -0.4174589E-02 Eh

generating ANC from exact Hessian ...
Using Lindh-Hessian (1995)
 Shifting diagonal of input Hessian by   1.018246418629717E-002
 Lowest  eigenvalues of input Hessian
    0.010000    0.010073    0.010138    0.000000    0.000000    0.000000
    0.000000    0.000000    0.000000    0.010225    0.010254    0.010283
    0.010344    0.010434    0.010460    0.010501    0.010620    0.010822
 Highest eigenvalues
    2.036488    2.075219    2.079212    2.206430    2.317227    2.345843
 

........................................................................
.............................. CYCLE   93 ..............................
........................................................................

 iter      E             dE          RMSdq      gap      omega  full diag
   1   -111.8196629 -0.111820E+03  0.425E-02    3.41       0.0  T
   2   -111.8196641 -0.117990E-05  0.251E-02    3.41       1.0  T
   3   -111.8196612  0.292870E-05  0.654E-03    3.41       1.8  T
   4   -111.8196646 -0.348878E-05  0.113E-03    3.41      10.2  T
   5   -111.8196647 -0.371606E-07  0.616E-04    3.41      18.6  T
   6   -111.8196647 -0.183304E-08  0.333E-04    3.41      34.5  T
     SCC iter.                  ...        0 min,  0.027 sec
     gradient                   ...        0 min,  0.045 sec
 * total energy  :  -110.2555884 Eh     change       -0.9536241E-04 Eh
   gradient norm :     0.0067253 Eh/α   predicted     0.0000000E+00 (-100.00%)
   displ. norm   :     0.0703248 α      lambda       -0.1103927E-03
   maximum displ.:     0.0264554 α      in ANC's #14, #4, #20, ...

........................................................................
.............................. CYCLE   94 ..............................
........................................................................

 iter      E             dE          RMSdq      gap      omega  full diag
   1   -111.8207224 -0.111821E+03  0.158E-02    3.41       0.0  T
   2   -111.8207228 -0.338008E-06  0.938E-03    3.41       1.2  T
   3   -111.8207227  0.951744E-07  0.176E-03    3.41       6.5  T
   4   -111.8207228 -0.157226E-06  0.556E-04    3.41      20.6  T
   5   -111.8207228 -0.126558E-07  0.278E-04    3.41      41.3  T
     SCC iter.                  ...        0 min,  0.026 sec
     gradient                   ...        0 min,  0.044 sec
 * total energy  :  -110.2556782 Eh     change       -0.8989714E-04 Eh
   gradient norm :     0.0026638 Eh/α   predicted    -0.5859819E-04 ( -34.82%)
   displ. norm   :     0.1553710 α      lambda       -0.1352193E-03
   maximum displ.:     0.0589421 α      in ANC's #4, #14, #7, ...

........................................................................
.............................. CYCLE   95 ..............................
........................................................................

 iter      E             dE          RMSdq      gap      omega  full diag
   1   -111.8213843 -0.111821E+03  0.292E-02    3.41       0.0  T
   2   -111.8213851 -0.767885E-06  0.174E-02    3.41       1.0  T
   3   -111.8213849  0.255215E-06  0.309E-03    3.41       3.7  T
   4   -111.8213853 -0.456335E-06  0.111E-03    3.41      10.3  T
   5   -111.8213854 -0.383277E-07  0.600E-04    3.41      19.1  T
   6   -111.8213854 -0.379242E-08  0.271E-04    3.41      42.4  T
     SCC iter.                  ...        0 min,  0.024 sec
     gradient                   ...        0 min,  0.041 sec
 * total energy  :  -110.2557723 Eh     change       -0.9400753E-04 Eh
   gradient norm :     0.0033877 Eh/α   predicted    -0.6924278E-04 ( -26.34%)
   displ. norm   :     0.1737898 α      lambda       -0.8982288E-04
   maximum displ.:     0.0735018 α      in ANC's #4, #7, #14, ...

........................................................................
.............................. CYCLE   96 ..............................
........................................................................

 iter      E             dE          RMSdq      gap      omega  full diag
   1   -111.8211654 -0.111821E+03  0.281E-02    3.41       0.0  T
   2   -111.8211660 -0.565486E-06  0.168E-02    3.41       1.0  T
   3   -111.8211658  0.183646E-06  0.276E-03    3.41       4.2  T
   4   -111.8211661 -0.375020E-06  0.102E-03    3.41      11.3  T
   5   -111.8211662 -0.250485E-07  0.562E-04    3.41      20.4  T
   6   -111.8211662 -0.313588E-08  0.229E-04    3.41      50.0  T
     SCC iter.                  ...        0 min,  0.031 sec
     gradient                   ...        0 min,  0.044 sec
 * total energy  :  -110.2558438 Eh     change       -0.7155245E-04 Eh
   gradient norm :     0.0046151 Eh/α   predicted    -0.4645912E-04 ( -35.07%)
   displ. norm   :     0.2717044 α      lambda       -0.1292137E-03
   maximum displ.:     0.1203603 α      in ANC's #4, #7, #3, ...

........................................................................
.............................. CYCLE   97 ..............................
........................................................................

 iter      E             dE          RMSdq      gap      omega  full diag
   1   -111.8204913 -0.111820E+03  0.384E-02    3.41       0.0  T
   2   -111.8204922 -0.923595E-06  0.229E-02    3.41       1.0  T
   3   -111.8204917  0.496328E-06  0.383E-03    3.41       3.0  T
   4   -111.8204926 -0.828547E-06  0.128E-03    3.41       9.0  T
   5   -111.8204926 -0.356965E-07  0.697E-04    3.41      16.5  T
   6   -111.8204926 -0.373311E-08  0.305E-04    3.41      37.7  T
     SCC iter.                  ...        0 min,  0.028 sec
     gradient                   ...        0 min,  0.042 sec
 * total energy  :  -110.2559469 Eh     change       -0.1031315E-03 Eh
   gradient norm :     0.0041380 Eh/α   predicted    -0.6937748E-04 ( -32.73%)
   displ. norm   :     0.3466093 α      lambda       -0.1541343E-03
   maximum displ.:     0.1592236 α      in ANC's #4, #7, #3, ...

........................................................................
.............................. CYCLE   98 ..............................
........................................................................

 iter      E             dE          RMSdq      gap      omega  full diag
   1   -111.8197200 -0.111820E+03  0.431E-02    3.41       0.0  T
   2   -111.8197210 -0.968122E-06  0.256E-02    3.41       1.0  T
   3   -111.8197203  0.721951E-06  0.401E-03    3.42       2.9  T
   4   -111.8197214 -0.109048E-05  0.122E-03    3.42       9.4  T
   5   -111.8197214 -0.264711E-07  0.656E-04    3.42      17.5  T
   6   -111.8197214 -0.261154E-08  0.298E-04    3.42      38.5  T
     SCC iter.                  ...        0 min,  0.027 sec
     gradient                   ...        0 min,  0.042 sec
 * total energy  :  -110.2560712 Eh     change       -0.1242854E-03 Eh
   gradient norm :     0.0034496 Eh/α   predicted    -0.8633121E-04 ( -30.54%)
   displ. norm   :     0.4057805 α      lambda       -0.1739605E-03
   maximum displ.:     0.1916528 α      in ANC's #4, #7, #3, ...

........................................................................
.............................. CYCLE   99 ..............................
........................................................................

 iter      E             dE          RMSdq      gap      omega  full diag
   1   -111.8191572 -0.111819E+03  0.462E-02    3.42       0.0  T
   2   -111.8191582 -0.944280E-06  0.274E-02    3.42       1.0  T
   3   -111.8191573  0.919012E-06  0.421E-03    3.42       2.7  T
   4   -111.8191586 -0.131873E-05  0.119E-03    3.42       9.7  T
   5   -111.8191586 -0.202117E-07  0.640E-04    3.42      17.9  T
   6   -111.8191586 -0.249311E-08  0.276E-04    3.42      41.5  T
     SCC iter.                  ...        0 min,  0.029 sec
     gradient                   ...        0 min,  0.046 sec
 * total energy  :  -110.2562153 Eh     change       -0.1440633E-03 Eh
   gradient norm :     0.0041088 Eh/α   predicted    -0.1013025E-03 ( -29.68%)
   displ. norm   :     0.4687737 α      lambda       -0.2155528E-03
   maximum displ.:     0.2252207 α      in ANC's #4, #7, #3, ...

........................................................................
.............................. CYCLE  100 ..............................
........................................................................

 iter      E             dE          RMSdq      gap      omega  full diag
   1   -111.8195471 -0.111820E+03  0.487E-02    3.42       0.0  T
   2   -111.8195481 -0.102669E-05  0.288E-02    3.42       1.0  T
   3   -111.8195463  0.178816E-05  0.556E-03    3.42       2.1  T
   4   -111.8195485 -0.224179E-05  0.133E-03    3.42       8.7  T
   5   -111.8195486 -0.318292E-07  0.770E-04    3.42      14.9  T
   6   -111.8195486 -0.112841E-07  0.317E-04    3.42      36.1  T
     SCC iter.                  ...        0 min,  0.055 sec
     gradient                   ...        0 min,  0.050 sec
 * total energy  :  -110.2563921 Eh     change       -0.1767972E-03 Eh
   gradient norm :     0.0051080 Eh/α   predicted    -0.1314604E-03 ( -25.64%)
   displ. norm   :     0.5770379 α      lambda       -0.2514680E-03
   maximum displ.:     0.2835543 α      in ANC's #4, #7, #3, ...

........................................................................
.............................. CYCLE  101 ..............................
........................................................................

 iter      E             dE          RMSdq      gap      omega  full diag
   1   -111.8177198 -0.111818E+03  0.635E-02    3.43       0.0  T
   2   -111.8177216 -0.179904E-05  0.377E-02    3.43       1.0  T
   3   -111.8177203  0.125983E-05  0.574E-03    3.43       2.0  T
   4   -111.8177222 -0.186489E-05  0.199E-03    3.43       5.8  T
   5   -111.8177223 -0.972529E-07  0.991E-04    3.43      11.6  T
   6   -111.8177223 -0.155433E-07  0.391E-04    3.43      29.3  T
     SCC iter.                  ...        0 min,  0.026 sec
     gradient                   ...        0 min,  0.051 sec
 * total energy  :  -110.2565321 Eh     change       -0.1399886E-03 Eh
   gradient norm :     0.0106728 Eh/α   predicted    -0.1676033E-03 (  19.73%)
   displ. norm   :     0.4672520 α      lambda       -0.4261070E-03
   maximum displ.:     0.2177038 α      in ANC's #4, #7, #3, ...

........................................................................
.............................. CYCLE  102 ..............................
........................................................................

 iter      E             dE          RMSdq      gap      omega  full diag
   1   -111.8228230 -0.111823E+03  0.442E-02    3.42       0.0  T
   2   -111.8228255 -0.242640E-05  0.258E-02    3.43       1.0  T
   3   -111.8228210  0.450367E-05  0.977E-03    3.42       1.2  T
   4   -111.8228264 -0.544500E-05  0.195E-03    3.43       5.9  T
   5   -111.8228265 -0.768153E-07  0.878E-04    3.43      13.1  T
   6   -111.8228265 -0.198338E-07  0.424E-04    3.43      27.0  T
     SCC iter.                  ...        0 min,  0.026 sec
     gradient                   ...        0 min,  0.050 sec
 * total energy  :  -110.2567053 Eh     change       -0.1732630E-03 Eh
   gradient norm :     0.0109883 Eh/α   predicted    -0.2595696E-03 (  49.81%)
   displ. norm   :     0.3969880 α      lambda       -0.2019939E-03
   maximum displ.:     0.1938223 α      in ANC's #4, #7, #3, ...

........................................................................
.............................. CYCLE  103 ..............................
........................................................................

 iter      E             dE          RMSdq      gap      omega  full diag
   1   -111.8188005 -0.111819E+03  0.439E-02    3.42       0.0  T
   2   -111.8188015 -0.992047E-06  0.259E-02    3.42       1.0  T
   3   -111.8188006  0.885173E-06  0.417E-03    3.42       2.8  T
   4   -111.8188017 -0.110827E-05  0.129E-03    3.42       8.9  T
   5   -111.8188018 -0.659268E-07  0.592E-04    3.42      19.4  T
   6   -111.8188018 -0.400405E-09  0.292E-04    3.42      39.3  T
     SCC iter.                  ...        0 min,  0.031 sec
     gradient                   ...        0 min,  0.044 sec
 * total energy  :  -110.2568603 Eh     change       -0.1549766E-03 Eh
   gradient norm :     0.0076074 Eh/α   predicted    -0.1169147E-03 ( -24.56%)
   displ. norm   :     0.3380724 α      lambda       -0.3176849E-03
   maximum displ.:     0.1498313 α      in ANC's #4, #7, #3, ...

........................................................................
.............................. CYCLE  104 ..............................
........................................................................

 iter      E             dE          RMSdq      gap      omega  full diag
   1   -111.8208266 -0.111821E+03  0.400E-02    3.42       0.0  T
   2   -111.8208294 -0.282984E-05  0.237E-02    3.42       1.0  T
   3   -111.8208245  0.491781E-05  0.984E-03    3.42       1.2  T
   4   -111.8208306 -0.604980E-05  0.168E-03    3.42       6.8  T
   5   -111.8208307 -0.112369E-06  0.726E-04    3.42      15.8  T
   6   -111.8208307 -0.328210E-08  0.390E-04    3.42      29.4  T
     SCC iter.                  ...        0 min,  0.020 sec
     gradient                   ...        0 min,  0.048 sec
 * total energy  :  -110.2569993 Eh     change       -0.1390024E-03 Eh
   gradient norm :     0.0113741 Eh/α   predicted    -0.1769977E-03 (  27.33%)
   displ. norm   :     0.4111892 α      lambda       -0.3511078E-03
   maximum displ.:     0.1936196 α      in ANC's #4, #7, #3, ...

........................................................................
.............................. CYCLE  105 ..............................
........................................................................

 iter      E             dE          RMSdq      gap      omega  full diag
   1   -111.8174231 -0.111817E+03  0.555E-02    3.42       0.0  T
   2   -111.8174270 -0.382884E-05  0.335E-02    3.41       1.0  T
   3   -111.8174243  0.267910E-05  0.831E-03    3.41       1.4  T
   4   -111.8174286 -0.431582E-05  0.265E-03    3.41       4.3  T
   5   -111.8174288 -0.161674E-06  0.140E-03    3.41       8.2  T
   6   -111.8174288 -0.142264E-07  0.578E-04    3.41      19.9  T
   7   -111.8174288 -0.120284E-07  0.219E-04    3.41      52.3  T
     SCC iter.                  ...        0 min,  0.034 sec
     gradient                   ...        0 min,  0.043 sec
 * total energy  :  -110.2571876 Eh     change       -0.1882848E-03 Eh
   gradient norm :     0.0125257 Eh/α   predicted    -0.2052438E-03 (   9.01%)
   displ. norm   :     0.2878349 α      lambda       -0.3576737E-03
   maximum displ.:     0.1034642 α      in ANC's #4, #14, #3, ...

........................................................................
.............................. CYCLE  106 ..............................
........................................................................

 iter      E             dE          RMSdq      gap      omega  full diag
   1   -111.8189599 -0.111819E+03  0.353E-02    3.41       0.0  T
   2   -111.8189619 -0.202416E-05  0.208E-02    3.41       1.0  T
   3   -111.8189606  0.132282E-05  0.554E-03    3.41       2.1  T
   4   -111.8189623 -0.173469E-05  0.170E-03    3.41       6.7  T
   5   -111.8189625 -0.118902E-06  0.714E-04    3.41      16.1  T
   6   -111.8189625 -0.325188E-08  0.324E-04    3.41      35.4  T
     SCC iter.                  ...        0 min,  0.026 sec
     gradient                   ...        0 min,  0.037 sec
 * total energy  :  -110.2573827 Eh     change       -0.1950507E-03 Eh
   gradient norm :     0.0087260 Eh/α   predicted    -0.1936554E-03 (  -0.72%)
   displ. norm   :     0.3896589 α      lambda       -0.2610295E-03
   maximum displ.:     0.1799143 α      in ANC's #4, #7, #3, ...

........................................................................
.............................. CYCLE  107 ..............................
........................................................................

 iter      E             dE          RMSdq      gap      omega  full diag
   1   -111.8209173 -0.111821E+03  0.409E-02    3.40       0.0  T
   2   -111.8209189 -0.154556E-05  0.243E-02    3.40       1.0  T
   3   -111.8209166  0.231755E-05  0.657E-03    3.40       1.7  T
   4   -111.8209196 -0.300175E-05  0.146E-03    3.40       7.8  T
   5   -111.8209196 -0.423265E-07  0.824E-04    3.40      13.9  T
   6   -111.8209196 -0.314867E-08  0.330E-04    3.40      34.7  T
     SCC iter.                  ...        0 min,  0.024 sec
     gradient                   ...        0 min,  0.045 sec
 * total energy  :  -110.2575857 Eh     change       -0.2030817E-03 Eh
   gradient norm :     0.0080527 Eh/α   predicted    -0.1503334E-03 ( -25.97%)
   displ. norm   :     0.5354641 α      lambda       -0.3829580E-03
   maximum displ.:     0.2349170 α      in ANC's #4, #3, #7, ...

........................................................................
.............................. CYCLE  108 ..............................
........................................................................

 iter      E             dE          RMSdq      gap      omega  full diag
   1   -111.8227379 -0.111823E+03  0.607E-02    3.40       0.0  T
   2   -111.8227409 -0.303634E-05  0.359E-02    3.40       1.0  T
   3   -111.8227368  0.412771E-05  0.832E-03    3.40       1.4  T
   4   -111.8227422 -0.544551E-05  0.199E-03    3.40       5.8  T
   5   -111.8227423 -0.682511E-07  0.116E-03    3.40       9.9  T
   6   -111.8227423 -0.110858E-07  0.606E-04    3.40      18.9  T
   7   -111.8227423 -0.123162E-07  0.180E-04    3.40      63.6  T
     SCC iter.                  ...        0 min,  0.027 sec
     gradient                   ...        0 min,  0.042 sec
 * total energy  :  -110.2578325 Eh     change       -0.2467796E-03 Eh
   gradient norm :     0.0077913 Eh/α   predicted    -0.2463804E-03 (  -0.16%)
   displ. norm   :     0.6872578 α      lambda       -0.3667175E-03
   maximum displ.:     0.3271326 α      in ANC's #4, #7, #3, ...

........................................................................
.............................. CYCLE  109 ..............................
........................................................................

 iter      E             dE          RMSdq      gap      omega  full diag
   1   -111.8167229 -0.111817E+03  0.727E-02    3.39       0.0  T
   2   -111.8167288 -0.589838E-05  0.426E-02    3.39       1.0  T
   3   -111.8167249  0.388241E-05  0.952E-03    3.38       1.2  T
   4   -111.8167299 -0.502019E-05  0.298E-03    3.39       3.9  T
   5   -111.8167303 -0.340614E-06  0.133E-03    3.39       8.6  T
   6   -111.8167303 -0.106617E-07  0.726E-04    3.39      15.8  T
   7   -111.8167303 -0.147818E-07  0.262E-04    3.39      43.9  T
     SCC iter.                  ...        0 min,  0.032 sec
     gradient                   ...        0 min,  0.042 sec
 * total energy  :  -110.2579933 Eh     change       -0.1608013E-03 Eh
   gradient norm :     0.0136380 Eh/α   predicted    -0.2699640E-03 (  67.89%)
   displ. norm   :     0.2601406 α      lambda       -0.4441200E-03
   maximum displ.:     0.0972236 α      in ANC's #15, #14, #6, ...

........................................................................
.............................. CYCLE  110 ..............................
........................................................................

 iter      E             dE          RMSdq      gap      omega  full diag
   1   -111.8247726 -0.111825E+03  0.569E-02    3.38       0.0  T
   2   -111.8247785 -0.589501E-05  0.333E-02    3.38       1.0  T
   3   -111.8247762  0.222236E-05  0.806E-03    3.38       1.4  T
   4   -111.8247800 -0.373580E-05  0.259E-03    3.38       4.4  T
   5   -111.8247802 -0.189159E-06  0.136E-03    3.38       8.4  T
   6   -111.8247802 -0.175605E-07  0.557E-04    3.38      20.6  T
   7   -111.8247802 -0.610909E-08  0.241E-04    3.38      47.6  T
     SCC iter.                  ...        0 min,  0.029 sec
     gradient                   ...        0 min,  0.044 sec
 * total energy  :  -110.2580242 Eh     change       -0.3089281E-04 Eh
   gradient norm :     0.0165723 Eh/α   predicted    -0.2370931E-03 ( 667.47%)
   displ. norm   :     0.2036906 α      lambda       -0.4286207E-03
   maximum displ.:     0.0840081 α      in ANC's #3, #4, #7, ...

........................................................................
.............................. CYCLE  111 ..............................
........................................................................

 iter      E             dE          RMSdq      gap      omega  full diag
   1   -111.8225215 -0.111823E+03  0.355E-02    3.39       0.0  T
   2   -111.8225243 -0.282062E-05  0.216E-02    3.39       1.0  T
   3   -111.8225223  0.202290E-05  0.694E-03    3.39       1.7  T
   4   -111.8225255 -0.320790E-05  0.207E-03    3.39       5.5  T
   5   -111.8225256 -0.102293E-06  0.120E-03    3.39       9.6  T
   6   -111.8225256 -0.151874E-07  0.558E-04    3.39      20.5  T
   7   -111.8225256 -0.110713E-07  0.157E-04    3.39      73.0  T
     SCC iter.                  ...        0 min,  0.027 sec
     gradient                   ...        0 min,  0.042 sec
 * total energy  :  -110.2582774 Eh     change       -0.2531767E-03 Eh
   gradient norm :     0.0050479 Eh/α   predicted    -0.2232026E-03 ( -11.84%)
   displ. norm   :     0.2945891 α      lambda       -0.1603322E-03
   maximum displ.:     0.1321574 α      in ANC's #7, #4, #3, ...

........................................................................
.............................. CYCLE  112 ..............................
........................................................................

 iter      E             dE          RMSdq      gap      omega  full diag
   1   -111.8195074 -0.111820E+03  0.365E-02    3.39       0.0  T
   2   -111.8195088 -0.136496E-05  0.217E-02    3.39       1.0  T
   3   -111.8195071  0.170399E-05  0.553E-03    3.40       2.1  T
   4   -111.8195093 -0.222177E-05  0.146E-03    3.39       7.9  T
   5   -111.8195093 -0.480615E-07  0.830E-04    3.39      13.8  T
   6   -111.8195093 -0.892490E-08  0.398E-04    3.39      28.8  T
     SCC iter.                  ...        0 min,  0.025 sec
     gradient                   ...        0 min,  0.041 sec
 * total energy  :  -110.2583858 Eh     change       -0.1083996E-03 Eh
   gradient norm :     0.0084857 Eh/α   predicted    -0.8712538E-04 ( -19.63%)
   displ. norm   :     0.2773621 α      lambda       -0.1886987E-03
   maximum displ.:     0.1165626 α      in ANC's #7, #3, #4, ...

........................................................................
.............................. CYCLE  113 ..............................
........................................................................

 iter      E             dE          RMSdq      gap      omega  full diag
   1   -111.8188626 -0.111819E+03  0.413E-02    3.40       0.0  T
   2   -111.8188634 -0.770320E-06  0.244E-02    3.40       1.0  T
   3   -111.8188627  0.713698E-06  0.380E-03    3.40       3.0  T
   4   -111.8188638 -0.107252E-05  0.110E-03    3.40      10.4  T
   5   -111.8188638 -0.107830E-07  0.616E-04    3.40      18.6  T
   6   -111.8188638 -0.404437E-08  0.260E-04    3.40      44.2  T
     SCC iter.                  ...        0 min,  0.027 sec
     gradient                   ...        0 min,  0.041 sec
 * total energy  :  -110.2585282 Eh     change       -0.1423743E-03 Eh
   gradient norm :     0.0097561 Eh/α   predicted    -0.1016114E-03 ( -28.63%)
   displ. norm   :     0.3597456 α      lambda       -0.2853828E-03
   maximum displ.:     0.1531629 α      in ANC's #7, #3, #4, ...

........................................................................
.............................. CYCLE  114 ..............................
........................................................................

 iter      E             dE          RMSdq      gap      omega  full diag
   1   -111.8200927 -0.111820E+03  0.598E-02    3.41       0.0  T
   2   -111.8200940 -0.130241E-05  0.353E-02    3.41       1.0  T
   3   -111.8200932  0.854754E-06  0.468E-03    3.42       2.5  T
   4   -111.8200945 -0.139005E-05  0.159E-03    3.42       7.2  T
   5   -111.8200946 -0.344370E-07  0.851E-04    3.41      13.5  T
   6   -111.8200946 -0.116297E-07  0.325E-04    3.41      35.3  T
     SCC iter.                  ...        0 min,  0.027 sec
     gradient                   ...        0 min,  0.042 sec
 * total energy  :  -110.2586951 Eh     change       -0.1669144E-03 Eh
   gradient norm :     0.0074234 Eh/α   predicted    -0.1611607E-03 (  -3.45%)
   displ. norm   :     0.4473242 α      lambda       -0.2342998E-03
   maximum displ.:     0.1793318 α      in ANC's #7, #3, #4, ...

........................................................................
.............................. CYCLE  115 ..............................
........................................................................

 iter      E             dE          RMSdq      gap      omega  full diag
   1   -111.8193959 -0.111819E+03  0.663E-02    3.39       0.0  T
   2   -111.8193991 -0.315264E-05  0.390E-02    3.39       1.0  T
   3   -111.8193963  0.281266E-05  0.716E-03    3.39       1.6  T
   4   -111.8194001 -0.385505E-05  0.221E-03    3.39       5.2  T
   5   -111.8194003 -0.172573E-06  0.125E-03    3.39       9.2  T
   6   -111.8194003 -0.146929E-07  0.544E-04    3.39      21.1  T
   7   -111.8194003 -0.100317E-07  0.197E-04    3.39      58.2  T
     SCC iter.                  ...        0 min,  0.028 sec
     gradient                   ...        0 min,  0.042 sec
 * total energy  :  -110.2588080 Eh     change       -0.1129660E-03 Eh
   gradient norm :     0.0090624 Eh/α   predicted    -0.1405935E-03 (  24.46%)
   displ. norm   :     0.1669307 α      lambda       -0.2186407E-03
   maximum displ.:     0.0568272 α      in ANC's #7, #3, #12, ...

........................................................................
.............................. CYCLE  116 ..............................
........................................................................

 iter      E             dE          RMSdq      gap      omega  full diag
   1   -111.8234368 -0.111823E+03  0.352E-02    3.41       0.0  T
   2   -111.8234391 -0.223285E-05  0.207E-02    3.41       1.0  T
   3   -111.8234359  0.320690E-05  0.777E-03    3.41       1.5  T
   4   -111.8234397 -0.382691E-05  0.184E-03    3.41       6.2  T
   5   -111.8234398 -0.136273E-06  0.784E-04    3.41      14.6  T
   6   -111.8234398 -0.415372E-08  0.456E-04    3.41      25.2  T
     SCC iter.                  ...        0 min,  0.025 sec
     gradient                   ...        0 min,  0.041 sec
 * total energy  :  -110.2589143 Eh     change       -0.1062129E-03 Eh
   gradient norm :     0.0070562 Eh/α   predicted    -0.1123671E-03 (   5.79%)
   displ. norm   :     0.3881790 α      lambda       -0.2392574E-03
   maximum displ.:     0.1839240 α      in ANC's #7, #3, #4, ...

........................................................................
.............................. CYCLE  117 ..............................
........................................................................

 iter      E             dE          RMSdq      gap      omega  full diag
   1   -111.8220696 -0.111822E+03  0.515E-02    3.43       0.0  T
   2   -111.8220720 -0.241700E-05  0.306E-02    3.43       1.0  T
   3   -111.8220702  0.179829E-05  0.617E-03    3.43       1.9  T
   4   -111.8220726 -0.240446E-05  0.194E-03    3.43       5.9  T
   5   -111.8220727 -0.134851E-06  0.964E-04    3.43      11.9  T
   6   -111.8220727 -0.361061E-08  0.495E-04    3.43      23.2  T
     SCC iter.                  ...        0 min,  0.027 sec
     gradient                   ...        0 min,  0.042 sec
 * total energy  :  -110.2590665 Eh     change       -0.1522125E-03 Eh
   gradient norm :     0.0060165 Eh/α   predicted    -0.1376558E-03 (  -9.56%)
   displ. norm   :     0.3336362 α      lambda       -0.1795171E-03
   maximum displ.:     0.1382357 α      in ANC's #3, #7, #6, ...

........................................................................
.............................. CYCLE  118 ..............................
........................................................................

 iter      E             dE          RMSdq      gap      omega  full diag
   1   -111.8235012 -0.111824E+03  0.505E-02    3.44       0.0  T
   2   -111.8235030 -0.182263E-05  0.299E-02    3.44       1.0  T
   3   -111.8234978  0.522350E-05  0.864E-03    3.44       1.3  T
   4   -111.8235038 -0.599561E-05  0.172E-03    3.44       6.7  T
   5   -111.8235039 -0.106632E-06  0.817E-04    3.44      14.0  T
   6   -111.8235039 -0.767588E-08  0.452E-04    3.44      25.4  T
     SCC iter.                  ...        0 min,  0.029 sec
     gradient                   ...        0 min,  0.040 sec
 * total energy  :  -110.2591794 Eh     change       -0.1129491E-03 Eh
   gradient norm :     0.0071369 Eh/α   predicted    -0.9975302E-04 ( -11.68%)
   displ. norm   :     0.3536603 α      lambda       -0.1646368E-03
   maximum displ.:     0.1529837 α      in ANC's #3, #7, #6, ...

........................................................................
.............................. CYCLE  119 ..............................
........................................................................

 iter      E             dE          RMSdq      gap      omega  full diag
   1   -111.8217451 -0.111822E+03  0.511E-02    3.43       0.0  T
   2   -111.8217462 -0.116665E-05  0.303E-02    3.44       1.0  T
   3   -111.8217431  0.313022E-05  0.689E-03    3.44       1.7  T
   4   -111.8217468 -0.369726E-05  0.154E-03    3.44       7.4  T
   5   -111.8217469 -0.670535E-07  0.811E-04    3.44      14.1  T
   6   -111.8217469 -0.507465E-08  0.383E-04    3.44      29.9  T
     SCC iter.                  ...        0 min,  0.027 sec
     gradient                   ...        0 min,  0.043 sec
 * total energy  :  -110.2593077 Eh     change       -0.1282798E-03 Eh
   gradient norm :     0.0060035 Eh/α   predicted    -0.9261972E-04 ( -27.80%)
   displ. norm   :     0.3489193 α      lambda       -0.2475003E-03
   maximum displ.:     0.1259663 α      in ANC's #6, #3, #8, ...

........................................................................
.............................. CYCLE  120 ..............................
........................................................................

 iter      E             dE          RMSdq      gap      omega  full diag
   1   -111.8255843 -0.111826E+03  0.554E-02    3.44       0.0  T
   2   -111.8255880 -0.371008E-05  0.327E-02    3.45       1.0  T
   3   -111.8255825  0.542817E-05  0.983E-03    3.45       1.2  T
   4   -111.8255889 -0.639056E-05  0.256E-03    3.45       4.5  T
   5   -111.8255892 -0.262541E-06  0.110E-03    3.45      10.4  T
   6   -111.8255892 -0.175020E-07  0.583E-04    3.45      19.7  T
   7   -111.8255892 -0.908221E-08  0.182E-04    3.45      63.1  T
     SCC iter.                  ...        0 min,  0.029 sec
     gradient                   ...        0 min,  0.042 sec
 * total energy  :  -110.2594205 Eh     change       -0.1127946E-03 Eh
   gradient norm :     0.0056123 Eh/α   predicted    -0.1388205E-03 (  23.07%)
   displ. norm   :     0.5556386 α      lambda       -0.2224098E-03
   maximum displ.:     0.2569754 α      in ANC's #7, #3, #6, ...
 * RMSD in coord.:     0.9085612 α      energy gain  -0.3927498E-02 Eh

generating ANC from exact Hessian ...
Using Lindh-Hessian (1995)
 Shifting diagonal of input Hessian by   1.063094736007320E-002
 Lowest  eigenvalues of input Hessian
    0.010000    0.000000    0.010594    0.000000    0.000000    0.000000
    0.000000    0.000000    0.010683    0.010705    0.010760    0.010823
    0.010899    0.010913    0.010995    0.011018    0.011125    0.011273
 Highest eigenvalues
    2.033199    2.074464    2.076573    2.202905    2.313013    2.348507
 

........................................................................
.............................. CYCLE  121 ..............................
........................................................................

 iter      E             dE          RMSdq      gap      omega  full diag
   1   -111.8174600 -0.111817E+03  0.793E-02    3.44       0.0  T
   2   -111.8174631 -0.309355E-05  0.469E-02    3.45       1.0  T
   3   -111.8174609  0.216327E-05  0.668E-03    3.45       1.7  T
   4   -111.8174637 -0.284088E-05  0.243E-03    3.45       4.7  T
   5   -111.8174640 -0.241626E-06  0.113E-03    3.45      10.1  T
   6   -111.8174640 -0.963335E-08  0.575E-04    3.45      19.9  T
   7   -111.8174640 -0.108080E-07  0.179E-04    3.45      64.3  T
     SCC iter.                  ...        0 min,  0.029 sec
     gradient                   ...        0 min,  0.043 sec
 * total energy  :  -110.2594520 Eh     change       -0.3155844E-04 Eh
   gradient norm :     0.0132185 Eh/α   predicted     0.0000000E+00 (-100.00%)
   displ. norm   :     0.0572732 α      lambda       -0.2304890E-03
   maximum displ.:     0.0178316 α      in ANC's #32, #11, #31, ...

........................................................................
.............................. CYCLE  122 ..............................
........................................................................

 iter      E             dE          RMSdq      gap      omega  full diag
   1   -111.8225234 -0.111823E+03  0.168E-02    3.44       0.0  T
   2   -111.8225240 -0.620219E-06  0.994E-03    3.44       1.2  T
   3   -111.8225239  0.146104E-06  0.233E-03    3.44       4.9  T
   4   -111.8225241 -0.263128E-06  0.813E-04    3.44      14.1  T
   5   -111.8225242 -0.229997E-07  0.393E-04    3.44      29.2  T
     SCC iter.                  ...        0 min,  0.023 sec
     gradient                   ...        0 min,  0.039 sec
 * total energy  :  -110.2596166 Eh     change       -0.1645782E-03 Eh
   gradient norm :     0.0038942 Eh/α   predicted    -0.1199555E-03 ( -27.11%)
   displ. norm   :     0.0841654 α      lambda       -0.1009666E-03
   maximum displ.:     0.0283956 α      in ANC's #32, #2, #11, ...

........................................................................
.............................. CYCLE  123 ..............................
........................................................................

 iter      E             dE          RMSdq      gap      omega  full diag
   1   -111.8251917 -0.111825E+03  0.177E-02    3.44       0.0  T
   2   -111.8251921 -0.392559E-06  0.105E-02    3.44       1.1  T
   3   -111.8251917  0.465843E-06  0.263E-03    3.44       4.4  T
   4   -111.8251922 -0.573019E-06  0.659E-04    3.44      17.4  T
   5   -111.8251922 -0.195732E-07  0.318E-04    3.44      36.0  T
     SCC iter.                  ...        0 min,  0.020 sec
     gradient                   ...        0 min,  0.041 sec
 * total energy  :  -110.2596854 Eh     change       -0.6880752E-04 Eh
   gradient norm :     0.0027423 Eh/α   predicted    -0.5084200E-04 ( -26.11%)
   displ. norm   :     0.1299555 α      lambda       -0.8354385E-04
   maximum displ.:     0.0404426 α      in ANC's #11, #2, #32, ...

........................................................................
.............................. CYCLE  124 ..............................
........................................................................

 iter      E             dE          RMSdq      gap      omega  full diag
   1   -111.8260616 -0.111826E+03  0.284E-02    3.43       0.0  T
   2   -111.8260622 -0.595520E-06  0.171E-02    3.43       1.0  T
   3   -111.8260619  0.239714E-06  0.264E-03    3.43       4.3  T
   4   -111.8260624 -0.444097E-06  0.108E-03    3.43      10.7  T
   5   -111.8260624 -0.329465E-07  0.559E-04    3.43      20.5  T
   6   -111.8260624 -0.252354E-08  0.251E-04    3.43      45.7  T
     SCC iter.                  ...        0 min,  0.023 sec
     gradient                   ...        0 min,  0.041 sec
 * total energy  :  -110.2597506 Eh     change       -0.6516503E-04 Eh
   gradient norm :     0.0040212 Eh/α   predicted    -0.4269279E-04 ( -34.49%)
   displ. norm   :     0.2675908 α      lambda       -0.1344401E-03
   maximum displ.:     0.0888534 α      in ANC's #11, #2, #32, ...

........................................................................
.............................. CYCLE  125 ..............................
........................................................................

 iter      E             dE          RMSdq      gap      omega  full diag
   1   -111.8247316 -0.111825E+03  0.522E-02    3.42       0.0  T
   2   -111.8247333 -0.175450E-05  0.312E-02    3.41       1.0  T
   3   -111.8247305  0.280247E-05  0.660E-03    3.41       1.7  T
   4   -111.8247340 -0.352259E-05  0.192E-03    3.41       6.0  T
   5   -111.8247341 -0.980160E-07  0.103E-03    3.41      11.2  T
   6   -111.8247341 -0.805015E-08  0.506E-04    3.41      22.7  T
   7   -111.8247341 -0.978874E-08  0.139E-04    3.41      82.3  T
     SCC iter.                  ...        0 min,  0.033 sec
     gradient                   ...        0 min,  0.040 sec
 * total energy  :  -110.2598342 Eh     change       -0.8364421E-04 Eh
   gradient norm :     0.0032560 Eh/α   predicted    -0.7203710E-04 ( -13.88%)
   displ. norm   :     0.1302815 α      lambda       -0.5334986E-04
   maximum displ.:     0.0514055 α      in ANC's #2, #8, #11, ...

........................................................................
.............................. CYCLE  126 ..............................
........................................................................

 iter      E             dE          RMSdq      gap      omega  full diag
   1   -111.8238596 -0.111824E+03  0.206E-02    3.42       0.0  T
   2   -111.8238598 -0.231356E-06  0.121E-02    3.41       1.0  T
   3   -111.8238592  0.654775E-06  0.301E-03    3.41       3.8  T
   4   -111.8238600 -0.757749E-06  0.626E-04    3.41      18.3  T
   5   -111.8238600 -0.137252E-07  0.309E-04    3.41      37.1  T
     SCC iter.                  ...        0 min,  0.021 sec
     gradient                   ...        0 min,  0.041 sec
 * total energy  :  -110.2598777 Eh     change       -0.4347901E-04 Eh
   gradient norm :     0.0027617 Eh/α   predicted    -0.2713474E-04 ( -37.59%)
   displ. norm   :     0.2593568 α      lambda       -0.1130335E-03
   maximum displ.:     0.1088820 α      in ANC's #2, #8, #11, ...

........................................................................
.............................. CYCLE  127 ..............................
........................................................................

 iter      E             dE          RMSdq      gap      omega  full diag
   1   -111.8223489 -0.111822E+03  0.387E-02    3.42       0.0  T
   2   -111.8223496 -0.662075E-06  0.228E-02    3.42       1.0  T
   3   -111.8223485  0.105009E-05  0.426E-03    3.42       2.7  T
   4   -111.8223498 -0.126927E-05  0.115E-03    3.42      10.0  T
   5   -111.8223499 -0.485676E-07  0.557E-04    3.42      20.6  T
   6   -111.8223499 -0.299681E-08  0.258E-04    3.42      44.5  T
     SCC iter.                  ...        0 min,  0.025 sec
     gradient                   ...        0 min,  0.039 sec
 * total energy  :  -110.2599560 Eh     change       -0.7824253E-04 Eh
   gradient norm :     0.0027813 Eh/α   predicted    -0.6032847E-04 ( -22.90%)
   displ. norm   :     0.2036063 α      lambda       -0.7357109E-04
   maximum displ.:     0.0928031 α      in ANC's #2, #8, #5, ...

........................................................................
.............................. CYCLE  128 ..............................
........................................................................

 iter      E             dE          RMSdq      gap      omega  full diag
   1   -111.8226313 -0.111823E+03  0.295E-02    3.42       0.0  T
   2   -111.8226318 -0.441581E-06  0.174E-02    3.43       1.0  T
   3   -111.8226315  0.235056E-06  0.250E-03    3.43       4.6  T
   4   -111.8226319 -0.376492E-06  0.974E-04    3.43      11.8  T
   5   -111.8226319 -0.269369E-07  0.497E-04    3.43      23.1  T
     SCC iter.                  ...        0 min,  0.018 sec
     gradient                   ...        0 min,  0.040 sec
 * total energy  :  -110.2600062 Eh     change       -0.5028450E-04 Eh
   gradient norm :     0.0040009 Eh/α   predicted    -0.3831164E-04 ( -23.81%)
   displ. norm   :     0.2370629 α      lambda       -0.6930736E-04
   maximum displ.:     0.1117480 α      in ANC's #2, #8, #15, ...

........................................................................
.............................. CYCLE  129 ..............................
........................................................................

 iter      E             dE          RMSdq      gap      omega  full diag
   1   -111.8225004 -0.111823E+03  0.335E-02    3.42       0.0  T
   2   -111.8225009 -0.441424E-06  0.197E-02    3.42       1.0  T
   3   -111.8225007  0.169218E-06  0.223E-03    3.42       5.2  T
   4   -111.8225010 -0.311051E-06  0.825E-04    3.43      13.9  T
   5   -111.8225010 -0.126818E-07  0.486E-04    3.43      23.6  T
     SCC iter.                  ...        0 min,  0.021 sec
     gradient                   ...        0 min,  0.042 sec
 * total energy  :  -110.2600514 Eh     change       -0.4519953E-04 Eh
   gradient norm :     0.0030569 Eh/α   predicted    -0.3660278E-04 ( -19.02%)
   displ. norm   :     0.1443329 α      lambda       -0.5372916E-04
   maximum displ.:     0.0750991 α      in ANC's #2, #8, #3, ...

........................................................................
.............................. CYCLE  130 ..............................
........................................................................

 iter      E             dE          RMSdq      gap      omega  full diag
   1   -111.8247205 -0.111825E+03  0.201E-02    3.43       0.0  T
   2   -111.8247211 -0.636913E-06  0.118E-02    3.43       1.0  T
   3   -111.8247208  0.283722E-06  0.252E-03    3.43       4.6  T
   4   -111.8247212 -0.390676E-06  0.898E-04    3.43      12.8  T
   5   -111.8247213 -0.359476E-07  0.404E-04    3.43      28.4  T
     SCC iter.                  ...        0 min,  0.025 sec
     gradient                   ...        0 min,  0.040 sec
 * total energy  :  -110.2600846 Eh     change       -0.3319479E-04 Eh
   gradient norm :     0.0022215 Eh/α   predicted    -0.2742462E-04 ( -17.38%)
   displ. norm   :     0.1846883 α      lambda       -0.4397181E-04
   maximum displ.:     0.0960204 α      in ANC's #2, #8, #3, ...

........................................................................
.............................. CYCLE  131 ..............................
........................................................................

 iter      E             dE          RMSdq      gap      omega  full diag
   1   -111.8247417 -0.111825E+03  0.252E-02    3.43       0.0  T
   2   -111.8247421 -0.425549E-06  0.148E-02    3.43       1.0  T
   3   -111.8247418  0.279652E-06  0.231E-03    3.43       5.0  T
   4   -111.8247422 -0.380564E-06  0.698E-04    3.43      16.4  T
   5   -111.8247422 -0.150576E-07  0.354E-04    3.43      32.4  T
     SCC iter.                  ...        0 min,  0.022 sec
     gradient                   ...        0 min,  0.048 sec
 * total energy  :  -110.2601118 Eh     change       -0.2718264E-04 Eh
   gradient norm :     0.0022156 Eh/α   predicted    -0.2275439E-04 ( -16.29%)
   displ. norm   :     0.1125535 α      lambda       -0.3697095E-04
   maximum displ.:     0.0613926 α      in ANC's #2, #3, #8, ...

........................................................................
.............................. CYCLE  132 ..............................
........................................................................

 iter      E             dE          RMSdq      gap      omega  full diag
   1   -111.8254221 -0.111825E+03  0.161E-02    3.43       0.0  T
   2   -111.8254225 -0.400927E-06  0.942E-03    3.43       1.2  T
   3   -111.8254221  0.374023E-06  0.249E-03    3.43       4.6  T
   4   -111.8254226 -0.458190E-06  0.595E-04    3.43      19.3  T
   5   -111.8254226 -0.178342E-07  0.259E-04    3.43      44.2  T
     SCC iter.                  ...        0 min,  0.023 sec
     gradient                   ...        0 min,  0.041 sec
 * total energy  :  -110.2601390 Eh     change       -0.2714675E-04 Eh
   gradient norm :     0.0021157 Eh/α   predicted    -0.1872239E-04 ( -31.03%)
   displ. norm   :     0.1453994 α      lambda       -0.3676328E-04
   maximum displ.:     0.0801312 α      in ANC's #2, #3, #8, ...

........................................................................
.............................. CYCLE  133 ..............................
........................................................................

 iter      E             dE          RMSdq      gap      omega  full diag
   1   -111.8250649 -0.111825E+03  0.200E-02    3.43       0.0  T
   2   -111.8250651 -0.186524E-06  0.117E-02    3.43       1.0  T
   3   -111.8250647  0.376128E-06  0.239E-03    3.43       4.8  T
   4   -111.8250651 -0.461713E-06  0.407E-04    3.43      28.2  T
   5   -111.8250651 -0.214757E-08  0.231E-04    3.43      49.6  T
     SCC iter.                  ...        0 min,  0.028 sec
     gradient                   ...        0 min,  0.043 sec
 * total energy  :  -110.2601684 Eh     change       -0.2943955E-04 Eh
   gradient norm :     0.0023551 Eh/α   predicted    -0.1877677E-04 ( -36.22%)
   displ. norm   :     0.1996082 α      lambda       -0.4425830E-04
   maximum displ.:     0.1109601 α      in ANC's #2, #3, #8, ...

........................................................................
.............................. CYCLE  134 ..............................
........................................................................

 iter      E             dE          RMSdq      gap      omega  full diag
   1   -111.8242937 -0.111824E+03  0.270E-02    3.43       0.0  T
   2   -111.8242940 -0.265695E-06  0.159E-02    3.43       1.0  T
   3   -111.8242935  0.495726E-06  0.267E-03    3.42       4.3  T
   4   -111.8242941 -0.617928E-06  0.513E-04    3.42      22.4  T
   5   -111.8242941 -0.452809E-08  0.271E-04    3.42      42.4  T
     SCC iter.                  ...        0 min,  0.016 sec
     gradient                   ...        0 min,  0.045 sec
 * total energy  :  -110.2602031 Eh     change       -0.3470911E-04 Eh
   gradient norm :     0.0024047 Eh/α   predicted    -0.2301394E-04 ( -33.69%)
   displ. norm   :     0.2240152 α      lambda       -0.4092761E-04
   maximum displ.:     0.1278977 α      in ANC's #2, #3, #8, ...

........................................................................
.............................. CYCLE  135 ..............................
........................................................................

 iter      E             dE          RMSdq      gap      omega  full diag
   1   -111.8236797 -0.111824E+03  0.295E-02    3.42       0.0  T
   2   -111.8236800 -0.351078E-06  0.174E-02    3.42       1.0  T
   3   -111.8236796  0.426342E-06  0.254E-03    3.42       4.5  T
   4   -111.8236801 -0.545183E-06  0.589E-04    3.42      19.5  T
   5   -111.8236801 -0.105655E-07  0.300E-04    3.42      38.2  T
     SCC iter.                  ...        0 min,  0.023 sec
     gradient                   ...        0 min,  0.042 sec
 * total energy  :  -110.2602358 Eh     change       -0.3265931E-04 Eh
   gradient norm :     0.0021065 Eh/α   predicted    -0.2149194E-04 ( -34.19%)
   displ. norm   :     0.2266888 α      lambda       -0.3869523E-04
   maximum displ.:     0.1329463 α      in ANC's #2, #3, #8, ...

........................................................................
.............................. CYCLE  136 ..............................
........................................................................

 iter      E             dE          RMSdq      gap      omega  full diag
   1   -111.8236566 -0.111824E+03  0.293E-02    3.41       0.0  T
   2   -111.8236569 -0.337488E-06  0.172E-02    3.42       1.0  T
   3   -111.8236566  0.284898E-06  0.216E-03    3.42       5.3  T
   4   -111.8236570 -0.384985E-06  0.579E-04    3.42      19.8  T
   5   -111.8236570 -0.106669E-07  0.305E-04    3.42      37.6  T
     SCC iter.                  ...        0 min,  0.023 sec
     gradient                   ...        0 min,  0.042 sec
 * total energy  :  -110.2602674 Eh     change       -0.3159814E-04 Eh
   gradient norm :     0.0017250 Eh/α   predicted    -0.2034502E-04 ( -35.61%)
   displ. norm   :     0.3488700 α      lambda       -0.3882134E-04
   maximum displ.:     0.2096525 α      in ANC's #2, #3, #8, ...

........................................................................
.............................. CYCLE  137 ..............................
........................................................................

 iter      E             dE          RMSdq      gap      omega  full diag
   1   -111.8240819 -0.111824E+03  0.441E-02    3.41       0.0  T
   2   -111.8240825 -0.600342E-06  0.260E-02    3.41       1.0  T
   3   -111.8240822  0.343255E-06  0.262E-03    3.41       4.4  T
   4   -111.8240827 -0.534623E-06  0.791E-04    3.41      14.5  T
   5   -111.8240827 -0.134484E-07  0.433E-04    3.41      26.5  T
     SCC iter.                  ...        0 min,  0.021 sec
     gradient                   ...        0 min,  0.043 sec
 * total energy  :  -110.2603106 Eh     change       -0.4319672E-04 Eh
   gradient norm :     0.0019937 Eh/α   predicted    -0.2046456E-04 ( -52.62%)
   displ. norm   :     0.2676421 α      lambda       -0.2942016E-04
   maximum displ.:     0.1662407 α      in ANC's #2, #3, #8, ...

........................................................................
.............................. CYCLE  138 ..............................
........................................................................

 iter      E             dE          RMSdq      gap      omega  full diag
   1   -111.8247431 -0.111825E+03  0.330E-02    3.41       0.0  T
   2   -111.8247434 -0.264985E-06  0.194E-02    3.41       1.0  T
   3   -111.8247433  0.107147E-06  0.165E-03    3.41       7.0  T
   4   -111.8247434 -0.192592E-06  0.599E-04    3.41      19.1  T
   5   -111.8247435 -0.672085E-08  0.343E-04    3.41      33.5  T
     SCC iter.                  ...        0 min,  0.026 sec
     gradient                   ...        0 min,  0.040 sec
 * total energy  :  -110.2603484 Eh     change       -0.3780419E-04 Eh
   gradient norm :     0.0019106 Eh/α   predicted    -0.1518012E-04 ( -59.85%)
   displ. norm   :     0.3254845 α      lambda       -0.4000578E-04
   maximum displ.:     0.2030665 α      in ANC's #2, #3, #8, ...

........................................................................
.............................. CYCLE  139 ..............................
........................................................................

 iter      E             dE          RMSdq      gap      omega  full diag
   1   -111.8250266 -0.111825E+03  0.403E-02    3.41       0.0  T
   2   -111.8250270 -0.449264E-06  0.237E-02    3.41       1.0  T
   3   -111.8250267  0.281443E-06  0.250E-03    3.41       4.6  T
   4   -111.8250271 -0.406267E-06  0.882E-04    3.41      13.0  T
   5   -111.8250272 -0.244572E-07  0.447E-04    3.41      25.7  T
     SCC iter.                  ...        0 min,  0.025 sec
     gradient                   ...        0 min,  0.037 sec
 * total energy  :  -110.2603986 Eh     change       -0.5020198E-04 Eh
   gradient norm :     0.0014184 Eh/α   predicted    -0.2094947E-04 ( -58.27%)
   displ. norm   :     0.4283671 α      lambda       -0.5474495E-04
   maximum displ.:     0.2673478 α      in ANC's #2, #3, #8, ...

........................................................................
.............................. CYCLE  140 ..............................
........................................................................

 iter      E             dE          RMSdq      gap      omega  full diag
   1   -111.8263363 -0.111826E+03  0.535E-02    3.41       0.0  T
   2   -111.8263373 -0.950035E-06  0.314E-02    3.41       1.0  T
   3   -111.8263368  0.442609E-06  0.326E-03    3.41       3.5  T
   4   -111.8263375 -0.637539E-06  0.130E-03    3.41       8.8  T
   5   -111.8263375 -0.677052E-07  0.599E-04    3.41      19.1  T
   6   -111.8263375 -0.309055E-08  0.269E-04    3.41      42.7  T
     SCC iter.                  ...        0 min,  0.026 sec
     gradient                   ...        0 min,  0.042 sec
 * total energy  :  -110.2604526 Eh     change       -0.5398984E-04 Eh
   gradient norm :     0.0036747 Eh/α   predicted    -0.2960735E-04 ( -45.16%)
   displ. norm   :     0.2954828 α      lambda       -0.5479525E-04
   maximum displ.:     0.1845343 α      in ANC's #2, #3, #8, ...

........................................................................
.............................. CYCLE  141 ..............................
........................................................................

 iter      E             dE          RMSdq      gap      omega  full diag
   1   -111.8251386 -0.111825E+03  0.369E-02    3.41       0.0  T
   2   -111.8251390 -0.365990E-06  0.217E-02    3.41       1.0  T
   3   -111.8251388  0.218043E-06  0.228E-03    3.41       5.0  T
   4   -111.8251391 -0.300717E-06  0.825E-04    3.41      13.9  T
   5   -111.8251391 -0.262449E-07  0.378E-04    3.41      30.4  T
     SCC iter.                  ...        0 min,  0.022 sec
     gradient                   ...        0 min,  0.044 sec
 * total energy  :  -110.2604975 Eh     change       -0.4497971E-04 Eh
   gradient norm :     0.0025804 Eh/α   predicted    -0.2979248E-04 ( -33.76%)
   displ. norm   :     0.3363080 α      lambda       -0.5610014E-04
   maximum displ.:     0.2128611 α      in ANC's #2, #3, #8, ...

........................................................................
.............................. CYCLE  142 ..............................
........................................................................

 iter      E             dE          RMSdq      gap      omega  full diag
   1   -111.8247134 -0.111825E+03  0.417E-02    3.41       0.0  T
   2   -111.8247139 -0.513217E-06  0.245E-02    3.41       1.0  T
   3   -111.8247138  0.117623E-06  0.200E-03    3.41       5.7  T
   4   -111.8247140 -0.224569E-06  0.784E-04    3.41      14.6  T
   5   -111.8247140 -0.188407E-07  0.410E-04    3.41      28.0  T
     SCC iter.                  ...        0 min,  0.024 sec
     gradient                   ...        0 min,  0.036 sec
 * total energy  :  -110.2605440 Eh     change       -0.4645232E-04 Eh
   gradient norm :     0.0021736 Eh/α   predicted    -0.3122767E-04 ( -32.77%)
   displ. norm   :     0.3550941 α      lambda       -0.5723007E-04
   maximum displ.:     0.2254863 α      in ANC's #2, #3, #4, ...

........................................................................
.............................. CYCLE  143 ..............................
........................................................................

 iter      E             dE          RMSdq      gap      omega  full diag
   1   -111.8244619 -0.111824E+03  0.445E-02    3.41       0.0  T
   2   -111.8244624 -0.493147E-06  0.262E-02    3.41       1.0  T
   3   -111.8244621  0.330968E-06  0.242E-03    3.41       4.7  T
   4   -111.8244625 -0.473022E-06  0.799E-04    3.41      14.4  T
   5   -111.8244626 -0.209801E-07  0.410E-04    3.41      28.0  T
     SCC iter.                  ...        0 min,  0.017 sec
     gradient                   ...        0 min,  0.047 sec
 * total energy  :  -110.2605928 Eh     change       -0.4879717E-04 Eh
   gradient norm :     0.0019369 Eh/α   predicted    -0.3222583E-04 ( -33.96%)
   displ. norm   :     0.5241031 α      lambda       -0.5663542E-04
   maximum displ.:     0.3329737 α      in ANC's #2, #3, #4, ...

........................................................................
.............................. CYCLE  144 ..............................
........................................................................

 iter      E             dE          RMSdq      gap      omega  full diag
   1   -111.8244164 -0.111824E+03  0.671E-02    3.40       0.0  T
   2   -111.8244177 -0.131680E-05  0.394E-02    3.40       1.0  T
   3   -111.8244160  0.178611E-05  0.500E-03    3.40       2.3  T
   4   -111.8244182 -0.222092E-05  0.131E-03    3.40       8.8  T
   5   -111.8244182 -0.599899E-07  0.668E-04    3.40      17.2  T
   6   -111.8244182 -0.189203E-08  0.308E-04    3.40      37.3  T
     SCC iter.                  ...        0 min,  0.033 sec
     gradient                   ...        0 min,  0.042 sec
 * total energy  :  -110.2606548 Eh     change       -0.6196367E-04 Eh
   gradient norm :     0.0018488 Eh/α   predicted    -0.3177758E-04 ( -48.72%)
   displ. norm   :     0.3259119 α      lambda       -0.2950715E-04
   maximum displ.:     0.2138230 α      in ANC's #2, #3, #12, ...

........................................................................
.............................. CYCLE  145 ..............................
........................................................................

 iter      E             dE          RMSdq      gap      omega  full diag
   1   -111.8241803 -0.111824E+03  0.425E-02    3.40       0.0  T
   2   -111.8241807 -0.436302E-06  0.250E-02    3.40       1.0  T
   3   -111.8241802  0.472521E-06  0.281E-03    3.40       4.1  T
   4   -111.8241808 -0.629429E-06  0.838E-04    3.40      13.7  T
   5   -111.8241809 -0.175074E-07  0.438E-04    3.40      26.2  T
     SCC iter.                  ...        0 min,  0.023 sec
     gradient                   ...        0 min,  0.044 sec
 * total energy  :  -110.2606912 Eh     change       -0.3640168E-04 Eh
   gradient norm :     0.0025095 Eh/α   predicted    -0.1545380E-04 ( -57.55%)
   displ. norm   :     0.2968965 α      lambda       -0.5760809E-04
   maximum displ.:     0.1975379 α      in ANC's #2, #3, #12, ...

........................................................................
.............................. CYCLE  146 ..............................
........................................................................

 iter      E             dE          RMSdq      gap      omega  full diag
   1   -111.8256245 -0.111826E+03  0.387E-02    3.39       0.0  T
   2   -111.8256253 -0.796048E-06  0.227E-02    3.39       1.0  T
   3   -111.8256226  0.271539E-05  0.598E-03    3.39       1.9  T
   4   -111.8256258 -0.314500E-05  0.881E-04    3.39      13.0  T
   5   -111.8256258 -0.283303E-07  0.449E-04    3.39      25.6  T
   6   -111.8256258 -0.118737E-08  0.259E-04    3.39      44.3  T
     SCC iter.                  ...        0 min,  0.032 sec
     gradient                   ...        0 min,  0.039 sec
 * total energy  :  -110.2607277 Eh     change       -0.3650156E-04 Eh
   gradient norm :     0.0034694 Eh/α   predicted    -0.3134407E-04 ( -14.13%)
   displ. norm   :     0.4139321 α      lambda       -0.7648736E-04
   maximum displ.:     0.2803594 α      in ANC's #2, #3, #12, ...

........................................................................
.............................. CYCLE  147 ..............................
........................................................................

 iter      E             dE          RMSdq      gap      omega  full diag
   1   -111.8255930 -0.111826E+03  0.554E-02    3.39       0.0  T
   2   -111.8255936 -0.594860E-06  0.326E-02    3.39       1.0  T
   3   -111.8255925  0.111323E-05  0.410E-03    3.39       2.8  T
   4   -111.8255939 -0.138886E-05  0.935E-04    3.39      12.3  T
   5   -111.8255939 -0.151635E-07  0.515E-04    3.39      22.3  T
   6   -111.8255939 -0.225006E-08  0.234E-04    3.39      48.9  T
     SCC iter.                  ...        0 min,  0.027 sec
     gradient                   ...        0 min,  0.044 sec
 * total energy  :  -110.2607943 Eh     change       -0.6664894E-04 Eh
   gradient norm :     0.0022551 Eh/α   predicted    -0.4479901E-04 ( -32.78%)
   displ. norm   :     0.4549186 α      lambda       -0.9128257E-04
   maximum displ.:     0.3117976 α      in ANC's #2, #3, #12, ...

........................................................................
.............................. CYCLE  148 ..............................
........................................................................

 iter      E             dE          RMSdq      gap      omega  full diag
   1   -111.8249945 -0.111825E+03  0.619E-02    3.38       0.0  T
   2   -111.8249953 -0.830730E-06  0.364E-02    3.38       1.0  T
   3   -111.8249942  0.114561E-05  0.437E-03    3.38       2.6  T
   4   -111.8249957 -0.148410E-05  0.113E-03    3.38      10.1  T
   5   -111.8249957 -0.295570E-07  0.579E-04    3.38      19.8  T
   6   -111.8249957 -0.213481E-08  0.219E-04    3.38      52.4  T
     SCC iter.                  ...        0 min,  0.030 sec
     gradient                   ...        0 min,  0.046 sec
 * total energy  :  -110.2608668 Eh     change       -0.7248628E-04 Eh
   gradient norm :     0.0040452 Eh/α   predicted    -0.5509105E-04 ( -24.00%)
   displ. norm   :     0.5284550 α      lambda       -0.1008351E-03
   maximum displ.:     0.3653790 α      in ANC's #2, #3, #12, ...

........................................................................
.............................. CYCLE  149 ..............................
........................................................................

 iter      E             dE          RMSdq      gap      omega  full diag
   1   -111.8241190 -0.111824E+03  0.714E-02    3.37       0.0  T
   2   -111.8241199 -0.935608E-06  0.419E-02    3.38       1.0  T
   3   -111.8241189  0.108039E-05  0.433E-03    3.38       2.7  T
   4   -111.8241203 -0.146427E-05  0.116E-03    3.38       9.9  T
   5   -111.8241203 -0.290200E-07  0.604E-04    3.38      19.0  T
   6   -111.8241203 -0.277602E-08  0.228E-04    3.38      50.3  T
     SCC iter.                  ...        0 min,  0.022 sec
     gradient                   ...        0 min,  0.041 sec
 * total energy  :  -110.2609503 Eh     change       -0.8349643E-04 Eh
   gradient norm :     0.0055392 Eh/α   predicted    -0.6449941E-04 ( -22.75%)
   displ. norm   :     0.5584080 α      lambda       -0.1485705E-03
   maximum displ.:     0.3859155 α      in ANC's #2, #3, #12, ...

........................................................................
.............................. CYCLE  150 ..............................
........................................................................

 iter      E             dE          RMSdq      gap      omega  full diag
   1   -111.8253539 -0.111825E+03  0.742E-02    3.37       0.0  T
   2   -111.8253554 -0.155416E-05  0.436E-02    3.37       1.0  T
   3   -111.8253525  0.294266E-05  0.644E-03    3.37       1.8  T
   4   -111.8253561 -0.358760E-05  0.140E-03    3.37       8.2  T
   5   -111.8253561 -0.570960E-07  0.722E-04    3.37      15.9  T
   6   -111.8253561 -0.193999E-08  0.323E-04    3.37      35.5  T
     SCC iter.                  ...        0 min,  0.020 sec
     gradient                   ...        0 min,  0.043 sec
 * total energy  :  -110.2610682 Eh     change       -0.1178626E-03 Eh
   gradient norm :     0.0040907 Eh/α   predicted    -0.9745046E-04 ( -17.32%)
   displ. norm   :     0.6180523 α      lambda       -0.1412392E-03
   maximum displ.:     0.4305220 α      in ANC's #2, #3, #12, ...
 * RMSD in coord.:     0.7920877 α      energy gain  -0.1647672E-02 Eh

generating ANC from exact Hessian ...
Using Lindh-Hessian (1995)
 Shifting diagonal of input Hessian by   1.007596484744464E-002
 Lowest  eigenvalues of input Hessian
    0.010000    0.010046    0.000000    0.000000    0.000000    0.000000
    0.000000    0.000000    0.010158    0.010220    0.010322    0.010356
    0.010477    0.010533    0.010548    0.010610    0.010728    0.010865
 Highest eigenvalues
    2.034160    2.075474    2.077387    2.204124    2.316351    2.343291
 

........................................................................
.............................. CYCLE  151 ..............................
........................................................................

 iter      E             dE          RMSdq      gap      omega  full diag
   1   -111.8238388 -0.111824E+03  0.831E-02    3.36       0.0  T
   2   -111.8238404 -0.158407E-05  0.488E-02    3.36       1.0  T
   3   -111.8238389  0.145823E-05  0.512E-03    3.36       2.2  T
   4   -111.8238409 -0.200193E-05  0.143E-03    3.36       8.0  T
   5   -111.8238410 -0.541011E-07  0.740E-04    3.36      15.5  T
   6   -111.8238410 -0.344471E-08  0.251E-04    3.36      45.8  T
     SCC iter.                  ...        0 min,  0.022 sec
     gradient                   ...        0 min,  0.049 sec
 * total energy  :  -110.2611787 Eh     change       -0.1105896E-03 Eh
   gradient norm :     0.0036868 Eh/α   predicted     0.0000000E+00 (-100.00%)
   displ. norm   :     0.0466822 α      lambda       -0.5678153E-04
   maximum displ.:     0.0173622 α      in ANC's #19, #27, #30, ...

........................................................................
.............................. CYCLE  152 ..............................
........................................................................

 iter      E             dE          RMSdq      gap      omega  full diag
   1   -111.8256621 -0.111826E+03  0.115E-02    3.37       0.0  T
   2   -111.8256623 -0.251939E-06  0.696E-03    3.37       1.6  T
   3   -111.8256618  0.575623E-06  0.351E-03    3.37       3.3  T
   4   -111.8256625 -0.736216E-06  0.534E-04    3.38      21.5  T
   5   -111.8256625 -0.595999E-08  0.313E-04    3.38      36.7  T
     SCC iter.                  ...        0 min,  0.020 sec
     gradient                   ...        0 min,  0.043 sec
 * total energy  :  -110.2612236 Eh     change       -0.4483370E-04 Eh
   gradient norm :     0.0017754 Eh/α   predicted    -0.2878882E-04 ( -35.79%)
   displ. norm   :     0.1528419 α      lambda       -0.6912146E-04
   maximum displ.:     0.0456855 α      in ANC's #27, #19, #2, ...

........................................................................
.............................. CYCLE  153 ..............................
........................................................................

 iter      E             dE          RMSdq      gap      omega  full diag
   1   -111.8277894 -0.111828E+03  0.296E-02    3.39       0.0  T
   2   -111.8277908 -0.140399E-05  0.177E-02    3.40       1.0  T
   3   -111.8277874  0.342995E-05  0.821E-03    3.40       1.4  T
   4   -111.8277916 -0.426305E-05  0.129E-03    3.40       8.9  T
   5   -111.8277917 -0.327880E-07  0.753E-04    3.40      15.2  T
   6   -111.8277917 -0.118817E-07  0.380E-04    3.40      30.2  T
     SCC iter.                  ...        0 min,  0.031 sec
     gradient                   ...        0 min,  0.038 sec
 * total energy  :  -110.2612700 Eh     change       -0.4643764E-04 Eh
   gradient norm :     0.0032903 Eh/α   predicted    -0.3491992E-04 ( -24.80%)
   displ. norm   :     0.0348820 α      lambda       -0.2147573E-04
   maximum displ.:     0.0144034 α      in ANC's #2, #23, #3, ...

........................................................................
.............................. CYCLE  154 ..............................
........................................................................

 iter      E             dE          RMSdq      gap      omega  full diag
   1   -111.8271695 -0.111827E+03  0.721E-03    3.40       0.0  T
   2   -111.8271695 -0.897426E-07  0.431E-03    3.40       2.7  T
   3   -111.8271695  0.679621E-07  0.133E-03    3.40       8.6  T
   4   -111.8271696 -0.912357E-07  0.337E-04    3.40      34.0  T
   5   -111.8271696 -0.440072E-08  0.164E-04    3.40      69.9  T
     SCC iter.                  ...        0 min,  0.016 sec
     gradient                   ...        0 min,  0.041 sec
 * total energy  :  -110.2612866 Eh     change       -0.1659610E-04 Eh
   gradient norm :     0.0019385 Eh/α   predicted    -0.1075170E-04 ( -35.22%)
   displ. norm   :     0.1390725 α      lambda       -0.3840950E-04
   maximum displ.:     0.0643736 α      in ANC's #2, #3, #22, ...

........................................................................
.............................. CYCLE  155 ..............................
........................................................................

 iter      E             dE          RMSdq      gap      omega  full diag
   1   -111.8246055 -0.111825E+03  0.248E-02    3.39       0.0  T
   2   -111.8246064 -0.873918E-06  0.146E-02    3.39       1.0  T
   3   -111.8246061  0.325496E-06  0.314E-03    3.39       3.7  T
   4   -111.8246066 -0.474345E-06  0.799E-04    3.39      14.4  T
   5   -111.8246066 -0.247723E-07  0.393E-04    3.39      29.2  T
     SCC iter.                  ...        0 min,  0.023 sec
     gradient                   ...        0 min,  0.043 sec
 * total energy  :  -110.2613089 Eh     change       -0.2231887E-04 Eh
   gradient norm :     0.0030161 Eh/α   predicted    -0.1936994E-04 ( -13.21%)
   displ. norm   :     0.0400218 α      lambda       -0.1531432E-04
   maximum displ.:     0.0200592 α      in ANC's #2, #3, #23, ...

........................................................................
.............................. CYCLE  156 ..............................
........................................................................

 iter      E             dE          RMSdq      gap      omega  full diag
   1   -111.8249020 -0.111825E+03  0.751E-03    3.39       0.0  T
   2   -111.8249020 -0.566633E-07  0.451E-03    3.39       2.5  T
   3   -111.8249018  0.203194E-06  0.181E-03    3.39       6.3  T
   4   -111.8249021 -0.245460E-06  0.285E-04    3.39      40.2  T
   5   -111.8249021 -0.112065E-08  0.178E-04    3.39      64.5  T
     SCC iter.                  ...        0 min,  0.024 sec
     gradient                   ...        0 min,  0.040 sec
 * total energy  :  -110.2613214 Eh     change       -0.1246180E-04 Eh
   gradient norm :     0.0019563 Eh/α   predicted    -0.7672049E-05 ( -38.44%)
   displ. norm   :     0.1572236 α      lambda       -0.3271288E-04
   maximum displ.:     0.0848242 α      in ANC's #2, #3, #11, ...

........................................................................
.............................. CYCLE  157 ..............................
........................................................................

 iter      E             dE          RMSdq      gap      omega  full diag
   1   -111.8269089 -0.111827E+03  0.263E-02    3.41       0.0  T
   2   -111.8269093 -0.384138E-06  0.155E-02    3.41       1.0  T
   3   -111.8269088  0.510007E-06  0.318E-03    3.41       3.6  T
   4   -111.8269095 -0.650840E-06  0.685E-04    3.41      16.8  T
   5   -111.8269095 -0.100645E-07  0.382E-04    3.41      30.0  T
     SCC iter.                  ...        0 min,  0.024 sec
     gradient                   ...        0 min,  0.041 sec
 * total energy  :  -110.2613480 Eh     change       -0.2663032E-04 Eh
   gradient norm :     0.0022306 Eh/α   predicted    -0.1653937E-04 ( -37.89%)
   displ. norm   :     0.0750958 α      lambda       -0.1541284E-04
   maximum displ.:     0.0425627 α      in ANC's #2, #3, #11, ...

........................................................................
.............................. CYCLE  158 ..............................
........................................................................

 iter      E             dE          RMSdq      gap      omega  full diag
   1   -111.8269606 -0.111827E+03  0.118E-02    3.41       0.0  T
   2   -111.8269607 -0.581001E-07  0.695E-03    3.41       1.7  T
   3   -111.8269605  0.179253E-06  0.154E-03    3.41       7.5  T
   4   -111.8269607 -0.208012E-06  0.274E-04    3.41      41.8  T
   5   -111.8269607 -0.198929E-08  0.147E-04    3.41      77.9  T
     SCC iter.                  ...        0 min,  0.023 sec
     gradient                   ...        0 min,  0.041 sec
 * total energy  :  -110.2613624 Eh     change       -0.1432989E-04 Eh
   gradient norm :     0.0016958 Eh/α   predicted    -0.7750648E-05 ( -45.91%)
   displ. norm   :     0.3244744 α      lambda       -0.4607309E-04
   maximum displ.:     0.1811906 α      in ANC's #2, #3, #11, ...

........................................................................
.............................. CYCLE  159 ..............................
........................................................................

 iter      E             dE          RMSdq      gap      omega  full diag
   1   -111.8257086 -0.111826E+03  0.516E-02    3.40       0.0  T
   2   -111.8257096 -0.953121E-06  0.305E-02    3.40       1.0  T
   3   -111.8257064  0.314053E-05  0.653E-03    3.40       1.8  T
   4   -111.8257100 -0.361697E-05  0.118E-03    3.40       9.7  T
   5   -111.8257101 -0.380172E-07  0.627E-04    3.40      18.3  T
   6   -111.8257101 -0.567915E-08  0.320E-04    3.40      35.9  T
     SCC iter.                  ...        0 min,  0.024 sec
     gradient                   ...        0 min,  0.038 sec
 * total energy  :  -110.2614129 Eh     change       -0.5057999E-04 Eh
   gradient norm :     0.0017335 Eh/α   predicted    -0.2411635E-04 ( -52.32%)
   displ. norm   :     0.3225382 α      lambda       -0.3215879E-04
   maximum displ.:     0.1835551 α      in ANC's #2, #3, #11, ...

........................................................................
.............................. CYCLE  160 ..............................
........................................................................

 iter      E             dE          RMSdq      gap      omega  full diag
   1   -111.8250205 -0.111825E+03  0.498E-02    3.40       0.0  T
   2   -111.8250212 -0.664565E-06  0.293E-02    3.40       1.0  T
   3   -111.8250188  0.245341E-05  0.571E-03    3.40       2.0  T
   4   -111.8250216 -0.281000E-05  0.957E-04    3.40      12.0  T
   5   -111.8250216 -0.244584E-07  0.495E-04    3.40      23.2  T
   6   -111.8250216 -0.434331E-08  0.242E-04    3.40      47.4  T
     SCC iter.                  ...        0 min,  0.023 sec
     gradient                   ...        0 min,  0.043 sec
 * total energy  :  -110.2614523 Eh     change       -0.3934806E-04 Eh
   gradient norm :     0.0028970 Eh/α   predicted    -0.1682317E-04 ( -57.25%)
   displ. norm   :     0.2227579 α      lambda       -0.3807755E-04
   maximum displ.:     0.1293001 α      in ANC's #2, #3, #11, ...

........................................................................
.............................. CYCLE  161 ..............................
........................................................................

 iter      E             dE          RMSdq      gap      omega  full diag
   1   -111.8253816 -0.111825E+03  0.334E-02    3.39       0.0  T
   2   -111.8253819 -0.311323E-06  0.196E-02    3.40       1.0  T
   3   -111.8253807  0.125871E-05  0.405E-03    3.39       2.8  T
   4   -111.8253821 -0.143355E-05  0.645E-04    3.39      17.8  T
   5   -111.8253821 -0.117323E-07  0.328E-04    3.39      34.9  T
   6   -111.8253821 -0.187204E-08  0.168E-04    3.39      68.4  T
     SCC iter.                  ...        0 min,  0.027 sec
     gradient                   ...        0 min,  0.042 sec
 * total energy  :  -110.2614861 Eh     change       -0.3381736E-04 Eh
   gradient norm :     0.0025690 Eh/α   predicted    -0.1998552E-04 ( -40.90%)
   displ. norm   :     0.3465163 α      lambda       -0.5782217E-04
   maximum displ.:     0.2015035 α      in ANC's #2, #3, #5, ...

........................................................................
.............................. CYCLE  162 ..............................
........................................................................

 iter      E             dE          RMSdq      gap      omega  full diag
   1   -111.8254157 -0.111825E+03  0.510E-02    3.39       0.0  T
   2   -111.8254164 -0.642562E-06  0.300E-02    3.39       1.0  T
   3   -111.8254141  0.229986E-05  0.544E-03    3.39       2.1  T
   4   -111.8254167 -0.264815E-05  0.912E-04    3.39      12.6  T
   5   -111.8254168 -0.218216E-07  0.473E-04    3.39      24.2  T
   6   -111.8254168 -0.313752E-08  0.246E-04    3.39      46.6  T
     SCC iter.                  ...        0 min,  0.029 sec
     gradient                   ...        0 min,  0.044 sec
 * total energy  :  -110.2615358 Eh     change       -0.4970611E-04 Eh
   gradient norm :     0.0018828 Eh/α   predicted    -0.3238688E-04 ( -34.84%)
   displ. norm   :     0.6055162 α      lambda       -0.6073070E-04
   maximum displ.:     0.3566253 α      in ANC's #2, #3, #5, ...

........................................................................
.............................. CYCLE  163 ..............................
........................................................................

 iter      E             dE          RMSdq      gap      omega  full diag
   1   -111.8248334 -0.111825E+03  0.873E-02    3.38       0.0  T
   2   -111.8248355 -0.208027E-05  0.513E-02    3.38       1.0  T
   3   -111.8248281  0.744470E-05  0.969E-03    3.38       1.2  T
   4   -111.8248367 -0.857878E-05  0.159E-03    3.38       7.2  T
   5   -111.8248367 -0.666752E-07  0.830E-04    3.38      13.8  T
   6   -111.8248367 -0.848662E-08  0.446E-04    3.38      25.7  T
     SCC iter.                  ...        0 min,  0.029 sec
     gradient                   ...        0 min,  0.044 sec
 * total energy  :  -110.2616051 Eh     change       -0.6932065E-04 Eh
   gradient norm :     0.0019565 Eh/α   predicted    -0.3531638E-04 ( -49.05%)
   displ. norm   :     0.4283473 α      lambda       -0.4416419E-04
   maximum displ.:     0.2593828 α      in ANC's #2, #3, #5, ...

........................................................................
.............................. CYCLE  164 ..............................
........................................................................

 iter      E             dE          RMSdq      gap      omega  full diag
   1   -111.8259945 -0.111826E+03  0.597E-02    3.38       0.0  T
   2   -111.8259957 -0.118110E-05  0.351E-02    3.38       1.0  T
   3   -111.8259906  0.503307E-05  0.799E-03    3.38       1.4  T
   4   -111.8259964 -0.575586E-05  0.112E-03    3.38      10.3  T
   5   -111.8259964 -0.318596E-07  0.597E-04    3.38      19.2  T
   6   -111.8259964 -0.381191E-08  0.335E-04    3.38      34.2  T
     SCC iter.                  ...        0 min,  0.033 sec
     gradient                   ...        0 min,  0.041 sec
 * total energy  :  -110.2616615 Eh     change       -0.5641432E-04 Eh
   gradient norm :     0.0020913 Eh/α   predicted    -0.2388582E-04 ( -57.66%)
   displ. norm   :     0.3857274 α      lambda       -0.6357651E-04
   maximum displ.:     0.2326204 α      in ANC's #2, #3, #5, ...

........................................................................
.............................. CYCLE  165 ..............................
........................................................................

 iter      E             dE          RMSdq      gap      omega  full diag
   1   -111.8255217 -0.111826E+03  0.542E-02    3.38       0.0  T
   2   -111.8255225 -0.801592E-06  0.318E-02    3.38       1.0  T
   3   -111.8255205  0.200949E-05  0.505E-03    3.38       2.3  T
   4   -111.8255229 -0.236681E-05  0.978E-04    3.38      11.7  T
   5   -111.8255229 -0.282084E-07  0.488E-04    3.38      23.5  T
   6   -111.8255229 -0.931109E-09  0.259E-04    3.38      44.3  T
     SCC iter.                  ...        0 min,  0.028 sec
     gradient                   ...        0 min,  0.042 sec
 * total energy  :  -110.2617188 Eh     change       -0.5721189E-04 Eh
   gradient norm :     0.0022108 Eh/α   predicted    -0.3651955E-04 ( -36.17%)
   displ. norm   :     0.5257355 α      lambda       -0.1100751E-03
   maximum displ.:     0.3214295 α      in ANC's #2, #3, #5, ...

........................................................................
.............................. CYCLE  166 ..............................
........................................................................

 iter      E             dE          RMSdq      gap      omega  full diag
   1   -111.8269926 -0.111827E+03  0.728E-02    3.38       0.0  T
   2   -111.8269942 -0.158957E-05  0.427E-02    3.38       1.0  T
   3   -111.8269898  0.443115E-05  0.750E-03    3.38       1.5  T
   4   -111.8269950 -0.519761E-05  0.133E-03    3.38       8.7  T
   5   -111.8269950 -0.457898E-07  0.679E-04    3.38      16.9  T
   6   -111.8269950 -0.202270E-08  0.343E-04    3.38      33.5  T
     SCC iter.                  ...        0 min,  0.028 sec
     gradient                   ...        0 min,  0.043 sec
 * total energy  :  -110.2618109 Eh     change       -0.9211093E-04 Eh
   gradient norm :     0.0020495 Eh/α   predicted    -0.7025193E-04 ( -23.73%)
   displ. norm   :     0.6347162 α      lambda       -0.1063714E-03
   maximum displ.:     0.3877803 α      in ANC's #2, #3, #5, ...

........................................................................
.............................. CYCLE  167 ..............................
........................................................................

 iter      E             dE          RMSdq      gap      omega  full diag
   1   -111.8254930 -0.111825E+03  0.879E-02    3.37       0.0  T
   2   -111.8254950 -0.197299E-05  0.516E-02    3.38       1.0  T
   3   -111.8254912  0.380530E-05  0.695E-03    3.38       1.7  T
   4   -111.8254958 -0.463757E-05  0.148E-03    3.38       7.8  T
   5   -111.8254959 -0.578657E-07  0.774E-04    3.38      14.8  T
   6   -111.8254959 -0.311690E-08  0.369E-04    3.38      31.1  T
     SCC iter.                  ...        0 min,  0.026 sec
     gradient                   ...        0 min,  0.042 sec
 * total energy  :  -110.2618970 Eh     change       -0.8609822E-04 Eh
   gradient norm :     0.0024384 Eh/α   predicted    -0.7461464E-04 ( -13.34%)
   displ. norm   :     0.5002334 α      lambda       -0.9682454E-04
   maximum displ.:     0.3094045 α      in ANC's #2, #3, #5, ...

........................................................................
.............................. CYCLE  168 ..............................
........................................................................

 iter      E             dE          RMSdq      gap      omega  full diag
   1   -111.8273701 -0.111827E+03  0.652E-02    3.38       0.0  T
   2   -111.8273713 -0.116320E-05  0.383E-02    3.38       1.0  T
   3   -111.8273686  0.271957E-05  0.588E-03    3.38       1.9  T
   4   -111.8273718 -0.326533E-05  0.113E-03    3.38      10.2  T
   5   -111.8273719 -0.307116E-07  0.604E-04    3.38      19.0  T
   6   -111.8273719 -0.322676E-08  0.268E-04    3.38      42.8  T
     SCC iter.                  ...        0 min,  0.021 sec
     gradient                   ...        0 min,  0.048 sec
 * total energy  :  -110.2619701 Eh     change       -0.7315194E-04 Eh
   gradient norm :     0.0019831 Eh/α   predicted    -0.6052852E-04 ( -17.26%)
   displ. norm   :     0.8489729 α      lambda       -0.8094119E-04
   maximum displ.:     0.5269951 α      in ANC's #2, #3, #5, ...

........................................................................
.............................. CYCLE  169 ..............................
........................................................................

 iter      E             dE          RMSdq      gap      omega  full diag
   1   -111.8237258 -0.111824E+03  0.113E-01    3.37       0.0  T
   2   -111.8237293 -0.344061E-05  0.664E-02    3.37       1.0  T
   3   -111.8237221  0.718352E-05  0.952E-03    3.37       1.2  T
   4   -111.8237309 -0.880778E-05  0.156E-03    3.38       7.4  T
   5   -111.8237310 -0.375518E-07  0.869E-04    3.38      13.2  T
   6   -111.8237310 -0.264806E-08  0.385E-04    3.38      29.8  T
     SCC iter.                  ...        0 min,  0.024 sec
     gradient                   ...        0 min,  0.043 sec
 * total energy  :  -110.2620402 Eh     change       -0.7003453E-04 Eh
   gradient norm :     0.0042966 Eh/α   predicted    -0.5343768E-04 ( -23.70%)
   displ. norm   :     0.2846064 α      lambda       -0.1104806E-03
   maximum displ.:     0.1686513 α      in ANC's #2, #3, #5, ...

........................................................................
.............................. CYCLE  170 ..............................
........................................................................

 iter      E             dE          RMSdq      gap      omega  full diag
   1   -111.8277029 -0.111828E+03  0.304E-02    3.38       0.0  T
   2   -111.8277033 -0.481105E-06  0.178E-02    3.38       1.0  T
   3   -111.8277027  0.627710E-06  0.301E-03    3.38       3.8  T
   4   -111.8277035 -0.798318E-06  0.660E-04    3.38      17.4  T
   5   -111.8277035 -0.122318E-07  0.352E-04    3.38      32.6  T
     SCC iter.                  ...        0 min,  0.018 sec
     gradient                   ...        0 min,  0.041 sec
 * total energy  :  -110.2621199 Eh     change       -0.7971021E-04 Eh
   gradient norm :     0.0034856 Eh/α   predicted    -0.5971522E-04 ( -25.08%)
   displ. norm   :     0.4373108 α      lambda       -0.9953005E-04
   maximum displ.:     0.2685355 α      in ANC's #2, #3, #5, ...

........................................................................
.............................. CYCLE  171 ..............................
........................................................................

 iter      E             dE          RMSdq      gap      omega  full diag
   1   -111.8287284 -0.111829E+03  0.508E-02    3.38       0.0  T
   2   -111.8287293 -0.919269E-06  0.298E-02    3.38       1.0  T
   3   -111.8287275  0.183889E-05  0.497E-03    3.38       2.3  T
   4   -111.8287297 -0.223818E-05  0.849E-04    3.38      13.5  T
   5   -111.8287298 -0.176052E-07  0.449E-04    3.38      25.5  T
   6   -111.8287298 -0.114473E-08  0.195E-04    3.38      58.7  T
     SCC iter.                  ...        0 min,  0.028 sec
     gradient                   ...        0 min,  0.042 sec
 * total energy  :  -110.2622039 Eh     change       -0.8404035E-04 Eh
   gradient norm :     0.0030793 Eh/α   predicted    -0.5928717E-04 ( -29.45%)
   displ. norm   :     0.5634598 α      lambda       -0.1375533E-03
   maximum displ.:     0.3388266 α      in ANC's #2, #3, #5, ...

........................................................................
.............................. CYCLE  172 ..............................
........................................................................

 iter      E             dE          RMSdq      gap      omega  full diag
   1   -111.8286658 -0.111829E+03  0.676E-02    3.38       0.0  T
   2   -111.8286674 -0.158755E-05  0.398E-02    3.38       1.0  T
   3   -111.8286616  0.572287E-05  0.883E-03    3.38       1.3  T
   4   -111.8286684 -0.675715E-05  0.120E-03    3.38       9.6  T
   5   -111.8286684 -0.145033E-07  0.724E-04    3.38      15.8  T
   6   -111.8286684 -0.858032E-08  0.339E-04    3.38      33.8  T
     SCC iter.                  ...        0 min,  0.023 sec
     gradient                   ...        0 min,  0.040 sec
 * total energy  :  -110.2623141 Eh     change       -0.1101939E-03 Eh
   gradient norm :     0.0024591 Eh/α   predicted    -0.9061725E-04 ( -17.77%)
   displ. norm   :     0.5671377 α      lambda       -0.1114960E-03
   maximum displ.:     0.3403237 α      in ANC's #2, #3, #5, ...

........................................................................
.............................. CYCLE  173 ..............................
........................................................................

 iter      E             dE          RMSdq      gap      omega  full diag
   1   -111.8266249 -0.111827E+03  0.704E-02    3.38       0.0  T
   2   -111.8266266 -0.176261E-05  0.414E-02    3.38       1.0  T
   3   -111.8266198  0.684598E-05  0.976E-03    3.38       1.2  T
   4   -111.8266278 -0.806282E-05  0.128E-03    3.38       8.9  T
   5   -111.8266279 -0.179460E-07  0.797E-04    3.38      14.4  T
   6   -111.8266279 -0.106279E-07  0.370E-04    3.38      31.0  T
     SCC iter.                  ...        0 min,  0.025 sec
     gradient                   ...        0 min,  0.043 sec
 * total energy  :  -110.2623962 Eh     change       -0.8210616E-04 Eh
   gradient norm :     0.0034384 Eh/α   predicted    -0.7368150E-04 ( -10.26%)
   displ. norm   :     0.3918160 α      lambda       -0.8031030E-04
   maximum displ.:     0.2214641 α      in ANC's #2, #3, #7, ...

........................................................................
.............................. CYCLE  174 ..............................
........................................................................

 iter      E             dE          RMSdq      gap      omega  full diag
   1   -111.8268990 -0.111827E+03  0.481E-02    3.38       0.0  T
   2   -111.8269001 -0.106098E-05  0.284E-02    3.38       1.0  T
   3   -111.8268957  0.437985E-05  0.751E-03    3.38       1.5  T
   4   -111.8269008 -0.511839E-05  0.109E-03    3.38      10.5  T
   5   -111.8269009 -0.237376E-07  0.676E-04    3.38      17.0  T
   6   -111.8269009 -0.100501E-07  0.296E-04    3.38      38.8  T
     SCC iter.                  ...        0 min,  0.030 sec
     gradient                   ...        0 min,  0.042 sec
 * total energy  :  -110.2624560 Eh     change       -0.5981096E-04 Eh
   gradient norm :     0.0046794 Eh/α   predicted    -0.4632260E-04 ( -22.55%)
   displ. norm   :     0.4841977 α      lambda       -0.1018414E-03
   maximum displ.:     0.2915384 α      in ANC's #2, #3, #7, ...

........................................................................
.............................. CYCLE  175 ..............................
........................................................................

 iter      E             dE          RMSdq      gap      omega  full diag
   1   -111.8258676 -0.111826E+03  0.603E-02    3.37       0.0  T
   2   -111.8258692 -0.159931E-05  0.356E-02    3.38       1.0  T
   3   -111.8258623  0.689997E-05  0.909E-03    3.37       1.3  T
   4   -111.8258702 -0.795883E-05  0.123E-03    3.38       9.4  T
   5   -111.8258703 -0.408867E-07  0.700E-04    3.38      16.4  T
   6   -111.8258703 -0.133166E-07  0.317E-04    3.38      36.2  T
     SCC iter.                  ...        0 min,  0.026 sec
     gradient                   ...        0 min,  0.042 sec
 * total energy  :  -110.2625349 Eh     change       -0.7887065E-04 Eh
   gradient norm :     0.0037658 Eh/α   predicted    -0.6285973E-04 ( -20.30%)
   displ. norm   :     0.3581807 α      lambda       -0.1508627E-03
   maximum displ.:     0.1631684 α      in ANC's #7, #2, #9, ...

........................................................................
.............................. CYCLE  176 ..............................
........................................................................

 iter      E             dE          RMSdq      gap      omega  full diag
   1   -111.8303953 -0.111830E+03  0.553E-02    3.37       0.0  T
   2   -111.8303974 -0.206777E-05  0.326E-02    3.38       1.0  T
   3   -111.8303893  0.805399E-05  0.108E-02    3.38       1.1  T
   4   -111.8303987 -0.934728E-05  0.172E-03    3.38       6.7  T
   5   -111.8303988 -0.942777E-07  0.947E-04    3.38      12.1  T
   6   -111.8303988 -0.196421E-07  0.442E-04    3.38      25.9  T
     SCC iter.                  ...        0 min,  0.024 sec
     gradient                   ...        0 min,  0.046 sec
 * total energy  :  -110.2625852 Eh     change       -0.5030803E-04 Eh
   gradient norm :     0.0044193 Eh/α   predicted    -0.8511009E-04 (  69.18%)
   displ. norm   :     0.4550297 α      lambda       -0.1073655E-03
   maximum displ.:     0.2837562 α      in ANC's #2, #3, #5, ...

........................................................................
.............................. CYCLE  177 ..............................
........................................................................

 iter      E             dE          RMSdq      gap      omega  full diag
   1   -111.8257951 -0.111826E+03  0.581E-02    3.38       0.0  T
   2   -111.8257962 -0.115757E-05  0.341E-02    3.38       1.0  T
   3   -111.8257923  0.391681E-05  0.776E-03    3.38       1.5  T
   4   -111.8257970 -0.464934E-05  0.958E-04    3.38      12.0  T
   5   -111.8257970 -0.937290E-08  0.563E-04    3.38      20.4  T
   6   -111.8257970 -0.453707E-08  0.259E-04    3.38      44.3  T
     SCC iter.                  ...        0 min,  0.032 sec
     gradient                   ...        0 min,  0.043 sec
 * total energy  :  -110.2626494 Eh     change       -0.6416162E-04 Eh
   gradient norm :     0.0039064 Eh/α   predicted    -0.6480034E-04 (   1.00%)
   displ. norm   :     0.1669923 α      lambda       -0.5974436E-04
   maximum displ.:     0.0978466 α      in ANC's #2, #7, #3, ...

........................................................................
.............................. CYCLE  178 ..............................
........................................................................

 iter      E             dE          RMSdq      gap      omega  full diag
   1   -111.8261330 -0.111826E+03  0.224E-02    3.38       0.0  T
   2   -111.8261332 -0.198155E-06  0.131E-02    3.39       1.0  T
   3   -111.8261326  0.664027E-06  0.342E-03    3.39       3.4  T
   4   -111.8261334 -0.787167E-06  0.532E-04    3.39      21.5  T
   5   -111.8261334 -0.318974E-08  0.327E-04    3.39      35.1  T
     SCC iter.                  ...        0 min,  0.021 sec
     gradient                   ...        0 min,  0.049 sec
 * total energy  :  -110.2626909 Eh     change       -0.4157487E-04 Eh
   gradient norm :     0.0034572 Eh/α   predicted    -0.3070642E-04 ( -26.14%)
   displ. norm   :     0.3403672 α      lambda       -0.1031802E-03
   maximum displ.:     0.1875041 α      in ANC's #2, #7, #9, ...

........................................................................
.............................. CYCLE  179 ..............................
........................................................................

 iter      E             dE          RMSdq      gap      omega  full diag
   1   -111.8275146 -0.111828E+03  0.421E-02    3.39       0.0  T
   2   -111.8275153 -0.746140E-06  0.248E-02    3.39       1.0  T
   3   -111.8275128  0.253081E-05  0.622E-03    3.39       1.8  T
   4   -111.8275157 -0.297020E-05  0.102E-03    3.39      11.2  T
   5   -111.8275158 -0.200493E-07  0.563E-04    3.39      20.4  T
   6   -111.8275158 -0.478403E-08  0.285E-04    3.39      40.3  T
     SCC iter.                  ...        0 min,  0.027 sec
     gradient                   ...        0 min,  0.045 sec
 * total energy  :  -110.2627560 Eh     change       -0.6510068E-04 Eh
   gradient norm :     0.0046887 Eh/α   predicted    -0.5756873E-04 ( -11.57%)
   displ. norm   :     0.4326235 α      lambda       -0.8999580E-04
   maximum displ.:     0.2274910 α      in ANC's #2, #7, #9, ...

........................................................................
.............................. CYCLE  180 ..............................
........................................................................

 iter      E             dE          RMSdq      gap      omega  full diag
   1   -111.8272565 -0.111827E+03  0.544E-02    3.40       0.0  T
   2   -111.8272575 -0.100708E-05  0.320E-02    3.40       1.0  T
   3   -111.8272546  0.295355E-05  0.667E-03    3.40       1.7  T
   4   -111.8272581 -0.353626E-05  0.112E-03    3.40      10.3  T
   5   -111.8272581 -0.177349E-07  0.669E-04    3.40      17.2  T
   6   -111.8272582 -0.569507E-08  0.296E-04    3.40      38.7  T
     SCC iter.                  ...        0 min,  0.026 sec
     gradient                   ...        0 min,  0.044 sec
 * total energy  :  -110.2628156 Eh     change       -0.5960682E-04 Eh
   gradient norm :     0.0042492 Eh/α   predicted    -0.5342088E-04 ( -10.38%)
   displ. norm   :     0.3466162 α      lambda       -0.7712250E-04
   maximum displ.:     0.1887034 α      in ANC's #2, #7, #9, ...

........................................................................
.............................. CYCLE  181 ..............................
........................................................................

 iter      E             dE          RMSdq      gap      omega  full diag
   1   -111.8281114 -0.111828E+03  0.436E-02    3.40       0.0  T
   2   -111.8281122 -0.799389E-06  0.256E-02    3.41       1.0  T
   3   -111.8281101  0.212004E-05  0.546E-03    3.40       2.1  T
   4   -111.8281126 -0.252608E-05  0.974E-04    3.41      11.8  T
   5   -111.8281127 -0.182285E-07  0.584E-04    3.41      19.7  T
   6   -111.8281127 -0.706420E-08  0.274E-04    3.41      41.9  T
     SCC iter.                  ...        0 min,  0.029 sec
     gradient                   ...        0 min,  0.043 sec
 * total energy  :  -110.2628635 Eh     change       -0.4790807E-04 Eh
   gradient norm :     0.0034679 Eh/α   predicted    -0.4319723E-04 (  -9.83%)
   displ. norm   :     0.4126668 α      lambda       -0.6637073E-04
   maximum displ.:     0.2304734 α      in ANC's #2, #7, #9, ...

........................................................................
.............................. CYCLE  182 ..............................
........................................................................

 iter      E             dE          RMSdq      gap      omega  full diag
   1   -111.8260488 -0.111826E+03  0.525E-02    3.41       0.0  T
   2   -111.8260498 -0.103146E-05  0.309E-02    3.41       1.0  T
   3   -111.8260449  0.494398E-05  0.847E-03    3.41       1.4  T
   4   -111.8260506 -0.575453E-05  0.113E-03    3.41      10.2  T
   5   -111.8260506 -0.185728E-07  0.673E-04    3.41      17.0  T
   6   -111.8260506 -0.816149E-08  0.265E-04    3.41      43.3  T
     SCC iter.                  ...        0 min,  0.022 sec
     gradient                   ...        0 min,  0.042 sec
 * total energy  :  -110.2629084 Eh     change       -0.4481417E-04 Eh
   gradient norm :     0.0037671 Eh/α   predicted    -0.3884170E-04 ( -13.33%)
   displ. norm   :     0.2515168 α      lambda       -0.6819675E-04
   maximum displ.:     0.1222313 α      in ANC's #2, #7, #9, ...

........................................................................
.............................. CYCLE  183 ..............................
........................................................................

 iter      E             dE          RMSdq      gap      omega  full diag
   1   -111.8281074 -0.111828E+03  0.312E-02    3.41       0.0  T
   2   -111.8281080 -0.578522E-06  0.184E-02    3.41       1.0  T
   3   -111.8281058  0.219196E-05  0.557E-03    3.41       2.1  T
   4   -111.8281083 -0.253560E-05  0.917E-04    3.41      12.5  T
   5   -111.8281083 -0.180507E-07  0.500E-04    3.41      22.9  T
   6   -111.8281083 -0.445414E-08  0.238E-04    3.41      48.3  T
     SCC iter.                  ...        0 min,  0.032 sec
     gradient                   ...        0 min,  0.043 sec
 * total energy  :  -110.2629501 Eh     change       -0.4175212E-04 Eh
   gradient norm :     0.0037830 Eh/α   predicted    -0.3625721E-04 ( -13.16%)
   displ. norm   :     0.3745800 α      lambda       -0.6773153E-04
   maximum displ.:     0.2127299 α      in ANC's #2, #7, #9, ...
 * RMSD in coord.:     1.0350390 α      energy gain  -0.1881950E-02 Eh

generating ANC from exact Hessian ...
Using Lindh-Hessian (1995)
 Shifting diagonal of input Hessian by   1.008974316366815E-002
 Lowest  eigenvalues of input Hessian
    0.010000    0.010043    0.000000    0.000000    0.000000    0.000000
    0.000000    0.000000    0.010219    0.010242    0.010362    0.010388
    0.010457    0.010552    0.010560    0.010784    0.010868    0.011018
 Highest eigenvalues
    2.034433    2.076506    2.078504    2.203788    2.316044    2.347060
 

........................................................................
.............................. CYCLE  184 ..............................
........................................................................

 iter      E             dE          RMSdq      gap      omega  full diag
   1   -111.8264970 -0.111826E+03  0.454E-02    3.41       0.0  T
   2   -111.8264981 -0.107853E-05  0.267E-02    3.41       1.0  T
   3   -111.8264937  0.440744E-05  0.791E-03    3.41       1.4  T
   4   -111.8264987 -0.508949E-05  0.109E-03    3.41      10.5  T
   5   -111.8264988 -0.330928E-07  0.586E-04    3.41      19.6  T
   6   -111.8264988 -0.630013E-08  0.288E-04    3.41      39.8  T
     SCC iter.                  ...        0 min,  0.028 sec
     gradient                   ...        0 min,  0.048 sec
 * total energy  :  -110.2629835 Eh     change       -0.3340451E-04 Eh
   gradient norm :     0.0044687 Eh/α   predicted     0.0000000E+00 (-100.00%)
   displ. norm   :     0.0414984 α      lambda       -0.1969708E-04
   maximum displ.:     0.0211350 α      in ANC's #12, #4, #30, ...

........................................................................
.............................. CYCLE  185 ..............................
........................................................................

 iter      E             dE          RMSdq      gap      omega  full diag
   1   -111.8286096 -0.111829E+03  0.103E-02    3.41       0.0  T
   2   -111.8286099 -0.248391E-06  0.612E-03    3.41       1.9  T
   3   -111.8286096  0.233748E-06  0.221E-03    3.42       5.2  T
   4   -111.8286099 -0.302323E-06  0.544E-04    3.42      21.1  T
   5   -111.8286100 -0.119426E-07  0.232E-04    3.42      49.4  T
     SCC iter.                  ...        0 min,  0.026 sec
     gradient                   ...        0 min,  0.045 sec
 * total energy  :  -110.2630224 Eh     change       -0.3888602E-04 Eh
   gradient norm :     0.0016066 Eh/α   predicted    -0.2738549E-04 ( -29.57%)
   displ. norm   :     0.1238685 α      lambda       -0.4637472E-04
   maximum displ.:     0.0704082 α      in ANC's #12, #4, #17, ...

........................................................................
.............................. CYCLE  186 ..............................
........................................................................

 iter      E             dE          RMSdq      gap      omega  full diag
   1   -111.8312089 -0.111831E+03  0.265E-02    3.42       0.0  T
   2   -111.8312098 -0.822720E-06  0.158E-02    3.42       1.0  T
   3   -111.8312083  0.150001E-05  0.484E-03    3.42       2.4  T
   4   -111.8312101 -0.185675E-05  0.961E-04    3.42      11.9  T
   5   -111.8312101 -0.253188E-07  0.493E-04    3.42      23.3  T
   6   -111.8312101 -0.920892E-09  0.255E-04    3.42      45.0  T
     SCC iter.                  ...        0 min,  0.028 sec
     gradient                   ...        0 min,  0.043 sec
 * total energy  :  -110.2630557 Eh     change       -0.3331492E-04 Eh
   gradient norm :     0.0032806 Eh/α   predicted    -0.2334956E-04 ( -29.91%)
   displ. norm   :     0.0719560 α      lambda       -0.3130626E-04
   maximum displ.:     0.0356053 α      in ANC's #12, #4, #10, ...

........................................................................
.............................. CYCLE  187 ..............................
........................................................................

 iter      E             dE          RMSdq      gap      omega  full diag
   1   -111.8308184 -0.111831E+03  0.139E-02    3.42       0.0  T
   2   -111.8308185 -0.681982E-07  0.823E-03    3.42       1.4  T
   3   -111.8308185  0.168476E-07  0.846E-04    3.42      13.6  T
   4   -111.8308185 -0.413433E-07  0.325E-04    3.42      35.3  T
     SCC iter.                  ...        0 min,  0.017 sec
     gradient                   ...        0 min,  0.043 sec
 * total energy  :  -110.2630815 Eh     change       -0.2580201E-04 Eh
   gradient norm :     0.0029953 Eh/α   predicted    -0.1576080E-04 ( -38.92%)
   displ. norm   :     0.2173150 α      lambda       -0.7960138E-04
   maximum displ.:     0.1070775 α      in ANC's #12, #4, #10, ...

........................................................................
.............................. CYCLE  188 ..............................
........................................................................

 iter      E             dE          RMSdq      gap      omega  full diag
   1   -111.8286711 -0.111829E+03  0.405E-02    3.42       0.0  T
   2   -111.8286716 -0.434457E-06  0.238E-02    3.42       1.0  T
   3   -111.8286704  0.114743E-05  0.387E-03    3.42       3.0  T
   4   -111.8286718 -0.135965E-05  0.780E-04    3.42      14.7  T
   5   -111.8286718 -0.167898E-07  0.438E-04    3.42      26.2  T
   6   -111.8286718 -0.339686E-08  0.193E-04    3.42      59.6  T
     SCC iter.                  ...        0 min,  0.030 sec
     gradient                   ...        0 min,  0.042 sec
 * total energy  :  -110.2631403 Eh     change       -0.5875481E-04 Eh
   gradient norm :     0.0018777 Eh/α   predicted    -0.4168188E-04 ( -29.06%)
   displ. norm   :     0.3662116 α      lambda       -0.5894043E-04
   maximum displ.:     0.1740590 α      in ANC's #12, #4, #10, ...

........................................................................
.............................. CYCLE  189 ..............................
........................................................................

 iter      E             dE          RMSdq      gap      omega  full diag
   1   -111.8256800 -0.111826E+03  0.669E-02    3.42       0.0  T
   2   -111.8256812 -0.118374E-05  0.393E-02    3.42       1.0  T
   3   -111.8256763  0.482440E-05  0.776E-03    3.42       1.5  T
   4   -111.8256819 -0.554869E-05  0.124E-03    3.42       9.2  T
   5   -111.8256819 -0.420556E-07  0.698E-04    3.42      16.4  T
   6   -111.8256819 -0.100808E-07  0.298E-04    3.42      38.5  T
     SCC iter.                  ...        0 min,  0.028 sec
     gradient                   ...        0 min,  0.044 sec
 * total energy  :  -110.2631917 Eh     change       -0.5140463E-04 Eh
   gradient norm :     0.0039454 Eh/α   predicted    -0.3122700E-04 ( -39.25%)
   displ. norm   :     0.1208003 α      lambda       -0.4135317E-04
   maximum displ.:     0.0493505 α      in ANC's #12, #4, #7, ...

........................................................................
.............................. CYCLE  190 ..............................
........................................................................

 iter      E             dE          RMSdq      gap      omega  full diag
   1   -111.8264682 -0.111826E+03  0.209E-02    3.42       0.0  T
   2   -111.8264683 -0.128136E-06  0.123E-02    3.42       1.0  T
   3   -111.8264677  0.565491E-06  0.272E-03    3.42       4.2  T
   4   -111.8264684 -0.642569E-06  0.422E-04    3.42      27.2  T
   5   -111.8264684 -0.576907E-08  0.220E-04    3.42      52.1  T
     SCC iter.                  ...        0 min,  0.019 sec
     gradient                   ...        0 min,  0.048 sec
 * total energy  :  -110.2632286 Eh     change       -0.3687971E-04 Eh
   gradient norm :     0.0033059 Eh/α   predicted    -0.2098319E-04 ( -43.10%)
   displ. norm   :     0.3439974 α      lambda       -0.1122789E-03
   maximum displ.:     0.1397583 α      in ANC's #4, #7, #12, ...

........................................................................
.............................. CYCLE  191 ..............................
........................................................................

 iter      E             dE          RMSdq      gap      omega  full diag
   1   -111.8283870 -0.111828E+03  0.581E-02    3.42       0.0  T
   2   -111.8283879 -0.898223E-06  0.342E-02    3.41       1.0  T
   3   -111.8283844  0.358289E-05  0.694E-03    3.41       1.7  T
   4   -111.8283885 -0.409852E-05  0.115E-03    3.41      10.0  T
   5   -111.8283885 -0.378941E-07  0.623E-04    3.41      18.4  T
   6   -111.8283885 -0.775627E-08  0.279E-04    3.41      41.2  T
     SCC iter.                  ...        0 min,  0.027 sec
     gradient                   ...        0 min,  0.049 sec
 * total energy  :  -110.2633091 Eh     change       -0.8050389E-04 Eh
   gradient norm :     0.0016176 Eh/α   predicted    -0.6278578E-04 ( -22.01%)
   displ. norm   :     0.5345729 α      lambda       -0.6115177E-04
   maximum displ.:     0.2255269 α      in ANC's #7, #4, #12, ...

........................................................................
.............................. CYCLE  192 ..............................
........................................................................

 iter      E             dE          RMSdq      gap      omega  full diag
   1   -111.8273933 -0.111827E+03  0.881E-02    3.41       0.0  T
   2   -111.8273950 -0.167575E-05  0.518E-02    3.41       1.0  T
   3   -111.8273875  0.750983E-05  0.987E-03    3.41       1.2  T
   4   -111.8273961 -0.861723E-05  0.155E-03    3.41       7.4  T
   5   -111.8273962 -0.568010E-07  0.882E-04    3.41      13.0  T
   6   -111.8273962 -0.154543E-07  0.370E-04    3.41      31.0  T
     SCC iter.                  ...        0 min,  0.029 sec
     gradient                   ...        0 min,  0.042 sec
 * total energy  :  -110.2633710 Eh     change       -0.6191106E-04 Eh
   gradient norm :     0.0028936 Eh/α   predicted    -0.3446733E-04 ( -44.33%)
   displ. norm   :     0.3513189 α      lambda        0.2003319E-04
   maximum displ.:     0.1480879 α      in ANC's #7, #4, #12, ...

........................................................................
.............................. CYCLE  193 ..............................
........................................................................

 iter      E             dE          RMSdq      gap      omega  full diag
   1   -111.8248448 -0.111825E+03  0.579E-02    3.41       0.0  T
   2   -111.8248456 -0.805700E-06  0.341E-02    3.40       1.0  T
   3   -111.8248419  0.374379E-05  0.698E-03    3.40       1.6  T
   4   -111.8248461 -0.427765E-05  0.107E-03    3.40      10.7  T
   5   -111.8248462 -0.297651E-07  0.597E-04    3.40      19.2  T
   6   -111.8248462 -0.674630E-08  0.260E-04    3.40      44.1  T
     SCC iter.                  ...        0 min,  0.023 sec
     gradient                   ...        0 min,  0.043 sec
 * total energy  :  -110.2633673 Eh     change        0.3666427E-05 Eh
   gradient norm :     0.0053828 Eh/α   predicted     0.1124730E-04 ( 206.76%)
   displ. norm   :     0.0607335 α      lambda       -0.7203072E-04
   maximum displ.:     0.0246788 α      in ANC's #12, #7, #5, ...

........................................................................
.............................. CYCLE  194 ..............................
........................................................................

 iter      E             dE          RMSdq      gap      omega  full diag
   1   -111.8286695 -0.111829E+03  0.128E-02    3.41       0.0  T
   2   -111.8286697 -0.198826E-06  0.753E-03    3.41       1.5  T
   3   -111.8286695  0.234508E-06  0.224E-03    3.41       5.1  T
   4   -111.8286698 -0.289414E-06  0.443E-04    3.41      25.9  T
   5   -111.8286698 -0.650545E-08  0.243E-04    3.41      47.2  T
     SCC iter.                  ...        0 min,  0.026 sec
     gradient                   ...        0 min,  0.043 sec
 * total energy  :  -110.2634189 Eh     change       -0.5160409E-04 Eh
   gradient norm :     0.0026141 Eh/α   predicted    -0.3614850E-04 ( -29.95%)
   displ. norm   :     0.2229374 α      lambda       -0.7502394E-04
   maximum displ.:     0.1298842 α      in ANC's #7, #4, #1, ...

........................................................................
.............................. CYCLE  195 ..............................
........................................................................

 iter      E             dE          RMSdq      gap      omega  full diag
   1   -111.8311712 -0.111831E+03  0.284E-02    3.41       0.0  T
   2   -111.8311715 -0.285582E-06  0.167E-02    3.41       1.0  T
   3   -111.8311707  0.787538E-06  0.338E-03    3.41       3.4  T
   4   -111.8311716 -0.941029E-06  0.546E-04    3.41      21.0  T
   5   -111.8311716 -0.451637E-08  0.323E-04    3.41      35.5  T
     SCC iter.                  ...        0 min,  0.021 sec
     gradient                   ...        0 min,  0.041 sec
 * total energy  :  -110.2634794 Eh     change       -0.6050877E-04 Eh
   gradient norm :     0.0025172 Eh/α   predicted    -0.3937736E-04 ( -34.92%)
   displ. norm   :     0.3472637 α      lambda       -0.9214249E-04
   maximum displ.:     0.2035994 α      in ANC's #7, #4, #1, ...

........................................................................
.............................. CYCLE  196 ..............................
........................................................................

 iter      E             dE          RMSdq      gap      omega  full diag
   1   -111.8318403 -0.111832E+03  0.456E-02    3.41       0.0  T
   2   -111.8318408 -0.557816E-06  0.268E-02    3.41       1.0  T
   3   -111.8318391  0.173518E-05  0.480E-03    3.41       2.4  T
   4   -111.8318412 -0.208200E-05  0.766E-04    3.41      15.0  T
   5   -111.8318412 -0.465549E-08  0.467E-04    3.41      24.5  T
   6   -111.8318412 -0.580445E-08  0.148E-04    3.41      77.7  T
     SCC iter.                  ...        0 min,  0.029 sec
     gradient                   ...        0 min,  0.044 sec
 * total energy  :  -110.2635607 Eh     change       -0.8131987E-04 Eh
   gradient norm :     0.0033179 Eh/α   predicted    -0.5164115E-04 ( -36.50%)
   displ. norm   :     0.3763380 α      lambda       -0.9713066E-04
   maximum displ.:     0.2232846 α      in ANC's #7, #4, #1, ...

........................................................................
.............................. CYCLE  197 ..............................
........................................................................

 iter      E             dE          RMSdq      gap      omega  full diag
   1   -111.8306047 -0.111831E+03  0.493E-02    3.41       0.0  T
   2   -111.8306054 -0.660547E-06  0.290E-02    3.41       1.0  T
   3   -111.8306032  0.218011E-05  0.525E-03    3.41       2.2  T
   4   -111.8306058 -0.259684E-05  0.849E-04    3.41      13.5  T
   5   -111.8306058 -0.951729E-08  0.519E-04    3.41      22.1  T
   6   -111.8306058 -0.558452E-08  0.172E-04    3.41      66.8  T
     SCC iter.                  ...        0 min,  0.027 sec
     gradient                   ...        0 min,  0.042 sec
 * total energy  :  -110.2636501 Eh     change       -0.8933393E-04 Eh
   gradient norm :     0.0029055 Eh/α   predicted    -0.5544598E-04 ( -37.93%)
   displ. norm   :     0.3626151 α      lambda       -0.9958760E-04
   maximum displ.:     0.2208682 α      in ANC's #7, #4, #1, ...

........................................................................
.............................. CYCLE  198 ..............................
........................................................................

 iter      E             dE          RMSdq      gap      omega  full diag
   1   -111.8291639 -0.111829E+03  0.447E-02    3.41       0.0  T
   2   -111.8291646 -0.624990E-06  0.263E-02    3.41       1.0  T
   3   -111.8291623  0.224594E-05  0.532E-03    3.40       2.2  T
   4   -111.8291650 -0.265577E-05  0.820E-04    3.40      14.0  T
   5   -111.8291650 -0.112319E-07  0.497E-04    3.40      23.1  T
   6   -111.8291650 -0.399476E-08  0.168E-04    3.40      68.2  T
     SCC iter.                  ...        0 min,  0.029 sec
     gradient                   ...        0 min,  0.042 sec
 * total energy  :  -110.2637417 Eh     change       -0.9160526E-04 Eh
   gradient norm :     0.0023671 Eh/α   predicted    -0.5634397E-04 ( -38.49%)
   displ. norm   :     0.4163451 α      lambda       -0.1181267E-03
   maximum displ.:     0.2575415 α      in ANC's #7, #4, #1, ...

........................................................................
.............................. CYCLE  199 ..............................
........................................................................

 iter      E             dE          RMSdq      gap      omega  full diag
   1   -111.8275520 -0.111828E+03  0.485E-02    3.40       0.0  T
   2   -111.8275529 -0.843744E-06  0.286E-02    3.40       1.0  T
   3   -111.8275496  0.326787E-05  0.642E-03    3.40       1.8  T
   4   -111.8275535 -0.384928E-05  0.971E-04    3.40      11.8  T
   5   -111.8275535 -0.159560E-07  0.589E-04    3.40      19.5  T
   6   -111.8275535 -0.526366E-08  0.200E-04    3.40      57.3  T
     SCC iter.                  ...        0 min,  0.028 sec
     gradient                   ...        0 min,  0.044 sec
 * total energy  :  -110.2638499 Eh     change       -0.1081766E-03 Eh
   gradient norm :     0.0028157 Eh/α   predicted    -0.6930259E-04 ( -35.94%)
   displ. norm   :     0.5300810 α      lambda       -0.1552517E-03
   maximum displ.:     0.3344406 α      in ANC's #7, #1, #4, ...

........................................................................
.............................. CYCLE  200 ..............................
........................................................................

 iter      E             dE          RMSdq      gap      omega  full diag
   1   -111.8261849 -0.111826E+03  0.573E-02    3.39       0.0  T
   2   -111.8261863 -0.140210E-05  0.337E-02    3.39       1.0  T
   3   -111.8261801  0.616189E-05  0.892E-03    3.39       1.3  T
   4   -111.8261874 -0.720699E-05  0.123E-03    3.39       9.3  T
   5   -111.8261874 -0.272087E-07  0.743E-04    3.39      15.4  T
   6   -111.8261874 -0.841538E-08  0.262E-04    3.39      43.7  T
     SCC iter.                  ...        0 min,  0.029 sec
     gradient                   ...        0 min,  0.047 sec
 * total energy  :  -110.2639878 Eh     change       -0.1379552E-03 Eh
   gradient norm :     0.0038272 Eh/α   predicted    -0.9943781E-04 ( -27.92%)
   displ. norm   :     0.6426705 α      lambda       -0.1838755E-03
   maximum displ.:     0.4104136 α      in ANC's #7, #1, #4, ...

........................................................................
.............................. CYCLE  201 ..............................
........................................................................

 iter      E             dE          RMSdq      gap      omega  full diag
   1   -111.8239679 -0.111824E+03  0.673E-02    3.38       0.0  T
   2   -111.8239699 -0.203608E-05  0.397E-02    3.38       1.0  T
   3   -111.8239620  0.794257E-05  0.102E-02    3.37       1.1  T
   4   -111.8239713 -0.938479E-05  0.158E-03    3.37       7.3  T
   5   -111.8239714 -0.353755E-07  0.963E-04    3.37      11.9  T
   6   -111.8239714 -0.140978E-07  0.341E-04    3.37      33.6  T
     SCC iter.                  ...        0 min,  0.028 sec
     gradient                   ...        0 min,  0.045 sec
 * total energy  :  -110.2641440 Eh     change       -0.1562200E-03 Eh
   gradient norm :     0.0059118 Eh/α   predicted    -0.1299169E-03 ( -16.84%)
   displ. norm   :     0.6392291 α      lambda       -0.2193169E-03
   maximum displ.:     0.4179337 α      in ANC's #7, #1, #5, ...

........................................................................
.............................. CYCLE  202 ..............................
........................................................................

 iter      E             dE          RMSdq      gap      omega  full diag
   1   -111.8254490 -0.111825E+03  0.577E-02    3.37       0.0  T
   2   -111.8254518 -0.286997E-05  0.339E-02    3.37       1.0  T
   3   -111.8254396  0.122230E-04  0.133E-02    3.37       1.0  T
   4   -111.8254540 -0.143914E-04  0.159E-03    3.37       7.2  T
   5   -111.8254541 -0.680032E-07  0.871E-04    3.37      13.2  T
   6   -111.8254541 -0.187168E-07  0.380E-04    3.37      30.2  T
     SCC iter.                  ...        0 min,  0.028 sec
     gradient                   ...        0 min,  0.042 sec
 * total energy  :  -110.2642981 Eh     change       -0.1540953E-03 Eh
   gradient norm :     0.0065571 Eh/α   predicted    -0.1544687E-03 (   0.24%)
   displ. norm   :     0.5668075 α      lambda       -0.2434401E-03
   maximum displ.:     0.3665435 α      in ANC's #7, #1, #5, ...

........................................................................
.............................. CYCLE  203 ..............................
........................................................................

 iter      E             dE          RMSdq      gap      omega  full diag
   1   -111.8258400 -0.111826E+03  0.545E-02    3.36       0.0  T
   2   -111.8258421 -0.215027E-05  0.325E-02    3.36       1.0  T
   3   -111.8258385  0.361070E-05  0.776E-03    3.35       1.5  T
   4   -111.8258433 -0.478419E-05  0.173E-03    3.35       6.6  T
   5   -111.8258433 -0.202114E-07  0.876E-04    3.35      13.1  T
   6   -111.8258433 -0.142692E-07  0.355E-04    3.35      32.3  T
     SCC iter.                  ...        0 min,  0.027 sec
     gradient                   ...        0 min,  0.045 sec
 * total energy  :  -110.2644752 Eh     change       -0.1770534E-03 Eh
   gradient norm :     0.0073040 Eh/α   predicted    -0.1608284E-03 (  -9.16%)
   displ. norm   :     0.5201392 α      lambda       -0.2577480E-03
   maximum displ.:     0.3318095 α      in ANC's #7, #1, #4, ...

........................................................................
.............................. CYCLE  204 ..............................
........................................................................

 iter      E             dE          RMSdq      gap      omega  full diag
   1   -111.8252212 -0.111825E+03  0.547E-02    3.35       0.0  T
   2   -111.8252231 -0.183867E-05  0.323E-02    3.35       1.0  T
   3   -111.8252135  0.953895E-05  0.114E-02    3.34       1.0  T
   4   -111.8252245 -0.109902E-04  0.149E-03    3.35       7.7  T
   5   -111.8252246 -0.615224E-07  0.785E-04    3.34      14.6  T
   6   -111.8252246 -0.104100E-07  0.392E-04    3.35      29.2  T
     SCC iter.                  ...        0 min,  0.032 sec
     gradient                   ...        0 min,  0.045 sec
 * total energy  :  -110.2646668 Eh     change       -0.1916288E-03 Eh
   gradient norm :     0.0085064 Eh/α   predicted    -0.1637408E-03 ( -14.55%)
   displ. norm   :     0.4933176 α      lambda       -0.4044908E-03
   maximum displ.:     0.2610643 α      in ANC's #7, #1, #5, ...

........................................................................
.............................. CYCLE  205 ..............................
........................................................................

 iter      E             dE          RMSdq      gap      omega  full diag
   1   -111.8360133 -0.111836E+03  0.523E-02    3.35       0.0  T
   2   -111.8360158 -0.249599E-05  0.308E-02    3.35       1.0  T
   3   -111.8360115  0.427064E-05  0.900E-03    3.35       1.3  T
   4   -111.8360169 -0.532204E-05  0.194E-03    3.35       5.9  T
   5   -111.8360170 -0.987416E-07  0.106E-03    3.35      10.8  T
   6   -111.8360170 -0.228234E-07  0.479E-04    3.35      23.9  T
   7   -111.8360170 -0.565747E-08  0.186E-04    3.35      61.7  T
     SCC iter.                  ...        0 min,  0.033 sec
     gradient                   ...        0 min,  0.044 sec
 * total energy  :  -110.2648920 Eh     change       -0.2252161E-03 Eh
   gradient norm :     0.0084597 Eh/α   predicted    -0.2514678E-03 (  11.66%)
   displ. norm   :     0.6216611 α      lambda       -0.3407478E-03
   maximum displ.:     0.3986786 α      in ANC's #7, #1, #4, ...

........................................................................
.............................. CYCLE  206 ..............................
........................................................................

 iter      E             dE          RMSdq      gap      omega  full diag
   1   -111.8295588 -0.111830E+03  0.667E-02    3.34       0.0  T
   2   -111.8295611 -0.232210E-05  0.395E-02    3.34       1.0  T
   3   -111.8295496  0.114558E-04  0.128E-02    3.34       1.0  T
   4   -111.8295629 -0.132332E-04  0.165E-03    3.34       6.9  T
   5   -111.8295629 -0.433496E-07  0.971E-04    3.34      11.8  T
   6   -111.8295629 -0.152425E-07  0.483E-04    3.34      23.8  T
     SCC iter.                  ...        0 min,  0.027 sec
     gradient                   ...        0 min,  0.043 sec
 * total energy  :  -110.2651724 Eh     change       -0.2803493E-03 Eh
   gradient norm :     0.0077955 Eh/α   predicted    -0.2362230E-03 ( -15.74%)
   displ. norm   :     0.5807217 α      lambda       -0.3640685E-03
   maximum displ.:     0.3498058 α      in ANC's #7, #1, #4, ...

........................................................................
.............................. CYCLE  207 ..............................
........................................................................

 iter      E             dE          RMSdq      gap      omega  full diag
   1   -111.8228074 -0.111823E+03  0.671E-02    3.32       0.0  T
   2   -111.8228107 -0.326824E-05  0.397E-02    3.32       1.0  T
   3   -111.8227980  0.126483E-04  0.133E-02    3.32       1.0  T
   4   -111.8228126 -0.146154E-04  0.200E-03    3.32       5.7  T
   5   -111.8228127 -0.105122E-06  0.105E-03    3.32      11.0  T
   6   -111.8228128 -0.199998E-07  0.550E-04    3.32      20.9  T
   7   -111.8228128 -0.720644E-08  0.210E-04    3.32      54.7  T
     SCC iter.                  ...        0 min,  0.027 sec
     gradient                   ...        0 min,  0.049 sec
 * total energy  :  -110.2654271 Eh     change       -0.2547760E-03 Eh
   gradient norm :     0.0083390 Eh/α   predicted    -0.2434263E-03 (  -4.45%)
   displ. norm   :     0.5261048 α      lambda       -0.2516956E-03
   maximum displ.:     0.3277521 α      in ANC's #7, #1, #4, ...

........................................................................
.............................. CYCLE  208 ..............................
........................................................................

 iter      E             dE          RMSdq      gap      omega  full diag
   1   -111.8214100 -0.111821E+03  0.534E-02    3.33       0.0  T
   2   -111.8214118 -0.184224E-05  0.313E-02    3.32       1.0  T
   3   -111.8214048  0.702292E-05  0.100E-02    3.32       1.1  T
   4   -111.8214129 -0.813207E-05  0.146E-03    3.32       7.8  T
   5   -111.8214130 -0.570358E-07  0.820E-04    3.32      14.0  T
   6   -111.8214130 -0.120209E-07  0.416E-04    3.32      27.6  T
     SCC iter.                  ...        0 min,  0.028 sec
     gradient                   ...        0 min,  0.045 sec
 * total energy  :  -110.2656209 Eh     change       -0.1937782E-03 Eh
   gradient norm :     0.0089417 Eh/α   predicted    -0.1606824E-03 ( -17.08%)
   displ. norm   :     0.4510359 α      lambda       -0.3581341E-03
   maximum displ.:     0.2644882 α      in ANC's #7, #1, #2, ...

........................................................................
.............................. CYCLE  209 ..............................
........................................................................

 iter      E             dE          RMSdq      gap      omega  full diag
   1   -111.8273590 -0.111827E+03  0.474E-02    3.34       0.0  T
   2   -111.8273623 -0.329923E-05  0.280E-02    3.33       1.0  T
   3   -111.8273555  0.678959E-05  0.101E-02    3.33       1.1  T
   4   -111.8273635 -0.805853E-05  0.212E-03    3.33       5.4  T
   5   -111.8273638 -0.234387E-06  0.877E-04    3.33      13.1  T
   6   -111.8273638 -0.130727E-07  0.487E-04    3.33      23.5  T
     SCC iter.                  ...        0 min,  0.024 sec
     gradient                   ...        0 min,  0.042 sec
 * total energy  :  -110.2658511 Eh     change       -0.2301340E-03 Eh
   gradient norm :     0.0073070 Eh/α   predicted    -0.2155003E-03 (  -6.36%)
   displ. norm   :     0.6563866 α      lambda       -0.3490370E-03
   maximum displ.:     0.4334682 α      in ANC's #7, #1, #4, ...

........................................................................
.............................. CYCLE  210 ..............................
........................................................................

 iter      E             dE          RMSdq      gap      omega  full diag
   1   -111.8280228 -0.111828E+03  0.581E-02    3.34       0.0  T
   2   -111.8280264 -0.361746E-05  0.343E-02    3.33       1.0  T
   3   -111.8280176  0.880252E-05  0.116E-02    3.33       1.0  T
   4   -111.8280278 -0.102665E-04  0.229E-03    3.33       5.0  T
   5   -111.8280280 -0.194517E-06  0.108E-03    3.33      10.7  T
   6   -111.8280281 -0.272406E-07  0.513E-04    3.33      22.4  T
   7   -111.8280281 -0.620005E-08  0.218E-04    3.33      52.6  T
     SCC iter.                  ...        0 min,  0.031 sec
     gradient                   ...        0 min,  0.045 sec
 * total energy  :  -110.2661061 Eh     change       -0.2550509E-03 Eh
   gradient norm :     0.0112623 Eh/α   predicted    -0.2497094E-03 (  -2.09%)
   displ. norm   :     0.5787288 α      lambda       -0.3890221E-03
   maximum displ.:     0.3791595 α      in ANC's #7, #1, #3, ...

........................................................................
.............................. CYCLE  211 ..............................
........................................................................

 iter      E             dE          RMSdq      gap      omega  full diag
   1   -111.8302309 -0.111830E+03  0.573E-02    3.33       0.0  T
   2   -111.8302343 -0.341088E-05  0.337E-02    3.32       1.0  T
   3   -111.8302227  0.115937E-04  0.136E-02    3.32       1.0  T
   4   -111.8302361 -0.134618E-04  0.204E-03    3.32       5.6  T
   5   -111.8302363 -0.189497E-06  0.922E-04    3.32      12.4  T
   6   -111.8302363 -0.159724E-07  0.504E-04    3.32      22.7  T
     SCC iter.                  ...        0 min,  0.030 sec
     gradient                   ...        0 min,  0.043 sec
 * total energy  :  -110.2663270 Eh     change       -0.2208637E-03 Eh
   gradient norm :     0.0094901 Eh/α   predicted    -0.2596648E-03 (  17.57%)
   displ. norm   :     0.5167815 α      lambda       -0.3521284E-03
   maximum displ.:     0.3274051 α      in ANC's #7, #1, #2, ...

........................................................................
.............................. CYCLE  212 ..............................
........................................................................

 iter      E             dE          RMSdq      gap      omega  full diag
   1   -111.8310030 -0.111831E+03  0.526E-02    3.31       0.0  T
   2   -111.8310062 -0.312871E-05  0.311E-02    3.31       1.0  T
   3   -111.8310018  0.432151E-05  0.872E-03    3.30       1.3  T
   4   -111.8310070 -0.510645E-05  0.228E-03    3.30       5.0  T
   5   -111.8310072 -0.227536E-06  0.962E-04    3.30      11.9  T
   6   -111.8310072 -0.164151E-07  0.483E-04    3.30      23.7  T
     SCC iter.                  ...        0 min,  0.031 sec
     gradient                   ...        0 min,  0.039 sec
 * total energy  :  -110.2665873 Eh     change       -0.2603246E-03 Eh
   gradient norm :     0.0087702 Eh/α   predicted    -0.2230876E-03 ( -14.30%)
   displ. norm   :     0.5132075 α      lambda       -0.3682401E-03
   maximum displ.:     0.3058245 α      in ANC's #7, #1, #2, ...

........................................................................
.............................. CYCLE  213 ..............................
........................................................................

 iter      E             dE          RMSdq      gap      omega  full diag
   1   -111.8329766 -0.111833E+03  0.514E-02    3.30       0.0  T
   2   -111.8329794 -0.277762E-05  0.303E-02    3.29       1.0  T
   3   -111.8329742  0.524927E-05  0.910E-03    3.30       1.3  T
   4   -111.8329804 -0.623338E-05  0.180E-03    3.29       6.4  T
   5   -111.8329805 -0.126651E-06  0.866E-04    3.29      13.2  T
   6   -111.8329805 -0.179870E-07  0.442E-04    3.29      26.0  T
     SCC iter.                  ...        0 min,  0.026 sec
     gradient                   ...        0 min,  0.047 sec
 * total energy  :  -110.2668339 Eh     change       -0.2466479E-03 Eh
   gradient norm :     0.0098489 Eh/α   predicted    -0.2326197E-03 (  -5.69%)
   displ. norm   :     0.6258640 α      lambda       -0.3872860E-03
   maximum displ.:     0.3974161 α      in ANC's #7, #1, #2, ...

........................................................................
.............................. CYCLE  214 ..............................
........................................................................

 iter      E             dE          RMSdq      gap      omega  full diag
   1   -111.8259407 -0.111826E+03  0.648E-02    3.30       0.0  T
   2   -111.8259436 -0.291297E-05  0.384E-02    3.29       1.0  T
   3   -111.8259345  0.905355E-05  0.118E-02    3.29       1.0  T
   4   -111.8259450 -0.104795E-04  0.181E-03    3.29       6.4  T
   5   -111.8259451 -0.951740E-07  0.929E-04    3.29      12.3  T
   6   -111.8259451 -0.124304E-07  0.522E-04    3.29      22.0  T
     SCC iter.                  ...        0 min,  0.025 sec
     gradient                   ...        0 min,  0.046 sec
 * total energy  :  -110.2670798 Eh     change       -0.2458848E-03 Eh
   gradient norm :     0.0093630 Eh/α   predicted    -0.2694969E-03 (   9.60%)
   displ. norm   :     0.4240079 α      lambda       -0.3852540E-03
   maximum displ.:     0.2402542 α      in ANC's #1, #7, #2, ...

........................................................................
.............................. CYCLE  215 ..............................
........................................................................

 iter      E             dE          RMSdq      gap      omega  full diag
   1   -111.8287369 -0.111829E+03  0.511E-02    3.28       0.0  T
   2   -111.8287392 -0.223492E-05  0.304E-02    3.28       1.0  T
   3   -111.8287348  0.430738E-05  0.870E-03    3.28       1.3  T
   4   -111.8287401 -0.529473E-05  0.168E-03    3.28       6.8  T
   5   -111.8287402 -0.793927E-07  0.905E-04    3.28      12.7  T
   6   -111.8287402 -0.107316E-07  0.320E-04    3.28      35.8  T
     SCC iter.                  ...        0 min,  0.034 sec
     gradient                   ...        0 min,  0.044 sec
 * total energy  :  -110.2672997 Eh     change       -0.2199064E-03 Eh
   gradient norm :     0.0092891 Eh/α   predicted    -0.2272610E-03 (   3.34%)
   displ. norm   :     0.5791356 α      lambda       -0.4190444E-03
   maximum displ.:     0.3492593 α      in ANC's #1, #7, #2, ...

........................................................................
.............................. CYCLE  216 ..............................
........................................................................

 iter      E             dE          RMSdq      gap      omega  full diag
   1   -111.8268991 -0.111827E+03  0.644E-02    3.27       0.0  T
   2   -111.8269010 -0.190509E-05  0.381E-02    3.26       1.0  T
   3   -111.8268970  0.404568E-05  0.777E-03    3.26       1.5  T
   4   -111.8269019 -0.493344E-05  0.159E-03    3.26       7.2  T
   5   -111.8269020 -0.485414E-07  0.940E-04    3.26      12.2  T
   6   -111.8269020 -0.194791E-07  0.423E-04    3.26      27.1  T
     SCC iter.                  ...        0 min,  0.030 sec
     gradient                   ...        0 min,  0.046 sec
 * total energy  :  -110.2675386 Eh     change       -0.2388334E-03 Eh
   gradient norm :     0.0113750 Eh/α   predicted    -0.2797962E-03 (  17.15%)
   displ. norm   :     0.3336600 α      lambda       -0.3603756E-03
   maximum displ.:     0.1743312 α      in ANC's #1, #2, #7, ...

........................................................................
.............................. CYCLE  217 ..............................
........................................................................

 iter      E             dE          RMSdq      gap      omega  full diag
   1   -111.8328902 -0.111833E+03  0.434E-02    3.25       0.0  T
   2   -111.8328937 -0.343438E-05  0.253E-02    3.24       1.0  T
   3   -111.8328879  0.570433E-05  0.105E-02    3.24       1.1  T
   4   -111.8328949 -0.698416E-05  0.193E-03    3.24       5.9  T
   5   -111.8328951 -0.173164E-06  0.809E-04    3.24      14.2  T
   6   -111.8328951 -0.972507E-08  0.409E-04    3.24      28.1  T
     SCC iter.                  ...        0 min,  0.027 sec
     gradient                   ...        0 min,  0.041 sec
 * total energy  :  -110.2677603 Eh     change       -0.2216923E-03 Eh
   gradient norm :     0.0082616 Eh/α   predicted    -0.2002481E-03 (  -9.67%)
   displ. norm   :     0.5479473 α      lambda       -0.4049630E-03
   maximum displ.:     0.3465640 α      in ANC's #1, #7, #2, ...

........................................................................
.............................. CYCLE  218 ..............................
........................................................................

 iter      E             dE          RMSdq      gap      omega  full diag
   1   -111.8303765 -0.111830E+03  0.607E-02    3.23       0.0  T
   2   -111.8303804 -0.393231E-05  0.359E-02    3.22       1.0  T
   3   -111.8303796  0.768398E-06  0.580E-03    3.22       2.0  T
   4   -111.8303811 -0.150904E-05  0.216E-03    3.22       5.3  T
   5   -111.8303813 -0.153603E-06  0.104E-03    3.22      11.0  T
   6   -111.8303813 -0.100013E-07  0.433E-04    3.22      26.5  T
   7   -111.8303813 -0.508950E-08  0.199E-04    3.22      57.7  T
     SCC iter.                  ...        0 min,  0.034 sec
     gradient                   ...        0 min,  0.046 sec
 * total energy  :  -110.2680162 Eh     change       -0.2558881E-03 Eh
   gradient norm :     0.0096429 Eh/α   predicted    -0.2632826E-03 (   2.89%)
   displ. norm   :     0.4287996 α      lambda       -0.3974694E-03
   maximum displ.:     0.2523857 α      in ANC's #1, #2, #12, ...

........................................................................
.............................. CYCLE  219 ..............................
........................................................................

 iter      E             dE          RMSdq      gap      omega  full diag
   1   -111.8313281 -0.111831E+03  0.533E-02    3.21       0.0  T
   2   -111.8313322 -0.402581E-05  0.317E-02    3.21       1.0  T
   3   -111.8313272  0.492561E-05  0.930E-03    3.21       1.2  T
   4   -111.8313334 -0.618455E-05  0.178E-03    3.21       6.5  T
   5   -111.8313336 -0.120376E-06  0.891E-04    3.21      12.9  T
   6   -111.8313336 -0.139747E-07  0.442E-04    3.21      26.0  T
     SCC iter.                  ...        0 min,  0.023 sec
     gradient                   ...        0 min,  0.049 sec
 * total energy  :  -110.2682269 Eh     change       -0.2107719E-03 Eh
   gradient norm :     0.0101967 Eh/α   predicted    -0.2352803E-03 (  11.63%)
   displ. norm   :     0.4861713 α      lambda       -0.3551602E-03
   maximum displ.:     0.3226570 α      in ANC's #1, #7, #2, ...
 * RMSD in coord.:     1.3761726 α      energy gain  -0.5276814E-02 Eh

generating ANC from exact Hessian ...
Using Lindh-Hessian (1995)
 Shifting diagonal of input Hessian by   1.011609537115087E-002
 Lowest  eigenvalues of input Hessian
    0.010000    0.000000    0.000000    0.000000    0.000000    0.000000
    0.000000    0.010182    0.010248    0.010316    0.010432    0.010552
    0.010625    0.010826    0.010907    0.010997    0.011007    0.011181
 Highest eigenvalues
    2.029479    2.072436    2.074949    2.205067    2.318734    2.344457
 

........................................................................
.............................. CYCLE  220 ..............................
........................................................................

 iter      E             dE          RMSdq      gap      omega  full diag
   1   -111.8283709 -0.111828E+03  0.563E-02    3.19       0.0  T
   2   -111.8283738 -0.290745E-05  0.337E-02    3.18       1.0  T
   3   -111.8283671  0.666612E-05  0.994E-03    3.18       1.2  T
   4   -111.8283751 -0.793691E-05  0.193E-03    3.18       5.9  T
   5   -111.8283752 -0.138889E-06  0.880E-04    3.18      13.0  T
   6   -111.8283752 -0.454612E-08  0.447E-04    3.18      25.7  T
     SCC iter.                  ...        0 min,  0.021 sec
     gradient                   ...        0 min,  0.049 sec
 * total energy  :  -110.2684431 Eh     change       -0.2161502E-03 Eh
   gradient norm :     0.0072850 Eh/α   predicted     0.0000000E+00 (-100.00%)
   displ. norm   :     0.0896560 α      lambda       -0.1903157E-03
   maximum displ.:     0.0349121 α      in ANC's #8, #13, #27, ...

........................................................................
.............................. CYCLE  221 ..............................
........................................................................

 iter      E             dE          RMSdq      gap      omega  full diag
   1   -111.8312986 -0.111831E+03  0.224E-02    3.17       0.0  T
   2   -111.8312995 -0.891566E-06  0.136E-02    3.17       1.0  T
   3   -111.8312980  0.151080E-05  0.582E-03    3.17       2.0  T
   4   -111.8312999 -0.189952E-05  0.107E-03    3.17      10.8  T
   5   -111.8312999 -0.410242E-07  0.502E-04    3.17      22.8  T
   6   -111.8312999 -0.148597E-08  0.238E-04    3.17      48.2  T
     SCC iter.                  ...        0 min,  0.026 sec
     gradient                   ...        0 min,  0.043 sec
 * total energy  :  -110.2685947 Eh     change       -0.1516031E-03 Eh
   gradient norm :     0.0033070 Eh/α   predicted    -0.9748043E-04 ( -35.70%)
   displ. norm   :     0.2211501 α      lambda       -0.2549101E-03
   maximum displ.:     0.1016220 α      in ANC's #8, #13, #2, ...

........................................................................
.............................. CYCLE  222 ..............................
........................................................................

 iter      E             dE          RMSdq      gap      omega  full diag
   1   -111.8337037 -0.111834E+03  0.408E-02    3.16       0.0  T
   2   -111.8337060 -0.221949E-05  0.247E-02    3.16       1.0  T
   3   -111.8337022  0.380734E-05  0.850E-03    3.16       1.3  T
   4   -111.8337068 -0.464458E-05  0.178E-03    3.16       6.4  T
   5   -111.8337069 -0.112785E-06  0.855E-04    3.16      13.4  T
   6   -111.8337069 -0.743340E-08  0.432E-04    3.16      26.6  T
     SCC iter.                  ...        0 min,  0.028 sec
     gradient                   ...        0 min,  0.044 sec
 * total energy  :  -110.2687574 Eh     change       -0.1627070E-03 Eh
   gradient norm :     0.0073942 Eh/α   predicted    -0.1336909E-03 ( -17.83%)
   displ. norm   :     0.1801077 α      lambda       -0.1416260E-03
   maximum displ.:     0.0878638 α      in ANC's #8, #13, #2, ...

........................................................................
.............................. CYCLE  223 ..............................
........................................................................

 iter      E             dE          RMSdq      gap      omega  full diag
   1   -111.8343148 -0.111834E+03  0.225E-02    3.16       0.0  T
   2   -111.8343153 -0.522842E-06  0.134E-02    3.16       1.0  T
   3   -111.8343142  0.113781E-05  0.417E-03    3.16       2.8  T
   4   -111.8343156 -0.136892E-05  0.866E-04    3.16      13.2  T
   5   -111.8343156 -0.194982E-07  0.488E-04    3.16      23.5  T
   6   -111.8343156 -0.450549E-08  0.246E-04    3.16      46.6  T
     SCC iter.                  ...        0 min,  0.025 sec
     gradient                   ...        0 min,  0.042 sec
 * total energy  :  -110.2688751 Eh     change       -0.1177610E-03 Eh
   gradient norm :     0.0070265 Eh/α   predicted    -0.7312104E-04 ( -37.91%)
   displ. norm   :     0.3705169 α      lambda       -0.2762305E-03
   maximum displ.:     0.1792859 α      in ANC's #8, #13, #2, ...

........................................................................
.............................. CYCLE  224 ..............................
........................................................................

 iter      E             dE          RMSdq      gap      omega  full diag
   1   -111.8325272 -0.111833E+03  0.483E-02    3.15       0.0  T
   2   -111.8325290 -0.186964E-05  0.291E-02    3.14       1.0  T
   3   -111.8325254  0.357468E-05  0.779E-03    3.14       1.5  T
   4   -111.8325299 -0.448867E-05  0.179E-03    3.14       6.4  T
   5   -111.8325300 -0.561974E-07  0.107E-03    3.14      10.7  T
   6   -111.8325300 -0.224460E-07  0.484E-04    3.14      23.7  T
   7   -111.8325300 -0.632652E-08  0.134E-04    3.14      85.9  T
     SCC iter.                  ...        0 min,  0.033 sec
     gradient                   ...        0 min,  0.043 sec
 * total energy  :  -110.2690996 Eh     change       -0.2244413E-03 Eh
   gradient norm :     0.0062819 Eh/α   predicted    -0.1570765E-03 ( -30.01%)
   displ. norm   :     0.4748593 α      lambda       -0.3160992E-03
   maximum displ.:     0.2311579 α      in ANC's #8, #13, #2, ...

........................................................................
.............................. CYCLE  225 ..............................
........................................................................

 iter      E             dE          RMSdq      gap      omega  full diag
   1   -111.8304144 -0.111830E+03  0.564E-02    3.13       0.0  T
   2   -111.8304176 -0.318432E-05  0.337E-02    3.13       1.0  T
   3   -111.8304129  0.469500E-05  0.923E-03    3.12       1.2  T
   4   -111.8304188 -0.593359E-05  0.222E-03    3.12       5.2  T
   5   -111.8304190 -0.162943E-06  0.121E-03    3.12       9.4  T
   6   -111.8304190 -0.783743E-08  0.626E-04    3.12      18.3  T
   7   -111.8304190 -0.141087E-07  0.176E-04    3.12      65.4  T
     SCC iter.                  ...        0 min,  0.033 sec
     gradient                   ...        0 min,  0.046 sec
 * total energy  :  -110.2693264 Eh     change       -0.2268545E-03 Eh
   gradient norm :     0.0043214 Eh/α   predicted    -0.1936973E-03 ( -14.62%)
   displ. norm   :     0.5841383 α      lambda       -0.3078513E-03
   maximum displ.:     0.2831891 α      in ANC's #8, #13, #2, ...

........................................................................
.............................. CYCLE  226 ..............................
........................................................................

 iter      E             dE          RMSdq      gap      omega  full diag
   1   -111.8245554 -0.111825E+03  0.805E-02    3.11       0.0  T
   2   -111.8245622 -0.678445E-05  0.481E-02    3.10       1.0  T
   3   -111.8245604  0.179996E-05  0.801E-03    3.09       1.4  T
   4   -111.8245637 -0.332432E-05  0.331E-03    3.09       3.5  T
   5   -111.8245641 -0.416728E-06  0.152E-03    3.09       7.6  T
   6   -111.8245642 -0.551261E-07  0.728E-04    3.09      15.7  T
   7   -111.8245642 -0.114048E-07  0.313E-04    3.09      36.6  T
     SCC iter.                  ...        0 min,  0.036 sec
     gradient                   ...        0 min,  0.039 sec
 * total energy  :  -110.2692642 Eh     change        0.6225937E-04 Eh
   gradient norm :     0.0225425 Eh/α   predicted    -0.2064491E-03 (-431.60%)
   displ. norm   :     0.0998060 α      lambda       -0.6597946E-03
   maximum displ.:     0.0376450 α      in ANC's #21, #25, #16, ...

........................................................................
.............................. CYCLE  227 ..............................
........................................................................

 iter      E             dE          RMSdq      gap      omega  full diag
   1   -111.8300452 -0.111830E+03  0.297E-02    3.10       0.0  T
   2   -111.8300482 -0.300663E-05  0.173E-02    3.10       1.0  T
   3   -111.8300468  0.148792E-05  0.663E-03    3.10       1.7  T
   4   -111.8300490 -0.226018E-05  0.231E-03    3.10       5.0  T
   5   -111.8300491 -0.121891E-06  0.935E-04    3.10      12.3  T
   6   -111.8300492 -0.282971E-07  0.446E-04    3.10      25.7  T
     SCC iter.                  ...        0 min,  0.028 sec
     gradient                   ...        0 min,  0.044 sec
 * total energy  :  -110.2695982 Eh     change       -0.3340324E-03 Eh
   gradient norm :     0.0047772 Eh/α   predicted    -0.3331863E-03 (  -0.25%)
   displ. norm   :     0.2821716 α      lambda       -0.1547177E-03
   maximum displ.:     0.1279759 α      in ANC's #8, #2, #1, ...

........................................................................
.............................. CYCLE  228 ..............................
........................................................................

 iter      E             dE          RMSdq      gap      omega  full diag
   1   -111.8309048 -0.111831E+03  0.321E-02    3.10       0.0  T
   2   -111.8309054 -0.613570E-06  0.191E-02    3.10       1.0  T
   3   -111.8309049  0.435920E-06  0.330E-03    3.09       3.5  T
   4   -111.8309056 -0.610213E-06  0.117E-03    3.09       9.8  T
   5   -111.8309056 -0.455804E-07  0.537E-04    3.09      21.4  T
   6   -111.8309056 -0.259179E-08  0.240E-04    3.09      47.7  T
     SCC iter.                  ...        0 min,  0.028 sec
     gradient                   ...        0 min,  0.044 sec
 * total energy  :  -110.2697377 Eh     change       -0.1394390E-03 Eh
   gradient norm :     0.0043685 Eh/α   predicted    -0.8352126E-04 ( -40.10%)
   displ. norm   :     0.5721161 α      lambda       -0.3537107E-03
   maximum displ.:     0.2578771 α      in ANC's #2, #8, #1, ...

........................................................................
.............................. CYCLE  229 ..............................
........................................................................

 iter      E             dE          RMSdq      gap      omega  full diag
   1   -111.8319931 -0.111832E+03  0.675E-02    3.09       0.0  T
   2   -111.8319960 -0.297906E-05  0.402E-02    3.08       1.0  T
   3   -111.8319915  0.454330E-05  0.928E-03    3.08       1.2  T
   4   -111.8319973 -0.575105E-05  0.242E-03    3.07       4.7  T
   5   -111.8319974 -0.137744E-06  0.124E-03    3.07       9.2  T
   6   -111.8319974 -0.269291E-07  0.551E-04    3.08      20.8  T
   7   -111.8319974 -0.665581E-08  0.197E-04    3.08      58.1  T
     SCC iter.                  ...        0 min,  0.031 sec
     gradient                   ...        0 min,  0.043 sec
 * total energy  :  -110.2699877 Eh     change       -0.2500569E-03 Eh
   gradient norm :     0.0076907 Eh/α   predicted    -0.2347466E-03 (  -6.12%)
   displ. norm   :     0.4422628 α      lambda       -0.1867344E-03
   maximum displ.:     0.2091214 α      in ANC's #2, #1, #8, ...

........................................................................
.............................. CYCLE  230 ..............................
........................................................................

 iter      E             dE          RMSdq      gap      omega  full diag
   1   -111.8316797 -0.111832E+03  0.494E-02    3.07       0.0  T
   2   -111.8316809 -0.119528E-05  0.293E-02    3.07       1.0  T
   3   -111.8316792  0.168703E-05  0.586E-03    3.07       2.0  T
   4   -111.8316813 -0.217328E-05  0.159E-03    3.06       7.2  T
   5   -111.8316814 -0.659685E-07  0.833E-04    3.06      13.8  T
   6   -111.8316814 -0.815773E-08  0.342E-04    3.06      33.5  T
     SCC iter.                  ...        0 min,  0.031 sec
     gradient                   ...        0 min,  0.047 sec
 * total energy  :  -110.2701353 Eh     change       -0.1475434E-03 Eh
   gradient norm :     0.0073361 Eh/α   predicted    -0.1116300E-03 ( -24.34%)
   displ. norm   :     0.4087773 α      lambda       -0.2056310E-03
   maximum displ.:     0.2086265 α      in ANC's #2, #1, #3, ...

........................................................................
.............................. CYCLE  231 ..............................
........................................................................

 iter      E             dE          RMSdq      gap      omega  full diag
   1   -111.8333818 -0.111833E+03  0.451E-02    3.06       0.0  T
   2   -111.8333832 -0.149463E-05  0.267E-02    3.06       1.0  T
   3   -111.8333822  0.109625E-05  0.504E-03    3.06       2.3  T
   4   -111.8333837 -0.158270E-05  0.163E-03    3.06       7.1  T
   5   -111.8333838 -0.641818E-07  0.850E-04    3.06      13.5  T
   6   -111.8333838 -0.126423E-07  0.385E-04    3.06      29.8  T
     SCC iter.                  ...        0 min,  0.023 sec
     gradient                   ...        0 min,  0.046 sec
 * total energy  :  -110.2702770 Eh     change       -0.1417254E-03 Eh
   gradient norm :     0.0040192 Eh/α   predicted    -0.1199975E-03 ( -15.33%)
   displ. norm   :     0.6022154 α      lambda       -0.2051196E-03
   maximum displ.:     0.3038889 α      in ANC's #2, #1, #8, ...

........................................................................
.............................. CYCLE  232 ..............................
........................................................................

 iter      E             dE          RMSdq      gap      omega  full diag
   1   -111.8297502 -0.111830E+03  0.682E-02    3.05       0.0  T
   2   -111.8297519 -0.172014E-05  0.404E-02    3.05       1.0  T
   3   -111.8297501  0.179017E-05  0.615E-03    3.05       1.9  T
   4   -111.8297528 -0.262414E-05  0.170E-03    3.05       6.8  T
   5   -111.8297528 -0.227052E-07  0.843E-04    3.05      13.6  T
   6   -111.8297528 -0.101025E-07  0.346E-04    3.05      33.1  T
     SCC iter.                  ...        0 min,  0.021 sec
     gradient                   ...        0 min,  0.047 sec
 * total energy  :  -110.2704078 Eh     change       -0.1308273E-03 Eh
   gradient norm :     0.0065979 Eh/α   predicted    -0.1397553E-03 (   6.82%)
   displ. norm   :     0.2836692 α      lambda       -0.1521516E-03
   maximum displ.:     0.1586052 α      in ANC's #2, #1, #9, ...

........................................................................
.............................. CYCLE  233 ..............................
........................................................................

 iter      E             dE          RMSdq      gap      omega  full diag
   1   -111.8318790 -0.111832E+03  0.315E-02    3.04       0.0  T
   2   -111.8318798 -0.769606E-06  0.188E-02    3.04       1.0  T
   3   -111.8318781  0.173376E-05  0.491E-03    3.04       2.3  T
   4   -111.8318802 -0.209841E-05  0.109E-03    3.04      10.5  T
   5   -111.8318802 -0.198167E-07  0.621E-04    3.04      18.5  T
   6   -111.8318802 -0.115693E-07  0.273E-04    3.04      41.9  T
     SCC iter.                  ...        0 min,  0.025 sec
     gradient                   ...        0 min,  0.044 sec
 * total energy  :  -110.2705278 Eh     change       -0.1199534E-03 Eh
   gradient norm :     0.0045579 Eh/α   predicted    -0.8219852E-04 ( -31.47%)
   displ. norm   :     0.3821759 α      lambda       -0.1795736E-03
   maximum displ.:     0.2148574 α      in ANC's #2, #1, #9, ...

........................................................................
.............................. CYCLE  234 ..............................
........................................................................

 iter      E             dE          RMSdq      gap      omega  full diag
   1   -111.8332970 -0.111833E+03  0.451E-02    3.03       0.0  T
   2   -111.8332984 -0.145837E-05  0.267E-02    3.03       1.0  T
   3   -111.8332935  0.497887E-05  0.825E-03    3.03       1.4  T
   4   -111.8332993 -0.583909E-05  0.152E-03    3.03       7.6  T
   5   -111.8332993 -0.431009E-07  0.887E-04    3.03      12.9  T
   6   -111.8332994 -0.232598E-07  0.363E-04    3.03      31.6  T
     SCC iter.                  ...        0 min,  0.024 sec
     gradient                   ...        0 min,  0.047 sec
 * total energy  :  -110.2706579 Eh     change       -0.1301261E-03 Eh
   gradient norm :     0.0033830 Eh/α   predicted    -0.1029043E-03 ( -20.92%)
   displ. norm   :     0.4454647 α      lambda       -0.1497445E-03
   maximum displ.:     0.2563307 α      in ANC's #2, #1, #9, ...

........................................................................
.............................. CYCLE  235 ..............................
........................................................................

 iter      E             dE          RMSdq      gap      omega  full diag
   1   -111.8324557 -0.111832E+03  0.530E-02    3.03       0.0  T
   2   -111.8324571 -0.141141E-05  0.314E-02    3.02       1.0  T
   3   -111.8324528  0.435711E-05  0.806E-03    3.02       1.4  T
   4   -111.8324580 -0.525189E-05  0.164E-03    3.02       7.0  T
   5   -111.8324581 -0.387375E-07  0.985E-04    3.02      11.6  T
   6   -111.8324581 -0.192599E-07  0.362E-04    3.02      31.7  T
     SCC iter.                  ...        0 min,  0.030 sec
     gradient                   ...        0 min,  0.044 sec
 * total energy  :  -110.2707562 Eh     change       -0.9833414E-04 Eh
   gradient norm :     0.0054298 Eh/α   predicted    -0.8973424E-04 (  -8.75%)
   displ. norm   :     0.3554295 α      lambda       -0.1594320E-03
   maximum displ.:     0.1942158 α      in ANC's #2, #1, #9, ...

........................................................................
.............................. CYCLE  236 ..............................
........................................................................

 iter      E             dE          RMSdq      gap      omega  full diag
   1   -111.8340817 -0.111834E+03  0.460E-02    3.02       0.0  T
   2   -111.8340830 -0.131654E-05  0.271E-02    3.02       1.0  T
   3   -111.8340798  0.325621E-05  0.699E-03    3.02       1.6  T
   4   -111.8340836 -0.384754E-05  0.155E-03    3.02       7.4  T
   5   -111.8340837 -0.636694E-07  0.801E-04    3.02      14.3  T
   6   -111.8340837 -0.164025E-07  0.342E-04    3.02      33.6  T
     SCC iter.                  ...        0 min,  0.031 sec
     gradient                   ...        0 min,  0.043 sec
 * total energy  :  -110.2708481 Eh     change       -0.9190018E-04 Eh
   gradient norm :     0.0043436 Eh/α   predicted    -0.8979186E-04 (  -2.29%)
   displ. norm   :     0.3522565 α      lambda       -0.1216818E-03
   maximum displ.:     0.2074196 α      in ANC's #2, #1, #9, ...

........................................................................
.............................. CYCLE  237 ..............................
........................................................................

 iter      E             dE          RMSdq      gap      omega  full diag
   1   -111.8322695 -0.111832E+03  0.419E-02    3.02       0.0  T
   2   -111.8322705 -0.960524E-06  0.248E-02    3.02       1.0  T
   3   -111.8322683  0.218708E-05  0.580E-03    3.02       2.0  T
   4   -111.8322710 -0.270897E-05  0.117E-03    3.02       9.8  T
   5   -111.8322710 -0.179418E-07  0.718E-04    3.02      16.0  T
   6   -111.8322710 -0.127085E-07  0.271E-04    3.02      42.4  T
     SCC iter.                  ...        0 min,  0.033 sec
     gradient                   ...        0 min,  0.037 sec
 * total energy  :  -110.2709331 Eh     change       -0.8498782E-04 Eh
   gradient norm :     0.0037719 Eh/α   predicted    -0.6839357E-04 ( -19.53%)
   displ. norm   :     0.2728565 α      lambda       -0.1161526E-03
   maximum displ.:     0.1544847 α      in ANC's #2, #1, #3, ...

........................................................................
.............................. CYCLE  238 ..............................
........................................................................

 iter      E             dE          RMSdq      gap      omega  full diag
   1   -111.8334172 -0.111833E+03  0.325E-02    3.02       0.0  T
   2   -111.8334181 -0.892779E-06  0.192E-02    3.02       1.0  T
   3   -111.8334177  0.392092E-06  0.332E-03    3.02       3.5  T
   4   -111.8334184 -0.658525E-06  0.107E-03    3.02      10.7  T
   5   -111.8334184 -0.259343E-07  0.517E-04    3.02      22.2  T
   6   -111.8334184 -0.396167E-08  0.228E-04    3.02      50.2  T
     SCC iter.                  ...        0 min,  0.023 sec
     gradient                   ...        0 min,  0.048 sec
 * total energy  :  -110.2710064 Eh     change       -0.7326468E-04 Eh
   gradient norm :     0.0036831 Eh/α   predicted    -0.6240174E-04 ( -14.83%)
   displ. norm   :     0.4012355 α      lambda       -0.1008502E-03
   maximum displ.:     0.2383445 α      in ANC's #2, #1, #3, ...

........................................................................
.............................. CYCLE  239 ..............................
........................................................................

 iter      E             dE          RMSdq      gap      omega  full diag
   1   -111.8314547 -0.111831E+03  0.406E-02    3.01       0.0  T
   2   -111.8314556 -0.916507E-06  0.239E-02    3.01       1.0  T
   3   -111.8314544  0.128474E-05  0.494E-03    3.01       2.3  T
   4   -111.8314560 -0.164155E-05  0.123E-03    3.01       9.3  T
   5   -111.8314560 -0.378349E-07  0.653E-04    3.01      17.6  T
   6   -111.8314560 -0.616669E-08  0.291E-04    3.01      39.4  T
     SCC iter.                  ...        0 min,  0.021 sec
     gradient                   ...        0 min,  0.048 sec
 * total energy  :  -110.2710421 Eh     change       -0.3573855E-04 Eh
   gradient norm :     0.0078355 Eh/α   predicted    -0.5854730E-04 (  63.82%)
   displ. norm   :     0.1072287 α      lambda       -0.8083088E-04
   maximum displ.:     0.0526969 α      in ANC's #2, #8, #1, ...

........................................................................
.............................. CYCLE  240 ..............................
........................................................................

 iter      E             dE          RMSdq      gap      omega  full diag
   1   -111.8330366 -0.111833E+03  0.128E-02    3.01       0.0  T
   2   -111.8330369 -0.325478E-06  0.744E-03    3.01       1.5  T
   3   -111.8330367  0.212408E-06  0.223E-03    3.01       5.1  T
   4   -111.8330370 -0.310573E-06  0.616E-04    3.01      18.6  T
   5   -111.8330370 -0.103849E-07  0.274E-04    3.01      41.9  T
     SCC iter.                  ...        0 min,  0.022 sec
     gradient                   ...        0 min,  0.041 sec
 * total energy  :  -110.2710954 Eh     change       -0.5325807E-04 Eh
   gradient norm :     0.0031961 Eh/α   predicted    -0.4088183E-04 ( -23.24%)
   displ. norm   :     0.2810712 α      lambda       -0.6380678E-04
   maximum displ.:     0.1759616 α      in ANC's #2, #1, #3, ...

........................................................................
.............................. CYCLE  241 ..............................
........................................................................

 iter      E             dE          RMSdq      gap      omega  full diag
   1   -111.8329358 -0.111833E+03  0.261E-02    3.00       0.0  T
   2   -111.8329363 -0.561984E-06  0.154E-02    3.00       1.0  T
   3   -111.8329352  0.112851E-05  0.415E-03    3.00       2.8  T
   4   -111.8329366 -0.138871E-05  0.894E-04    3.00      12.8  T
   5   -111.8329366 -0.181117E-07  0.531E-04    3.00      21.6  T
   6   -111.8329366 -0.604484E-08  0.247E-04    3.00      46.5  T
     SCC iter.                  ...        0 min,  0.025 sec
     gradient                   ...        0 min,  0.041 sec
 * total energy  :  -110.2711415 Eh     change       -0.4610177E-04 Eh
   gradient norm :     0.0026035 Eh/α   predicted    -0.3442577E-04 ( -25.33%)
   displ. norm   :     0.3723891 α      lambda       -0.5765280E-04
   maximum displ.:     0.2337541 α      in ANC's #2, #1, #3, ...

........................................................................
.............................. CYCLE  242 ..............................
........................................................................

 iter      E             dE          RMSdq      gap      omega  full diag
   1   -111.8333680 -0.111833E+03  0.323E-02    3.00       0.0  T
   2   -111.8333687 -0.699125E-06  0.190E-02    3.00       1.0  T
   3   -111.8333672  0.141952E-05  0.449E-03    3.00       2.6  T
   4   -111.8333690 -0.177257E-05  0.912E-04    3.00      12.6  T
   5   -111.8333690 -0.102602E-07  0.545E-04    3.00      21.1  T
   6   -111.8333690 -0.671548E-08  0.245E-04    3.00      46.9  T
     SCC iter.                  ...        0 min,  0.027 sec
     gradient                   ...        0 min,  0.044 sec
 * total energy  :  -110.2711827 Eh     change       -0.4123056E-04 Eh
   gradient norm :     0.0029555 Eh/α   predicted    -0.3282898E-04 ( -20.38%)
   displ. norm   :     0.3782331 α      lambda       -0.4137558E-04
   maximum displ.:     0.2369786 α      in ANC's #2, #1, #3, ...

........................................................................
.............................. CYCLE  243 ..............................
........................................................................

 iter      E             dE          RMSdq      gap      omega  full diag
   1   -111.8321123 -0.111832E+03  0.324E-02    2.99       0.0  T
   2   -111.8321129 -0.586788E-06  0.191E-02    2.99       1.0  T
   3   -111.8321116  0.127412E-05  0.438E-03    2.99       2.6  T
   4   -111.8321132 -0.159517E-05  0.888E-04    2.99      12.9  T
   5   -111.8321132 -0.825848E-08  0.526E-04    2.99      21.8  T
   6   -111.8321132 -0.643493E-08  0.205E-04    2.99      56.0  T
     SCC iter.                  ...        0 min,  0.028 sec
     gradient                   ...        0 min,  0.044 sec
 * total energy  :  -110.2712093 Eh     change       -0.2659087E-04 Eh
   gradient norm :     0.0026428 Eh/α   predicted    -0.2364921E-04 ( -11.06%)
   displ. norm   :     0.2423925 α      lambda       -0.3011925E-04
   maximum displ.:     0.1542241 α      in ANC's #2, #1, #3, ...

........................................................................
.............................. CYCLE  244 ..............................
........................................................................

 iter      E             dE          RMSdq      gap      omega  full diag
   1   -111.8337363 -0.111834E+03  0.197E-02    2.99       0.0  T
   2   -111.8337366 -0.304076E-06  0.117E-02    2.99       1.0  T
   3   -111.8337361  0.496726E-06  0.282E-03    2.99       4.1  T
   4   -111.8337367 -0.656877E-06  0.610E-04    2.99      18.8  T
   5   -111.8337367 -0.235619E-08  0.306E-04    2.99      37.5  T
     SCC iter.                  ...        0 min,  0.024 sec
     gradient                   ...        0 min,  0.042 sec
 * total energy  :  -110.2712283 Eh     change       -0.1905747E-04 Eh
   gradient norm :     0.0024748 Eh/α   predicted    -0.1594790E-04 ( -16.32%)
   displ. norm   :     0.1647396 α      lambda       -0.2126265E-04
   maximum displ.:     0.1046743 α      in ANC's #2, #1, #3, ...

........................................................................
.............................. CYCLE  245 ..............................
........................................................................

 iter      E             dE          RMSdq      gap      omega  full diag
   1   -111.8338109 -0.111834E+03  0.134E-02    2.99       0.0  T
   2   -111.8338111 -0.187420E-06  0.787E-03    2.99       1.5  T
   3   -111.8338107  0.346471E-06  0.256E-03    2.99       4.5  T
   4   -111.8338112 -0.436410E-06  0.513E-04    2.99      22.4  T
   5   -111.8338112 -0.524631E-08  0.286E-04    2.99      40.1  T
     SCC iter.                  ...        0 min,  0.022 sec
     gradient                   ...        0 min,  0.043 sec
 * total energy  :  -110.2712433 Eh     change       -0.1498391E-04 Eh
   gradient norm :     0.0014056 Eh/α   predicted    -0.1092350E-04 ( -27.10%)
   displ. norm   :     0.2446164 α      lambda       -0.1673672E-04
   maximum displ.:     0.1610609 α      in ANC's #2, #1, #3, ...

........................................................................
.............................. CYCLE  246 ..............................
........................................................................

 iter      E             dE          RMSdq      gap      omega  full diag
   1   -111.8333717 -0.111833E+03  0.208E-02    2.99       0.0  T
   2   -111.8333721 -0.370414E-06  0.123E-02    2.99       1.0  T
   3   -111.8333715  0.550906E-06  0.319E-03    2.99       3.6  T
   4   -111.8333723 -0.733117E-06  0.767E-04    2.99      15.0  T
   5   -111.8333723 -0.873214E-08  0.428E-04    2.99      26.8  T
     SCC iter.                  ...        0 min,  0.021 sec
     gradient                   ...        0 min,  0.039 sec
 * total energy  :  -110.2712564 Eh     change       -0.1311009E-04 Eh
   gradient norm :     0.0020665 Eh/α   predicted    -0.8595844E-05 ( -34.43%)
   displ. norm   :     0.0507620 α      lambda       -0.1107128E-04
   maximum displ.:     0.0313348 α      in ANC's #9, #17, #21, ...

........................................................................
.............................. CYCLE  247 ..............................
........................................................................

 iter      E             dE          RMSdq      gap      omega  full diag
   1   -111.8342472 -0.111834E+03  0.796E-03    2.99       0.0  T
   2   -111.8342472 -0.444165E-07  0.468E-03    2.99       2.5  T
   3   -111.8342472  0.196919E-07  0.696E-04    2.99      16.5  T
   4   -111.8342472 -0.298876E-07  0.251E-04    2.99      45.6  T
     SCC iter.                  ...        0 min,  0.021 sec
     gradient                   ...        0 min,  0.044 sec
 * total energy  :  -110.2712640 Eh     change       -0.7572244E-05 Eh
   gradient norm :     0.0018187 Eh/α   predicted    -0.5554289E-05 ( -26.65%)
   displ. norm   :     0.2380179 α      lambda       -0.1978437E-04
   maximum displ.:     0.1575005 α      in ANC's #2, #1, #3, ...

........................................................................
.............................. CYCLE  248 ..............................
........................................................................

 iter      E             dE          RMSdq      gap      omega  full diag
   1   -111.8334887 -0.111833E+03  0.210E-02    2.99       0.0  T
   2   -111.8334892 -0.449161E-06  0.124E-02    2.99       1.0  T
   3   -111.8334884  0.739553E-06  0.332E-03    2.99       3.5  T
   4   -111.8334893 -0.912914E-06  0.756E-04    2.99      15.2  T
   5   -111.8334894 -0.182104E-07  0.373E-04    2.99      30.7  T
     SCC iter.                  ...        0 min,  0.025 sec
     gradient                   ...        0 min,  0.044 sec
 * total energy  :  -110.2712806 Eh     change       -0.1658982E-04 Eh
   gradient norm :     0.0018310 Eh/α   predicted    -0.1014524E-04 ( -38.85%)
   displ. norm   :     0.1173205 α      lambda       -0.1081176E-04
   maximum displ.:     0.0773782 α      in ANC's #2, #1, #3, ...

........................................................................
.............................. CYCLE  249 ..............................
........................................................................

 iter      E             dE          RMSdq      gap      omega  full diag
   1   -111.8341276 -0.111834E+03  0.131E-02    2.99       0.0  T
   2   -111.8341278 -0.176080E-06  0.777E-03    2.99       1.5  T
   3   -111.8341276  0.133605E-06  0.173E-03    2.99       6.6  T
   4   -111.8341278 -0.179897E-06  0.546E-04    2.99      21.0  T
   5   -111.8341278 -0.112381E-07  0.280E-04    2.99      41.0  T
     SCC iter.                  ...        0 min,  0.021 sec
     gradient                   ...        0 min,  0.045 sec
 * total energy  :  -110.2712902 Eh     change       -0.9606712E-05 Eh
   gradient norm :     0.0018742 Eh/α   predicted    -0.5441044E-05 ( -43.36%)
   displ. norm   :     0.1390535 α      lambda       -0.1006111E-04
   maximum displ.:     0.0943008 α      in ANC's #2, #1, #3, ...

........................................................................
.............................. CYCLE  250 ..............................
........................................................................

 iter      E             dE          RMSdq      gap      omega  full diag
   1   -111.8340996 -0.111834E+03  0.147E-02    2.99       0.0  T
   2   -111.8340997 -0.127768E-06  0.869E-03    2.99       1.3  T
   3   -111.8340997  0.566971E-07  0.122E-03    2.99       9.4  T
   4   -111.8340998 -0.998178E-07  0.464E-04    2.99      24.7  T
   5   -111.8340998 -0.542327E-08  0.257E-04    2.99      44.6  T
     SCC iter.                  ...        0 min,  0.024 sec
     gradient                   ...        0 min,  0.046 sec
 * total energy  :  -110.2712997 Eh     change       -0.9454353E-05 Eh
   gradient norm :     0.0014119 Eh/α   predicted    -0.5077506E-05 ( -46.29%)
   displ. norm   :     0.1215084 α      lambda       -0.7965557E-05
   maximum displ.:     0.0806429 α      in ANC's #2, #1, #3, ...

........................................................................
.............................. CYCLE  251 ..............................
........................................................................

 iter      E             dE          RMSdq      gap      omega  full diag
   1   -111.8339978 -0.111834E+03  0.135E-02    2.99       0.0  T
   2   -111.8339979 -0.100156E-06  0.794E-03    2.99       1.4  T
   3   -111.8339979  0.507668E-07  0.108E-03    2.99      10.6  T
   4   -111.8339980 -0.816793E-07  0.359E-04    2.99      32.0  T
   5   -111.8339980 -0.293441E-08  0.194E-04    2.99      59.1  T
     SCC iter.                  ...        0 min,  0.029 sec
     gradient                   ...        0 min,  0.041 sec
 * total energy  :  -110.2713065 Eh     change       -0.6882792E-05 Eh
   gradient norm :     0.0013284 Eh/α   predicted    -0.4011153E-05 ( -41.72%)
   displ. norm   :     0.1310400 α      lambda       -0.7193449E-05
   maximum displ.:     0.0838185 α      in ANC's #2, #1, #8, ...

........................................................................
.............................. CYCLE  252 ..............................
........................................................................

 iter      E             dE          RMSdq      gap      omega  full diag
   1   -111.8341328 -0.111834E+03  0.158E-02    3.00       0.0  T
   2   -111.8341329 -0.110308E-06  0.935E-03    3.00       1.2  T
   3   -111.8341328  0.129463E-06  0.147E-03    3.00       7.8  T
   4   -111.8341329 -0.181105E-06  0.436E-04    3.00      26.3  T
   5   -111.8341329 -0.341817E-08  0.246E-04    3.00      46.6  T
     SCC iter.                  ...        0 min,  0.022 sec
     gradient                   ...        0 min,  0.044 sec
 * total energy  :  -110.2713131 Eh     change       -0.6546644E-05 Eh
   gradient norm :     0.0014472 Eh/α   predicted    -0.3627346E-05 ( -44.59%)
   displ. norm   :     0.1039427 α      lambda       -0.7154802E-05
   maximum displ.:     0.0505182 α      in ANC's #2, #4, #8, ...

........................................................................
.............................. CYCLE  253 ..............................
........................................................................

 iter      E             dE          RMSdq      gap      omega  full diag
   1   -111.8342258 -0.111834E+03  0.149E-02    3.00       0.0  T
   2   -111.8342259 -0.804462E-07  0.877E-03    3.00       1.3  T
   3   -111.8342257  0.195060E-06  0.166E-03    3.00       6.9  T
   4   -111.8342259 -0.235377E-06  0.315E-04    3.00      36.4  T
   5   -111.8342259 -0.234036E-08  0.174E-04    3.00      65.8  T
     SCC iter.                  ...        0 min,  0.025 sec
     gradient                   ...        0 min,  0.038 sec
 * total energy  :  -110.2713205 Eh     change       -0.7355179E-05 Eh
   gradient norm :     0.0011656 Eh/α   predicted    -0.3597706E-05 ( -51.09%)
   displ. norm   :     0.1411120 α      lambda       -0.9003623E-05
   maximum displ.:     0.0653185 α      in ANC's #2, #4, #13, ...

........................................................................
.............................. CYCLE  254 ..............................
........................................................................

 iter      E             dE          RMSdq      gap      omega  full diag
   1   -111.8338380 -0.111834E+03  0.195E-02    3.00       0.0  T
   2   -111.8338381 -0.129956E-06  0.115E-02    3.00       1.0  T
   3   -111.8338380  0.172281E-06  0.167E-03    3.00       6.8  T
   4   -111.8338382 -0.221851E-06  0.423E-04    3.00      27.1  T
   5   -111.8338382 -0.481985E-08  0.221E-04    3.00      52.0  T
     SCC iter.                  ...        0 min,  0.022 sec
     gradient                   ...        0 min,  0.044 sec
 * total energy  :  -110.2713292 Eh     change       -0.8716050E-05 Eh
   gradient norm :     0.0014032 Eh/α   predicted    -0.4546136E-05 ( -47.84%)
   displ. norm   :     0.1188224 α      lambda       -0.7541921E-05
   maximum displ.:     0.0567618 α      in ANC's #13, #4, #9, ...

........................................................................
.............................. CYCLE  255 ..............................
........................................................................

 iter      E             dE          RMSdq      gap      omega  full diag
   1   -111.8339373 -0.111834E+03  0.160E-02    3.00       0.0  T
   2   -111.8339374 -0.100473E-06  0.942E-03    3.00       1.2  T
   3   -111.8339372  0.241580E-06  0.200E-03    3.00       5.7  T
   4   -111.8339375 -0.284891E-06  0.380E-04    3.00      30.2  T
   5   -111.8339375 -0.459238E-08  0.205E-04    3.00      56.1  T
     SCC iter.                  ...        0 min,  0.031 sec
     gradient                   ...        0 min,  0.045 sec
 * total energy  :  -110.2713361 Eh     change       -0.6887586E-05 Eh
   gradient norm :     0.0012463 Eh/α   predicted    -0.3797933E-05 ( -44.86%)
   displ. norm   :     0.1031333 α      lambda       -0.7031054E-05
   maximum displ.:     0.0534823 α      in ANC's #4, #9, #13, ...

........................................................................
.............................. CYCLE  256 ..............................
........................................................................

 iter      E             dE          RMSdq      gap      omega  full diag
   1   -111.8340167 -0.111834E+03  0.146E-02    3.00       0.0  T
   2   -111.8340168 -0.763979E-07  0.858E-03    3.00       1.3  T
   3   -111.8340166  0.149648E-06  0.156E-03    3.00       7.4  T
   4   -111.8340168 -0.183301E-06  0.298E-04    3.00      38.5  T
   5   -111.8340168 -0.207378E-08  0.175E-04    3.00      65.6  T
     SCC iter.                  ...        0 min,  0.023 sec
     gradient                   ...        0 min,  0.042 sec
 * total energy  :  -110.2713429 Eh     change       -0.6833094E-05 Eh
   gradient norm :     0.0010914 Eh/α   predicted    -0.3536832E-05 ( -48.24%)
   displ. norm   :     0.0849112 α      lambda       -0.5158334E-05
   maximum displ.:     0.0454731 α      in ANC's #4, #9, #13, ...

........................................................................
.............................. CYCLE  257 ..............................
........................................................................

 iter      E             dE          RMSdq      gap      omega  full diag
   1   -111.8338929 -0.111834E+03  0.119E-02    3.00       0.0  T
   2   -111.8338929 -0.586963E-07  0.700E-03    3.00       1.6  T
   3   -111.8338928  0.890969E-07  0.119E-03    3.00       9.6  T
   4   -111.8338929 -0.110957E-06  0.231E-04    3.00      49.7  T
   5   -111.8338929 -0.135840E-08  0.125E-04    3.00      91.6  T
     SCC iter.                  ...        0 min,  0.022 sec
     gradient                   ...        0 min,  0.045 sec
 * total energy  :  -110.2713481 Eh     change       -0.5233216E-05 Eh
   gradient norm :     0.0010128 Eh/α   predicted    -0.2590022E-05 ( -50.51%)
   displ. norm   :     0.0946163 α      lambda       -0.4690572E-05
   maximum displ.:     0.0538508 α      in ANC's #4, #9, #5, ...

........................................................................
.............................. CYCLE  258 ..............................
........................................................................

 iter      E             dE          RMSdq      gap      omega  full diag
   1   -111.8338115 -0.111834E+03  0.133E-02    3.00       0.0  T
   2   -111.8338115 -0.608438E-07  0.781E-03    3.00       1.5  T
   3   -111.8338114  0.121564E-06  0.134E-03    3.00       8.5  T
   4   -111.8338115 -0.150399E-06  0.244E-04    3.00      46.9  T
   5   -111.8338115 -0.872106E-09  0.138E-04    3.00      83.3  T
     SCC iter.                  ...        0 min,  0.023 sec
     gradient                   ...        0 min,  0.044 sec
 * total energy  :  -110.2713521 Eh     change       -0.3977128E-05 Eh
   gradient norm :     0.0010415 Eh/α   predicted    -0.2358148E-05 ( -40.71%)
   displ. norm   :     0.0862457 α      lambda       -0.3103145E-05
   maximum displ.:     0.0420935 α      in ANC's #2, #1, #4, ...
 * RMSD in coord.:     0.8583526 α      energy gain  -0.3125175E-02 Eh

generating ANC from exact Hessian ...
Using Lindh-Hessian (1995)
 Shifting diagonal of input Hessian by   1.009774230306775E-002
 Lowest  eigenvalues of input Hessian
    0.010000    0.000000    0.000000    0.000000    0.000000    0.000000
    0.000000    0.010175    0.010220    0.010251    0.010380    0.010453
    0.010587    0.010592    0.010745    0.010905    0.011121    0.011182
 Highest eigenvalues
    2.034466    2.070630    2.079912    2.209245    2.315613    2.346740
 

........................................................................
.............................. CYCLE  259 ..............................
........................................................................

 iter      E             dE          RMSdq      gap      omega  full diag
   1   -111.8335790 -0.111834E+03  0.106E-02    3.00       0.0  T
   2   -111.8335791 -0.447462E-07  0.626E-03    3.00       1.8  T
   3   -111.8335790  0.386607E-07  0.826E-04    3.00      13.9  T
   4   -111.8335791 -0.555134E-07  0.265E-04    3.00      43.4  T
     SCC iter.                  ...        0 min,  0.019 sec
     gradient                   ...        0 min,  0.039 sec
 * total energy  :  -110.2713549 Eh     change       -0.2762557E-05 Eh
   gradient norm :     0.0009306 Eh/α   predicted     0.0000000E+00 (-100.00%)
   displ. norm   :     0.0204454 α      lambda       -0.3522716E-05
   maximum displ.:     0.0073726 α      in ANC's #6, #18, #17, ...

........................................................................
.............................. CYCLE  260 ..............................
........................................................................

 iter      E             dE          RMSdq      gap      omega  full diag
   1   -111.8340983 -0.111834E+03  0.494E-03    3.00       0.0  T
   2   -111.8340984 -0.327676E-07  0.301E-03    3.00       3.8  T
   3   -111.8340983  0.952971E-07  0.134E-03    3.00       8.6  T
   4   -111.8340984 -0.118169E-06  0.215E-04    3.00      53.2  T
   5   -111.8340984 -0.943842E-09  0.116E-04    3.00      99.2  T
     SCC iter.                  ...        0 min,  0.021 sec
     gradient                   ...        0 min,  0.050 sec
 * total energy  :  -110.2713588 Eh     change       -0.3963213E-05 Eh
   gradient norm :     0.0003286 Eh/α   predicted    -0.1796622E-05 ( -54.67%)
   displ. norm   :     0.0474709 α      lambda       -0.4512643E-05
   maximum displ.:     0.0193117 α      in ANC's #6, #18, #5, ...

........................................................................
.............................. CYCLE  261 ..............................
........................................................................

 iter      E             dE          RMSdq      gap      omega  full diag
   1   -111.8342378 -0.111834E+03  0.973E-03    3.00       0.0  T
   2   -111.8342379 -0.894635E-07  0.595E-03    3.00       1.9  T
   3   -111.8342376  0.277396E-06  0.217E-03    3.00       5.3  T
   4   -111.8342380 -0.340324E-06  0.349E-04    3.00      32.9  T
   5   -111.8342380 -0.166652E-08  0.192E-04    3.00      59.6  T
     SCC iter.                  ...        0 min,  0.021 sec
     gradient                   ...        0 min,  0.047 sec
 * total energy  :  -110.2713636 Eh     change       -0.4764484E-05 Eh
   gradient norm :     0.0006258 Eh/α   predicted    -0.2258710E-05 ( -52.59%)
   displ. norm   :     0.0603090 α      lambda       -0.3814268E-05
   maximum displ.:     0.0266648 α      in ANC's #6, #5, #4, ...

........................................................................
.............................. CYCLE  262 ..............................
........................................................................

 iter      E             dE          RMSdq      gap      omega  full diag
   1   -111.8340629 -0.111834E+03  0.106E-02    3.00       0.0  T
   2   -111.8340630 -0.104069E-06  0.651E-03    3.00       1.8  T
   3   -111.8340628  0.251761E-06  0.201E-03    3.00       5.7  T
   4   -111.8340631 -0.315165E-06  0.378E-04    3.00      30.3  T
   5   -111.8340631 -0.246270E-08  0.205E-04    3.00      55.8  T
     SCC iter.                  ...        0 min,  0.023 sec
     gradient                   ...        0 min,  0.056 sec
 * total energy  :  -110.2713675 Eh     change       -0.3913271E-05 Eh
   gradient norm :     0.0010187 Eh/α   predicted    -0.1910348E-05 ( -51.18%)
   displ. norm   :     0.0719395 α      lambda       -0.4261080E-05
   maximum displ.:     0.0329040 α      in ANC's #6, #5, #4, ...

........................................................................
.............................. CYCLE  263 ..............................
........................................................................

 iter      E             dE          RMSdq      gap      omega  full diag
   1   -111.8338872 -0.111834E+03  0.114E-02    3.00       0.0  T
   2   -111.8338873 -0.121758E-06  0.697E-03    3.00       1.6  T
   3   -111.8338871  0.188835E-06  0.178E-03    3.00       6.5  T
   4   -111.8338874 -0.251875E-06  0.432E-04    3.00      26.6  T
   5   -111.8338874 -0.359476E-08  0.236E-04    3.00      48.6  T
     SCC iter.                  ...        0 min,  0.028 sec
     gradient                   ...        0 min,  0.072 sec
 * total energy  :  -110.2713718 Eh     change       -0.4288446E-05 Eh
   gradient norm :     0.0010993 Eh/α   predicted    -0.2135701E-05 ( -50.20%)
   displ. norm   :     0.0845759 α      lambda       -0.5613808E-05
   maximum displ.:     0.0406869 α      in ANC's #6, #5, #4, ...

........................................................................
.............................. CYCLE  264 ..............................
........................................................................

 iter      E             dE          RMSdq      gap      omega  full diag
   1   -111.8338364 -0.111834E+03  0.108E-02    3.00       0.0  T
   2   -111.8338365 -0.130088E-06  0.655E-03    3.00       1.8  T
   3   -111.8338364  0.145431E-06  0.166E-03    3.00       6.9  T
   4   -111.8338366 -0.200600E-06  0.456E-04    3.00      25.1  T
   5   -111.8338366 -0.403827E-08  0.247E-04    3.00      46.4  T
     SCC iter.                  ...        0 min,  0.036 sec
     gradient                   ...        0 min,  0.068 sec
 * total energy  :  -110.2713767 Eh     change       -0.4949688E-05 Eh
   gradient norm :     0.0006315 Eh/α   predicted    -0.2822009E-05 ( -42.99%)
   displ. norm   :     0.0680876 α      lambda       -0.3544583E-05
   maximum displ.:     0.0344207 α      in ANC's #6, #5, #4, ...

........................................................................
.............................. CYCLE  265 ..............................
........................................................................

 iter      E             dE          RMSdq      gap      omega  full diag
   1   -111.8338873 -0.111834E+03  0.825E-03    3.00       0.0  T
   2   -111.8338874 -0.670319E-07  0.505E-03    3.00       2.3  T
   3   -111.8338873  0.123360E-06  0.143E-03    3.00       8.0  T
   4   -111.8338874 -0.162145E-06  0.310E-04    3.00      37.0  T
   5   -111.8338874 -0.131588E-08  0.187E-04    3.00      61.3  T
     SCC iter.                  ...        0 min,  0.026 sec
     gradient                   ...        0 min,  0.056 sec
 * total energy  :  -110.2713803 Eh     change       -0.3535399E-05 Eh
   gradient norm :     0.0005767 Eh/α   predicted    -0.1780237E-05 ( -49.65%)
   displ. norm   :     0.0632409 α      lambda       -0.2758565E-05
   maximum displ.:     0.0343744 α      in ANC's #6, #5, #4, ...

........................................................................
.............................. CYCLE  266 ..............................
........................................................................

 iter      E             dE          RMSdq      gap      omega  full diag
   1   -111.8340978 -0.111834E+03  0.680E-03    3.00       0.0  T
   2   -111.8340978 -0.292433E-07  0.411E-03    3.00       2.8  T
   3   -111.8340978  0.239648E-07  0.740E-04    3.00      15.5  T
   4   -111.8340979 -0.390478E-07  0.220E-04    3.00      52.1  T
     SCC iter.                  ...        0 min,  0.023 sec
     gradient                   ...        0 min,  0.050 sec
 * total energy  :  -110.2713835 Eh     change       -0.3232573E-05 Eh
   gradient norm :     0.0003995 Eh/α   predicted    -0.1382488E-05 ( -57.23%)
   displ. norm   :     0.0902890 α      lambda       -0.3380894E-05
   maximum displ.:     0.0495792 α      in ANC's #6, #5, #4, ...

........................................................................
.............................. CYCLE  267 ..............................
........................................................................

 iter      E             dE          RMSdq      gap      omega  full diag
   1   -111.8340856 -0.111834E+03  0.107E-02    2.99       0.0  T
   2   -111.8340857 -0.890317E-07  0.650E-03    2.99       1.8  T
   3   -111.8340854  0.272925E-06  0.210E-03    2.99       5.5  T
   4   -111.8340858 -0.339398E-06  0.345E-04    2.99      33.3  T
   5   -111.8340858 -0.673253E-09  0.205E-04    2.99      56.1  T
     SCC iter.                  ...        0 min,  0.030 sec
     gradient                   ...        0 min,  0.052 sec
 * total energy  :  -110.2713867 Eh     change       -0.3240941E-05 Eh
   gradient norm :     0.0010120 Eh/α   predicted    -0.1698252E-05 ( -47.60%)
   displ. norm   :     0.1094738 α      lambda       -0.5152645E-05
   maximum displ.:     0.0562554 α      in ANC's #6, #5, #4, ...

........................................................................
.............................. CYCLE  268 ..............................
........................................................................

 iter      E             dE          RMSdq      gap      omega  full diag
   1   -111.8344223 -0.111834E+03  0.120E-02    2.99       0.0  T
   2   -111.8344225 -0.166663E-06  0.721E-03    2.99       1.6  T
   3   -111.8344221  0.379757E-06  0.253E-03    2.99       4.5  T
   4   -111.8344226 -0.483879E-06  0.574E-04    2.99      20.0  T
   5   -111.8344226 -0.427674E-08  0.347E-04    2.99      33.1  T
     SCC iter.                  ...        0 min,  0.025 sec
     gradient                   ...        0 min,  0.049 sec
 * total energy  :  -110.2713853 Eh     change        0.1474855E-05 Eh
   gradient norm :     0.0022681 Eh/α   predicted    -0.2593231E-05 (-275.83%)
   displ. norm   :     0.0239360 α      lambda       -0.6013079E-05
   maximum displ.:     0.0094645 α      in ANC's #6, #25, #5, ...

........................................................................
.............................. CYCLE  269 ..............................
........................................................................

 iter      E             dE          RMSdq      gap      omega  full diag
   1   -111.8341930 -0.111834E+03  0.461E-03    2.99       0.0  T
   2   -111.8341930 -0.150423E-07  0.281E-03    2.99       4.1  T
   3   -111.8341930  0.338980E-07  0.740E-04    2.99      15.5  T
   4   -111.8341931 -0.423801E-07  0.159E-04    2.99      72.3  T
     SCC iter.                  ...        0 min,  0.023 sec
     gradient                   ...        0 min,  0.049 sec
 * total energy  :  -110.2713893 Eh     change       -0.4032717E-05 Eh
   gradient norm :     0.0006224 Eh/α   predicted    -0.3010815E-05 ( -25.34%)
   displ. norm   :     0.0235390 α      lambda       -0.2018485E-05
   maximum displ.:     0.0077077 α      in ANC's #25, #4, #6, ...

........................................................................
.............................. CYCLE  270 ..............................
........................................................................

 iter      E             dE          RMSdq      gap      omega  full diag
   1   -111.8341194 -0.111834E+03  0.484E-03    2.99       0.0  T
   2   -111.8341194 -0.263638E-07  0.296E-03    2.99       3.9  T
   3   -111.8341194  0.417823E-07  0.853E-04    2.99      13.5  T
   4   -111.8341195 -0.552381E-07  0.207E-04    2.99      55.4  T
     SCC iter.                  ...        0 min,  0.017 sec
     gradient                   ...        0 min,  0.050 sec
 * total energy  :  -110.2713906 Eh     change       -0.1290355E-05 Eh
   gradient norm :     0.0009556 Eh/α   predicted    -0.1013359E-05 ( -21.47%)
   displ. norm   :     0.0092715 α      lambda       -0.7433501E-06
   maximum displ.:     0.0042899 α      in ANC's #9, #19, #1, ...

........................................................................
.............................. CYCLE  271 ..............................
........................................................................

 iter      E             dE          RMSdq      gap      omega  full diag
   1   -111.8341732 -0.111834E+03  0.151E-03    2.99       0.0  T
   2   -111.8341732 -0.345088E-08  0.901E-04    2.99      12.7  T
   3   -111.8341732  0.500563E-08  0.308E-04    2.99      37.3  T
     SCC iter.                  ...        0 min,  0.014 sec
     gradient                   ...        0 min,  0.048 sec
 * total energy  :  -110.2713914 Eh     change       -0.8408674E-06 Eh
   gradient norm :     0.0004147 Eh/α   predicted    -0.3740034E-06 ( -55.52%)
   displ. norm   :     0.0437972 α      lambda       -0.9670091E-06
   maximum displ.:     0.0198609 α      in ANC's #6, #4, #1, ...

   *** GEOMETRY OPTIMIZATION CONVERGED AFTER 271 ITERATIONS ***

------------------------------------------------------------------------
 total energy gain   :        -0.2196611 Eh     -137.8394 kcal/mol
 total RMSD          :         4.0168257 a0        2.1256 Å
 total power (kW/mol):        -2.1281186 (step)  -23.7911 (real)
------------------------------------------------------------------------

 ANCopt (total)                0 d,  0 h,  0 min, 24.241 sec
 optimizer setup                ...        0 min,  0.003 sec (  0.012%)
 model hessian                  ...        0 min,  0.298 sec (  1.229%)
 ANC generation                 ...        0 min,  0.064 sec (  0.264%)
 coordinate transformation      ...        0 min,  0.020 sec (  0.083%)
 single point calculation       ...        0 min, 23.654 sec ( 97.578%)
 optimization log               ...        0 min,  0.131 sec (  0.540%)
 hessian update                 ...        0 min,  0.006 sec (  0.025%)
 rational function              ...        0 min,  0.058 sec (  0.239%)

================
 final structure:
================
76
 xtb: 6.7.1pre (5071a88)
N           -0.17744194601222        0.30131489954650       -0.16117855762595
C            1.21226895559693        0.22197173503731        0.10851488429233
C            1.88822526733905        1.31663633888503        0.63875426166955
C            3.26714893626243        1.31560434891734        0.67381696066406
C            3.98804101274185        0.21871879974347        0.22036894265339
C            3.29947438338962       -0.93291067873925       -0.13765917693298
C            1.92051569984263       -0.93602490487075       -0.19169953059623
C            5.43917443281354        0.35721656674985       -0.12162747651194
C            5.49276705260314        0.95590539324392       -1.55817496923988
C           -0.52512824505482        1.22450030869478       -1.25787884981758
C           -0.14288559125659        2.64268307188675       -0.94869483031658
C           -0.87892748762754        3.49073236704026       -0.24886810205941
C           -0.47852791535022        4.89686451221878        0.04726178667679
C           -1.55872685920565        5.89321573171257       -0.38004995870740
C           -1.15790617878402        7.32312200631040       -0.04434364469234
O            0.03234418273721        0.80626184719722       -2.47990232690261
N           -0.75429156553495        2.97288234326090        3.46149930309952
C           -1.38384411741734        4.17890144847342        3.39496944456020
C           -0.47653922505641        5.16688403038941        3.85937754140457
C            0.71983390023168        4.47858343730500        4.20093968342129
C           -2.66639545965707        4.50757966927483        2.97613221287546
C           -0.87954147618646        6.50140887564406        3.89599178338412
C            0.51237364711766        3.15152118023685        3.94783349439243
C           -3.03638729915263        5.83481700800901        3.02343378755558
C           -2.15294686632942        6.81828604997360        3.47745769123672
C            1.41119423197468        1.98554201112675        4.16021778911209
O           -1.71596602066006        0.61030504982385        2.15214068795588
H           -0.50816606276131       -0.62768220447362       -0.41847740623794
H           -0.03967091223820       -0.96975202517471       -2.64119071020124
H            1.33787347800466        2.18796525176426        0.95331419324992
H            3.78874517488006        2.19857594313626        1.01454902631801
H            3.84730997883145       -1.81428498330669       -0.43915984948750
H            1.39310224133116       -1.80924671164041       -0.54797215615598
H            5.94303759588959       -0.61058100523234       -0.12506906288399
H            5.95738184450383        1.02757457992699        0.56518368898155
H            5.02827493953940        1.94729579272964       -1.55225159100677
H            5.33300343595040       -0.61032188828675       -2.89703281382672
H            7.18642662544096        2.74398550090764       -0.97966946832251
H           -1.61340601151670        1.14249292586865       -1.38361847381531
H            0.81044093416983        2.94505363400003       -1.36149594444470
H           -1.83264224060779        3.18227848044037        0.15876195066858
H           -0.32244111896086        5.00224890236846        1.12444428236013
H            0.46090555385611        5.12907035255273       -0.45819131744530
H           -1.73124194299404        5.79906578391642       -1.45488862560505
H           -2.48978937228020        5.65088813042159        0.13558789708242
H           -1.93148707959448        8.02053101953337       -0.35732059232257
H           -1.01260738618637        7.42744320141527        1.02847225217873
H           -0.23076812233675        7.58975733836757       -0.54754347698349
H           -1.13875357119842        2.08703664710300        3.15468152570388
H            1.61610320191746        4.91947649698465        4.59148691163925
H           -3.34926024719745        3.74447485235784        2.63132230985279
H           -0.20369913212490        7.26774802752946        4.24814441975594
H           -4.02788043128370        6.12591784953939        2.70703962846754
H           -2.48456147087160        7.84687167824576        3.50080413094454
H            2.42754944097485        2.32267694467805        4.34431597225580
H            1.07799108313046        1.40497590507135        5.02127252284240
H            1.40512386456914        1.32860488219975        3.29173082812680
H           -2.60002651329140        0.42480405809976        1.83168758442254
H           -1.11901332590114        0.56303671043322        1.37852067559928
O           -0.02796908683247       -1.94632060370684       -2.62405630064429
H            0.99313043287304        1.02768744899346       -2.48465374576404
H           -0.51802837632336       -2.23185995374177       -3.39612693367748
N            4.77188950092986        0.12784117592802       -2.49172542217406
C            6.94999269698784        1.00510888506887       -2.01904920902441
O            7.42019294487243        0.13582814052894       -2.72500883839261
C            2.95340933695776       -0.74705934277030       -3.79880127605275
C            3.48968891939223        0.29815126656917       -2.85442963491748
O            2.79860274461429        1.22418126347616       -2.44973060348830
H            3.74562635621468       -1.33644951809586       -4.24934628942689
H            2.36758927972412       -0.26115847178776       -4.57563273213687
H            2.28464641740545       -1.40491577288561       -3.24371457167298
N            7.65019605196949        2.04960068281974       -1.54322734203069
C            9.05248848961000        2.24304413532849       -1.82653388068541
H            9.63303502720790        2.25553768431960       -0.90271185448900
H            9.21206341559380        3.17905603346926       -2.36401797365110
H            9.37768594675227        1.41022142777090       -2.44730453524235
 
 Bond Distances (Angstroems)
 ---------------------------
N1-C2=1.4179         N1-C10=1.4751        N1-H28=1.0191        C2-N1=1.4179         C2-C3=1.3915         C2-C7=1.3902         
C3-C2=1.3915         C3-C4=1.3794         C3-H30=1.0775        C4-C3=1.3794         C4-C5=1.3887         C4-H31=1.0806        
C5-C4=1.3887         C5-C6=1.3887         C5-C8=1.4973         C6-C5=1.3887         C6-C7=1.3800         C6-H32=1.0807        
C7-C2=1.3902         C7-C6=1.3800         C7-H33=1.0806        C8-C5=1.4973         C8-C9=1.5572         C8-H34=1.0911        
C8-H35=1.0907        C9-C8=1.5572         C9-H36=1.0948        C9-N63=1.4411        C9-C64=1.5292        C10-N1=1.4751        
C10-C11=1.5010       C10-O16=1.4068       C10-H39=1.0986       C11-C10=1.5010       C11-C12=1.3231       C11-H40=1.0820       
C12-C11=1.3231       C12-C13=1.4917       C12-H41=1.0821       C13-C12=1.4917       C13-C14=1.5304       C13-H42=1.0935       
C13-H43=1.0918       C14-C13=1.5304       C14-C15=1.5225       C14-H44=1.0927       C14-H45=1.0916       C15-C14=1.5225       
C15-H46=1.0875       C15-H47=1.0876       C15-H48=1.0881       O16-C10=1.4068       O16-H61=0.9860       N17-C18=1.3621       
N17-C23=1.3685       N17-H49=1.0132       C18-N17=1.3621       C18-C19=1.4195       C18-C21=1.3887       C19-C18=1.4195       
C19-C20=1.4219       C19-C22=1.3945       C20-C19=1.4219       C20-C23=1.3668       C20-H50=1.0725       C21-C18=1.3887       
C21-C24=1.3787       C21-H51=1.0805       C22-C19=1.3945       C22-C25=1.3774       C22-H52=1.0808       C23-N17=1.3685       
C23-C20=1.3668       C23-C26=1.4874       C24-C21=1.3787       C24-C25=1.3978       C24-H53=1.0807       C25-C22=1.3774       
C25-C24=1.3978       C25-H54=1.0810       C26-C23=1.4874       C26-H55=1.0865       C26-H56=1.0906       C26-H57=1.0890       
O27-H58=0.9585       O27-H59=0.9783       H28-N1=1.0191        H29-O60=0.9768       H30-C3=1.0775        H31-C4=1.0806        
H32-C6=1.0807        H33-C7=1.0806        H34-C8=1.0911        H35-C8=1.0907        H36-C9=1.0948        H37-N63=1.0119       
H38-N72=1.0074       H39-C10=1.0986       H40-C11=1.0820       H41-C12=1.0821       H42-C13=1.0935       H43-C13=1.0918       
H44-C14=1.0927       H45-C14=1.0916       H46-C15=1.0875       H47-C15=1.0876       H48-C15=1.0881       H49-N17=1.0132       
H50-C20=1.0725       H51-C21=1.0805       H52-C22=1.0808       H53-C24=1.0807       H54-C25=1.0810       H55-C26=1.0865       
H56-C26=1.0906       H57-C26=1.0890       H58-O27=0.9585       H59-O27=0.9783       O60-H29=0.9768       O60-H62=0.9580       
H61-O16=0.9860       H62-O60=0.9580       N63-C9=1.4411        N63-H37=1.0119       N63-C67=1.3434       C64-C9=1.5292        
C64-O65=1.2145       C64-N72=1.3445       O65-C64=1.2145       C66-C67=1.5073       C66-H69=1.0853       C66-H70=1.0875       
C66-H71=1.0900       C67-N63=1.3434       C67-C66=1.5073       C67-O68=1.2243       O68-C67=1.2243       H69-C66=1.0853       
H70-C66=1.0875       H71-C66=1.0900       N72-H38=1.0074       N72-C64=1.3445       N72-C73=1.4436       C73-N72=1.4436       
C73-H74=1.0912       C73-H75=1.0911       C73-H76=1.0884       H74-C73=1.0912       H75-C73=1.0911       H76-C73=1.0884       
 C  H  Rav=1.0867 sigma=0.0058  Rmin=1.0725  Rmax=1.0986    31
 C  C  Rav=1.4338 sigma=0.0657  Rmin=1.3231  Rmax=1.5572    24
 N  H  Rav=1.0129 sigma=0.0042  Rmin=1.0074  Rmax=1.0191     4
 N  C  Rav=1.3995 sigma=0.0478  Rmin=1.3434  Rmax=1.4751     8
 O  H  Rav=0.9715 sigma=0.0113  Rmin=0.9580  Rmax=0.9860     5
 O  C  Rav=1.2819 sigma=0.0884  Rmin=1.2145  Rmax=1.4068     3
 
 selected bond angles (degree)
 --------------------
C10-N1-C2=114.05               H28-N1-C2=108.37               H28-N1-C10=107.84              C3-C2-N1=120.30                
C7-C2-N1=120.32                C7-C2-C3=119.35                C4-C3-C2=119.65                H30-C3-C2=119.95               
H30-C3-C4=120.25               C5-C4-C3=120.75                H31-C4-C3=119.34               H31-C4-C5=119.85               
C6-C5-C4=118.80                C8-C5-C4=120.31                C8-C5-C6=119.89                C7-C6-C5=120.49                
H32-C6-C5=119.80               H32-C6-C7=119.59               C6-C7-C2=119.92                H33-C7-C2=119.71               
H33-C7-C6=120.16               C9-C8-C5=106.24                H34-C8-C5=111.48               H34-C8-C9=108.80               
H35-C8-C5=111.93               H35-C8-C9=109.16               H35-C8-H34=109.13              H36-C9-C8=109.18               
N63-C9-C8=111.07               N63-C9-H36=108.16              C64-C9-C8=108.86               C64-C9-H36=112.14              
C64-C9-N63=107.45              C11-C10-N1=112.22              O16-C10-N1=111.49              O16-C10-C11=111.03             
H39-C10-N1=105.78              H39-C10-C11=110.27             H39-C10-O16=105.72             
 
 selected dihedral angles (degree)
 ---------------------------------
C3-C2-N1-C10= 67.63           C3-C2-N1-H28=187.73           C7-C2-N1-C10=249.57           C7-C2-N1-H28=  9.68           
C4-C3-C2-N1=191.56            C4-C3-C2-C7=  9.63            H30-C3-C2-N1=  7.15           H30-C3-C2-C7=185.22           
C5-C4-C3-C2=358.18            C5-C4-C3-H30=182.61           H31-C4-C3-C2=175.24           H31-C4-C3-H30=359.67          
C6-C5-C4-C3=353.27            C6-C5-C4-H31=176.23           C8-C5-C4-C3=161.83            C8-C5-C4-H31=344.79           
C7-C6-C5-C4=  7.50            C7-C6-C5-C8=198.90            H32-C6-C5-C4=183.46           H32-C6-C5-C8= 14.85           
C6-C7-C2-N1=169.20            C6-C7-C2-C3=351.13            H33-C7-C2-N1=354.43           H33-C7-C2-C3=176.36           
C2-C7-C6-C5=  0.27            C2-C7-C6-H32=184.30           H33-C7-C6-C5=175.01           H33-C7-C6-H32=359.05          
C9-C8-C5-C4=278.72            C9-C8-C5-C6= 87.16            H34-C8-C5-C4=160.34           H34-C8-C5-C6=328.78           
H35-C8-C5-C4= 37.79           H35-C8-C5-C6=206.22           H36-C9-C8-C5= 62.37           H36-C9-C8-H34=182.51          
H36-C9-C8-H35=301.51          N63-C9-C8-C5=303.19           N63-C9-C8-H34= 63.33          N63-C9-C8-H35=182.33          
C64-C9-C8-C5=185.08           C64-C9-C8-H34=305.22          C64-C9-C8-H35= 64.21          C11-C10-N1-C2=297.47          
C11-C10-N1-H28=177.07         O16-C10-N1-C2= 62.75          O16-C10-N1-H28=302.35         H39-C10-N1-C2=177.19          
H39-C10-N1-H28= 56.79         
 
 CMA Distance (Angstroems)
 ---------------------------
R(CMA):  5.2613
           -------------------------------------------------
          |                Final Singlepoint                |
           -------------------------------------------------

          ...................................................
          :                      SETUP                      :
          :.................................................:
          :  # basis functions                 184          :
          :  # atomic orbitals                 184          :
          :  # shells                          112          :
          :  # electrons                       198          :
          :  max. iterations                   250          :
          :  Hamiltonian                  GFN2-xTB          :
          :  restarted?                      false          :
          :  GBSA solvation                  false          :
          :  PC potential                    false          :
          :  electronic temp.          500.0000000     K    :
          :  accuracy                    1.0000000          :
          :  -> integral cutoff          0.2500000E+02      :
          :  -> integral neglect         0.1000000E-07      :
          :  -> SCF convergence          0.1000000E-05 Eh   :
          :  -> wf. convergence          0.1000000E-03 e    :
          :  Broyden damping             0.4000000          :
          :  net charge                          0          :
          :  unpaired electrons                  0          :
          ...................................................

 iter      E             dE          RMSdq      gap      omega  full diag
   1   -111.8341732 -0.111834E+03  0.756E-05    2.99       0.0  T
   2   -111.8341732 -0.500506E-10  0.512E-05    2.99     224.1  T
   3   -111.8341732 -0.761560E-10  0.308E-05    2.99     373.0  T

   *** convergence criteria satisfied after 3 iterations ***

         #    Occupation            Energy/Eh            Energy/eV
      -------------------------------------------------------------
         1        2.0000           -0.7188230             -19.5602
       ...           ...                  ...                  ...
        93        2.0000           -0.3996508             -10.8751
        94        2.0000           -0.3964078             -10.7868
        95        2.0000           -0.3961481             -10.7797
        96        2.0000           -0.3893368             -10.5944
        97        2.0000           -0.3701116             -10.0712
        98        2.0000           -0.3570905              -9.7169
        99        2.0000           -0.3419025              -9.3036 (HOMO)
       100                         -0.2319197              -6.3109 (LUMO)
       101                         -0.2220873              -6.0433
       102                         -0.2152785              -5.8580
       103                         -0.2129724              -5.7953
       104                         -0.2090190              -5.6877
       ...                                ...                  ...
       184                          0.7485117              20.3680
      -------------------------------------------------------------
                  HL-Gap            0.1099828 Eh            2.9928 eV
             Fermi-level           -0.2869111 Eh           -7.8072 eV

 SCC (total)                   0 d,  0 h,  0 min,  0.080 sec
 SCC setup                      ...        0 min,  0.000 sec (  0.000%)
 Dispersion                     ...        0 min,  0.001 sec (  1.250%)
 classical contributions        ...        0 min,  0.000 sec (  0.000%)
 integral evaluation            ...        0 min,  0.008 sec ( 10.000%)
 iterations                     ...        0 min,  0.022 sec ( 27.500%)
 molecular gradient             ...        0 min,  0.047 sec ( 58.750%)
 printout                       ...        0 min,  0.002 sec (  2.500%)

         :::::::::::::::::::::::::::::::::::::::::::::::::::::
         ::                     SUMMARY                     ::
         :::::::::::::::::::::::::::::::::::::::::::::::::::::
         :: total energy            -110.271391445280 Eh    ::
         :: gradient norm              0.000416050808 Eh/a0 ::
         :: HOMO-LUMO gap              2.992784952781 eV    ::
         ::.................................................::
         :: SCC energy              -111.831420972560 Eh    ::
         :: -> isotropic ES            0.186436410546 Eh    ::
         :: -> anisotropic ES         -0.003438599828 Eh    ::
         :: -> anisotropic XC          0.043669150375 Eh    ::
         :: -> dispersion             -0.087799281020 Eh    ::
         :: repulsion energy           1.560029527279 Eh    ::
         :: add. restraining           0.000000000000 Eh    ::
         :: total charge               0.000000000000 e     ::
         :::::::::::::::::::::::::::::::::::::::::::::::::::::

           -------------------------------------------------
          |                Property Printout                |
           -------------------------------------------------

    * Orbital Energies and Occupations

         #    Occupation            Energy/Eh            Energy/eV
      -------------------------------------------------------------
         1        2.0000           -0.7188230             -19.5602
       ...           ...                  ...                  ...
        87        2.0000           -0.4208526             -11.4520
        88        2.0000           -0.4161123             -11.3230
        89        2.0000           -0.4117742             -11.2049
        90        2.0000           -0.4089209             -11.1273
        91        2.0000           -0.4067130             -11.0672
        92        2.0000           -0.4054189             -11.0320
        93        2.0000           -0.3996508             -10.8751
        94        2.0000           -0.3964078             -10.7868
        95        2.0000           -0.3961481             -10.7797
        96        2.0000           -0.3893368             -10.5944
        97        2.0000           -0.3701116             -10.0712
        98        2.0000           -0.3570905              -9.7169
        99        2.0000           -0.3419025              -9.3036 (HOMO)
       100                         -0.2319197              -6.3109 (LUMO)
       101                         -0.2220873              -6.0433
       102                         -0.2152785              -5.8580
       103                         -0.2129724              -5.7953
       104                         -0.2090190              -5.6877
       105                         -0.2016487              -5.4871
       106                         -0.1765574              -4.8044
       107                         -0.1330554              -3.6206
       108                         -0.0981850              -2.6718
       109                         -0.0496228              -1.3503
       110                         -0.0258336              -0.7030
       ...                                ...                  ...
       184                          0.7485117              20.3680
      -------------------------------------------------------------
                  HL-Gap            0.1099828 Eh            2.9928 eV
             Fermi-level           -0.2869111 Eh           -7.8072 eV

     #   Z          covCN         q      C6AA      α(0)
     1   7 N        2.684    -0.280    27.225     7.749
     2   6 C        2.915     0.075    26.315     8.412
     3   6 C        2.922    -0.047    29.169     8.857
     4   6 C        2.926    -0.034    28.836     8.806
     5   6 C        2.978     0.005    27.915     8.667
     6   6 C        2.926    -0.039    28.968     8.826
     7   6 C        2.922    -0.055    29.365     8.886
     8   6 C        3.810    -0.065    21.730     6.635
     9   6 C        3.798     0.021    20.225     6.403
    10   6 C        3.672     0.184    17.877     6.060
    11   6 C        2.890    -0.071    29.775     8.946
    12   6 C        2.891    -0.033    28.823     8.802
    13   6 C        3.808    -0.063    21.697     6.631
    14   6 C        3.802    -0.051    21.488     6.600
    15   6 C        3.752    -0.104    22.554     6.772
    16   8 O        1.653    -0.485    22.568     6.413
    17   7 N        2.783    -0.129    23.796     7.245
    18   6 C        3.091     0.043    26.923     8.505
    19   6 C        3.108    -0.017    28.291     8.714
    20   6 C        3.015    -0.093    30.326     9.033
    21   6 C        2.908    -0.054    29.335     8.881
    22   6 C        2.911    -0.042    29.051     8.838
    23   6 C        3.074     0.050    26.813     8.490
    24   6 C        2.924    -0.041    29.007     8.832
    25   6 C        2.919    -0.045    29.110     8.848
    26   6 C        3.754    -0.115    22.766     6.804
    27   8 O        1.609    -0.594    25.045     6.754
    28   1 H        0.860     0.174     1.251     1.752
    29   1 H        0.803     0.312     0.688     1.303
    30   1 H        0.926     0.051     2.311     2.377
    31   1 H        0.926     0.029     2.602     2.522
    32   1 H        0.926     0.029     2.599     2.521
    33   1 H        0.926     0.052     2.299     2.371
    34   1 H        0.924     0.049     2.334     2.389
    35   1 H        0.924     0.040     2.455     2.450
    36   1 H        0.924     0.064     2.156     2.296
    37   1 H        0.860     0.198     1.114     1.653
    38   1 H        0.860     0.171     1.264     1.761
    39   1 H        0.923     0.035     2.520     2.482
    40   1 H        0.925     0.058     2.228     2.334
    41   1 H        0.925     0.038     2.482     2.464
    42   1 H        0.924     0.056     2.250     2.346
    43   1 H        0.924     0.038     2.481     2.463
    44   1 H        0.924     0.029     2.606     2.525
    45   1 H        0.924     0.036     2.510     2.477
    46   1 H        0.925     0.033     2.544     2.494
    47   1 H        0.925     0.041     2.430     2.438
    48   1 H        0.925     0.032     2.557     2.501
    49   1 H        0.860     0.201     1.103     1.646
    50   1 H        0.926     0.016     2.801     2.617
    51   1 H        0.926     0.016     2.793     2.613
    52   1 H        0.926     0.017     2.777     2.606
    53   1 H        0.926     0.016     2.789     2.612
    54   1 H        0.926     0.016     2.801     2.617
    55   1 H        0.925     0.044     2.399     2.422
    56   1 H        0.924     0.048     2.343     2.394
    57   1 H        0.925     0.052     2.301     2.372
    58   1 H        0.806     0.274     0.805     1.409
    59   1 H        0.803     0.302     0.716     1.329
    60   8 O        1.609    -0.612    25.471     6.812
    61   1 H        0.802     0.335     0.624     1.241
    62   1 H        0.806     0.268     0.825     1.427
    63   7 N        2.695    -0.168    24.631     7.371
    64   6 C        2.759     0.265    22.536     7.774
    65   8 O        0.858    -0.434    22.371     6.341
    66   6 C        3.757    -0.154    23.534     6.917
    67   6 C        2.748     0.282    22.226     7.720
    68   8 O        0.858    -0.474    23.227     6.462
    69   1 H        0.925     0.049     2.327     2.385
    70   1 H        0.925     0.073     2.051     2.240
    71   1 H        0.925     0.096     1.819     2.109
    72   7 N        2.685    -0.165    24.580     7.363
    73   6 C        3.690    -0.047    21.610     6.653
    74   1 H        0.924     0.055     2.254     2.348
    75   1 H        0.924     0.056     2.249     2.345
    76   1 H        0.925     0.091     1.870     2.138

 Mol. C6AA /au·bohr⁶  :      56335.714654
 Mol. C8AA /au·bohr⁸  :    1285483.039220
 Mol. α(0) /au        :        366.613976


Wiberg/Mayer (AO) data.
largest (>0.10) Wiberg bond orders for each atom

 ---------------------------------------------------------------------------
     #   Z sym  total        # sym  WBO       # sym  WBO       # sym  WBO
 ---------------------------------------------------------------------------
     1   7 N    3.203 --     2 C    1.052    10 C    0.950    28 H    0.938
     2   6 C    3.972 --     7 C    1.387     3 C    1.375     1 N    1.052
     3   6 C    3.990 --     4 C    1.459     2 C    1.375    30 H    0.961
                             6 C    0.103
     4   6 C    3.991 --     3 C    1.459     5 C    1.401    31 H    0.969
                             7 C    0.104
     5   6 C    3.985 --     6 C    1.402     4 C    1.401     8 C    1.012
     6   6 C    3.990 --     7 C    1.452     5 C    1.402    32 H    0.969
                             3 C    0.103
     7   6 C    3.989 --     6 C    1.452     2 C    1.387    33 H    0.963
                             4 C    0.104
     8   6 C    3.992 --     5 C    1.012    34 H    0.974    35 H    0.972
                             9 C    0.937
     9   6 C    3.973 --    63 N    1.000    36 H    0.954    64 C    0.939
                             8 C    0.937
    10   6 C    3.947 --    11 C    0.997    16 O    0.989    39 H    0.955
                             1 N    0.950
    11   6 C    3.984 --    12 C    1.921    10 C    0.997    40 H    0.957
    12   6 C    3.989 --    11 C    1.921    13 C    1.031    41 H    0.963
    13   6 C    3.996 --    12 C    1.031    14 C    0.992    43 H    0.975
                            42 H    0.950
    14   6 C    3.996 --    15 C    1.019    13 C    0.992    44 H    0.980
                            45 H    0.977
    15   6 C    3.996 --    14 C    1.019    48 H    0.988    46 H    0.987
                            47 H    0.984
    16   8 O    1.997 --    10 C    0.989    61 H    0.821
    17   7 N    3.547 --    23 C    1.200    18 C    1.189    49 H    0.899
    18   6 C    3.962 --    21 C    1.340    19 C    1.233    17 N    1.189
    19   6 C    3.985 --    22 C    1.331    20 C    1.233    18 C    1.233
    20   6 C    3.969 --    23 C    1.565    19 C    1.233    50 H    0.974
    21   6 C    3.989 --    24 C    1.488    18 C    1.340    51 H    0.969
                            22 C    0.109
    22   6 C    3.989 --    25 C    1.499    19 C    1.331    52 H    0.970
                            21 C    0.109
    23   6 C    3.959 --    20 C    1.565    17 N    1.200    26 C    1.030
    24   6 C    3.989 --    21 C    1.488    25 C    1.371    53 H    0.973
    25   6 C    3.991 --    22 C    1.499    24 C    1.371    54 H    0.972
    26   6 C    3.995 --    23 C    1.030    55 H    0.984    57 H    0.971
                            56 H    0.968
    27   8 O    1.854 --    58 H    0.921    59 H    0.849
    28   1 H    0.969 --     1 N    0.938
    29   1 H    0.903 --    60 O    0.849
    30   1 H    0.997 --     3 C    0.961
    31   1 H    0.999 --     4 C    0.969
    32   1 H    0.999 --     6 C    0.969
    33   1 H    0.997 --     7 C    0.963
    34   1 H    0.997 --     8 C    0.974
    35   1 H    0.998 --     8 C    0.972
    36   1 H    0.996 --     9 C    0.954
    37   1 H    0.960 --    63 N    0.920
    38   1 H    0.971 --    72 N    0.943
    39   1 H    0.998 --    10 C    0.955
    40   1 H    0.997 --    11 C    0.957
    41   1 H    0.999 --    12 C    0.963
    42   1 H    0.997 --    13 C    0.950
    43   1 H    0.999 --    13 C    0.975
    44   1 H    0.999 --    14 C    0.980
    45   1 H    0.999 --    14 C    0.977
    46   1 H    0.998 --    15 C    0.987
    47   1 H    0.998 --    15 C    0.984
    48   1 H    0.999 --    15 C    0.988
    49   1 H    0.959 --    17 N    0.899
    50   1 H    0.999 --    20 C    0.974
    51   1 H    0.999 --    21 C    0.969
    52   1 H    0.999 --    22 C    0.970
    53   1 H    0.999 --    24 C    0.973
    54   1 H    0.999 --    25 C    0.972
    55   1 H    0.997 --    26 C    0.984
    56   1 H    0.994 --    26 C    0.968
    57   1 H    0.995 --    26 C    0.971
    58   1 H    0.925 --    27 O    0.921
    59   1 H    0.909 --    27 O    0.849
    60   8 O    1.817 --    62 H    0.926    29 H    0.849
    61   1 H    0.887 --    16 O    0.821
    62   1 H    0.928 --    60 O    0.926
    63   7 N    3.465 --    67 C    1.279     9 C    1.000    37 H    0.920
                            68 O    0.183
    64   6 C    3.953 --    65 O    1.675    72 N    1.271     9 C    0.939
    65   8 O    2.011 --    64 C    1.675    72 N    0.201
    66   6 C    3.991 --    67 C    0.992    69 H    0.983    70 H    0.971
                            71 H    0.950
    67   6 C    3.945 --    68 O    1.621    63 N    1.279    66 C    0.992
    68   8 O    1.982 --    67 C    1.621    63 N    0.183
    69   1 H    0.998 --    66 C    0.983
    70   1 H    0.994 --    66 C    0.971
    71   1 H    0.991 --    66 C    0.950
    72   7 N    3.454 --    64 C    1.271    73 C    1.002    38 H    0.943
                            65 O    0.201
    73   6 C    3.959 --    72 N    1.002    75 H    0.977    74 H    0.977
                            76 H    0.975
    74   1 H    0.997 --    73 C    0.977
    75   1 H    0.997 --    73 C    0.977
    76   1 H    0.992 --    73 C    0.975
 ---------------------------------------------------------------------------

Topologies differ in total number of bonds
Writing topology from bond orders to xtbtopo.mol

molecular dipole:
                 x           y           z       tot (Debye)
 q only:        1.527      -0.220      -0.491
   full:        1.524      -0.397      -1.022       4.773
molecular quadrupole (traceless):
                xx          xy          yy          xz          yz          zz
 q only:       35.595      27.278     -17.994       9.458     -12.103     -17.601
  q+dip:       40.363      31.530     -15.996      12.769     -10.915     -24.367
   full:       38.254      31.801     -18.850      12.224     -13.704     -19.404

           -------------------------------------------------
          |                Geometry Summary                 |
           -------------------------------------------------

      molecular mass/u    :      500.6313367
   center of mass at/Å    :        1.5801694       2.1340126       0.1870047
  moments of inertia/u·Å² :        0.3225131E+04   0.8865512E+04   0.9740554E+04
rotational constants/cm⁻¹ :        0.5226960E-02   0.1901484E-02   0.1730665E-02

 * 69 selected distances

     #   Z          #   Z                                           value/Å
     1   7 N        2   6 C                                       1.4178599
     2   6 C        3   6 C                                       1.3915321
     3   6 C        4   6 C                                       1.3793699
     4   6 C        5   6 C                                       1.3886896
     5   6 C        6   6 C                                       1.3887257
     2   6 C        7   6 C                                       1.3902154
     6   6 C        7   6 C                                       1.3800208
     1   7 N       10   6 C                                       1.4750963
    11   6 C       12   6 C                                       1.3231414
    13   6 C       14   6 C                                       1.5304056 (max)
    14   6 C       15   6 C                                       1.5224941
    10   6 C       16   8 O                                       1.4067838
    17   7 N       18   6 C                                       1.3620738
    18   6 C       19   6 C                                       1.4195024
    19   6 C       20   6 C                                       1.4218760
    18   6 C       21   6 C                                       1.3886657
    19   6 C       22   6 C                                       1.3945280
    17   7 N       23   6 C                                       1.3685298
    20   6 C       23   6 C                                       1.3668201
    21   6 C       24   6 C                                       1.3786554
    22   6 C       25   6 C                                       1.3773683
    24   6 C       25   6 C                                       1.3977898
    23   6 C       26   6 C                                       1.4874452
     1   7 N       28   1 H                                       1.0191256
     3   6 C       30   1 H                                       1.0775200
     4   6 C       31   1 H                                       1.0806480
     6   6 C       32   1 H                                       1.0806699
     7   6 C       33   1 H                                       1.0805608
     8   6 C       34   1 H                                       1.0911106
     8   6 C       35   1 H                                       1.0907010
     9   6 C       36   1 H                                       1.0948256
    10   6 C       39   1 H                                       1.0985829
    11   6 C       40   1 H                                       1.0819725
    12   6 C       41   1 H                                       1.0820712
    13   6 C       42   1 H                                       1.0935224
    13   6 C       43   1 H                                       1.0917591
    14   6 C       44   1 H                                       1.0926592
    14   6 C       45   1 H                                       1.0915506
    15   6 C       46   1 H                                       1.0875484
    15   6 C       47   1 H                                       1.0876253
    15   6 C       48   1 H                                       1.0880669
    17   7 N       49   1 H                                       1.0132477
    20   6 C       50   1 H                                       1.0724797
    21   6 C       51   1 H                                       1.0805218
    22   6 C       52   1 H                                       1.0807637
    24   6 C       53   1 H                                       1.0806960
    25   6 C       54   1 H                                       1.0809727
    26   6 C       55   1 H                                       1.0865221
    26   6 C       56   1 H                                       1.0906406
    26   6 C       57   1 H                                       1.0889780
    27   8 O       58   1 H                                       0.9584696
    27   8 O       59   1 H                                       0.9783021
    29   1 H       60   8 O                                       0.9767891
    16   8 O       61   1 H                                       0.9859829
    60   8 O       62   1 H                                       0.9580105 (min)
     9   6 C       63   7 N                                       1.4411355
    37   1 H       63   7 N                                       1.0119327
    64   6 C       65   8 O                                       1.2145438
    63   7 N       67   6 C                                       1.3433535
    67   6 C       68   8 O                                       1.2243011
    66   6 C       69   1 H                                       1.0853477
    66   6 C       70   1 H                                       1.0875441
    66   6 C       71   1 H                                       1.0900185
    38   1 H       72   7 N                                       1.0073976
    64   6 C       72   7 N                                       1.3444905
    72   7 N       73   6 C                                       1.4436438
    73   6 C       74   1 H                                       1.0911635
    73   6 C       75   1 H                                       1.0910874
    73   6 C       76   1 H                                       1.0884408

 * 6 distinct bonds (by element types)

   Z      Z             #   av. dist./Å        max./Å        min./Å
   1 H    6 C          31     1.0866636     1.0985829     1.0724797
   6 C    6 C          18     1.4070692     1.5304056     1.3231414
   1 H    7 N           4     1.0129259     1.0191256     1.0073976
   6 C    7 N           8     1.3995229     1.4750963     1.3433535
   1 H    8 O           5     0.9715108     0.9859829     0.9580105
   6 C    8 O           3     1.2818762     1.4067838     1.2145438


optimized geometry written to: xtbopt.xyz


           -------------------------------------------------
          | TOTAL ENERGY             -110.271391445280 Eh   |
          | GRADIENT NORM               0.000416050808 Eh/α |
          | HOMO-LUMO GAP               2.992784952781 eV   |
           -------------------------------------------------

------------------------------------------------------------------------
 * finished run on 2026/08/20 at 01:07:06.648     
------------------------------------------------------------------------
 total:
 * wall-time:     0 d,  0 h,  0 min, 25.196 sec
 *  cpu-time:     0 d,  0 h,  0 min, 24.766 sec
 * ratio c/w:     0.983 speedup
 SCF:
 * wall-time:     0 d,  0 h,  0 min,  0.829 sec
 *  cpu-time:     0 d,  0 h,  0 min,  0.797 sec
 * ratio c/w:     0.961 speedup
 ANC optimizer:
 * wall-time:     0 d,  0 h,  0 min, 24.325 sec
 *  cpu-time:     0 d,  0 h,  0 min, 23.922 sec
 * ratio c/w:     0.983 speedup

