76
 energy: -110.294705077374 gnorm: 0.000188821863 xtb: 6.7.1pre (5071a88)
N            0.39955772885387        0.12743724063252        1.08629653700111
C            1.74922967379404       -0.09639656876071        0.71998502872129
C            2.76898576438759        0.57152892781939        1.39268903344324
C            4.08895833530788        0.35740496757378        1.05436351979466
C            4.43519867027350       -0.52693771181497        0.03812487491253
C            3.41934299211689       -1.22065437657003       -0.60420190308699
C            2.09399759125226       -1.01771533397628       -0.26314099813797
C            5.87027420469097       -0.68337604829301       -0.37985135308167
C            6.44274687670996        0.64983762614696       -0.86752365053734
C           -0.28518368703372        1.27216702366578        0.52814782973800
C            0.49373672069941        2.57096457269699        0.69415604865243
C           -0.38226881720951        3.80802172976081        0.43526793287847
C            0.48863859082607        5.04431940508397        0.15764155178460
C            0.88530824367894        5.13890434624346       -1.31499673975917
C            1.89166448916665        6.25657530892206       -1.55791934668688
O           -0.53613835869882        1.10239655176336       -0.87058534622324
N           -2.27008583516991        4.51478549032014        3.54411951755509
C           -3.28826741671118        4.03310025544597        2.77587288815327
C           -2.74100205290910        3.70076399327422        1.51332416822851
C           -1.34475051898935        4.01353352446493        1.56696608445595
C           -4.63302080006450        3.85270307519533        3.06779849749444
C           -3.58000681017386        3.17196838558360        0.53074036419627
C           -1.09894499256729        4.50174398664992        2.82346163591561
C           -5.43646374302448        3.33087112597179        2.07658112845171
C           -4.91369219139087        2.99538656014780        0.82516074439883
C            0.14901735203647        5.00372078218950        3.46191791607995
O           -1.93647283817006        2.67469750806028       -2.71587730489499
H           -0.14848819840641       -0.71040288100408        0.90919367164726
H           -1.11476949179039        0.34062532193890       -0.99475910432738
H            2.52101530325123        1.24605369717173        2.19558826249581
H            4.86435807519153        0.88259607399344        1.59221518173057
H            3.66477946430419       -1.93003458367806       -1.38254433464614
H            1.31895529777958       -1.57351586299102       -0.77412511955353
H            5.96248530291918       -1.41648560973710       -1.18335593709337
H            6.48032277245853       -1.03269728643281        0.45540333614813
H            6.59851820644241        1.34052105729838       -0.02994538935212
H            4.84748033389152        0.69560990853996       -2.24772610396850
H            7.97020555349990        2.47867080422822       -1.50075408281261
H           -1.24777547806920        1.35025857034163        1.05632131153336
H            1.33538494543110        2.55510070326946        0.00062425087227
H           -0.97673388618340        3.62540851296466       -0.46144686652331
H           -0.07010853744323        5.94225878410248        0.42528884623492
H            1.38883232436552        5.01371953625431        0.77393261082743
H            1.31731309434477        4.18938335615309       -1.64018700299249
H           -0.01123694350471        5.32594968690607       -1.90802557736959
H            2.13959222235254        6.32608272040302       -2.61485366902096
H            1.47831108718211        7.21171191788506       -1.24283347396873
H            2.80894724903479        6.07914558287068       -0.99888725084478
H           -2.35555206612469        4.84323575125673        4.49093271082422
H           -2.92457373979723        5.38819015405694       -1.22294319732592
H           -5.03260613739180        4.11323005371525        4.03718692180987
H           -3.19833453378161        2.90226110036822       -0.44232776109730
H           -6.48825901999148        3.17745850881621        2.26747294510545
H           -5.57558479660679        2.58943061555830        0.07418251344160
H            1.02580565010316        4.55058792564509        3.01104820214148
H            0.23130335648702        6.08548987252582        3.34753885723935
H            0.14568689179444        4.77477725291811        4.52697553640091
H            0.87457760889027        2.60711281854127        1.71249915885358
H           -1.44147014271745        2.76882831193490       -3.53141166077840
O           -2.46885115233484        5.37787912285052       -2.06676301752953
H           -1.34896338137077        2.23205446198802       -2.08101088517281
H           -2.41571068508318        4.44622375222118       -2.33106318007632
N            5.50237056144356        1.29353748685626       -1.76941179569386
C            7.80049618426306        0.45461908492974       -1.57736864261583
O            8.21820970676401       -0.63194543711435       -1.92062527035379
C            4.24606674820949        3.10320717428906       -2.72544045225479
C            5.40444280982198        2.63251507613901       -1.87940502754939
O            6.20052376317651        3.38450611986769       -1.34307896547323
H            3.32362571712122        2.62920636168199       -2.39759824029210
H            4.42247172175261        2.84234690201480       -3.76711520189584
H            4.15207481744889        4.18176353696719       -2.64164057512553
N            8.44071657555526        1.61843239071535       -1.76473814230754
C            9.70736583760170        1.71050451399512       -2.44748519918625
H           10.44733476186252        2.19481151780705       -1.80837871647596
H            9.60887120060418        2.28163661797515       -3.37273204717417
H           10.03521387378755        0.69838659284896       -2.67994108599104
