      -----------------------------------------------------------      
     |                   =====================                   |     
     |                           x T B                           |     
     |                   =====================                   |     
     |                         S. Grimme                         |     
     |          Mulliken Center for Theoretical Chemistry        |     
     |                    University of Bonn                     |     
      -----------------------------------------------------------      

   * xtb version 6.7.1pre (5071a88) compiled by 'Marcel@Raven' on 2024-07-23

   xtb is free software: you can redistribute it and/or modify it under
   the terms of the GNU Lesser General Public License as published by
   the Free Software Foundation, either version 3 of the License, or
   (at your option) any later version.
   
   xtb is distributed in the hope that it will be useful,
   but WITHOUT ANY WARRANTY; without even the implied warranty of
   MERCHANTABILITY or FITNESS FOR A PARTICULAR PURPOSE.  See the
   GNU Lesser General Public License for more details.
   
   Cite this work as:
   * C. Bannwarth, E. Caldeweyher, S. Ehlert, A. Hansen, P. Pracht,
     J. Seibert, S. Spicher, S. Grimme, WIREs Comput. Mol. Sci., 2020, 11,
     e01493. DOI: 10.1002/wcms.1493
   
   for GFN2-xTB:
   * C. Bannwarth, S. Ehlert and S. Grimme., J. Chem. Theory Comput., 2019,
     15, 1652-1671. DOI: 10.1021/acs.jctc.8b01176
   for GFN1-xTB:
   * S. Grimme, C. Bannwarth, P. Shushkov, J. Chem. Theory Comput., 2017,
     13, 1989-2009. DOI: 10.1021/acs.jctc.7b00118
   for GFN0-xTB:
   * P. Pracht, E. Caldeweyher, S. Ehlert, S. Grimme, ChemRxiv, 2019, preprint.
     DOI: 10.26434/chemrxiv.8326202.v1
   for GFN-FF:
   * S. Spicher and S. Grimme, Angew. Chem. Int. Ed., 2020, 59, 15665-15673.
     DOI: 10.1002/anie.202004239
   
   for ALPB and GBSA implicit solvation:
   * S. Ehlert, M. Stahn, S. Spicher, S. Grimme, J. Chem. Theory Comput.,
     2021, 17, 4250-4261. DOI: 10.1021/acs.jctc.1c00471
   
   for ddCOSMO and CPCM-X implicit solvation:
   * M. Stahn, S. Ehlert, S. Grimme, J. Phys. Chem. A,
     2023, XX, XXXX-XXXX. DOI: 10.1021/acs.jpca.3c04382
   
   for DFT-D4:
   * E. Caldeweyher, C. Bannwarth and S. Grimme, J. Chem. Phys., 2017,
     147, 034112. DOI: 10.1063/1.4993215
   * E. Caldeweyher, S. Ehlert, A. Hansen, H. Neugebauer, S. Spicher,
     C. Bannwarth and S. Grimme, J. Chem. Phys., 2019, 150, 154122.
     DOI: 10.1063/1.5090222
   * E. Caldeweyher, J.-M. Mewes, S. Ehlert and S. Grimme, Phys. Chem. Chem. Phys.
     2020, 22, 8499-8512. DOI: 10.1039/D0CP00502A
   
   for sTDA-xTB:
   * S. Grimme and C. Bannwarth, J. Chem. Phys., 2016, 145, 054103.
     DOI: 10.1063/1.4959605
   
   in the mass-spec context:
   * V. Asgeirsson, C. Bauer and S. Grimme, Chem. Sci., 2017, 8, 4879.
     DOI: 10.1039/c7sc00601b
   * J. Koopman and S. Grimme, ACS Omega 2019, 4, 12, 15120-15133.
     DOI: 10.1021/acsomega.9b02011
   
   for metadynamics refer to:
   * S. Grimme, J. Chem. Theory Comput., 2019, 155, 2847-2862
     DOI: 10.1021/acs.jctc.9b00143
   
   for SPH calculations refer to:
   * S. Spicher and S. Grimme, J. Chem. Theory Comput., 2021, 17, 1701-1714
     DOI: 10.1021/acs.jctc.0c01306
   
   for ONIOM refer to:
   * C. Plett, A. Katbashev, S. Ehlert, S. Grimme, M. Bursch,
     Phys. Chem. Chem. Phys., 2023, 25, 17860-17868. DOI: 10.1039/D3CP02178E
   
   for DIPRO refer to:
   * J. Kohn, N. Gildemeister, S. Grimme, D. Fazzi, A. Hansen,
     J. Chem. Phys., 2023, just accepted.
   
   for PTB refer to:
   * S. Grimme, M. Mueller, A. Hansen, J. Chem. Phys., 2023, 158, 124111.
     DOI: 10.1063/5.0137838
   
   with help from (in alphabetical order)
   P. Atkinson, C. Bannwarth, F. Bohle, G. Brandenburg, E. Caldeweyher
   M. Checinski, S. Dohm, S. Ehlert, S. Ehrlich, I. Gerasimov, C. Hölzer
   A. Katbashev, J. Kohn, J. Koopman, C. Lavigne, S. Lehtola, F. März, M. Müller,
   F. Musil, H. Neugebauer, J. Pisarek, C. Plett, P. Pracht, F. Pultar,
   J. Seibert, P. Shushkov, S. Spicher, M. Stahn, M. Steiner, T. Strunk,
   J. Stückrath, T. Rose, and J. Unsleber
   
 * started run on 2026/08/20 at 18:59:37.823     
   ID    Z sym.   atoms
    1    7 N      1, 17, 63, 72
    2    6 C      2-15, 18-26, 64, 66, 67, 73
    3    8 O      16, 27, 60, 65, 68
    4    1 H      28-59, 61, 62, 69-71, 74-76

           -------------------------------------------------
          |                Calculation Setup                |
           -------------------------------------------------

          program call               : C:\Users\Nayanika\Downloads\xtb-6.7.1pre-windows-x86_64\xtb-6.7.1\bin\xtb.exe D:\PhD_Thesis\LmrR_EVB\charges\fast_lmrr_5QM\xtb_preparation\TS2_1a_to_PS2_2\TS2_1a_to_PS2_2_RS_xtbopt.xyz --gfn 2 --chrg 0 --uhf 0 --hess --etemp 0
          coordinate file            : D:\PhD_Thesis\LmrR_EVB\charges\fast_lmrr_5QM\xtb_preparation\TS2_1a_to_PS2_2\TS2_1a_to_PS2_2_RS_xtbopt.xyz
          omp threads                :                     1


molecular fragmentation (1/2 indicates fragments):
111111111111111211111111112121111111111111111111121111111222221111111111
1111
# atoms in fragment 1/2:    67     9
 fragment masses (1/2) :      446.59       54.05
CMA distance (Bohr)    :   8.553
constraining FC (au)   :  0.0500

           -------------------------------------------------
          |                 G F N 2 - x T B                 |
           -------------------------------------------------

        Reference                      10.1021/acs.jctc.8b01176
      * Hamiltonian:
        H0-scaling (s, p, d)           1.850000    2.230000    2.230000
        zeta-weighting                 0.500000
      * Dispersion:
        s8                             2.700000
        a1                             0.520000
        a2                             5.000000
        s9                             5.000000
      * Repulsion:
        kExp                           1.500000    1.000000
        rExp                           1.000000
      * Coulomb:
        alpha                          2.000000
        third order                    shell-resolved
        anisotropic                    true
        a3                             3.000000
        a5                             4.000000
        cn-shift                       1.200000
        cn-exp                         4.000000
        max-rad                        5.000000

q/qsh data taken from xtbrestart
CAMM data taken from xtbrestart

          ...................................................
          :                      SETUP                      :
          :.................................................:
          :  # basis functions                 184          :
          :  # atomic orbitals                 184          :
          :  # shells                          112          :
          :  # electrons                       198          :
          :  max. iterations                   250          :
          :  Hamiltonian                  GFN2-xTB          :
          :  restarted?                       true          :
          :  GBSA solvation                  false          :
          :  PC potential                    false          :
          :  electronic temp.            0.0000000     K    :
          :  accuracy                    1.0000000          :
          :  -> integral cutoff          0.2500000E+02      :
          :  -> integral neglect         0.1000000E-07      :
          :  -> SCF convergence          0.1000000E-05 Eh   :
          :  -> wf. convergence          0.1000000E-03 e    :
          :  Broyden damping             0.4000000          :
          :  net charge                          0          :
          :  unpaired electrons                  0          :
          ...................................................

 iter      E             dE          RMSdq      gap      omega  full diag
   1   -111.8438465 -0.111844E+03  0.768E-07    2.62       0.0  T
   2   -111.8438465 -0.241585E-12  0.588E-07    2.62   19508.4  T
   3   -111.8438465 -0.284217E-13  0.265E-07    2.62   43345.9  T

   *** convergence criteria satisfied after 3 iterations ***

         #    Occupation            Energy/Eh            Energy/eV
      -------------------------------------------------------------
         1        2.0000           -0.6998686             -19.0444
       ...           ...                  ...                  ...
        93        2.0000           -0.3951733             -10.7532
        94        2.0000           -0.3903751             -10.6226
        95        2.0000           -0.3894724             -10.5981
        96        2.0000           -0.3862734             -10.5110
        97        2.0000           -0.3762424             -10.2381
        98        2.0000           -0.3645458              -9.9198
        99        2.0000           -0.3337261              -9.0811 (HOMO)
       100                         -0.2374264              -6.4607 (LUMO)
       101                         -0.2128444              -5.7918
       102                         -0.2115786              -5.7573
       103                         -0.2100116              -5.7147
       104                         -0.2057805              -5.5996
       ...                                ...                  ...
       184                          0.7086091              19.2822
      -------------------------------------------------------------
                  HL-Gap            0.0962997 Eh            2.6204 eV
             Fermi-level            0.0000000 Eh            0.0000 eV

 SCC (total)                   0 d,  0 h,  0 min,  0.079 sec
 SCC setup                      ...        0 min,  0.000 sec (  0.000%)
 Dispersion                     ...        0 min,  0.000 sec (  0.000%)
 classical contributions        ...        0 min,  0.000 sec (  0.000%)
 integral evaluation            ...        0 min,  0.016 sec ( 20.253%)
 iterations                     ...        0 min,  0.023 sec ( 29.114%)
 molecular gradient             ...        0 min,  0.040 sec ( 50.633%)
 printout                       ...        0 min,  0.000 sec (  0.000%)

         :::::::::::::::::::::::::::::::::::::::::::::::::::::
         ::                     SUMMARY                     ::
         :::::::::::::::::::::::::::::::::::::::::::::::::::::
         :: total energy            -110.267236318229 Eh    ::
         :: gradient norm              0.000262423873 Eh/a0 ::
         :: HOMO-LUMO gap              2.620449212663 eV    ::
         ::.................................................::
         :: SCC energy              -111.842273749558 Eh    ::
         :: -> isotropic ES            0.183188756493 Eh    ::
         :: -> anisotropic ES          0.006672211442 Eh    ::
         :: -> anisotropic XC          0.040577958505 Eh    ::
         :: -> dispersion             -0.080373291537 Eh    ::
         :: repulsion energy           1.575037431329 Eh    ::
         :: add. restraining           0.000000000000 Eh    ::
         :: total charge              -0.000000000000 e     ::
         :::::::::::::::::::::::::::::::::::::::::::::::::::::

           ------------------------------------------------- 
          |                Numerical Hessian                |
           ------------------------------------------------- 
step length          :   0.00500
SCC accuracy         :   0.30000
Hessian scale factor :   1.00000
frozen atoms in %    :   0.00000    0
RMS gradient         :   0.00026
estimated CPU  time      0.63 min
estimated wall time      0.63 min

writing file <hessian>.

 projected vibrational frequencies (cm⁻¹)
eigval :       -0.00    -0.00    -0.00    -0.00     0.00     0.00
eigval :        4.52     8.25    13.00    16.13    18.95    21.33
eigval :       25.60    32.02    34.73    38.28    48.68    50.29
eigval :       55.01    58.99    60.66    69.19    69.72    70.26
eigval :       78.26    82.62    87.28    90.22    92.79    97.20
eigval :      108.43   113.42   116.41   124.92   137.89   144.06
eigval :      150.79   156.64   163.07   170.80   173.60   182.98
eigval :      185.12   200.26   205.36   219.18   228.16   234.96
eigval :      237.26   240.14   268.78   284.24   289.88   291.58
eigval :      294.75   313.01   326.21   331.54   357.63   370.92
eigval :      383.96   387.19   409.81   413.43   433.62   449.91
eigval :      453.32   473.00   489.50   495.27   501.69   525.65
eigval :      529.24   553.98   578.75   587.80   594.84   603.70
eigval :      605.99   628.34   645.29   650.11   656.64   668.74
eigval :      692.87   697.28   702.55   720.41   728.24   769.83
eigval :      770.46   782.84   800.45   806.60   861.80   864.26
eigval :      865.49   866.88   874.58   894.89   896.58   909.52
eigval :      918.71   922.46   925.30   930.79   949.31   975.28
eigval :      989.71   993.13   997.20  1004.48  1009.01  1017.29
eigval :     1036.94  1039.21  1065.30  1077.92  1079.29  1104.95
eigval :     1105.61  1115.59  1119.31  1119.78  1132.10  1138.39
eigval :     1142.82  1161.73  1164.95  1168.31  1174.85  1196.62
eigval :     1201.24  1212.16  1221.30  1225.40  1225.74  1229.02
eigval :     1238.47  1254.36  1260.26  1272.70  1283.48  1288.18
eigval :     1293.96  1301.01  1312.53  1319.22  1319.43  1331.71
eigval :     1335.27  1355.58  1364.12  1367.28  1372.63  1392.52
eigval :     1394.86  1408.53  1409.23  1417.16  1421.82  1435.29
eigval :     1450.07  1454.95  1457.59  1463.38  1467.93  1469.19
eigval :     1472.31  1478.91  1485.34  1492.33  1494.22  1497.30
eigval :     1505.65  1507.47  1514.19  1525.59  1539.81  1556.90
eigval :     1568.34  1575.52  1587.86  1613.52  1626.13  1702.72
eigval :     1716.14  1757.58  2877.45  2908.86  2942.99  2966.68
eigval :     2968.82  2985.81  2988.06  2988.46  2993.10  2998.39
eigval :     2999.70  3015.44  3025.79  3026.05  3030.00  3030.49
eigval :     3032.02  3039.02  3052.65  3063.43  3067.09  3067.95
eigval :     3072.16  3073.01  3074.79  3076.45  3084.89  3096.41
eigval :     3109.47  3116.29  3302.05  3355.27  3448.00  3461.74
eigval :     3489.47  3528.41  3584.46  3653.68  3657.42  3664.90
           -------------------------------------------------
          |                Property Printout                |
           -------------------------------------------------

    * Orbital Energies and Occupations

         #    Occupation            Energy/Eh            Energy/eV
      -------------------------------------------------------------
         1        2.0000           -0.6998686             -19.0444
       ...           ...                  ...                  ...
        87        2.0000           -0.4236951             -11.5293
        88        2.0000           -0.4205710             -11.4443
        89        2.0000           -0.4188634             -11.3979
        90        2.0000           -0.4136834             -11.2569
        91        2.0000           -0.4080928             -11.1048
        92        2.0000           -0.3990868             -10.8597
        93        2.0000           -0.3951733             -10.7532
        94        2.0000           -0.3903751             -10.6226
        95        2.0000           -0.3894724             -10.5981
        96        2.0000           -0.3862734             -10.5110
        97        2.0000           -0.3762424             -10.2381
        98        2.0000           -0.3645458              -9.9198
        99        2.0000           -0.3337261              -9.0811 (HOMO)
       100                         -0.2374264              -6.4607 (LUMO)
       101                         -0.2128445              -5.7918
       102                         -0.2115786              -5.7573
       103                         -0.2100116              -5.7147
       104                         -0.2057805              -5.5996
       105                         -0.1987657              -5.4087
       106                         -0.1637294              -4.4553
       107                         -0.1614974              -4.3946
       108                         -0.0803252              -2.1858
       109                         -0.0783420              -2.1318
       110                          0.0108006               0.2939
       ...                                ...                  ...
       184                          0.7086091              19.2822
      -------------------------------------------------------------
                  HL-Gap            0.0962997 Eh            2.6204 eV
             Fermi-level            0.0000000 Eh            0.0000 eV

     #   Z          covCN         q      C6AA      α(0)
     1   7 N        2.693    -0.149    24.234     7.311
     2   6 C        2.902     0.067    26.505     8.441
     3   6 C        2.921    -0.057    29.428     8.896
     4   6 C        2.924    -0.040    28.996     8.831
     5   6 C        2.969    -0.008    28.224     8.714
     6   6 C        2.923    -0.044    29.090     8.845
     7   6 C        2.926    -0.065    29.624     8.926
     8   6 C        3.811    -0.069    21.815     6.648
     9   6 C        3.796     0.020    20.239     6.406
    10   6 C        2.826     0.008    27.831     8.644
    11   6 C        2.893    -0.085    30.140     9.001
    12   6 C        3.859    -0.018    20.858     6.495
    13   6 C        3.806    -0.059    21.632     6.621
    14   6 C        3.800    -0.052    21.508     6.603
    15   6 C        3.752    -0.103    22.518     6.767
    16   8 O        1.610    -0.593    25.027     6.752
    17   7 N        2.783    -0.115    23.499     7.200
    18   6 C        3.070     0.039    27.054     8.528
    19   6 C        3.110    -0.031    28.620     8.765
    20   6 C        3.059    -0.054    29.291     8.875
    21   6 C        2.908    -0.057    29.427     8.895
    22   6 C        2.911    -0.051    29.261     8.870
    23   6 C        3.064     0.045    26.932     8.510
    24   6 C        2.923    -0.043    29.063     8.841
    25   6 C        2.918    -0.047    29.162     8.856
    26   6 C        3.754    -0.120    22.851     6.816
    27   8 O        1.610    -0.583    24.783     6.719
    28   1 H        0.860     0.200     1.105     1.646
    29   1 H        0.806     0.276     0.799     1.404
    30   1 H        0.926     0.034     2.534     2.489
    31   1 H        0.926     0.027     2.625     2.534
    32   1 H        0.925     0.021     2.716     2.577
    33   1 H        0.926     0.027     2.622     2.532
    34   1 H        0.924     0.060     2.197     2.318
    35   1 H        0.924     0.055     2.255     2.348
    36   1 H        0.924     0.058     2.219     2.330
    37   1 H        0.860     0.183     1.197     1.714
    38   1 H        0.860     0.208     1.066     1.618
    39   1 H        0.925     0.039     2.463     2.454
    40   1 H        0.926     0.030     2.588     2.516
    41   1 H        0.923     0.034     2.532     2.488
    42   1 H        0.924     0.020     2.736     2.586
    43   1 H        0.924     0.036     2.505     2.475
    44   1 H        0.924     0.034     2.527     2.486
    45   1 H        0.924     0.027     2.629     2.536
    46   1 H        0.925     0.034     2.531     2.488
    47   1 H        0.925     0.030     2.586     2.515
    48   1 H        0.925     0.034     2.526     2.485
    49   1 H        0.860     0.164     1.308     1.791
    50   1 H        0.805     0.290     0.752     1.362
    51   1 H        0.926     0.023     2.691     2.565
    52   1 H        0.926     0.024     2.676     2.558
    53   1 H        0.926     0.025     2.651     2.546
    54   1 H        0.926     0.025     2.661     2.551
    55   1 H        0.925     0.059     2.215     2.327
    56   1 H        0.924     0.068     2.111     2.272
    57   1 H        0.925     0.046     2.371     2.408
    58   1 H        0.805     0.289     0.756     1.366
    59   1 H        0.805     0.300     0.721     1.333
    60   8 O        1.611    -0.578    24.668     6.703
    61   1 H        0.804     0.314     0.681     1.296
    62   1 H        0.805     0.280     0.785     1.391
    63   7 N        2.692    -0.183    24.965     7.421
    64   6 C        2.753     0.264    22.547     7.775
    65   8 O        0.858    -0.438    22.447     6.352
    66   6 C        3.757    -0.143    23.316     6.884
    67   6 C        2.749     0.277    22.309     7.734
    68   8 O        0.859    -0.457    22.851     6.409
    69   1 H        0.925     0.057     2.232     2.336
    70   1 H        0.925     0.072     2.062     2.246
    71   1 H        0.925     0.060     2.203     2.321
    72   7 N        2.686    -0.179    24.867     7.406
    73   6 C        3.690    -0.042    21.508     6.637
    74   1 H        0.924     0.051     2.306     2.375
    75   1 H        0.924     0.048     2.343     2.394
    76   1 H        0.925     0.081     1.968     2.194

 Mol. C6AA /au·bohr⁶  :      56258.193940
 Mol. C8AA /au·bohr⁸  :    1285385.311631
 Mol. α(0) /au        :        366.271482


Wiberg/Mayer (AO) data.
largest (>0.10) Wiberg bond orders for each atom

 ---------------------------------------------------------------------------
     #   Z sym  total        # sym  WBO       # sym  WBO       # sym  WBO
 ---------------------------------------------------------------------------
     1   7 N    3.473 --     2 C    1.148    10 C    1.136    28 H    0.907
     2   6 C    3.972 --     3 C    1.336     7 C    1.335     1 N    1.148
     3   6 C    3.988 --     4 C    1.470     2 C    1.336    30 H    0.964
     4   6 C    3.991 --     3 C    1.470     5 C    1.396    31 H    0.969
                             7 C    0.101
     5   6 C    3.970 --     4 C    1.396     6 C    1.395     8 C    1.009
     6   6 C    3.990 --     7 C    1.469     5 C    1.395    32 H    0.968
     7   6 C    3.986 --     6 C    1.469     2 C    1.335    33 H    0.968
                             4 C    0.101
     8   6 C    3.990 --     5 C    1.009     9 C    0.981    34 H    0.970
                            35 H    0.966
     9   6 C    3.962 --     8 C    0.981    63 N    0.973    36 H    0.952
                            64 C    0.915
    10   6 C    3.967 --    11 C    1.795     1 N    1.136    39 H    0.955
    11   6 C    3.957 --    10 C    1.795    12 C    0.997    40 H    0.959
    12   6 C    3.994 --    20 C    0.997    11 C    0.997    13 C    0.980
                            41 H    0.949
    13   6 C    3.995 --    14 C    1.008    12 C    0.980    43 H    0.976
                            42 H    0.976
    14   6 C    3.997 --    15 C    1.018    13 C    1.008    45 H    0.978
                            44 H    0.975
    15   6 C    3.996 --    14 C    1.018    47 H    0.988    48 H    0.988
                            46 H    0.987
    16   8 O    1.843 --    29 H    0.921    61 H    0.871
    17   7 N    3.537 --    18 C    1.181    23 C    1.176    49 H    0.943
    18   6 C    3.960 --    21 C    1.345    19 C    1.232    17 N    1.181
    19   6 C    3.983 --    22 C    1.325    18 C    1.232    20 C    1.209
    20   6 C    3.970 --    23 C    1.537    19 C    1.209    12 C    0.997
    21   6 C    3.988 --    24 C    1.485    18 C    1.345    51 H    0.969
                            22 C    0.109
    22   6 C    3.989 --    25 C    1.494    19 C    1.325    52 H    0.967
                            21 C    0.109
    23   6 C    3.953 --    20 C    1.537    17 N    1.176    26 C    1.033
    24   6 C    3.988 --    21 C    1.485    25 C    1.374    53 H    0.972
    25   6 C    3.989 --    22 C    1.494    24 C    1.374    54 H    0.972
    26   6 C    3.993 --    23 C    1.033    55 H    0.975    57 H    0.973
                            56 H    0.963
    27   8 O    1.854 --    58 H    0.913    59 H    0.887
    28   1 H    0.959 --     1 N    0.907
    29   1 H    0.924 --    16 O    0.921
    30   1 H    0.999 --     3 C    0.964
    31   1 H    0.999 --     4 C    0.969
    32   1 H    0.999 --     6 C    0.968
    33   1 H    0.999 --     7 C    0.968
    34   1 H    0.996 --     8 C    0.970
    35   1 H    0.995 --     8 C    0.966
    36   1 H    0.997 --     9 C    0.952
    37   1 H    0.966 --    63 N    0.931
    38   1 H    0.957 --    72 N    0.902
    39   1 H    0.998 --    10 C    0.955
    40   1 H    0.999 --    11 C    0.959
    41   1 H    0.997 --    12 C    0.949
    42   1 H    0.999 --    13 C    0.976
    43   1 H    0.999 --    13 C    0.976
    44   1 H    0.999 --    14 C    0.975
    45   1 H    0.999 --    14 C    0.978
    46   1 H    0.998 --    15 C    0.987
    47   1 H    0.999 --    15 C    0.988
    48   1 H    0.999 --    15 C    0.988
    49   1 H    0.972 --    17 N    0.943
    50   1 H    0.916 --    60 O    0.903
    51   1 H    0.999 --    21 C    0.969
    52   1 H    0.999 --    22 C    0.967
    53   1 H    0.999 --    24 C    0.972
    54   1 H    0.999 --    25 C    0.972
    55   1 H    0.996 --    26 C    0.975
    56   1 H    0.991 --    26 C    0.963
    57   1 H    0.996 --    26 C    0.973
    58   1 H    0.917 --    27 O    0.913
    59   1 H    0.910 --    27 O    0.887
    60   8 O    1.833 --    62 H    0.921    50 H    0.903
    61   1 H    0.901 --    16 O    0.871
    62   1 H    0.922 --    60 O    0.921
    63   7 N    3.453 --    67 C    1.275     9 C    0.973    37 H    0.931
                            68 O    0.192
    64   6 C    3.956 --    65 O    1.677    72 N    1.292     9 C    0.915
    65   8 O    2.008 --    64 C    1.677    72 N    0.211
    66   6 C    3.993 --    70 H    0.983    67 C    0.983    69 H    0.971
                            71 H    0.970
    67   6 C    3.951 --    68 O    1.644    63 N    1.275    66 C    0.983
    68   8 O    1.992 --    67 C    1.644    63 N    0.192
    69   1 H    0.997 --    66 C    0.971
    70   1 H    0.995 --    66 C    0.983
    71   1 H    0.996 --    66 C    0.970
    72   7 N    3.465 --    64 C    1.292    73 C    1.006    38 H    0.902
                            65 O    0.211
    73   6 C    3.966 --    72 N    1.006    74 H    0.977    76 H    0.977
                            75 H    0.977
    74   1 H    0.997 --    73 C    0.977
    75   1 H    0.998 --    73 C    0.977
    76   1 H    0.993 --    73 C    0.977
 ---------------------------------------------------------------------------

Topologies differ in total number of bonds
Writing topology from bond orders to xtbtopo.mol

molecular dipole:
                 x           y           z       tot (Debye)
 q only:       -1.746       0.415       0.003
   full:       -2.609       0.677      -0.158       6.863
molecular quadrupole (traceless):
                xx          xy          yy          xz          yz          zz
 q only:      -21.370       4.143       7.927      -8.132       9.021      13.443
  q+dip:      -28.395       0.881      12.836     -11.323      11.647      15.559
   full:      -30.723       0.555      14.225     -11.628      11.696      16.499

           -------------------------------------------------
          |               Frequency Printout                |
           -------------------------------------------------
 projected vibrational frequencies (cm⁻¹)
eigval :       -0.00    -0.00    -0.00    -0.00     0.00     0.00
eigval :        4.52     8.25    13.00    16.13    18.95    21.33
eigval :       25.60    32.02    34.73    38.28    48.68    50.29
eigval :       55.01    58.99    60.66    69.19    69.72    70.26
eigval :       78.26    82.62    87.28    90.22    92.79    97.20
eigval :      108.43   113.42   116.41   124.92   137.89   144.06
eigval :      150.79   156.64   163.07   170.80   173.60   182.98
eigval :      185.12   200.26   205.36   219.18   228.16   234.96
eigval :      237.26   240.14   268.78   284.24   289.88   291.58
eigval :      294.75   313.01   326.21   331.54   357.63   370.92
eigval :      383.96   387.19   409.81   413.43   433.62   449.91
eigval :      453.32   473.00   489.50   495.27   501.69   525.65
eigval :      529.24   553.98   578.75   587.80   594.84   603.70
eigval :      605.99   628.34   645.29   650.11   656.64   668.74
eigval :      692.87   697.28   702.55   720.41   728.24   769.83
eigval :      770.46   782.84   800.45   806.60   861.80   864.26
eigval :      865.49   866.88   874.58   894.89   896.58   909.52
eigval :      918.71   922.46   925.30   930.79   949.31   975.28
eigval :      989.71   993.13   997.20  1004.48  1009.01  1017.29
eigval :     1036.94  1039.21  1065.30  1077.92  1079.29  1104.95
eigval :     1105.61  1115.59  1119.31  1119.78  1132.10  1138.39
eigval :     1142.82  1161.73  1164.95  1168.31  1174.85  1196.62
eigval :     1201.24  1212.16  1221.30  1225.40  1225.74  1229.02
eigval :     1238.47  1254.36  1260.26  1272.70  1283.48  1288.18
eigval :     1293.96  1301.01  1312.53  1319.22  1319.43  1331.71
eigval :     1335.27  1355.58  1364.12  1367.28  1372.63  1392.52
eigval :     1394.86  1408.53  1409.23  1417.16  1421.82  1435.29
eigval :     1450.07  1454.95  1457.59  1463.38  1467.93  1469.19
eigval :     1472.31  1478.91  1485.34  1492.33  1494.22  1497.30
eigval :     1505.65  1507.47  1514.19  1525.59  1539.81  1556.90
eigval :     1568.34  1575.52  1587.86  1613.52  1626.13  1702.72
eigval :     1716.14  1757.58  2877.45  2908.86  2942.99  2966.68
eigval :     2968.82  2985.81  2988.06  2988.46  2993.10  2998.39
eigval :     2999.70  3015.44  3025.79  3026.05  3030.00  3030.49
eigval :     3032.02  3039.02  3052.65  3063.43  3067.09  3067.95
eigval :     3072.16  3073.01  3074.79  3076.45  3084.89  3096.41
eigval :     3109.47  3116.29  3302.05  3355.27  3448.00  3461.74
eigval :     3489.47  3528.41  3584.46  3653.68  3657.42  3664.90
 reduced masses (amu)
   1: 12.18   2: 11.63   3: 11.74   4: 12.13   5: 12.04   6: 12.21   7: 11.38   8: 11.83
   9: 12.14  10: 11.34  11: 12.56  12: 11.44  13: 12.18  14: 12.59  15: 12.16  16: 10.65
  17: 12.94  18: 12.23  19:  9.92  20: 10.50  21:  8.78  22:  6.59  23:  7.18  24:  5.25
  25:  7.85  26: 10.76  27:  9.03  28:  7.43  29: 11.27  30: 10.48  31:  5.35  32:  8.21
  33:  9.87  34:  1.83  35:  6.78  36:  8.62  37:  9.62  38: 10.99  39:  9.61  40:  9.93
  41:  5.68  42:  2.88  43: 10.40  44: 11.59  45:  9.84  46:  8.99  47:  2.93  48:  7.25
  49:  4.42  50: 11.60  51: 10.10  52:  2.48  53: 10.51  54: 11.81  55: 10.19  56: 10.30
  57: 10.79  58: 10.34  59: 10.92  60:  9.64  61:  6.74  62:  5.36  63:  9.34  64:  9.49
  65: 10.08  66:  6.16  67:  8.95  68: 10.21  69: 11.03  70:  8.68  71:  8.68  72:  9.38
  73: 10.16  74:  7.05  75:  8.43  76:  2.36  77: 10.69  78: 10.68  79: 10.90  80: 10.37
  81:  2.65  82:  9.56  83: 10.41  84: 10.47  85:  8.48  86:  7.41  87: 10.63  88:  8.26
  89: 11.04  90:  6.98  91:  5.15  92:  6.47  93:  7.67  94:  5.61  95:  5.70  96:  8.39
  97:  5.86  98:  7.66  99:  9.42 100:  3.97 101:  3.88 102:  2.67 103:  2.95 104:  4.34
 105:  8.66 106:  8.92 107:  6.69 108: 10.81 109:  3.02 110:  5.80 111:  4.78 112:  5.48
 113:  7.12 114:  6.90 115:  8.46 116:  4.37 117:  6.26 118:  9.25 119:  7.33 120:  3.80
 121:  8.80 122:  7.59 123:  7.19 124:  8.03 125:  7.49 126:  5.70 127:  4.51 128:  5.41
 129:  6.14 130:  5.34 131:  3.06 132:  5.40 133:  2.49 134:  5.28 135:  5.83 136:  4.77
 137:  5.03 138:  4.63 139:  5.24 140:  4.65 141:  4.26 142:  3.89 143:  4.33 144:  3.01
 145:  4.45 146:  4.66 147:  5.56 148:  5.73 149:  9.59 150:  6.55 151:  7.12 152:  7.64
 153: 10.70 154:  5.44 155:  3.27 156:  2.62 157:  4.26 158:  9.03 159:  9.31 160:  3.19
 161: 10.10 162:  8.59 163:  8.30 164: 11.28 165:  1.68 166:  1.57 167:  1.58 168:  1.86
 169:  1.85 170:  2.14 171:  2.51 172: 10.10 173:  2.44 174:  1.83 175:  1.53 176:  1.64
 177: 10.45 178:  2.23 179:  2.12 180:  2.10 181: 11.44 182: 11.51 183: 11.63 184: 11.54
 185: 11.65 186: 11.65 187: 13.10 188: 13.19 189:  1.73 190:  1.74 191:  1.80 192:  1.81
 193:  1.92 194:  1.71 195:  1.98 196:  1.47 197:  1.59 198:  1.50 199:  1.87 200:  1.55
 201:  1.88 202:  1.90 203:  1.55 204:  1.72 205:  1.82 206:  1.43 207:  1.79 208:  1.78
 209:  1.75 210:  1.72 211:  1.81 212:  1.77 213:  1.85 214:  1.79 215:  1.85 216:  1.91
 217:  1.83 218:  1.83 219:  1.89 220:  1.84 221:  1.85 222:  1.86 223:  1.86 224:  1.87
 225:  1.83 226:  1.82 227:  1.87 228:  1.83
 IR intensities (km·mol⁻¹)
   1:  0.10   2:  0.04   3:  0.12   4:  0.16   5:  0.00   6:  0.02   7:  0.22   8:  0.19
   9:  1.83  10:  0.62  11:  0.41  12:  0.92  13:  1.09  14:  0.17  15: 10.54  16:  0.69
  17:  0.46  18:  2.51  19:  2.84  20:  5.87  21:  7.66  22:  0.97  23: 29.32  24: 39.13
  25: 10.93  26:  8.88  27:  7.50  28:  5.14  29:  6.70  30:  6.60  31: 16.81  32: 13.20
  33:  7.88  34:  0.23  35: 61.94  36: 28.52  37:  0.26  38: 16.91  39: 37.30  40:  4.58
  41: 32.95  42:155.64  43:  7.34  44:  5.10  45:  2.71  46:  7.64  47:148.61  48: 20.66
  49:  2.41  50:  3.29  51:  4.47  52:175.88  53:  4.08  54:  2.04  55:  1.17  56:  1.63
  57:  1.39  58:  8.34  59:  8.73  60:  3.34  61: 61.36  62: 90.89  63:  2.08  64: 18.57
  65:  2.80  66:109.11  67: 29.45  68:  0.83  69:  1.20  70: 22.51  71: 31.62  72:  3.78
  73:  7.21  74: 24.96  75:  3.93  76:183.33  77: 21.53  78: 14.93  79: 10.78  80:  1.06
  81:244.70  82: 39.72  83: 13.28  84: 15.76  85: 30.01  86: 39.00  87:  2.97  88:  6.56
  89:  5.18  90:  7.27  91: 31.14  92:  2.45  93:  2.95  94: 21.09  95:  2.22  96:  0.06
  97:  0.01  98:  2.38  99:  2.02 100:  0.38 101:  0.77 102:  0.28 103:  0.01 104:  0.56
 105:  2.29 106:  0.61 107:  4.81 108: 17.65 109: 13.44 110:  2.54 111:  1.58 112: 24.53
 113:  2.35 114:  2.01 115: 24.93 116:  9.78 117:  0.13 118:  5.59 119: 22.37 120:  0.54
 121:  7.39 122:  6.23 123:  0.23 124: 36.61 125: 21.30 126:  1.37 127:  0.63 128: 11.73
 129:  9.12 130:  9.98 131:  2.53 132:  4.38 133: 10.83 134:  3.36 135: 22.53 136: 16.43
 137:  8.63 138:  0.80 139:  4.21 140: 26.90 141:  3.89 142:  4.35 143: 15.98 144:  9.64
 145:  6.86 146:  1.38 147:  2.78 148: 12.57 149: 39.28 150:  8.34 151: 23.40 152: 27.48
 153: 18.94 154:  4.43 155: 17.65 156:  2.32 157:  7.44 158: 77.01 159: 79.42 160:  0.45
 161:223.89 162:261.97 163:117.45 164: 76.16 165:  5.54 166: 10.05 167:  9.30 168: 10.74
 169:  6.60 170:  0.23 171: 27.95 172:  9.42 173:  0.31 174:  0.36 175:  2.85 176:  1.95
 177:485.06 178:122.94 179: 90.10 180:155.13 181:  1.82 182:  0.86 183: 12.37 184:166.88
 185: 19.70 186:237.82 187:328.94 188:594.32 189: 31.87 190: 16.91 191: 56.62 192: 31.36
 193: 32.38 194: 37.85 195: 16.10 196: 51.69 197: 34.40 198: 19.55 199:  7.18 200: 17.74
 201: 30.92 202: 50.68 203:  8.71 204:  8.93 205: 42.45 206: 37.53 207: 43.59 208: 22.24
 209:  5.63 210:  4.09 211: 41.16 212: 15.66 213: 35.41 214:  7.03 215: 70.64 216: 78.72
 217: 68.12 218: 17.68 219:163.98 220:249.49 221: 27.40 222:291.31 223: 15.10 224: 89.63
 225: 70.08 226: 12.26 227: 12.86 228: 11.81
 Raman intensities (Ä⁴*amu⁻¹)
   1:  0.00   2:  0.00   3:  0.00   4:  0.00   5:  0.00   6:  0.00   7:  0.00   8:  0.00
   9:  0.00  10:  0.00  11:  0.00  12:  0.00  13:  0.00  14:  0.00  15:  0.00  16:  0.00
  17:  0.00  18:  0.00  19:  0.00  20:  0.00  21:  0.00  22:  0.00  23:  0.00  24:  0.00
  25:  0.00  26:  0.00  27:  0.00  28:  0.00  29:  0.00  30:  0.00  31:  0.00  32:  0.00
  33:  0.00  34:  0.00  35:  0.00  36:  0.00  37:  0.00  38:  0.00  39:  0.00  40:  0.00
  41:  0.00  42:  0.00  43:  0.00  44:  0.00  45:  0.00  46:  0.00  47:  0.00  48:  0.00
  49:  0.00  50:  0.00  51:  0.00  52:  0.00  53:  0.00  54:  0.00  55:  0.00  56:  0.00
  57:  0.00  58:  0.00  59:  0.00  60:  0.00  61:  0.00  62:  0.00  63:  0.00  64:  0.00
  65:  0.00  66:  0.00  67:  0.00  68:  0.00  69:  0.00  70:  0.00  71:  0.00  72:  0.00
  73:  0.00  74:  0.00  75:  0.00  76:  0.00  77:  0.00  78:  0.00  79:  0.00  80:  0.00
  81:  0.00  82:  0.00  83:  0.00  84:  0.00  85:  0.00  86:  0.00  87:  0.00  88:  0.00
  89:  0.00  90:  0.00  91:  0.00  92:  0.00  93:  0.00  94:  0.00  95:  0.00  96:  0.00
  97:  0.00  98:  0.00  99:  0.00 100:  0.00 101:  0.00 102:  0.00 103:  0.00 104:  0.00
 105:  0.00 106:  0.00 107:  0.00 108:  0.00 109:  0.00 110:  0.00 111:  0.00 112:  0.00
 113:  0.00 114:  0.00 115:  0.00 116:  0.00 117:  0.00 118:  0.00 119:  0.00 120:  0.00
 121:  0.00 122:  0.00 123:  0.00 124:  0.00 125:  0.00 126:  0.00 127:  0.00 128:  0.00
 129:  0.00 130:  0.00 131:  0.00 132:  0.00 133:  0.00 134:  0.00 135:  0.00 136:  0.00
 137:  0.00 138:  0.00 139:  0.00 140:  0.00 141:  0.00 142:  0.00 143:  0.00 144:  0.00
 145:  0.00 146:  0.00 147:  0.00 148:  0.00 149:  0.00 150:  0.00 151:  0.00 152:  0.00
 153:  0.00 154:  0.00 155:  0.00 156:  0.00 157:  0.00 158:  0.00 159:  0.00 160:  0.00
 161:  0.00 162:  0.00 163:  0.00 164:  0.00 165:  0.00 166:  0.00 167:  0.00 168:  0.00
 169:  0.00 170:  0.00 171:  0.00 172:  0.00 173:  0.00 174:  0.00 175:  0.00 176:  0.00
 177:  0.00 178:  0.00 179:  0.00 180:  0.00 181:  0.00 182:  0.00 183:  0.00 184:  0.00
 185:  0.00 186:  0.00 187:  0.00 188:  0.00 189:  0.00 190:  0.00 191:  0.00 192:  0.00
 193:  0.00 194:  0.00 195:  0.00 196:  0.00 197:  0.00 198:  0.00 199:  0.00 200:  0.00
 201:  0.00 202:  0.00 203:  0.00 204:  0.00 205:  0.00 206:  0.00 207:  0.00 208:  0.00
 209:  0.00 210:  0.00 211:  0.00 212:  0.00 213:  0.00 214:  0.00 215:  0.00 216:  0.00
 217:  0.00 218:  0.00 219:  0.00 220:  0.00 221:  0.00 222:  0.00 223:  0.00 224:  0.00
 225:  0.00 226:  0.00 227:  0.00 228:  0.00
 output can be read by thermo (or use thermo option).
 writing <g98.out> molden fake output.
 recommended (thermochemical) frequency scaling factor: 1.0
           -------------------------------------------------
          |             Thermodynamic Functions             |
           -------------------------------------------------

Refinement of some symmetry elements was terminated before convergence was reached.
Some symmetry elements may remain unidentified.
Molecule has no symmetry elements
It seems to be the C1 point group
c1  symmetry found (for desy threshold:  0.10E+00) used in thermo

          ...................................................
          :                      SETUP                      :
          :.................................................:
          :  # frequencies                         222      :
          :  # imaginary freq.                       0      :
          :  linear?                             false      :
          :  only rotor calc.                    false      :
          :  symmetry                               c1      :
          :  rotational number                       1      :
          :  scaling factor                  1.0000000      :
          :  rotor cutoff                   50.0000000 cm⁻¹ :
          :  imag. cutoff                  -20.0000000 cm⁻¹ :
          :.................................................:

    mode    ω/cm⁻¹     T·S(HO)/kcal·mol⁻¹    T·S(FR)/kcal·mol⁻¹   T·S(vib)
   ------------------------------------------------------------------------
       1      4.52    -2.85834 (  0.01%)    -1.76817 ( 99.99%)    -1.76824
       2      8.25    -2.50251 (  0.07%)    -1.59029 ( 99.93%)    -1.59096
       3     13.00    -2.23311 (  0.45%)    -1.45559 ( 99.55%)    -1.45912
       4     16.13    -2.10536 (  1.07%)    -1.39169 ( 98.93%)    -1.39934
       5     18.95    -2.00991 (  2.02%)    -1.34394 ( 97.98%)    -1.35741
       6     21.33    -1.93982 (  3.21%)    -1.30887 ( 96.79%)    -1.32910
       7     25.60    -1.83194 (  6.43%)    -1.25488 ( 93.57%)    -1.29197
       8     32.02    -1.69946 ( 14.40%)    -1.18853 ( 85.60%)    -1.26212
       9     34.73    -1.65145 ( 18.88%)    -1.16448 ( 81.12%)    -1.25644
      10     38.28    -1.59388 ( 25.58%)    -1.13562 ( 74.42%)    -1.25285
      11     48.68    -1.45208 ( 47.33%)    -1.06447 ( 52.67%)    -1.24791
      12     50.29    -1.43291 ( 50.57%)    -1.05484 ( 49.43%)    -1.24605
      13     55.01    -1.38003 ( 59.43%)    -1.02826 ( 40.57%)    -1.23733
      14     58.99    -1.33890 ( 65.96%)    -1.00756 ( 34.04%)    -1.22610
      15     60.66    -1.32250 ( 68.41%)    -0.99930 ( 31.59%)    -1.22041
      16     69.19    -1.24517 ( 78.57%)    -0.96032 ( 21.43%)    -1.18413
      17     69.72    -1.24070 ( 79.08%)    -0.95807 ( 20.92%)    -1.18157
      18     70.26    -1.23611 ( 79.59%)    -0.95575 ( 20.41%)    -1.17889
      19     78.26    -1.17293 ( 85.72%)    -0.92382 ( 14.28%)    -1.13735
      20     82.62    -1.14118 ( 88.18%)    -0.90775 ( 11.82%)    -1.11358
      21     87.28    -1.10917 ( 90.28%)    -0.89151 (  9.72%)    -1.08800
      22     90.22    -1.08982 ( 91.38%)    -0.88169 (  8.62%)    -1.07188
      23     92.79    -1.07345 ( 92.22%)    -0.87338 (  7.78%)    -1.05790
      24     97.20    -1.04643 ( 93.46%)    -0.85963 (  6.54%)    -1.03420
      25    108.43    -0.98296 ( 95.67%)    -0.82724 (  4.33%)    -0.97622
      26    113.42    -0.95694 ( 96.36%)    -0.81391 (  3.64%)    -0.95173
      27    116.41    -0.94190 ( 96.71%)    -0.80620 (  3.29%)    -0.93743
      28    124.92    -0.90126 ( 97.50%)    -0.78530 (  2.50%)    -0.89836
      29    137.89    -0.84463 ( 98.30%)    -0.75602 (  1.70%)    -0.84313
      30    144.06    -0.81969 ( 98.57%)    -0.74306 (  1.43%)    -0.81859
      31    150.79    -0.79373 ( 98.81%)    -0.72953 (  1.19%)    -0.79297
      32    156.64    -0.77220 ( 98.97%)    -0.71826 (  1.03%)    -0.77165
      33    163.07    -0.74950 ( 99.12%)    -0.70634 (  0.88%)    -0.74913
      34    170.80    -0.72351 ( 99.27%)    -0.69263 (  0.73%)    -0.72329
      35    173.60    -0.71442 ( 99.32%)    -0.68781 (  0.68%)    -0.71424
      36    182.98    -0.68508 ( 99.45%)    -0.67222 (  0.55%)    -0.68501
      37    185.12    -0.67864 ( 99.47%)    -0.66878 (  0.53%)    -0.67859
      38    200.26    -0.63527 ( 99.61%)    -0.64549 (  0.39%)    -0.63531
      39    205.36    -0.62150 ( 99.65%)    -0.63803 (  0.35%)    -0.62155
      40    219.18    -0.58612 ( 99.73%)    -0.61874 (  0.27%)    -0.58621
      41    228.16    -0.56451 ( 99.77%)    -0.60684 (  0.23%)    -0.56460
      42    234.96    -0.54881 ( 99.80%)    -0.59814 (  0.20%)    -0.54891
      43    237.26    -0.54362 ( 99.80%)    -0.59526 (  0.20%)    -0.54372
      44    240.14    -0.53722 ( 99.81%)    -0.59169 (  0.19%)    -0.53732
      45    268.78    -0.47824 ( 99.88%)    -0.55831 (  0.12%)    -0.47834
      46    284.24    -0.44962 ( 99.90%)    -0.54174 (  0.10%)    -0.44971
      47    289.88    -0.43966 ( 99.91%)    -0.53592 (  0.09%)    -0.43975
      48    291.58    -0.43672 ( 99.91%)    -0.53419 (  0.09%)    -0.43681
      49    294.75    -0.43129 ( 99.92%)    -0.53099 (  0.08%)    -0.43137
   ------------------------------------------------------------------------

   temp. (K)  partition function   enthalpy   heat capacity  entropy
                                   cal/mol     cal/K/mol   cal/K/mol   J/K/mol
 298.15  VIB  0.790E+26            27628.311    144.561    185.891
         ROT  0.519E+08              888.752      2.981     38.284
         INT  0.410E+34            28517.063    147.542    224.175
         TR   0.108E+29             1481.254      4.968     44.499
         TOT                       29998.3168   152.5105   268.6738  1124.1314

       T/K    H(0)-H(T)+PV         H(T)/Eh          T*S/Eh         G(T)/Eh
   ------------------------------------------------------------------------
    298.15    0.478054E-01    0.667946E+00    0.127656E+00    0.540290E+00
   ------------------------------------------------------------------------

         :::::::::::::::::::::::::::::::::::::::::::::::::::::
         ::                  THERMODYNAMIC                  ::
         :::::::::::::::::::::::::::::::::::::::::::::::::::::
         :: total free energy        -109.726946163745 Eh   ::
         ::.................................................::
         :: total energy             -110.267236318229 Eh   ::
         :: zero point energy           0.620140406449 Eh   ::
         :: G(RRHO) w/o ZPVE           -0.079850251965 Eh   ::
         :: G(RRHO) contrib.            0.540290154484 Eh   ::
         :::::::::::::::::::::::::::::::::::::::::::::::::::::

           -------------------------------------------------
          | TOTAL ENERGY             -110.267236318229 Eh   |
          | TOTAL ENTHALPY           -109.599290551021 Eh   |
          | TOTAL FREE ENERGY        -109.726946163745 Eh   |
          | GRADIENT NORM               0.000262422862 Eh/α |
          | HOMO-LUMO GAP               2.620449058661 eV   |
           -------------------------------------------------

------------------------------------------------------------------------
 * finished run on 2026/08/20 at 19:01:16.682     
------------------------------------------------------------------------
 total:
 * wall-time:     0 d,  0 h,  1 min, 38.859 sec
 *  cpu-time:     0 d,  0 h,  1 min, 32.859 sec
 * ratio c/w:     0.939 speedup
 SCF:
 * wall-time:     0 d,  0 h,  0 min,  0.084 sec
 *  cpu-time:     0 d,  0 h,  0 min,  0.078 sec
 * ratio c/w:     0.930 speedup
 analytical hessian:
 * wall-time:     0 d,  0 h,  1 min, 38.644 sec
 *  cpu-time:     0 d,  0 h,  1 min, 32.688 sec
 * ratio c/w:     0.940 speedup



================ STDERR ================

normal termination of xtb
