76
 energy: -110.273365099765 gnorm: 0.000217046371 xtb: 6.7.1pre (5071a88)
N            0.22471044523229        0.50108567722891       -0.53729925917751
C            1.55261437192247        0.20019495160536       -0.30471972163070
C            2.27794058368043        0.72351116343958        0.76700927971746
C            3.62398947792409        0.45149029759144        0.89523642109953
C            4.27894960451543       -0.37996331397978       -0.00405515734736
C            3.52500935403845       -1.00253823507012       -0.99198675889320
C            2.18398987661268       -0.72217237319768       -1.14260004207394
C            5.77600822161302       -0.45567961319731       -0.02636593205607
C            6.27612477827520        0.69431906030402       -0.92204489860667
C           -0.42843144520707        1.69240380481539       -0.27774157354118
C            0.08161373344769        2.85917899679736        0.11817710288371
C           -0.79835764004229        4.04755620669955        0.40644980362049
C           -0.00828999317544        5.36471952638462        0.43151143285451
C            0.56419745348647        5.73679492910691       -0.93412937936185
C            1.24810612236612        7.09801139302268       -0.89720304942623
O            0.36663656687513        0.23484291151575       -3.56283143752075
N           -2.08824428600387        3.46245605022111        3.83614638842788
C           -3.26561585163045        3.73562704091446        3.20750264836596
C           -2.96545616972271        3.98728084625031        1.84507564921279
C           -1.54763880328910        3.85266402311319        1.69739816121102
C           -4.56274672078172        3.79785992439238        3.69761511632414
C           -4.00628264160663        4.29894304268272        0.96781353618415
C           -1.05233951248195        3.53274153292664        2.93338736529105
C           -5.56748006798002        4.11399271101410        2.80781781848649
C           -5.29088142185956        4.35955098607180        1.45998922057328
C            0.33315334119778        3.26449315194529        3.40209010126225
O            1.54609409467285        2.58367442639090       -2.81190490176007
H           -0.18125871553630       -0.03974250118131       -1.29057574799069
H           -0.13636358494429        0.44090449498588       -4.35181005080315
H            1.78329317191959        1.34467542401856        1.49495883260627
H            4.18290261575220        0.90528875531786        1.70166688927743
H            3.99957079328544       -1.70272373097752       -1.66632186468850
H            1.61749223706594       -1.17835713863431       -1.94076907390972
H            6.12931361111162       -1.40470054573651       -0.43277137373839
H            6.20397139106069       -0.32852275610316        0.96772518121303
H            5.88820754452251        1.64412963191265       -0.53478202575728
H            6.02742888439355       -0.27347770178381       -2.76224767296929
H            7.58636840211418        2.48302515836112       -2.04191416346924
H           -1.49666462622289        1.61993329099599       -0.44859958947443
H            1.14091522720024        2.98702054185922        0.27624135311842
H           -1.55182256660450        4.12183517023330       -0.38676180911884
H           -0.67195723238120        6.16566812652797        0.76459903731269
H            0.80353258941804        5.29293891251435        1.15788775325166
H            1.28626781973840        4.98386055156812       -1.25521484027000
H           -0.24234051015655        5.75697759947398       -1.67083723911865
H            1.64525751702139        7.35345471134553       -1.87694511200692
H            0.54317749016630        7.87032670176050       -0.59746027902676
H            2.07022068953338        7.09216002316443       -0.18456620015978
H           -1.98165517224830        3.24345543190147        4.81185067001575
H           -2.54934168177250        6.19127574449503        2.23102074706943
H           -4.77453211553148        3.60503208313737        4.73900314994528
H           -3.80822629173517        4.49280211790508       -0.07599350373687
H           -6.58839212383455        4.17198296264262        3.15481041023075
H           -6.10714757231162        4.60079792959595        0.79489563593543
H            1.04995828860658        3.49243008306580        2.62162679505432
H            0.56232033465488        3.87536167858158        4.27561118961637
H            0.44447357111988        2.21574690661817        3.68279540177378
H            2.48196956751055        2.50398662210050       -2.54703722758960
H            1.06586821810319        2.83960585733618       -2.01718676732366
O           -2.69921862536256        7.12529652909784        2.41231164793475
H            0.82033688782669        1.06679758311275       -3.31490784216561
H           -3.65028456933254        7.24522557955320        2.43752678979988
N            5.75375849579010        0.56332940265988       -2.26962920836751
C            7.80770733791860        0.75177253773497       -0.98754431089645
O            8.53138985558440       -0.08651548084531       -0.49748713521632
C            4.08821858876567        0.76073244464337       -4.00560135102465
C            4.65815479530399        1.23030320881950       -2.69287918446411
O            4.18810127269764        2.17166555001391       -2.07262159489458
H            3.21050252594913        0.15059544429100       -3.79508674618569
H            4.80358752181092        0.17790147915396       -4.57821278890246
H            3.75816348548970        1.61857521213917       -4.58607280036204
N            8.25406666162204        1.82572039843131       -1.67021631772491
C            9.65579571545428        2.09163866949131       -1.88160576747824
H            9.94176240450586        3.04174977346093       -1.42714051419825
H            9.88746006298167        2.12092701620516       -2.94783844608533
H           10.21431633969970        1.28409339594136       -1.41123086931654
