      -----------------------------------------------------------      
     |                   =====================                   |     
     |                           x T B                           |     
     |                   =====================                   |     
     |                         S. Grimme                         |     
     |          Mulliken Center for Theoretical Chemistry        |     
     |                    University of Bonn                     |     
      -----------------------------------------------------------      

   * xtb version 6.7.1pre (5071a88) compiled by 'Marcel@Raven' on 2024-07-23

   xtb is free software: you can redistribute it and/or modify it under
   the terms of the GNU Lesser General Public License as published by
   the Free Software Foundation, either version 3 of the License, or
   (at your option) any later version.
   
   xtb is distributed in the hope that it will be useful,
   but WITHOUT ANY WARRANTY; without even the implied warranty of
   MERCHANTABILITY or FITNESS FOR A PARTICULAR PURPOSE.  See the
   GNU Lesser General Public License for more details.
   
   Cite this work as:
   * C. Bannwarth, E. Caldeweyher, S. Ehlert, A. Hansen, P. Pracht,
     J. Seibert, S. Spicher, S. Grimme, WIREs Comput. Mol. Sci., 2020, 11,
     e01493. DOI: 10.1002/wcms.1493
   
   for GFN2-xTB:
   * C. Bannwarth, S. Ehlert and S. Grimme., J. Chem. Theory Comput., 2019,
     15, 1652-1671. DOI: 10.1021/acs.jctc.8b01176
   for GFN1-xTB:
   * S. Grimme, C. Bannwarth, P. Shushkov, J. Chem. Theory Comput., 2017,
     13, 1989-2009. DOI: 10.1021/acs.jctc.7b00118
   for GFN0-xTB:
   * P. Pracht, E. Caldeweyher, S. Ehlert, S. Grimme, ChemRxiv, 2019, preprint.
     DOI: 10.26434/chemrxiv.8326202.v1
   for GFN-FF:
   * S. Spicher and S. Grimme, Angew. Chem. Int. Ed., 2020, 59, 15665-15673.
     DOI: 10.1002/anie.202004239
   
   for ALPB and GBSA implicit solvation:
   * S. Ehlert, M. Stahn, S. Spicher, S. Grimme, J. Chem. Theory Comput.,
     2021, 17, 4250-4261. DOI: 10.1021/acs.jctc.1c00471
   
   for ddCOSMO and CPCM-X implicit solvation:
   * M. Stahn, S. Ehlert, S. Grimme, J. Phys. Chem. A,
     2023, XX, XXXX-XXXX. DOI: 10.1021/acs.jpca.3c04382
   
   for DFT-D4:
   * E. Caldeweyher, C. Bannwarth and S. Grimme, J. Chem. Phys., 2017,
     147, 034112. DOI: 10.1063/1.4993215
   * E. Caldeweyher, S. Ehlert, A. Hansen, H. Neugebauer, S. Spicher,
     C. Bannwarth and S. Grimme, J. Chem. Phys., 2019, 150, 154122.
     DOI: 10.1063/1.5090222
   * E. Caldeweyher, J.-M. Mewes, S. Ehlert and S. Grimme, Phys. Chem. Chem. Phys.
     2020, 22, 8499-8512. DOI: 10.1039/D0CP00502A
   
   for sTDA-xTB:
   * S. Grimme and C. Bannwarth, J. Chem. Phys., 2016, 145, 054103.
     DOI: 10.1063/1.4959605
   
   in the mass-spec context:
   * V. Asgeirsson, C. Bauer and S. Grimme, Chem. Sci., 2017, 8, 4879.
     DOI: 10.1039/c7sc00601b
   * J. Koopman and S. Grimme, ACS Omega 2019, 4, 12, 15120-15133.
     DOI: 10.1021/acsomega.9b02011
   
   for metadynamics refer to:
   * S. Grimme, J. Chem. Theory Comput., 2019, 155, 2847-2862
     DOI: 10.1021/acs.jctc.9b00143
   
   for SPH calculations refer to:
   * S. Spicher and S. Grimme, J. Chem. Theory Comput., 2021, 17, 1701-1714
     DOI: 10.1021/acs.jctc.0c01306
   
   for ONIOM refer to:
   * C. Plett, A. Katbashev, S. Ehlert, S. Grimme, M. Bursch,
     Phys. Chem. Chem. Phys., 2023, 25, 17860-17868. DOI: 10.1039/D3CP02178E
   
   for DIPRO refer to:
   * J. Kohn, N. Gildemeister, S. Grimme, D. Fazzi, A. Hansen,
     J. Chem. Phys., 2023, just accepted.
   
   for PTB refer to:
   * S. Grimme, M. Mueller, A. Hansen, J. Chem. Phys., 2023, 158, 124111.
     DOI: 10.1063/5.0137838
   
   with help from (in alphabetical order)
   P. Atkinson, C. Bannwarth, F. Bohle, G. Brandenburg, E. Caldeweyher
   M. Checinski, S. Dohm, S. Ehlert, S. Ehrlich, I. Gerasimov, C. Hölzer
   A. Katbashev, J. Kohn, J. Koopman, C. Lavigne, S. Lehtola, F. März, M. Müller,
   F. Musil, H. Neugebauer, J. Pisarek, C. Plett, P. Pracht, F. Pultar,
   J. Seibert, P. Shushkov, S. Spicher, M. Stahn, M. Steiner, T. Strunk,
   J. Stückrath, T. Rose, and J. Unsleber
   
 * started run on 2026/08/20 at 19:01:34.389     
   ID    Z sym.   atoms
    1    7 N      1, 17, 63, 72
    2    6 C      2-15, 18-26, 64, 66, 67, 73
    3    8 O      16, 27, 60, 65, 68
    4    1 H      28-59, 61, 62, 69-71, 74-76

           -------------------------------------------------
          |                Calculation Setup                |
           -------------------------------------------------

          program call               : C:\Users\Nayanika\Downloads\xtb-6.7.1pre-windows-x86_64\xtb-6.7.1\bin\xtb.exe D:\PhD_Thesis\LmrR_EVB\charges\fast_lmrr_5QM\xtb_preparation\TS2_1a_to_PS2_2\TS2_1a_to_PS2_2_TS_xtbopt.xyz --gfn 2 --chrg 0 --uhf 0 --hess --etemp 0
          coordinate file            : D:\PhD_Thesis\LmrR_EVB\charges\fast_lmrr_5QM\xtb_preparation\TS2_1a_to_PS2_2\TS2_1a_to_PS2_2_TS_xtbopt.xyz
          omp threads                :                     1


molecular fragmentation (1/2 indicates fragments):
111111111111111211111111112121111111111111111111121111111222221111111111
1111
# atoms in fragment 1/2:    67     9
 fragment masses (1/2) :      446.59       54.05
CMA distance (Bohr)    :   5.110
constraining FC (au)   :  0.0500

           -------------------------------------------------
          |                 G F N 2 - x T B                 |
           -------------------------------------------------

        Reference                      10.1021/acs.jctc.8b01176
      * Hamiltonian:
        H0-scaling (s, p, d)           1.850000    2.230000    2.230000
        zeta-weighting                 0.500000
      * Dispersion:
        s8                             2.700000
        a1                             0.520000
        a2                             5.000000
        s9                             5.000000
      * Repulsion:
        kExp                           1.500000    1.000000
        rExp                           1.000000
      * Coulomb:
        alpha                          2.000000
        third order                    shell-resolved
        anisotropic                    true
        a3                             3.000000
        a5                             4.000000
        cn-shift                       1.200000
        cn-exp                         4.000000
        max-rad                        5.000000

q/qsh data taken from xtbrestart
CAMM data taken from xtbrestart

          ...................................................
          :                      SETUP                      :
          :.................................................:
          :  # basis functions                 184          :
          :  # atomic orbitals                 184          :
          :  # shells                          112          :
          :  # electrons                       198          :
          :  max. iterations                   250          :
          :  Hamiltonian                  GFN2-xTB          :
          :  restarted?                       true          :
          :  GBSA solvation                  false          :
          :  PC potential                    false          :
          :  electronic temp.            0.0000000     K    :
          :  accuracy                    1.0000000          :
          :  -> integral cutoff          0.2500000E+02      :
          :  -> integral neglect         0.1000000E-07      :
          :  -> SCF convergence          0.1000000E-05 Eh   :
          :  -> wf. convergence          0.1000000E-03 e    :
          :  Broyden damping             0.4000000          :
          :  net charge                          0          :
          :  unpaired electrons                  0          :
          ...................................................

 iter      E             dE          RMSdq      gap      omega  full diag
   1   -111.8480854 -0.111848E+03  0.140E-06    2.97       0.0  T
   2   -111.8480854 -0.540012E-12  0.997E-07    2.97   11505.5  T
   3   -111.8480854  0.142109E-12  0.540E-07    2.97   21258.1  T

   *** convergence criteria satisfied after 3 iterations ***

         #    Occupation            Energy/Eh            Energy/eV
      -------------------------------------------------------------
         1        2.0000           -0.7111116             -19.3503
       ...           ...                  ...                  ...
        93        2.0000           -0.4054983             -11.0342
        94        2.0000           -0.3989004             -10.8546
        95        2.0000           -0.3932180             -10.7000
        96        2.0000           -0.3870779             -10.5329
        97        2.0000           -0.3775799             -10.2745
        98        2.0000           -0.3576213              -9.7314
        99        2.0000           -0.3371515              -9.1744 (HOMO)
       100                         -0.2279848              -6.2038 (LUMO)
       101                         -0.2236009              -6.0845
       102                         -0.2200946              -5.9891
       103                         -0.2128628              -5.7923
       104                         -0.2095793              -5.7029
       ...                                ...                  ...
       184                          0.7175215              19.5248
      -------------------------------------------------------------
                  HL-Gap            0.1091667 Eh            2.9706 eV
             Fermi-level            0.0000000 Eh            0.0000 eV

 SCC (total)                   0 d,  0 h,  0 min,  0.106 sec
 SCC setup                      ...        0 min,  0.000 sec (  0.000%)
 Dispersion                     ...        0 min,  0.003 sec (  2.830%)
 classical contributions        ...        0 min,  0.009 sec (  8.490%)
 integral evaluation            ...        0 min,  0.016 sec ( 15.094%)
 iterations                     ...        0 min,  0.022 sec ( 20.755%)
 molecular gradient             ...        0 min,  0.055 sec ( 51.887%)
 printout                       ...        0 min,  0.001 sec (  0.944%)

         :::::::::::::::::::::::::::::::::::::::::::::::::::::
         ::                     SUMMARY                     ::
         :::::::::::::::::::::::::::::::::::::::::::::::::::::
         :: total energy            -110.273365099796 Eh    ::
         :: gradient norm              0.000217287715 Eh/a0 ::
         :: HOMO-LUMO gap              2.970576078950 eV    ::
         ::.................................................::
         :: SCC energy              -111.846036863666 Eh    ::
         :: -> isotropic ES            0.187682685105 Eh    ::
         :: -> anisotropic ES          0.003561581817 Eh    ::
         :: -> anisotropic XC          0.041130415336 Eh    ::
         :: -> dispersion             -0.085352507598 Eh    ::
         :: repulsion energy           1.572671763870 Eh    ::
         :: add. restraining           0.000000000000 Eh    ::
         :: total charge               0.000000000000 e     ::
         :::::::::::::::::::::::::::::::::::::::::::::::::::::

           ------------------------------------------------- 
          |                Numerical Hessian                |
           ------------------------------------------------- 
step length          :   0.00500
SCC accuracy         :   0.30000
Hessian scale factor :   1.00000
frozen atoms in %    :   0.00000    0
RMS gradient         :   0.00022
estimated CPU  time      0.77 min
estimated wall time      0.77 min

writing file <hessian>.

 projected vibrational frequencies (cm⁻¹)
eigval :       -0.00     0.00     0.00     0.00     0.00     0.00
eigval :       -5.80     9.02    10.67    14.30    16.88    26.56
eigval :       28.40    31.67    37.80    43.64    51.96    57.88
eigval :       58.27    64.24    70.11    71.60    81.29    85.05
eigval :       92.93    95.96    96.69   107.59   114.15   115.75
eigval :      122.76   126.40   128.37   129.79   136.64   151.70
eigval :      155.59   167.95   172.96   184.13   202.75   218.20
eigval :      229.93   234.52   244.15   257.81   266.52   269.94
eigval :      272.94   290.64   292.26   296.86   316.11   330.22
eigval :      336.68   354.68   369.59   374.29   394.66   408.49
eigval :      417.33   420.99   438.33   449.13   459.61   475.07
eigval :      483.12   488.62   493.15   507.71   525.98   529.57
eigval :      551.90   554.53   555.16   583.71   596.59   605.53
eigval :      612.63   624.58   655.73   658.82   676.27   683.27
eigval :      695.72   702.27   726.35   734.19   743.54   769.60
eigval :      773.50   786.16   806.61   818.20   863.22   864.29
eigval :      865.40   875.14   890.42   894.40   896.02   916.41
eigval :      918.77   923.95   926.21   928.64   948.75   979.91
eigval :      990.68  1000.60  1003.26  1008.76  1012.57  1022.64
eigval :     1023.51  1034.98  1066.53  1071.09  1081.07  1101.80
eigval :     1106.39  1107.62  1118.02  1123.27  1125.99  1138.94
eigval :     1142.06  1155.35  1161.69  1170.18  1174.88  1191.55
eigval :     1195.01  1199.91  1212.79  1219.01  1220.39  1224.11
eigval :     1239.38  1246.93  1264.88  1267.49  1273.34  1283.58
eigval :     1294.64  1302.73  1308.08  1317.13  1321.31  1329.16
eigval :     1331.27  1353.15  1364.99  1366.61  1376.13  1393.57
eigval :     1396.13  1398.81  1409.08  1416.45  1419.74  1425.82
eigval :     1446.82  1449.18  1450.20  1461.97  1465.29  1473.59
eigval :     1474.73  1479.39  1482.13  1494.08  1495.26  1496.53
eigval :     1503.96  1507.24  1507.76  1543.09  1545.45  1565.58
eigval :     1575.81  1578.24  1594.61  1613.75  1629.57  1691.91
eigval :     1705.00  1759.82  2914.30  2931.21  2965.52  2973.56
eigval :     2978.68  2982.21  2986.25  2989.35  2991.80  2993.01
eigval :     3002.98  3008.16  3019.64  3029.54  3033.47  3035.61
eigval :     3036.32  3037.89  3045.15  3053.15  3057.94  3069.41
eigval :     3072.61  3075.16  3083.22  3083.66  3090.86  3092.74
eigval :     3093.49  3119.65  3249.16  3330.72  3394.21  3444.38
eigval :     3454.12  3486.00  3555.99  3560.79  3656.19  3671.23
           -------------------------------------------------
          |                Property Printout                |
           -------------------------------------------------

    * Orbital Energies and Occupations

         #    Occupation            Energy/Eh            Energy/eV
      -------------------------------------------------------------
         1        2.0000           -0.7111116             -19.3503
       ...           ...                  ...                  ...
        87        2.0000           -0.4197691             -11.4225
        88        2.0000           -0.4151333             -11.2964
        89        2.0000           -0.4138599             -11.2617
        90        2.0000           -0.4123194             -11.2198
        91        2.0000           -0.4109933             -11.1837
        92        2.0000           -0.4087963             -11.1239
        93        2.0000           -0.4054983             -11.0342
        94        2.0000           -0.3989004             -10.8546
        95        2.0000           -0.3932180             -10.7000
        96        2.0000           -0.3870779             -10.5329
        97        2.0000           -0.3775799             -10.2745
        98        2.0000           -0.3576213              -9.7314
        99        2.0000           -0.3371515              -9.1744 (HOMO)
       100                         -0.2279848              -6.2038 (LUMO)
       101                         -0.2236009              -6.0845
       102                         -0.2200946              -5.9891
       103                         -0.2128628              -5.7923
       104                         -0.2095793              -5.7029
       105                         -0.1962431              -5.3400
       106                         -0.1703900              -4.6365
       107                         -0.1537496              -4.1837
       108                         -0.0815296              -2.2185
       109                         -0.0704669              -1.9175
       110                         -0.0077714              -0.2115
       ...                                ...                  ...
       184                          0.7175215              19.5248
      -------------------------------------------------------------
                  HL-Gap            0.1091667 Eh            2.9706 eV
             Fermi-level            0.0000000 Eh            0.0000 eV

     #   Z          covCN         q      C6AA      α(0)
     1   7 N        2.692    -0.151    24.277     7.318
     2   6 C        2.905     0.069    26.455     8.434
     3   6 C        2.921    -0.056    29.388     8.890
     4   6 C        2.925    -0.038    28.949     8.824
     5   6 C        2.975    -0.005    28.150     8.703
     6   6 C        2.924    -0.042    29.041     8.837
     7   6 C        2.926    -0.064    29.587     8.920
     8   6 C        3.810    -0.065    21.744     6.638
     9   6 C        3.802     0.017    20.294     6.414
    10   6 C        2.826     0.011    27.769     8.635
    11   6 C        2.894    -0.087    30.187     9.008
    12   6 C        3.859    -0.019    20.867     6.496
    13   6 C        3.807    -0.065    21.739     6.637
    14   6 C        3.800    -0.055    21.556     6.610
    15   6 C        3.752    -0.103    22.531     6.769
    16   8 O        1.608    -0.616    25.576     6.825
    17   7 N        2.784    -0.120    23.615     7.217
    18   6 C        3.068     0.041    27.002     8.521
    19   6 C        3.112    -0.030    28.589     8.759
    20   6 C        3.058    -0.048    29.125     8.850
    21   6 C        2.908    -0.055    29.365     8.886
    22   6 C        2.911    -0.042    29.039     8.836
    23   6 C        3.062     0.042    26.995     8.520
    24   6 C        2.924    -0.041    29.007     8.832
    25   6 C        2.919    -0.046    29.139     8.852
    26   6 C        3.754    -0.110    22.665     6.788
    27   8 O        1.609    -0.612    25.482     6.813
    28   1 H        0.860     0.186     1.178     1.700
    29   1 H        0.806     0.266     0.834     1.434
    30   1 H        0.926     0.038     2.480     2.463
    31   1 H        0.926     0.026     2.642     2.542
    32   1 H        0.925     0.019     2.752     2.594
    33   1 H        0.926     0.046     2.370     2.407
    34   1 H        0.924     0.050     2.317     2.380
    35   1 H        0.925     0.057     2.238     2.339
    36   1 H        0.924     0.075     2.031     2.229
    37   1 H        0.860     0.176     1.238     1.743
    38   1 H        0.860     0.174     1.250     1.752
    39   1 H        0.925     0.030     2.583     2.513
    40   1 H        0.926     0.034     2.528     2.487
    41   1 H        0.924     0.036     2.498     2.472
    42   1 H        0.924     0.044     2.401     2.423
    43   1 H        0.924     0.031     2.567     2.505
    44   1 H        0.924     0.034     2.530     2.487
    45   1 H        0.924     0.028     2.609     2.526
    46   1 H        0.925     0.032     2.560     2.502
    47   1 H        0.925     0.036     2.501     2.473
    48   1 H        0.925     0.032     2.558     2.501
    49   1 H        0.860     0.158     1.347     1.818
    50   1 H        0.805     0.288     0.757     1.367
    51   1 H        0.926     0.022     2.710     2.574
    52   1 H        0.926     0.027     2.636     2.539
    53   1 H        0.926     0.024     2.667     2.554
    54   1 H        0.926     0.023     2.685     2.562
    55   1 H        0.925     0.059     2.214     2.327
    56   1 H        0.924     0.045     2.387     2.416
    57   1 H        0.924     0.046     2.376     2.410
    58   1 H        0.803     0.318     0.669     1.284
    59   1 H        0.805     0.287     0.761     1.371
    60   8 O        1.610    -0.580    24.704     6.708
    61   1 H        0.803     0.316     0.676     1.292
    62   1 H        0.805     0.277     0.794     1.400
    63   7 N        2.691    -0.183    24.973     7.422
    64   6 C        2.754     0.263    22.556     7.777
    65   8 O        0.858    -0.422    22.117     6.305
    66   6 C        3.757    -0.154    23.525     6.915
    67   6 C        2.749     0.283    22.214     7.718
    68   8 O        0.859    -0.461    22.939     6.421
    69   1 H        0.925     0.096     1.821     2.110
    70   1 H        0.925     0.047     2.354     2.399
    71   1 H        0.925     0.081     1.972     2.196
    72   7 N        2.687    -0.169    24.662     7.376
    73   6 C        3.689    -0.046    21.592     6.650
    74   1 H        0.924     0.054     2.273     2.358
    75   1 H        0.924     0.052     2.298     2.371
    76   1 H        0.925     0.089     1.889     2.149

 Mol. C6AA /au·bohr⁶  :      56214.143838
 Mol. C8AA /au·bohr⁸  :    1284617.201342
 Mol. α(0) /au        :        366.096400


Wiberg/Mayer (AO) data.
largest (>0.10) Wiberg bond orders for each atom

 ---------------------------------------------------------------------------
     #   Z sym  total        # sym  WBO       # sym  WBO       # sym  WBO
 ---------------------------------------------------------------------------
     1   7 N    3.442 --     2 C    1.128    10 C    1.125    28 H    0.925
     2   6 C    3.971 --     3 C    1.346     7 C    1.344     1 N    1.128
     3   6 C    3.989 --     4 C    1.467     2 C    1.346    30 H    0.964
     4   6 C    3.991 --     3 C    1.467     5 C    1.398    31 H    0.969
                             7 C    0.101
     5   6 C    3.971 --     4 C    1.398     6 C    1.394     8 C    1.012
     6   6 C    3.991 --     7 C    1.468     5 C    1.394    32 H    0.969
     7   6 C    3.986 --     6 C    1.468     2 C    1.344    33 H    0.963
                             4 C    0.101
     8   6 C    3.991 --     5 C    1.012    34 H    0.972    35 H    0.968
                             9 C    0.964
     9   6 C    3.961 --    63 N    0.977     8 C    0.964    36 H    0.947
                            64 C    0.928
    10   6 C    3.966 --    11 C    1.794     1 N    1.125    39 H    0.961
    11   6 C    3.963 --    10 C    1.794    12 C    0.999    40 H    0.957
    12   6 C    3.994 --    11 C    0.999    20 C    0.987    13 C    0.982
                            41 H    0.955
    13   6 C    3.994 --    14 C    1.007    12 C    0.982    43 H    0.974
                            42 H    0.973
    14   6 C    3.997 --    15 C    1.018    13 C    1.007    45 H    0.978
                            44 H    0.974
    15   6 C    3.996 --    14 C    1.018    48 H    0.988    47 H    0.988
                            46 H    0.987
    16   8 O    1.814 --    29 H    0.927    61 H    0.844
    17   7 N    3.529 --    18 C    1.178    23 C    1.170    49 H    0.945
    18   6 C    3.959 --    21 C    1.343    19 C    1.236    17 N    1.178
    19   6 C    3.983 --    22 C    1.328    18 C    1.236    20 C    1.199
    20   6 C    3.970 --    23 C    1.552    19 C    1.199    12 C    0.987
    21   6 C    3.989 --    24 C    1.487    18 C    1.343    51 H    0.969
                            22 C    0.111
    22   6 C    3.989 --    25 C    1.501    19 C    1.328    52 H    0.967
                            21 C    0.111
    23   6 C    3.950 --    20 C    1.552    17 N    1.170    26 C    1.030
    24   6 C    3.988 --    21 C    1.487    25 C    1.373    53 H    0.972
    25   6 C    3.989 --    22 C    1.501    24 C    1.373    54 H    0.972
    26   6 C    3.995 --    23 C    1.030    55 H    0.977    56 H    0.973
                            57 H    0.969
    27   8 O    1.864 --    59 H    0.897    58 H    0.850
    28   1 H    0.964 --     1 N    0.925
    29   1 H    0.929 --    16 O    0.927
    30   1 H    0.998 --     3 C    0.964
    31   1 H    0.999 --     4 C    0.969
    32   1 H    0.999 --     6 C    0.969
    33   1 H    0.998 --     7 C    0.963
    34   1 H    0.997 --     8 C    0.972
    35   1 H    0.996 --     8 C    0.968
    36   1 H    0.994 --     9 C    0.947
    37   1 H    0.969 --    63 N    0.938
    38   1 H    0.970 --    72 N    0.942
    39   1 H    0.998 --    10 C    0.961
    40   1 H    0.999 --    11 C    0.957
    41   1 H    0.998 --    12 C    0.955
    42   1 H    0.998 --    13 C    0.973
    43   1 H    0.999 --    13 C    0.974
    44   1 H    0.999 --    14 C    0.974
    45   1 H    0.999 --    14 C    0.978
    46   1 H    0.998 --    15 C    0.987
    47   1 H    0.999 --    15 C    0.988
    48   1 H    0.999 --    15 C    0.988
    49   1 H    0.974 --    17 N    0.945
    50   1 H    0.917 --    60 O    0.897
    51   1 H    0.999 --    21 C    0.969
    52   1 H    0.999 --    22 C    0.967
    53   1 H    0.999 --    24 C    0.972
    54   1 H    0.999 --    25 C    0.972
    55   1 H    0.996 --    26 C    0.977
    56   1 H    0.996 --    26 C    0.973
    57   1 H    0.995 --    26 C    0.969
    58   1 H    0.899 --    27 O    0.850
    59   1 H    0.918 --    27 O    0.897
    60   8 O    1.832 --    62 H    0.922    50 H    0.897
    61   1 H    0.900 --    16 O    0.844
    62   1 H    0.923 --    60 O    0.922
    63   7 N    3.437 --    67 C    1.255     9 C    0.977    37 H    0.938
                            68 O    0.179
    64   6 C    3.953 --    65 O    1.696    72 N    1.261     9 C    0.928
    65   8 O    2.021 --    64 C    1.696    72 N    0.207
    66   6 C    3.990 --    67 C    0.994    70 H    0.982    71 H    0.971
                            69 H    0.950
    67   6 C    3.945 --    68 O    1.639    63 N    1.255    66 C    0.994
    68   8 O    2.001 --    67 C    1.639    63 N    0.179
    69   1 H    0.991 --    66 C    0.950
    70   1 H    0.998 --    66 C    0.982
    71   1 H    0.993 --    66 C    0.971
    72   7 N    3.451 --    64 C    1.261    73 C    1.004    38 H    0.942
                            65 O    0.207
    73   6 C    3.961 --    72 N    1.004    75 H    0.977    74 H    0.977
                            76 H    0.975
    74   1 H    0.997 --    73 C    0.977
    75   1 H    0.997 --    73 C    0.977
    76   1 H    0.992 --    73 C    0.975
 ---------------------------------------------------------------------------

Topologies differ in total number of bonds
Writing topology from bond orders to xtbtopo.mol

molecular dipole:
                 x           y           z       tot (Debye)
 q only:        0.764      -0.209      -0.462
   full:        0.473      -0.271      -0.564       1.993
molecular quadrupole (traceless):
                xx          xy          yy          xz          yz          zz
 q only:       11.211      21.604     -27.312     -22.723      -2.396      16.101
  q+dip:       11.042      20.284     -38.556     -27.839      -0.199      27.514
   full:        9.102      21.861     -35.661     -28.871      -1.310      26.559

           -------------------------------------------------
          |               Frequency Printout                |
           -------------------------------------------------
 projected vibrational frequencies (cm⁻¹)
eigval :       -0.00     0.00     0.00     0.00     0.00     0.00
eigval :       -5.80     9.02    10.67    14.30    16.88    26.56
eigval :       28.40    31.67    37.80    43.64    51.96    57.88
eigval :       58.27    64.24    70.11    71.60    81.29    85.05
eigval :       92.93    95.96    96.69   107.59   114.15   115.75
eigval :      122.76   126.40   128.37   129.79   136.64   151.70
eigval :      155.59   167.95   172.96   184.13   202.75   218.20
eigval :      229.93   234.52   244.15   257.81   266.52   269.94
eigval :      272.94   290.64   292.26   296.86   316.11   330.22
eigval :      336.68   354.68   369.59   374.29   394.66   408.49
eigval :      417.33   420.99   438.33   449.13   459.61   475.07
eigval :      483.12   488.62   493.15   507.71   525.98   529.57
eigval :      551.90   554.53   555.16   583.71   596.59   605.53
eigval :      612.63   624.58   655.73   658.82   676.27   683.27
eigval :      695.72   702.27   726.35   734.19   743.54   769.60
eigval :      773.50   786.16   806.61   818.20   863.22   864.29
eigval :      865.40   875.14   890.42   894.40   896.02   916.41
eigval :      918.77   923.95   926.21   928.64   948.75   979.91
eigval :      990.68  1000.60  1003.26  1008.76  1012.57  1022.64
eigval :     1023.51  1034.98  1066.53  1071.09  1081.07  1101.80
eigval :     1106.39  1107.62  1118.02  1123.27  1125.99  1138.94
eigval :     1142.06  1155.35  1161.69  1170.18  1174.88  1191.55
eigval :     1195.01  1199.91  1212.79  1219.01  1220.39  1224.11
eigval :     1239.38  1246.93  1264.88  1267.49  1273.34  1283.58
eigval :     1294.64  1302.73  1308.08  1317.13  1321.31  1329.16
eigval :     1331.27  1353.15  1364.99  1366.61  1376.13  1393.57
eigval :     1396.13  1398.81  1409.08  1416.45  1419.74  1425.82
eigval :     1446.82  1449.18  1450.20  1461.97  1465.29  1473.59
eigval :     1474.73  1479.39  1482.13  1494.08  1495.26  1496.53
eigval :     1503.96  1507.24  1507.76  1543.09  1545.45  1565.58
eigval :     1575.81  1578.24  1594.61  1613.75  1629.57  1691.91
eigval :     1705.00  1759.82  2914.30  2931.21  2965.52  2973.56
eigval :     2978.68  2982.21  2986.25  2989.35  2991.80  2993.01
eigval :     3002.98  3008.16  3019.64  3029.54  3033.47  3035.61
eigval :     3036.32  3037.89  3045.15  3053.15  3057.94  3069.41
eigval :     3072.61  3075.16  3083.22  3083.66  3090.86  3092.74
eigval :     3093.49  3119.65  3249.16  3330.72  3394.21  3444.38
eigval :     3454.12  3486.00  3555.99  3560.79  3656.19  3671.23
 reduced masses (amu)
   1: 11.97   2: 11.81   3: 11.83   4: 11.71   5: 12.00   6: 12.17   7: 11.14   8: 11.37
   9: 11.75  10: 12.36  11: 13.36  12: 13.34  13: 13.22  14: 11.53  15: 11.44  16: 11.11
  17:  7.73  18: 10.17  19: 10.45  20: 10.53  21: 10.76  22: 11.29  23:  3.27  24:  6.44
  25:  9.13  26: 11.60  27: 12.17  28: 12.96  29:  9.35  30:  8.14  31:  7.41  32:  8.45
  33:  4.49  34:  4.45  35:  8.85  36: 10.00  37: 11.63  38:  9.42  39:  9.79  40:  4.07
  41: 11.59  42: 10.14  43:  5.94  44:  6.26  45: 10.23  46: 10.70  47:  6.59  48:  9.44
  49:  9.41  50: 10.05  51: 10.44  52: 12.28  53:  9.96  54:  1.95  55: 10.20  56: 10.52
  57: 10.06  58: 10.33  59:  9.35  60:  9.25  61:  9.34  62:  9.48  63:  2.59  64: 10.50
  65:  2.15  66:  8.58  67:  6.76  68: 10.86  69:  9.19  70:  4.53  71:  8.00  72:  9.36
  73:  6.75  74:  6.51  75:  8.69  76:  7.59  77: 11.11  78: 10.71  79:  9.80  80: 10.28
  81: 10.77  82: 10.40  83:  9.27  84:  4.22  85: 10.73  86: 11.18  87: 10.94  88:  7.01
  89:  2.38  90:  3.69  91:  7.94  92:  4.85  93:  9.57  94:  5.13  95:  3.66  96:  7.18
  97: 10.12  98:  7.36  99:  4.08 100:  6.94 101:  3.89 102:  2.91 103:  2.98 104:  8.70
 105:  8.54 106:  5.89 107:  6.39 108: 10.08 109:  5.11 110:  5.48 111:  6.80 112:  3.44
 113:  7.34 114:  6.15 115:  6.87 116:  4.36 117:  6.24 118:  7.13 119:  9.40 120:  6.93
 121:  8.56 122:  4.62 123:  7.95 124:  8.04 125:  7.55 126:  5.29 127:  5.92 128:  6.20
 129:  4.92 130:  5.36 131:  3.61 132:  4.70 133:  5.13 134:  2.36 135:  5.32 136:  5.21
 137:  4.79 138:  5.79 139:  4.42 140:  5.66 141:  4.32 142:  3.50 143:  5.55 144:  2.24
 145:  4.41 146:  4.87 147:  4.80 148:  9.92 149:  5.73 150:  6.77 151:  4.94 152:  9.83
 153: 11.07 154:  5.30 155:  3.29 156:  2.59 157:  4.97 158:  9.40 159:  7.98 160:  3.17
 161:  8.68 162:  8.88 163:  3.05 164:  7.10 165: 11.34 166:  1.56 167:  2.09 168:  1.73
 169:  2.18 170:  1.66 171:  2.30 172:  3.55 173:  8.98 174:  1.85 175:  1.53 176:  1.71
 177: 10.12 178:  2.17 179:  2.06 180:  2.19 181: 11.35 182: 11.51 183: 11.65 184: 11.53
 185: 11.64 186: 11.62 187: 13.13 188: 13.26 189:  1.74 190:  1.74 191:  1.89 192:  1.96
 193:  1.93 194:  1.86 195:  1.54 196:  1.44 197:  1.85 198:  1.56 199:  1.56 200:  1.63
 201:  1.78 202:  1.93 203:  1.94 204:  1.79 205:  1.73 206:  1.28 207:  1.50 208:  1.89
 209:  1.81 210:  1.81 211:  1.75 212:  1.80 213:  1.79 214:  1.79 215:  1.85 216:  1.83
 217:  1.91 218:  1.83 219:  1.88 220:  1.91 221:  1.83 222:  1.84 223:  1.84 224:  1.86
 225:  1.81 226:  1.85 227:  1.84 228:  1.84
 IR intensities (km·mol⁻¹)
   1:  0.03   2:  0.02   3:  0.00   4:  0.05   5:  0.03   6:  0.01   7:  0.52   8:  0.81
   9:  0.85  10:  3.81  11:  7.57  12:  4.90  13:  2.12  14:  0.87  15:  0.40  16:  1.03
  17:  3.57  18:  2.41  19:  2.25  20:  0.53  21:  0.35  22:  2.66  23: 45.80  24:  0.73
  25: 14.40  26:  6.28  27:  3.31  28:  2.19  29:  0.51  30:  0.92  31:  6.78  32:  8.95
  33: 57.01  34:  7.85  35:  2.12  36:  4.41  37:  4.46  38:  1.88  39:  8.19  40: 95.13
  41: 26.44  42: 15.84  43:  1.58  44:  0.17  45:  7.29  46:  7.34  47:109.07  48: 46.31
  49: 16.77  50: 12.30  51:  8.00  52:  6.62  53:  3.84  54:117.39  55:  8.79  56:  4.28
  57:  1.25  58:  7.68  59:  1.73  60:  2.53  61: 14.21  62: 13.66  63:106.15  64:  2.42
  65: 21.02  66: 36.41  67: 47.26  68:  1.32  69: 12.17  70: 49.31  71: 42.08  72:  7.66
  73: 79.68  74:166.23  75: 24.64  76: 11.73  77:  4.72  78:  8.46  79: 41.81  80:  0.37
  81:  5.96  82:  7.26  83: 64.44  84: 90.21  85:  1.35  86:  0.98  87: 26.83  88: 17.05
  89:176.99  90: 24.92  91: 21.72  92:  1.83  93: 15.69  94: 12.12  95:  0.16  96:  0.96
  97:  0.28  98:  0.04  99:  1.22 100:  1.84 101:  0.28 102:  4.09 103:  0.01 104:  0.93
 105:  3.62 106:  0.98 107:  4.11 108: 10.82 109:  1.87 110: 10.65 111: 36.89 112:  8.28
 113:  2.82 114: 11.60 115:  7.64 116:  6.33 117:  0.10 118: 39.01 119:  1.21 120:  9.75
 121: 10.45 122:  6.10 123:  7.59 124: 33.46 125:  0.51 126:  2.14 127:  5.48 128:  7.83
 129:  4.45 130:  5.63 131:  3.46 132:  3.92 133:  6.70 134:  8.99 135: 34.72 136: 21.88
 137:  1.97 138: 13.84 139: 53.51 140: 37.44 141:  9.36 142:  2.83 143: 28.83 144:  3.12
 145: 11.58 146:  3.60 147:  8.60 148: 41.59 149:  6.65 150: 22.79 151: 17.82 152: 31.07
 153: 20.34 154:  0.28 155: 44.02 156:  3.20 157:  7.33 158:187.35 159: 13.05 160:  0.45
 161:201.20 162:169.82 163: 30.16 164: 62.18 165: 57.30 166: 12.19 167: 10.49 168:  2.24
 169:  0.14 170:  5.55 171: 20.55 172:  1.87 173: 10.13 174:  1.32 175:  2.22 176:  3.06
 177:301.01 178:112.51 179: 80.84 180:180.75 181:  2.72 182:  0.25 183:  7.18 184:112.01
 185: 20.29 186:128.35 187:589.97 188:476.96 189: 21.06 190:  7.55 191:  4.78 192: 28.74
 193: 58.44 194: 28.66 195:  8.32 196: 46.60 197: 23.48 198: 59.28 199: 29.83 200: 20.15
 201:  0.96 202: 49.14 203: 58.65 204: 42.78 205:  2.70 206: 35.35 207: 13.67 208:  4.06
 209: 61.36 210: 32.79 211:  8.22 212: 12.94 213: 30.90 214: 58.39 215: 13.69 216: 73.86
 217: 57.06 218: 16.99 219:578.02 220:455.06 221: 37.65 222:  6.50 223:  7.30 224:  9.57
 225: 91.94 226:130.45 227:  7.99 228:  3.86
 Raman intensities (Ä⁴*amu⁻¹)
   1:  0.00   2:  0.00   3:  0.00   4:  0.00   5:  0.00   6:  0.00   7:  0.00   8:  0.00
   9:  0.00  10:  0.00  11:  0.00  12:  0.00  13:  0.00  14:  0.00  15:  0.00  16:  0.00
  17:  0.00  18:  0.00  19:  0.00  20:  0.00  21:  0.00  22:  0.00  23:  0.00  24:  0.00
  25:  0.00  26:  0.00  27:  0.00  28:  0.00  29:  0.00  30:  0.00  31:  0.00  32:  0.00
  33:  0.00  34:  0.00  35:  0.00  36:  0.00  37:  0.00  38:  0.00  39:  0.00  40:  0.00
  41:  0.00  42:  0.00  43:  0.00  44:  0.00  45:  0.00  46:  0.00  47:  0.00  48:  0.00
  49:  0.00  50:  0.00  51:  0.00  52:  0.00  53:  0.00  54:  0.00  55:  0.00  56:  0.00
  57:  0.00  58:  0.00  59:  0.00  60:  0.00  61:  0.00  62:  0.00  63:  0.00  64:  0.00
  65:  0.00  66:  0.00  67:  0.00  68:  0.00  69:  0.00  70:  0.00  71:  0.00  72:  0.00
  73:  0.00  74:  0.00  75:  0.00  76:  0.00  77:  0.00  78:  0.00  79:  0.00  80:  0.00
  81:  0.00  82:  0.00  83:  0.00  84:  0.00  85:  0.00  86:  0.00  87:  0.00  88:  0.00
  89:  0.00  90:  0.00  91:  0.00  92:  0.00  93:  0.00  94:  0.00  95:  0.00  96:  0.00
  97:  0.00  98:  0.00  99:  0.00 100:  0.00 101:  0.00 102:  0.00 103:  0.00 104:  0.00
 105:  0.00 106:  0.00 107:  0.00 108:  0.00 109:  0.00 110:  0.00 111:  0.00 112:  0.00
 113:  0.00 114:  0.00 115:  0.00 116:  0.00 117:  0.00 118:  0.00 119:  0.00 120:  0.00
 121:  0.00 122:  0.00 123:  0.00 124:  0.00 125:  0.00 126:  0.00 127:  0.00 128:  0.00
 129:  0.00 130:  0.00 131:  0.00 132:  0.00 133:  0.00 134:  0.00 135:  0.00 136:  0.00
 137:  0.00 138:  0.00 139:  0.00 140:  0.00 141:  0.00 142:  0.00 143:  0.00 144:  0.00
 145:  0.00 146:  0.00 147:  0.00 148:  0.00 149:  0.00 150:  0.00 151:  0.00 152:  0.00
 153:  0.00 154:  0.00 155:  0.00 156:  0.00 157:  0.00 158:  0.00 159:  0.00 160:  0.00
 161:  0.00 162:  0.00 163:  0.00 164:  0.00 165:  0.00 166:  0.00 167:  0.00 168:  0.00
 169:  0.00 170:  0.00 171:  0.00 172:  0.00 173:  0.00 174:  0.00 175:  0.00 176:  0.00
 177:  0.00 178:  0.00 179:  0.00 180:  0.00 181:  0.00 182:  0.00 183:  0.00 184:  0.00
 185:  0.00 186:  0.00 187:  0.00 188:  0.00 189:  0.00 190:  0.00 191:  0.00 192:  0.00
 193:  0.00 194:  0.00 195:  0.00 196:  0.00 197:  0.00 198:  0.00 199:  0.00 200:  0.00
 201:  0.00 202:  0.00 203:  0.00 204:  0.00 205:  0.00 206:  0.00 207:  0.00 208:  0.00
 209:  0.00 210:  0.00 211:  0.00 212:  0.00 213:  0.00 214:  0.00 215:  0.00 216:  0.00
 217:  0.00 218:  0.00 219:  0.00 220:  0.00 221:  0.00 222:  0.00 223:  0.00 224:  0.00
 225:  0.00 226:  0.00 227:  0.00 228:  0.00
 output can be read by thermo (or use thermo option).
 writing <g98.out> molden fake output.
 recommended (thermochemical) frequency scaling factor: 1.0
           -------------------------------------------------
          |             Thermodynamic Functions             |
           -------------------------------------------------

Refinement of some symmetry elements was terminated before convergence was reached.
Some symmetry elements may remain unidentified.
Molecule has no symmetry elements
It seems to be the C1 point group
c1  symmetry found (for desy threshold:  0.10E+00) used in thermo
 inverting freq            1   5.80230940899399     

          ...................................................
          :                      SETUP                      :
          :.................................................:
          :  # frequencies                         222      :
          :  # imaginary freq.                       0      :
          :  linear?                             false      :
          :  only rotor calc.                    false      :
          :  symmetry                               c1      :
          :  rotational number                       1      :
          :  scaling factor                  1.0000000      :
          :  rotor cutoff                   50.0000000 cm⁻¹ :
          :  imag. cutoff                  -20.0000000 cm⁻¹ :
          :.................................................:

    mode    ω/cm⁻¹     T·S(HO)/kcal·mol⁻¹    T·S(FR)/kcal·mol⁻¹   T·S(vib)
   ------------------------------------------------------------------------
       1      5.80    -2.71096 (  0.02%)    -1.69448 ( 99.98%)    -1.69467
       2      9.02    -2.44967 (  0.11%)    -1.56386 ( 99.89%)    -1.56480
       3     10.67    -2.35001 (  0.21%)    -1.51403 ( 99.79%)    -1.51577
       4     14.30    -2.17645 (  0.67%)    -1.42724 ( 99.33%)    -1.43223
       5     16.88    -2.07832 (  1.28%)    -1.37816 ( 98.72%)    -1.38715
       6     26.56    -1.81018 (  7.37%)    -1.24398 ( 92.63%)    -1.28571
       7     28.40    -1.77046 (  9.43%)    -1.22409 ( 90.57%)    -1.27560
       8     31.67    -1.70594 ( 13.87%)    -1.19178 ( 86.13%)    -1.26309
       9     37.80    -1.60142 ( 24.62%)    -1.13940 ( 75.38%)    -1.25316
      10     43.64    -1.51661 ( 36.71%)    -1.09686 ( 63.29%)    -1.25097
      11     51.96    -1.41367 ( 53.83%)    -1.04517 ( 46.17%)    -1.24354
      12     57.88    -1.35006 ( 64.23%)    -1.01317 ( 35.77%)    -1.22957
      13     58.27    -1.34614 ( 64.84%)    -1.01120 ( 35.16%)    -1.22839
      14     64.24    -1.28877 ( 73.15%)    -0.98231 ( 26.85%)    -1.20649
      15     70.11    -1.23739 ( 79.45%)    -0.95639 ( 20.55%)    -1.17964
      16     71.60    -1.22510 ( 80.78%)    -0.95019 ( 19.22%)    -1.17227
      17     81.29    -1.15073 ( 87.48%)    -0.91258 ( 12.52%)    -1.12091
      18     85.05    -1.12427 ( 89.33%)    -0.89917 ( 10.67%)    -1.10025
      19     92.93    -1.07258 ( 92.27%)    -0.87293 (  7.73%)    -1.05715
      20     95.96    -1.05387 ( 93.14%)    -0.86342 (  6.86%)    -1.04080
      21     96.69    -1.04947 ( 93.33%)    -0.86117 (  6.67%)    -1.03690
      22    107.59    -0.98747 ( 95.54%)    -0.82954 (  4.46%)    -0.98043
      23    114.15    -0.95323 ( 96.45%)    -0.81201 (  3.55%)    -0.94821
      24    115.75    -0.94518 ( 96.64%)    -0.80788 (  3.36%)    -0.94056
      25    122.76    -0.91127 ( 97.32%)    -0.79046 (  2.68%)    -0.90804
      26    126.40    -0.89449 ( 97.61%)    -0.78181 (  2.39%)    -0.89180
      27    128.37    -0.88560 ( 97.75%)    -0.77722 (  2.25%)    -0.88316
      28    129.79    -0.87927 ( 97.85%)    -0.77395 (  2.15%)    -0.87700
      29    136.64    -0.84986 ( 98.24%)    -0.75873 (  1.76%)    -0.84825
      30    151.70    -0.79035 ( 98.83%)    -0.72776 (  1.17%)    -0.78962
      31    155.59    -0.77599 ( 98.94%)    -0.72025 (  1.06%)    -0.77540
      32    167.95    -0.73293 ( 99.22%)    -0.69760 (  0.78%)    -0.73265
      33    172.96    -0.71648 ( 99.31%)    -0.68890 (  0.69%)    -0.71629
      34    184.13    -0.68159 ( 99.46%)    -0.67035 (  0.54%)    -0.68153
      35    202.75    -0.62850 ( 99.63%)    -0.64182 (  0.37%)    -0.62855
      36    218.20    -0.58854 ( 99.73%)    -0.62006 (  0.27%)    -0.58862
      37    229.93    -0.56038 ( 99.78%)    -0.60456 (  0.22%)    -0.56048
      38    234.52    -0.54982 ( 99.79%)    -0.59871 (  0.21%)    -0.54992
      39    244.15    -0.52846 ( 99.82%)    -0.58678 (  0.18%)    -0.52856
      40    257.81    -0.49986 ( 99.86%)    -0.57065 (  0.14%)    -0.49996
      41    266.52    -0.48261 ( 99.88%)    -0.56081 (  0.12%)    -0.48270
      42    269.94    -0.47602 ( 99.88%)    -0.55703 (  0.12%)    -0.47611
      43    272.94    -0.47034 ( 99.89%)    -0.55376 (  0.11%)    -0.47044
      44    290.64    -0.43835 ( 99.91%)    -0.53514 (  0.09%)    -0.43843
      45    292.26    -0.43555 ( 99.91%)    -0.53350 (  0.09%)    -0.43563
      46    296.86    -0.42771 ( 99.92%)    -0.52887 (  0.08%)    -0.42780
   ------------------------------------------------------------------------

   temp. (K)  partition function   enthalpy   heat capacity  entropy
                                   cal/mol     cal/K/mol   cal/K/mol   J/K/mol
 298.15  VIB  0.159E+25            26543.768    143.408    176.383
         ROT  0.438E+08              888.752      2.981     37.947
         INT  0.695E+32            27432.520    146.389    214.329
         TR   0.108E+29             1481.254      4.968     44.499
         TOT                       28913.7738   151.3571   258.8284  1082.9381

       T/K    H(0)-H(T)+PV         H(T)/Eh          T*S/Eh         G(T)/Eh
   ------------------------------------------------------------------------
    298.15    0.460770E-01    0.668623E+00    0.122978E+00    0.545645E+00
   ------------------------------------------------------------------------

         :::::::::::::::::::::::::::::::::::::::::::::::::::::
         ::                  THERMODYNAMIC                  ::
         :::::::::::::::::::::::::::::::::::::::::::::::::::::
         :: total free energy        -109.727719967494 Eh   ::
         ::.................................................::
         :: total energy             -110.273365099796 Eh   ::
         :: zero point energy           0.622545838895 Eh   ::
         :: G(RRHO) w/o ZPVE           -0.076900706592 Eh   ::
         :: G(RRHO) contrib.            0.545645132302 Eh   ::
         :::::::::::::::::::::::::::::::::::::::::::::::::::::
imag cut-off (cm-1) :    5.00
 found            1  significant imaginary frequency
 writing imag mode distorted coords to xtbhess.xyz
 for further optimization.

           -------------------------------------------------
          | TOTAL ENERGY             -110.273365099796 Eh   |
          | TOTAL ENTHALPY           -109.604742229395 Eh   |
          | TOTAL FREE ENERGY        -109.727719967494 Eh   |
          | GRADIENT NORM               0.000217298833 Eh/α |
          | HOMO-LUMO GAP               2.970576142617 eV   |
           -------------------------------------------------

------------------------------------------------------------------------
 * finished run on 2026/08/20 at 19:02:19.387     
------------------------------------------------------------------------
 total:
 * wall-time:     0 d,  0 h,  0 min, 44.990 sec
 *  cpu-time:     0 d,  0 h,  0 min, 44.234 sec
 * ratio c/w:     0.983 speedup
 SCF:
 * wall-time:     0 d,  0 h,  0 min,  0.107 sec
 *  cpu-time:     0 d,  0 h,  0 min,  0.094 sec
 * ratio c/w:     0.876 speedup
 analytical hessian:
 * wall-time:     0 d,  0 h,  0 min, 44.815 sec
 *  cpu-time:     0 d,  0 h,  0 min, 44.047 sec
 * ratio c/w:     0.983 speedup



================ STDERR ================

normal termination of xtb
