      -----------------------------------------------------------      
     |                   =====================                   |     
     |                           x T B                           |     
     |                   =====================                   |     
     |                         S. Grimme                         |     
     |          Mulliken Center for Theoretical Chemistry        |     
     |                    University of Bonn                     |     
      -----------------------------------------------------------      

   * xtb version 6.7.1pre (5071a88) compiled by 'Marcel@Raven' on 2024-07-23

   xtb is free software: you can redistribute it and/or modify it under
   the terms of the GNU Lesser General Public License as published by
   the Free Software Foundation, either version 3 of the License, or
   (at your option) any later version.
   
   xtb is distributed in the hope that it will be useful,
   but WITHOUT ANY WARRANTY; without even the implied warranty of
   MERCHANTABILITY or FITNESS FOR A PARTICULAR PURPOSE.  See the
   GNU Lesser General Public License for more details.
   
   Cite this work as:
   * C. Bannwarth, E. Caldeweyher, S. Ehlert, A. Hansen, P. Pracht,
     J. Seibert, S. Spicher, S. Grimme, WIREs Comput. Mol. Sci., 2020, 11,
     e01493. DOI: 10.1002/wcms.1493
   
   for GFN2-xTB:
   * C. Bannwarth, S. Ehlert and S. Grimme., J. Chem. Theory Comput., 2019,
     15, 1652-1671. DOI: 10.1021/acs.jctc.8b01176
   for GFN1-xTB:
   * S. Grimme, C. Bannwarth, P. Shushkov, J. Chem. Theory Comput., 2017,
     13, 1989-2009. DOI: 10.1021/acs.jctc.7b00118
   for GFN0-xTB:
   * P. Pracht, E. Caldeweyher, S. Ehlert, S. Grimme, ChemRxiv, 2019, preprint.
     DOI: 10.26434/chemrxiv.8326202.v1
   for GFN-FF:
   * S. Spicher and S. Grimme, Angew. Chem. Int. Ed., 2020, 59, 15665-15673.
     DOI: 10.1002/anie.202004239
   
   for ALPB and GBSA implicit solvation:
   * S. Ehlert, M. Stahn, S. Spicher, S. Grimme, J. Chem. Theory Comput.,
     2021, 17, 4250-4261. DOI: 10.1021/acs.jctc.1c00471
   
   for ddCOSMO and CPCM-X implicit solvation:
   * M. Stahn, S. Ehlert, S. Grimme, J. Phys. Chem. A,
     2023, XX, XXXX-XXXX. DOI: 10.1021/acs.jpca.3c04382
   
   for DFT-D4:
   * E. Caldeweyher, C. Bannwarth and S. Grimme, J. Chem. Phys., 2017,
     147, 034112. DOI: 10.1063/1.4993215
   * E. Caldeweyher, S. Ehlert, A. Hansen, H. Neugebauer, S. Spicher,
     C. Bannwarth and S. Grimme, J. Chem. Phys., 2019, 150, 154122.
     DOI: 10.1063/1.5090222
   * E. Caldeweyher, J.-M. Mewes, S. Ehlert and S. Grimme, Phys. Chem. Chem. Phys.
     2020, 22, 8499-8512. DOI: 10.1039/D0CP00502A
   
   for sTDA-xTB:
   * S. Grimme and C. Bannwarth, J. Chem. Phys., 2016, 145, 054103.
     DOI: 10.1063/1.4959605
   
   in the mass-spec context:
   * V. Asgeirsson, C. Bauer and S. Grimme, Chem. Sci., 2017, 8, 4879.
     DOI: 10.1039/c7sc00601b
   * J. Koopman and S. Grimme, ACS Omega 2019, 4, 12, 15120-15133.
     DOI: 10.1021/acsomega.9b02011
   
   for metadynamics refer to:
   * S. Grimme, J. Chem. Theory Comput., 2019, 155, 2847-2862
     DOI: 10.1021/acs.jctc.9b00143
   
   for SPH calculations refer to:
   * S. Spicher and S. Grimme, J. Chem. Theory Comput., 2021, 17, 1701-1714
     DOI: 10.1021/acs.jctc.0c01306
   
   for ONIOM refer to:
   * C. Plett, A. Katbashev, S. Ehlert, S. Grimme, M. Bursch,
     Phys. Chem. Chem. Phys., 2023, 25, 17860-17868. DOI: 10.1039/D3CP02178E
   
   for DIPRO refer to:
   * J. Kohn, N. Gildemeister, S. Grimme, D. Fazzi, A. Hansen,
     J. Chem. Phys., 2023, just accepted.
   
   for PTB refer to:
   * S. Grimme, M. Mueller, A. Hansen, J. Chem. Phys., 2023, 158, 124111.
     DOI: 10.1063/5.0137838
   
   with help from (in alphabetical order)
   P. Atkinson, C. Bannwarth, F. Bohle, G. Brandenburg, E. Caldeweyher
   M. Checinski, S. Dohm, S. Ehlert, S. Ehrlich, I. Gerasimov, C. Hölzer
   A. Katbashev, J. Kohn, J. Koopman, C. Lavigne, S. Lehtola, F. März, M. Müller,
   F. Musil, H. Neugebauer, J. Pisarek, C. Plett, P. Pracht, F. Pultar,
   J. Seibert, P. Shushkov, S. Spicher, M. Stahn, M. Steiner, T. Strunk,
   J. Stückrath, T. Rose, and J. Unsleber
   
 * started run on 2026/08/20 at 19:02:19.471     
   ID    Z sym.   atoms
    1    7 N      1, 17, 63, 72
    2    6 C      2-15, 18-26, 64, 66, 67, 73
    3    8 O      16, 27, 60, 65, 68
    4    1 H      28-59, 61, 62, 69-71, 74-76

           -------------------------------------------------
          |                Calculation Setup                |
           -------------------------------------------------

          program call               : C:\Users\Nayanika\Downloads\xtb-6.7.1pre-windows-x86_64\xtb-6.7.1\bin\xtb.exe D:\PhD_Thesis\LmrR_EVB\charges\fast_lmrr_5QM\xtb_preparation\TS2_1a_to_PS2_2\TS2_1a_to_PS2_2_PS.xyz --gfn 2 --opt tight --chrg 0 --uhf 0 --etemp 500
          coordinate file            : D:\PhD_Thesis\LmrR_EVB\charges\fast_lmrr_5QM\xtb_preparation\TS2_1a_to_PS2_2\TS2_1a_to_PS2_2_PS.xyz
          omp threads                :                     1


molecular fragmentation (1/2 indicates fragments):
111111111111111211111111112121111111111111111111121111111122221111111111
1111
# atoms in fragment 1/2:    68     8
 fragment masses (1/2) :      447.59       53.04
CMA distance (Bohr)    :   6.005
constraining FC (au)   :  0.0500

           -------------------------------------------------
          |                 G F N 2 - x T B                 |
           -------------------------------------------------

        Reference                      10.1021/acs.jctc.8b01176
      * Hamiltonian:
        H0-scaling (s, p, d)           1.850000    2.230000    2.230000
        zeta-weighting                 0.500000
      * Dispersion:
        s8                             2.700000
        a1                             0.520000
        a2                             5.000000
        s9                             5.000000
      * Repulsion:
        kExp                           1.500000    1.000000
        rExp                           1.000000
      * Coulomb:
        alpha                          2.000000
        third order                    shell-resolved
        anisotropic                    true
        a3                             3.000000
        a5                             4.000000
        cn-shift                       1.200000
        cn-exp                         4.000000
        max-rad                        5.000000

q/qsh data taken from xtbrestart
CAMM data taken from xtbrestart

          ...................................................
          :                      SETUP                      :
          :.................................................:
          :  # basis functions                 184          :
          :  # atomic orbitals                 184          :
          :  # shells                          112          :
          :  # electrons                       198          :
          :  max. iterations                   250          :
          :  Hamiltonian                  GFN2-xTB          :
          :  restarted?                       true          :
          :  GBSA solvation                  false          :
          :  PC potential                    false          :
          :  electronic temp.          500.0000000     K    :
          :  accuracy                    1.0000000          :
          :  -> integral cutoff          0.2500000E+02      :
          :  -> integral neglect         0.1000000E-07      :
          :  -> SCF convergence          0.1000000E-05 Eh   :
          :  -> wf. convergence          0.1000000E-03 e    :
          :  Broyden damping             0.4000000          :
          :  net charge                          0          :
          :  unpaired electrons                  0          :
          ...................................................

 iter      E             dE          RMSdq      gap      omega  full diag
   1   -111.3858900 -0.111386E+03  0.212E+00    1.57       0.0  T
   2   -110.7639421  0.621948E+00  0.305E+00    0.68       1.0  T
   3   -111.4009125 -0.636970E+00  0.135E+00    1.66       1.0  T
   4   -111.4210573 -0.201448E-01  0.916E-01    0.75       1.0  T
   5   -111.4410592 -0.200019E-01  0.671E-01    0.44       1.0  T
   6   -111.3578901  0.831691E-01  0.108E+00    0.04       1.0  T
   7   -111.4470058 -0.891157E-01  0.600E-01    0.36       1.0  T
   8   -111.4816963 -0.346905E-01  0.953E-02    0.14       1.0  T
   9   -111.4824609 -0.764590E-03  0.134E-02    0.12       1.0  T
  10   -111.4822872  0.173648E-03  0.417E-02    0.12       1.0  T
  11   -111.4824212 -0.133983E-03  0.206E-02    0.12       1.0  T
  12   -111.4823863  0.349410E-04  0.276E-02    0.13       1.0  T
  13   -111.4824531 -0.668170E-04  0.111E-02    0.12       1.0  T
  14   -111.4824653 -0.121856E-04  0.191E-03    0.12       6.0  T
  15   -111.4824656 -0.370932E-06  0.207E-04    0.12      55.5  T
  16   -111.4824656 -0.384289E-08  0.439E-05    0.12     261.5  T

   *** convergence criteria satisfied after 16 iterations ***

         #    Occupation            Energy/Eh            Energy/eV
      -------------------------------------------------------------
         1        2.0000           -0.7103406             -19.3294
       ...           ...                  ...                  ...
        93        2.0000           -0.3624221              -9.8620
        94        2.0000           -0.3557755              -9.6811
        95        2.0000           -0.3529992              -9.6056
        96        2.0000           -0.3312567              -9.0140
        97        2.0000           -0.3281173              -8.9285
        98        2.0000           -0.2954341              -8.0392
        99        1.6157           -0.2647679              -7.2047 (HOMO)
       100        0.3843           -0.2602197              -7.0809 (LUMO)
       101                         -0.2324246              -6.3246
       102                         -0.2223343              -6.0500
       103                         -0.2123585              -5.7786
       104                         -0.2071401              -5.6366
       ...                                ...                  ...
       184                          0.7160842              19.4856
      -------------------------------------------------------------
                  HL-Gap            0.0045483 Eh            0.1238 eV
             Fermi-level           -0.2624938 Eh           -7.1428 eV

 SCC (total)                   0 d,  0 h,  0 min,  0.173 sec
 SCC setup                      ...        0 min,  0.001 sec (  0.578%)
 Dispersion                     ...        0 min,  0.001 sec (  0.578%)
 classical contributions        ...        0 min,  0.000 sec (  0.000%)
 integral evaluation            ...        0 min,  0.015 sec (  8.670%)
 iterations                     ...        0 min,  0.094 sec ( 54.335%)
 molecular gradient             ...        0 min,  0.055 sec ( 31.792%)
 printout                       ...        0 min,  0.007 sec (  4.046%)

         :::::::::::::::::::::::::::::::::::::::::::::::::::::
         ::                     SUMMARY                     ::
         :::::::::::::::::::::::::::::::::::::::::::::::::::::
         :: total energy            -109.963101749480 Eh    ::
         :: gradient norm              0.206682202570 Eh/a0 ::
         :: HOMO-LUMO gap              0.123764450219 eV    ::
         ::.................................................::
         :: SCC energy              -111.479883862564 Eh    ::
         :: -> isotropic ES            0.232660590838 Eh    ::
         :: -> anisotropic ES          0.009342089303 Eh    ::
         :: -> anisotropic XC          0.045853367805 Eh    ::
         :: -> dispersion             -0.087835499958 Eh    ::
         :: repulsion energy           1.516782113084 Eh    ::
         :: add. restraining           0.000000000000 Eh    ::
         :: total charge               0.000000000000 e     ::
         :::::::::::::::::::::::::::::::::::::::::::::::::::::

      ----------------------------------------------------------- 
     |                   =====================                   |
     |                        A N C O P T                        |
     |                   =====================                   |
     |               Approximate Normal Coordinate               |
     |                Rational Function Optimizer                |
      ----------------------------------------------------------- 
      ----------------------------------------------------------- 
     |                   =====================                   |
     |                        A N C O P T                        |
     |                   =====================                   |
     |               Approximate Normal Coordinate               |
     |                Rational Function Optimizer                |
      ----------------------------------------------------------- 

          ...................................................
          :                      SETUP                      :
          :.................................................:
          :   optimization level             tight          :
          :   max. optcycles                   380          :
          :   ANC micro-cycles                  20          :
          :   degrees of freedom               222          :
          :.................................................:
          :   RF solver                   davidson          :
          :   write xtbopt.log                true          :
          :   linear?                        false          :
          :   energy convergence         0.1000000E-05 Eh   :
          :   grad. convergence          0.8000000E-03 Eh/α :
          :   maxmium RF displ.          1.0000000          :
          :   Hlow (freq-cutoff)         0.1000000E-01      :
          :   Hmax (freq-cutoff)         5.0000000          :
          :   S6 in model hess.         20.0000000          :
          ...................................................

generating ANC from exact Hessian ...
Using Lindh-Hessian (1995)
 Shifting diagonal of input Hessian by   1.221307512294818E-002
 Lowest  eigenvalues of input Hessian
    0.010000    0.011925    0.012111    0.000000    0.000000    0.000000
    0.000000    0.000000    0.000000    0.012247    0.012293    0.012424
    0.012567    0.012790    0.012871    0.013004    0.013201    0.013357
 Highest eigenvalues
    2.004037    2.011674    2.074715    2.127239    2.239081    2.251255
 

........................................................................
.............................. CYCLE    1 ..............................
........................................................................

 iter      E             dE          RMSdq      gap      omega  full diag
   1   -111.4824656 -0.111482E+03  0.165E-05    0.12       0.0  T
   2   -111.4824656  0.197201E-08  0.138E-04    0.12      83.1  T
   3   -111.4824656 -0.196728E-08  0.144E-05    0.12     798.4  T
     SCC iter.                  ...        0 min,  0.016 sec
     gradient                   ...        0 min,  0.064 sec
 * total energy  :  -109.9631017 Eh     change       -0.7229062E-10 Eh
   gradient norm :     0.2066734 Eh/α   predicted     0.0000000E+00 (-100.00%)
   displ. norm   :     0.6544008 α      lambda       -0.9972619E-01
   maximum displ.:     0.2231602 α      in ANC's #57, #61, #84, ...

........................................................................
.............................. CYCLE    2 ..............................
........................................................................

 iter      E             dE          RMSdq      gap      omega  full diag
   1   -111.5595883 -0.111560E+03  0.662E-01    0.49       0.0  T
   2   -110.8013287  0.758260E+00  0.297E+00    0.31       1.0  T
   3   -111.5868228 -0.785494E+00  0.317E-01    0.22       1.0  T
   4   -111.5879874 -0.116462E-02  0.244E-01    0.12       1.0  T
   5   -111.5856973  0.229011E-02  0.277E-01    0.22       1.0  T
   6   -111.5883918 -0.269446E-02  0.222E-01    0.12       1.0  T
   7   -111.5928983 -0.450651E-02  0.709E-02    0.17       1.0  T
   8   -111.5930839 -0.185588E-03  0.569E-02    0.15       1.0  T
   9   -111.5933209 -0.237033E-03  0.306E-02    0.15       1.0  T
  10   -111.5934022 -0.813069E-04  0.119E-02    0.16       1.0  T
  11   -111.5934148 -0.126300E-04  0.422E-03    0.16       2.7  T
  12   -111.5934166 -0.179705E-05  0.641E-04    0.16      17.9  T
  13   -111.5934166  0.291956E-07  0.821E-04    0.16      14.0  T
  14   -111.5934167 -0.692374E-07  0.293E-05    0.16     391.3  T
     SCC iter.                  ...        0 min,  0.071 sec
     gradient                   ...        0 min,  0.057 sec
 * total energy  :  -110.0419229 Eh     change       -0.7882111E-01 Eh
   gradient norm :     0.1234085 Eh/α   predicted    -0.7124759E-01 (  -9.61%)
   displ. norm   :     0.7157762 α      lambda       -0.6906946E-01
   maximum displ.:     0.2167842 α      in ANC's #57, #84, #61, ...

........................................................................
.............................. CYCLE    3 ..............................
........................................................................

 iter      E             dE          RMSdq      gap      omega  full diag
   1   -111.6396785 -0.111640E+03  0.573E-01    0.46       0.0  T
   2   -110.8232557  0.816423E+00  0.291E+00    0.08       1.0  T
   3   -111.6545776 -0.831322E+00  0.331E-01    0.30       1.0  T
   4   -111.6601946 -0.561703E-02  0.179E-01    0.18       1.0  T
   5   -111.6622869 -0.209230E-02  0.623E-02    0.20       1.0  T
   6   -111.6623111 -0.242113E-04  0.365E-02    0.22       1.0  T
   7   -111.6623646 -0.535140E-04  0.309E-02    0.20       1.0  T
   8   -111.6624410 -0.763757E-04  0.109E-02    0.21       1.1  T
   9   -111.6624517 -0.106905E-04  0.302E-03    0.21       3.8  T
  10   -111.6624524 -0.685004E-06  0.101E-03    0.21      11.4  T
  11   -111.6624524 -0.109048E-07  0.678E-04    0.21      16.9  T
  12   -111.6624524 -0.379188E-07  0.268E-04    0.21      42.9  T
     SCC iter.                  ...        0 min,  0.072 sec
     gradient                   ...        0 min,  0.056 sec
 * total energy  :  -110.0883453 Eh     change       -0.4642248E-01 Eh
   gradient norm :     0.0641700 Eh/α   predicted    -0.5222834E-01 (  12.51%)
   displ. norm   :     0.6704547 α      lambda       -0.2764767E-01
   maximum displ.:     0.2492822 α      in ANC's #57, #28, #38, ...

........................................................................
.............................. CYCLE    4 ..............................
........................................................................

 iter      E             dE          RMSdq      gap      omega  full diag
   1   -111.6748710 -0.111675E+03  0.259E-01    0.27       0.0  T
   2   -110.9144773  0.760394E+00  0.270E+00    0.10       1.0  T
   3   -111.6785118 -0.764034E+00  0.109E-01    0.23       1.0  T
   4   -111.6780035  0.508307E-03  0.951E-02    0.20       1.0  T
   5   -111.6775038  0.499707E-03  0.109E-01    0.20       1.0  T
   6   -111.6785680 -0.106424E-02  0.395E-02    0.21       1.0  T
   7   -111.6787303 -0.162339E-03  0.887E-03    0.22       1.3  T
   8   -111.6787360 -0.562810E-05  0.516E-03    0.22       2.2  T
   9   -111.6787353  0.635391E-06  0.452E-03    0.22       2.5  T
  10   -111.6787363 -0.101308E-05  0.217E-03    0.22       5.3  T
  11   -111.6787366 -0.255054E-06  0.143E-03    0.22       8.0  T
  12   -111.6787367 -0.156929E-06  0.532E-04    0.22      21.5  T
  13   -111.6787368 -0.195467E-07  0.742E-05    0.22     154.6  T
     SCC iter.                  ...        0 min,  0.081 sec
     gradient                   ...        0 min,  0.051 sec
 * total energy  :  -110.1105586 Eh     change       -0.2221324E-01 Eh
   gradient norm :     0.0585557 Eh/α   predicted    -0.2003779E-01 (  -9.79%)
   displ. norm   :     0.7601785 α      lambda       -0.2408874E-01
   maximum displ.:     0.2915475 α      in ANC's #57, #30, #40, ...

........................................................................
.............................. CYCLE    5 ..............................
........................................................................

 iter      E             dE          RMSdq      gap      omega  full diag
   1   -111.6593226 -0.111659E+03  0.404E-01    0.40       0.0  T
   2   -110.7521730  0.907150E+00  0.305E+00    0.13       1.0  T
   3   -111.6700274 -0.917854E+00  0.185E-01    0.28       1.0  T
   4   -111.6716634 -0.163592E-02  0.108E-01    0.21       1.0  T
   5   -111.6723986 -0.735272E-03  0.479E-02    0.22       1.0  T
   6   -111.6724044 -0.574467E-05  0.350E-02    0.24       1.0  T
   7   -111.6725145 -0.110080E-03  0.132E-02    0.23       1.0  T
   8   -111.6725304 -0.159625E-04  0.272E-03    0.23       4.2  T
   9   -111.6725292  0.120842E-05  0.411E-03    0.23       2.8  T
  10   -111.6725308 -0.163539E-05  0.750E-04    0.23      15.3  T
  11   -111.6725309 -0.440133E-07  0.185E-04    0.23      62.0  T
  12   -111.6725309 -0.764260E-10  0.181E-04    0.23      63.3  T
     SCC iter.                  ...        0 min,  0.061 sec
     gradient                   ...        0 min,  0.056 sec
 * total energy  :  -110.1279090 Eh     change       -0.1735039E-01 Eh
   gradient norm :     0.0591378 Eh/α   predicted    -0.1900447E-01 (   9.53%)
   displ. norm   :     0.7536191 α      lambda       -0.2044461E-01
   maximum displ.:     0.2949808 α      in ANC's #28, #57, #15, ...

........................................................................
.............................. CYCLE    6 ..............................
........................................................................

 iter      E             dE          RMSdq      gap      omega  full diag
   1   -111.6901796 -0.111690E+03  0.192E-01    0.23       0.0  T
   2   -111.4254202  0.264759E+00  0.156E+00    0.08       1.0  T
   3   -111.6833784 -0.257958E+00  0.292E-01    0.30       1.0  T
   4   -111.6819938  0.138458E-02  0.290E-01    0.32       1.0  T
   5   -111.6843571 -0.236323E-02  0.244E-01    0.29       1.0  T
   6   -111.6880862 -0.372917E-02  0.156E-01    0.25       1.0  T
   7   -111.6899344 -0.184822E-02  0.867E-02    0.23       1.0  T
   8   -111.6903371 -0.402679E-03  0.622E-02    0.22       1.0  T
   9   -111.6907648 -0.427706E-03  0.396E-03    0.21       2.9  T
  10   -111.6907618  0.305473E-05  0.648E-03    0.20       1.8  T
  11   -111.6907653 -0.351868E-05  0.310E-03    0.20       3.7  T
  12   -111.6907661 -0.837279E-06  0.138E-03    0.20       8.3  T
  13   -111.6907663 -0.211211E-06  0.927E-05    0.21     123.7  T
  14   -111.6907663 -0.640910E-10  0.651E-05    0.21     176.2  T
     SCC iter.                  ...        0 min,  0.077 sec
     gradient                   ...        0 min,  0.048 sec
 * total energy  :  -110.1422638 Eh     change       -0.1435483E-01 Eh
   gradient norm :     0.0466327 Eh/α   predicted    -0.1602798E-01 (  11.66%)
   displ. norm   :     0.6991616 α      lambda       -0.1238831E-01
   maximum displ.:     0.2300920 α      in ANC's #28, #15, #30, ...

........................................................................
.............................. CYCLE    7 ..............................
........................................................................

 iter      E             dE          RMSdq      gap      omega  full diag
   1   -111.6945171 -0.111695E+03  0.293E-01    0.32       0.0  T
   2   -110.8373486  0.857168E+00  0.287E+00    0.05       1.0  T
   3   -111.6971431 -0.859794E+00  0.215E-01    0.28       1.0  T
   4   -111.6998791 -0.273599E-02  0.120E-01    0.23       1.0  T
   5   -111.7010377 -0.115858E-02  0.463E-02    0.21       1.0  T
   6   -111.7011282 -0.905427E-04  0.160E-02    0.20       1.0  T
   7   -111.7011188  0.938343E-05  0.124E-02    0.20       1.0  T
   8   -111.7011303 -0.115205E-04  0.210E-03    0.20       5.5  T
   9   -111.7011306 -0.236997E-06  0.632E-04    0.20      18.1  T
  10   -111.7011306  0.219796E-08  0.527E-04    0.20      21.8  T
     SCC iter.                  ...        0 min,  0.053 sec
     gradient                   ...        0 min,  0.056 sec
 * total energy  :  -110.1515217 Eh     change       -0.9257948E-02 Eh
   gradient norm :     0.0275867 Eh/α   predicted    -0.9222025E-02 (  -0.39%)
   displ. norm   :     0.7263827 α      lambda       -0.9439892E-02
   maximum displ.:     0.2741898 α      in ANC's #15, #57, #28, ...

........................................................................
.............................. CYCLE    8 ..............................
........................................................................

 iter      E             dE          RMSdq      gap      omega  full diag
   1   -111.6940365 -0.111694E+03  0.309E-01    0.38       0.0  T
   2   -110.9348528  0.759184E+00  0.276E+00    0.19       1.0  T
   3   -111.6954804 -0.760628E+00  0.244E-01    0.34       1.0  T
   4   -111.6993442 -0.386384E-02  0.112E-01    0.25       1.0  T
   5   -111.7005091 -0.116489E-02  0.256E-02    0.21       1.0  T
   6   -111.7004668  0.423364E-04  0.293E-02    0.20       1.0  T
   7   -111.7005348 -0.680137E-04  0.113E-02    0.21       1.0  T
   8   -111.7005458 -0.109852E-04  0.297E-03    0.21       3.9  T
   9   -111.7005459 -0.157743E-06  0.236E-03    0.21       4.9  T
  10   -111.7005464 -0.438459E-06  0.114E-03    0.21      10.0  T
  11   -111.7005465 -0.112913E-06  0.284E-04    0.21      40.5  T
  12   -111.7005465 -0.565161E-08  0.960E-05    0.21     119.4  T
     SCC iter.                  ...        0 min,  0.063 sec
     gradient                   ...        0 min,  0.055 sec
 * total energy  :  -110.1573393 Eh     change       -0.5817551E-02 Eh
   gradient norm :     0.0472368 Eh/α   predicted    -0.7210341E-02 (  23.94%)
   displ. norm   :     0.6315745 α      lambda       -0.7229702E-02
   maximum displ.:     0.2212710 α      in ANC's #15, #33, #30, ...

........................................................................
.............................. CYCLE    9 ..............................
........................................................................

 iter      E             dE          RMSdq      gap      omega  full diag
   1   -111.7097985 -0.111710E+03  0.253E-01    0.38       0.0  T
   2   -111.0472508  0.662548E+00  0.262E+00    0.30       1.0  T
   3   -111.7113154 -0.664065E+00  0.188E-01    0.34       1.0  T
   4   -111.7135234 -0.220796E-02  0.917E-02    0.27       1.0  T
   5   -111.7142478 -0.724453E-03  0.258E-02    0.24       1.0  T
   6   -111.7142543 -0.649369E-05  0.180E-02    0.23       1.0  T
   7   -111.7142825 -0.281432E-04  0.385E-03    0.23       3.0  T
   8   -111.7142829 -0.401286E-06  0.228E-03    0.23       5.0  T
   9   -111.7142828  0.540486E-07  0.216E-03    0.23       5.3  T
  10   -111.7142832 -0.335837E-06  0.110E-03    0.23      10.4  T
  11   -111.7142833 -0.988601E-07  0.398E-04    0.23      28.8  T
  12   -111.7142833 -0.129808E-07  0.150E-04    0.23      76.6  T
     SCC iter.                  ...        0 min,  0.060 sec
     gradient                   ...        0 min,  0.055 sec
 * total energy  :  -110.1621900 Eh     change       -0.4850742E-02 Eh
   gradient norm :     0.0326367 Eh/α   predicted    -0.5056764E-02 (   4.25%)
   displ. norm   :     0.6892946 α      lambda       -0.6338862E-02
   maximum displ.:     0.2756699 α      in ANC's #15, #13, #11, ...

........................................................................
.............................. CYCLE   10 ..............................
........................................................................

 iter      E             dE          RMSdq      gap      omega  full diag
   1   -111.7094991 -0.111709E+03  0.237E-01    0.49       0.0  T
   2   -111.2644500  0.445049E+00  0.217E+00    0.16       1.0  T
   3   -111.7115661 -0.447116E+00  0.154E-01    0.43       1.0  T
   4   -111.7129694 -0.140330E-02  0.741E-02    0.36       1.0  T
   5   -111.7133154 -0.345958E-03  0.261E-02    0.32       1.0  T
   6   -111.7133036  0.118331E-04  0.202E-02    0.31       1.0  T
   7   -111.7133263 -0.227718E-04  0.974E-03    0.31       1.2  T
   8   -111.7133344 -0.807441E-05  0.227E-03    0.32       5.1  T
   9   -111.7133347 -0.286844E-06  0.120E-03    0.32       9.6  T
  10   -111.7133348 -0.720914E-07  0.700E-04    0.32      16.4  T
  11   -111.7133348 -0.395657E-07  0.152E-04    0.32      75.3  T
     SCC iter.                  ...        0 min,  0.062 sec
     gradient                   ...        0 min,  0.054 sec
 * total energy  :  -110.1671881 Eh     change       -0.4998050E-02 Eh
   gradient norm :     0.0340856 Eh/α   predicted    -0.4675315E-02 (  -6.46%)
   displ. norm   :     0.7755769 α      lambda       -0.7525390E-02
   maximum displ.:     0.2826380 α      in ANC's #15, #13, #18, ...

........................................................................
.............................. CYCLE   11 ..............................
........................................................................

 iter      E             dE          RMSdq      gap      omega  full diag
   1   -111.7187328 -0.111719E+03  0.190E-01    0.72       0.0  T
   2   -111.7150454  0.368743E-02  0.306E-01    0.53       1.0  T
   3   -111.7196978 -0.465236E-02  0.116E-01    0.67       1.0  T
   4   -111.7191902  0.507568E-03  0.982E-02    0.65       1.0  T
   5   -111.7196757 -0.485471E-03  0.308E-02    0.69       1.0  T
   6   -111.7197470 -0.712968E-04  0.434E-03    0.71       2.6  T
   7   -111.7197474 -0.403457E-06  0.298E-03    0.71       3.8  T
   8   -111.7197474 -0.787310E-07  0.173E-03    0.71       6.6  T
   9   -111.7197476 -0.122948E-06  0.865E-04    0.71      13.3  T
  10   -111.7197476 -0.425093E-07  0.350E-04    0.71      32.8  T
     SCC iter.                  ...        0 min,  0.050 sec
     gradient                   ...        0 min,  0.052 sec
 * total energy  :  -110.1734476 Eh     change       -0.6259541E-02 Eh
   gradient norm :     0.0432917 Eh/α   predicted    -0.6026034E-02 (  -3.73%)
   displ. norm   :     0.6790978 α      lambda       -0.7168129E-02
   maximum displ.:     0.2491413 α      in ANC's #13, #18, #17, ...

........................................................................
.............................. CYCLE   12 ..............................
........................................................................

 iter      E             dE          RMSdq      gap      omega  full diag
   1   -111.7183522 -0.111718E+03  0.286E-01    1.19       0.0  T
   2   -111.7189184 -0.566162E-03  0.184E-01    1.69       1.0  T
   3   -111.7208651 -0.194669E-02  0.961E-02    1.37       1.0  T
   4   -111.7210555 -0.190471E-03  0.368E-02    1.42       1.0  T
   5   -111.7210652 -0.967734E-05  0.114E-02    1.42       1.0  T
   6   -111.7210705 -0.528285E-05  0.414E-03    1.43       2.8  T
   7   -111.7210713 -0.762071E-06  0.224E-03    1.43       5.1  T
   8   -111.7210715 -0.222198E-06  0.636E-04    1.43      18.0  T
   9   -111.7210715  0.123450E-08  0.462E-04    1.43      24.8  T
     SCC iter.                  ...        0 min,  0.051 sec
     gradient                   ...        0 min,  0.047 sec
 * total energy  :  -110.1790009 Eh     change       -0.5553290E-02 Eh
   gradient norm :     0.0565147 Eh/α   predicted    -0.5236942E-02 (  -5.70%)
   displ. norm   :     0.6866614 α      lambda       -0.1025929E-01
   maximum displ.:     0.2532713 α      in ANC's #17, #13, #18, ...

........................................................................
.............................. CYCLE   13 ..............................
........................................................................

 iter      E             dE          RMSdq      gap      omega  full diag
   1   -111.7197548 -0.111720E+03  0.530E-01    2.04       0.0  T
   2   -111.7274706 -0.771581E-02  0.275E-01    2.87       1.0  T
   3   -111.7316616 -0.419102E-02  0.104E-01    2.57       1.0  T
   4   -111.7318087 -0.147109E-03  0.514E-02    2.61       1.0  T
   5   -111.7318200 -0.112893E-04  0.177E-02    2.59       1.0  T
   6   -111.7318333 -0.133147E-04  0.659E-03    2.61       1.7  T
   7   -111.7318345 -0.114216E-05  0.301E-03    2.61       3.8  T
   8   -111.7318348 -0.349509E-06  0.116E-03    2.61       9.9  T
   9   -111.7318349 -0.293984E-07  0.689E-04    2.61      16.7  T
  10   -111.7318349 -0.113392E-07  0.271E-04    2.61      42.4  T
     SCC iter.                  ...        0 min,  0.058 sec
     gradient                   ...        0 min,  0.039 sec
 * total energy  :  -110.1902111 Eh     change       -0.1121014E-01 Eh
   gradient norm :     0.0738890 Eh/α   predicted    -0.7548296E-02 ( -32.67%)
   displ. norm   :     0.6717654 α      lambda       -0.1603447E-01
   maximum displ.:     0.2962007 α      in ANC's #17, #22, #18, ...

........................................................................
.............................. CYCLE   14 ..............................
........................................................................

 iter      E             dE          RMSdq      gap      omega  full diag
   1   -111.7279011 -0.111728E+03  0.549E-01    3.08       0.0  T
   2   -111.7396323 -0.117312E-01  0.188E-01    3.27       1.0  T
   3   -111.7403869 -0.754668E-03  0.102E-01    3.32       1.0  T
   4   -111.7404705 -0.836127E-04  0.546E-02    3.31       1.0  T
   5   -111.7405347 -0.641551E-04  0.136E-02    3.33       1.0  T
   6   -111.7405425 -0.782970E-05  0.665E-03    3.32       1.7  T
   7   -111.7405435 -0.100147E-05  0.280E-03    3.33       4.1  T
   8   -111.7405436 -0.720460E-07  0.137E-03    3.33       8.4  T
   9   -111.7405437 -0.486888E-07  0.714E-04    3.33      16.1  T
  10   -111.7405437 -0.982872E-08  0.287E-04    3.33      40.0  T
     SCC iter.                  ...        0 min,  0.051 sec
     gradient                   ...        0 min,  0.052 sec
 * total energy  :  -110.2084083 Eh     change       -0.1819726E-01 Eh
   gradient norm :     0.1035745 Eh/α   predicted    -0.1163517E-01 ( -36.06%)
   displ. norm   :     0.6125719 α      lambda       -0.2389908E-01
   maximum displ.:     0.3184653 α      in ANC's #17, #22, #65, ...

........................................................................
.............................. CYCLE   15 ..............................
........................................................................

 iter      E             dE          RMSdq      gap      omega  full diag
   1   -111.7521255 -0.111752E+03  0.389E-01    3.33       0.0  T
   2   -111.7571898 -0.506435E-02  0.171E-01    3.30       1.0  T
   3   -111.7574055 -0.215660E-03  0.935E-02    3.34       1.0  T
   4   -111.7573485  0.569798E-04  0.462E-02    3.33       1.0  T
   5   -111.7574647 -0.116217E-03  0.108E-02    3.34       1.1  T
   6   -111.7574679 -0.322424E-05  0.545E-03    3.34       2.1  T
   7   -111.7574685 -0.504354E-06  0.306E-03    3.34       3.8  T
   8   -111.7574686 -0.177569E-06  0.145E-03    3.34       7.9  T
   9   -111.7574687 -0.525623E-07  0.645E-04    3.34      17.8  T
  10   -111.7574687 -0.662139E-08  0.263E-04    3.34      43.7  T
     SCC iter.                  ...        0 min,  0.050 sec
     gradient                   ...        0 min,  0.053 sec
 * total energy  :  -110.2300232 Eh     change       -0.2161484E-01 Eh
   gradient norm :     0.1104512 Eh/α   predicted    -0.1643354E-01 ( -23.97%)
   displ. norm   :     0.7374002 α      lambda       -0.4438793E-01
   maximum displ.:     0.2542383 α      in ANC's #65, #22, #130, ...

........................................................................
.............................. CYCLE   16 ..............................
........................................................................

 iter      E             dE          RMSdq      gap      omega  full diag
   1   -111.7669877 -0.111767E+03  0.456E-01    3.28       0.0  T
   2   -111.7714743 -0.448654E-02  0.288E-01    3.22       1.0  T
   3   -111.7718816 -0.407297E-03  0.155E-01    3.23       1.0  T
   4   -111.7719658 -0.842463E-04  0.529E-02    3.20       1.0  T
   5   -111.7720778 -0.111951E-03  0.210E-02    3.22       1.0  T
   6   -111.7721032 -0.253836E-04  0.627E-03    3.21       1.8  T
   7   -111.7721035 -0.312394E-06  0.316E-03    3.21       3.6  T
   8   -111.7721038 -0.341905E-06  0.142E-03    3.21       8.1  T
   9   -111.7721039 -0.618612E-07  0.402E-04    3.21      28.6  T
  10   -111.7721039 -0.297088E-08  0.186E-04    3.21      61.8  T
     SCC iter.                  ...        0 min,  0.050 sec
     gradient                   ...        0 min,  0.052 sec
 * total energy  :  -110.2188576 Eh     change        0.1116558E-01 Eh
   gradient norm :     0.1986876 Eh/α   predicted    -0.3426215E-01 (-406.86%)
   displ. norm   :     0.4034314 α      lambda       -0.6720739E-01
   maximum displ.:     0.1407620 α      in ANC's #18, #23, #65, ...

........................................................................
.............................. CYCLE   17 ..............................
........................................................................

 iter      E             dE          RMSdq      gap      omega  full diag
   1   -111.7613468 -0.111761E+03  0.302E-01    3.22       0.0  T
   2   -111.7636147 -0.226789E-02  0.180E-01    3.26       1.0  T
   3   -111.7637579 -0.143115E-03  0.968E-02    3.25       1.0  T
   4   -111.7637728 -0.149619E-04  0.326E-02    3.26       1.0  T
   5   -111.7638032 -0.303725E-04  0.101E-02    3.25       1.1  T
   6   -111.7638094 -0.625535E-05  0.404E-03    3.25       2.8  T
   7   -111.7638100 -0.562369E-06  0.152E-03    3.25       7.5  T
   8   -111.7638100 -0.174507E-07  0.726E-04    3.25      15.8  T
   9   -111.7638100 -0.244102E-07  0.242E-04    3.25      47.5  T
     SCC iter.                  ...        0 min,  0.050 sec
     gradient                   ...        0 min,  0.051 sec
 * total energy  :  -110.2461279 Eh     change       -0.2727032E-01 Eh
   gradient norm :     0.0529243 Eh/α   predicted    -0.3907292E-01 (  43.28%)
   displ. norm   :     0.6601872 α      lambda       -0.2006912E-01
   maximum displ.:     0.3135334 α      in ANC's #17, #13, #39, ...

........................................................................
.............................. CYCLE   18 ..............................
........................................................................

 iter      E             dE          RMSdq      gap      omega  full diag
   1   -111.7534165 -0.111753E+03  0.345E-01    3.29       0.0  T
   2   -111.7545163 -0.109972E-02  0.201E-01    3.29       1.0  T
   3   -111.7545450 -0.287662E-04  0.772E-02    3.30       1.0  T
   4   -111.7546416 -0.966189E-04  0.333E-02    3.31       1.0  T
   5   -111.7546898 -0.481643E-04  0.139E-02    3.31       1.0  T
   6   -111.7546960 -0.623538E-05  0.746E-03    3.31       1.5  T
   7   -111.7546961 -0.205831E-07  0.361E-03    3.31       3.2  T
   8   -111.7546967 -0.666155E-06  0.834E-04    3.31      13.8  T
   9   -111.7546967 -0.124097E-07  0.384E-04    3.31      29.9  T
     SCC iter.                  ...        0 min,  0.044 sec
     gradient                   ...        0 min,  0.057 sec
 * total energy  :  -110.2294771 Eh     change        0.1665083E-01 Eh
   gradient norm :     0.1732794 Eh/α   predicted    -0.1440810E-01 (-186.53%)
   displ. norm   :     0.4027745 α      lambda       -0.4529939E-01
   maximum displ.:     0.1849293 α      in ANC's #17, #28, #38, ...

........................................................................
.............................. CYCLE   19 ..............................
........................................................................

 iter      E             dE          RMSdq      gap      omega  full diag
   1   -111.7912819 -0.111791E+03  0.261E-01    3.30       0.0  T
   2   -111.7921992 -0.917316E-03  0.145E-01    3.30       1.0  T
   3   -111.7922643 -0.651016E-04  0.629E-02    3.30       1.0  T
   4   -111.7922788 -0.144338E-04  0.327E-02    3.29       1.0  T
   5   -111.7923314 -0.526613E-04  0.101E-02    3.29       1.1  T
   6   -111.7923336 -0.220957E-05  0.571E-03    3.29       2.0  T
   7   -111.7923339 -0.307575E-06  0.298E-03    3.29       3.8  T
   8   -111.7923342 -0.247618E-06  0.878E-04    3.29      13.1  T
   9   -111.7923342 -0.278798E-07  0.280E-04    3.29      40.9  T
     SCC iter.                  ...        0 min,  0.045 sec
     gradient                   ...        0 min,  0.053 sec
 * total energy  :  -110.2513020 Eh     change       -0.2182492E-01 Eh
   gradient norm :     0.0621525 Eh/α   predicted    -0.2632412E-01 (  20.61%)
   displ. norm   :     0.6122019 α      lambda       -0.2380653E-01
   maximum displ.:     0.1614779 α      in ANC's #18, #23, #3, ...

........................................................................
.............................. CYCLE   20 ..............................
........................................................................

 iter      E             dE          RMSdq      gap      omega  full diag
   1   -111.7414215 -0.111741E+03  0.388E-01    3.26       0.0  T
   2   -111.7424788 -0.105723E-02  0.219E-01    3.25       1.0  T
   3   -111.7424231  0.556428E-04  0.921E-02    3.25       1.0  T
   4   -111.7426190 -0.195882E-03  0.266E-02    3.24       1.0  T
   5   -111.7426377 -0.186887E-04  0.118E-02    3.24       1.0  T
   6   -111.7426450 -0.729981E-05  0.406E-03    3.24       2.8  T
   7   -111.7426451 -0.698198E-07  0.168E-03    3.24       6.8  T
   8   -111.7426451 -0.680100E-07  0.769E-04    3.24      14.9  T
   9   -111.7426451 -0.225886E-07  0.237E-04    3.24      48.4  T
     SCC iter.                  ...        0 min,  0.044 sec
     gradient                   ...        0 min,  0.053 sec
 * total energy  :  -110.2418538 Eh     change        0.9448160E-02 Eh
   gradient norm :     0.1115475 Eh/α   predicted    -0.1636452E-01 (-273.20%)
   displ. norm   :     0.3433061 α      lambda       -0.2859264E-01
   maximum displ.:     0.1203479 α      in ANC's #38, #128, #130, ...
 * RMSD in coord.:     0.8154888 α      energy gain  -0.2787521E+00 Eh

generating ANC from exact Hessian ...
Using Lindh-Hessian (1995)
 Shifting diagonal of input Hessian by   1.011655666857438E-002
 Lowest  eigenvalues of input Hessian
    0.010000    0.010048    0.000000    0.000000    0.000000    0.000000
    0.000000    0.000000    0.010166    0.010205    0.010249    0.010276
    0.010339    0.010405    0.010509    0.010592    0.010667    0.010712
 Highest eigenvalues
    2.002266    2.069893    2.073562    2.197798    2.309129    2.329985
 

........................................................................
.............................. CYCLE   21 ..............................
........................................................................

 iter      E             dE          RMSdq      gap      omega  full diag
   1   -111.7843868 -0.111784E+03  0.233E-01    3.27       0.0  T
   2   -111.7846546 -0.267801E-03  0.131E-01    3.26       1.0  T
   3   -111.7846457  0.899313E-05  0.448E-02    3.27       1.0  T
   4   -111.7846892 -0.435581E-04  0.124E-02    3.27       1.0  T
   5   -111.7846915 -0.232949E-05  0.661E-03    3.27       1.7  T
   6   -111.7846938 -0.224742E-05  0.194E-03    3.27       5.9  T
   7   -111.7846938 -0.206520E-07  0.100E-03    3.27      11.5  T
   8   -111.7846938 -0.299306E-07  0.310E-04    3.27      37.0  T
     SCC iter.                  ...        0 min,  0.041 sec
     gradient                   ...        0 min,  0.051 sec
 * total energy  :  -110.2581223 Eh     change       -0.1626842E-01 Eh
   gradient norm :     0.0299239 Eh/α   predicted     0.0000000E+00 (-100.00%)
   displ. norm   :     0.4364650 α      lambda       -0.6917146E-02
   maximum displ.:     0.1348671 α      in ANC's #44, #20, #21, ...

........................................................................
.............................. CYCLE   22 ..............................
........................................................................

 iter      E             dE          RMSdq      gap      omega  full diag
   1   -111.7921616 -0.111792E+03  0.931E-02    3.29       0.0  T
   2   -111.7921739 -0.123485E-04  0.566E-02    3.29       1.0  T
   3   -111.7921672  0.674420E-05  0.138E-02    3.30       1.0  T
   4   -111.7921797 -0.125120E-04  0.491E-03    3.30       2.3  T
   5   -111.7921801 -0.401148E-06  0.256E-03    3.30       4.5  T
   6   -111.7921802 -0.107964E-06  0.116E-03    3.30       9.9  T
   7   -111.7921803 -0.306796E-07  0.404E-04    3.30      28.4  T
   8   -111.7921803 -0.474020E-08  0.129E-04    3.30      88.7  T
     SCC iter.                  ...        0 min,  0.040 sec
     gradient                   ...        0 min,  0.052 sec
 * total energy  :  -110.2634638 Eh     change       -0.5341519E-02 Eh
   gradient norm :     0.0212125 Eh/α   predicted    -0.4117512E-02 ( -22.91%)
   displ. norm   :     0.5688579 α      lambda       -0.5923146E-02
   maximum displ.:     0.1678699 α      in ANC's #44, #33, #21, ...

........................................................................
.............................. CYCLE   23 ..............................
........................................................................

 iter      E             dE          RMSdq      gap      omega  full diag
   1   -111.7956035 -0.111796E+03  0.113E-01    3.32       0.0  T
   2   -111.7956357 -0.321880E-04  0.681E-02    3.32       1.0  T
   3   -111.7956219  0.138812E-04  0.205E-02    3.32       1.0  T
   4   -111.7956452 -0.233684E-04  0.774E-03    3.32       1.5  T
   5   -111.7956471 -0.192338E-05  0.354E-03    3.32       3.2  T
   6   -111.7956474 -0.260173E-06  0.183E-03    3.32       6.3  T
   7   -111.7956474 -0.398229E-07  0.689E-04    3.32      16.7  T
   8   -111.7956475 -0.171841E-07  0.177E-04    3.32      64.7  T
     SCC iter.                  ...        0 min,  0.048 sec
     gradient                   ...        0 min,  0.048 sec
 * total energy  :  -110.2675020 Eh     change       -0.4038192E-02 Eh
   gradient norm :     0.0320908 Eh/α   predicted    -0.3919938E-02 (  -2.93%)
   displ. norm   :     0.4634785 α      lambda       -0.3068694E-02
   maximum displ.:     0.1744438 α      in ANC's #33, #21, #44, ...

........................................................................
.............................. CYCLE   24 ..............................
........................................................................

 iter      E             dE          RMSdq      gap      omega  full diag
   1   -111.7975012 -0.111798E+03  0.727E-02    3.34       0.0  T
   2   -111.7975071 -0.588935E-05  0.439E-02    3.33       1.0  T
   3   -111.7974912  0.158933E-04  0.158E-02    3.34       1.0  T
   4   -111.7975106 -0.194427E-04  0.314E-03    3.34       3.7  T
   5   -111.7975108 -0.179540E-06  0.178E-03    3.34       6.4  T
   6   -111.7975109 -0.492104E-07  0.721E-04    3.34      15.9  T
   7   -111.7975109 -0.141678E-07  0.246E-04    3.34      46.6  T
     SCC iter.                  ...        0 min,  0.042 sec
     gradient                   ...        0 min,  0.054 sec
 * total energy  :  -110.2699395 Eh     change       -0.2437557E-02 Eh
   gradient norm :     0.0243834 Eh/α   predicted    -0.1863966E-02 ( -23.53%)
   displ. norm   :     0.5459420 α      lambda       -0.3057309E-02
   maximum displ.:     0.1934497 α      in ANC's #21, #33, #5, ...

........................................................................
.............................. CYCLE   25 ..............................
........................................................................

 iter      E             dE          RMSdq      gap      omega  full diag
   1   -111.8050122 -0.111805E+03  0.866E-02    3.34       0.0  T
   2   -111.8050235 -0.113036E-04  0.521E-02    3.34       1.0  T
   3   -111.8050122  0.113690E-04  0.145E-02    3.34       1.0  T
   4   -111.8050269 -0.146875E-04  0.405E-03    3.34       2.8  T
   5   -111.8050274 -0.515450E-06  0.203E-03    3.34       5.7  T
   6   -111.8050275 -0.753430E-07  0.928E-04    3.34      12.4  T
   7   -111.8050275 -0.231247E-07  0.381E-04    3.34      30.1  T
     SCC iter.                  ...        0 min,  0.034 sec
     gradient                   ...        0 min,  0.053 sec
 * total energy  :  -110.2721383 Eh     change       -0.2198747E-02 Eh
   gradient norm :     0.0140161 Eh/α   predicted    -0.1984282E-02 (  -9.75%)
   displ. norm   :     0.6110939 α      lambda       -0.2390760E-02
   maximum displ.:     0.1798131 α      in ANC's #15, #5, #21, ...

........................................................................
.............................. CYCLE   26 ..............................
........................................................................

 iter      E             dE          RMSdq      gap      omega  full diag
   1   -111.7980364 -0.111798E+03  0.113E-01    3.35       0.0  T
   2   -111.7980571 -0.207500E-04  0.681E-02    3.35       1.0  T
   3   -111.7980394  0.176843E-04  0.194E-02    3.36       1.0  T
   4   -111.7980653 -0.259231E-04  0.576E-03    3.36       2.0  T
   5   -111.7980661 -0.709915E-06  0.311E-03    3.36       3.7  T
   6   -111.7980663 -0.208469E-06  0.137E-03    3.36       8.3  T
   7   -111.7980663 -0.388074E-07  0.591E-04    3.36      19.4  T
   8   -111.7980663 -0.931813E-08  0.166E-04    3.36      68.9  T
     SCC iter.                  ...        0 min,  0.052 sec
     gradient                   ...        0 min,  0.051 sec
 * total energy  :  -110.2733224 Eh     change       -0.1184162E-02 Eh
   gradient norm :     0.0300426 Eh/α   predicted    -0.1641788E-02 (  38.65%)
   displ. norm   :     0.3577679 α      lambda       -0.2020249E-02
   maximum displ.:     0.1264678 α      in ANC's #21, #28, #20, ...

........................................................................
.............................. CYCLE   27 ..............................
........................................................................

 iter      E             dE          RMSdq      gap      omega  full diag
   1   -111.8062900 -0.111806E+03  0.768E-02    3.35       0.0  T
   2   -111.8063006 -0.105724E-04  0.471E-02    3.35       1.0  T
   3   -111.8062985  0.210051E-05  0.103E-02    3.35       1.1  T
   4   -111.8063040 -0.544923E-05  0.381E-03    3.35       3.0  T
   5   -111.8063043 -0.367716E-06  0.179E-03    3.35       6.4  T
   6   -111.8063044 -0.465692E-07  0.831E-04    3.35      13.8  T
   7   -111.8063044 -0.139430E-07  0.365E-04    3.35      31.5  T
     SCC iter.                  ...        0 min,  0.033 sec
     gradient                   ...        0 min,  0.053 sec
 * total energy  :  -110.2744659 Eh     change       -0.1143470E-02 Eh
   gradient norm :     0.0184730 Eh/α   predicted    -0.1139422E-02 (  -0.35%)
   displ. norm   :     0.3572677 α      lambda       -0.1340123E-02
   maximum displ.:     0.1137647 α      in ANC's #11, #16, #8, ...

........................................................................
.............................. CYCLE   28 ..............................
........................................................................

 iter      E             dE          RMSdq      gap      omega  full diag
   1   -111.8143721 -0.111814E+03  0.692E-02    3.33       0.0  T
   2   -111.8143847 -0.125572E-04  0.410E-02    3.34       1.0  T
   3   -111.8143720  0.126969E-04  0.168E-02    3.34       1.0  T
   4   -111.8143890 -0.169835E-04  0.444E-03    3.34       2.6  T
   5   -111.8143895 -0.505674E-06  0.202E-03    3.34       5.7  T
   6   -111.8143896 -0.856501E-07  0.911E-04    3.34      12.6  T
   7   -111.8143896 -0.115534E-07  0.456E-04    3.34      25.2  T
     SCC iter.                  ...        0 min,  0.028 sec
     gradient                   ...        0 min,  0.048 sec
 * total energy  :  -110.2747446 Eh     change       -0.2787375E-03 Eh
   gradient norm :     0.0262830 Eh/α   predicted    -0.7555893E-03 ( 171.08%)
   displ. norm   :     0.3535508 α      lambda       -0.1530060E-02
   maximum displ.:     0.1328536 α      in ANC's #15, #7, #9, ...

........................................................................
.............................. CYCLE   29 ..............................
........................................................................

 iter      E             dE          RMSdq      gap      omega  full diag
   1   -111.8079649 -0.111808E+03  0.714E-02    3.35       0.0  T
   2   -111.8079750 -0.100704E-04  0.424E-02    3.35       1.0  T
   3   -111.8079702  0.473609E-05  0.115E-02    3.35       1.0  T
   4   -111.8079783 -0.810040E-05  0.382E-03    3.35       3.0  T
   5   -111.8079786 -0.276373E-06  0.189E-03    3.35       6.1  T
   6   -111.8079787 -0.904564E-07  0.923E-04    3.35      12.4  T
   7   -111.8079787 -0.117537E-07  0.424E-04    3.35      27.1  T
     SCC iter.                  ...        0 min,  0.042 sec
     gradient                   ...        0 min,  0.050 sec
 * total energy  :  -110.2756129 Eh     change       -0.8683015E-03 Eh
   gradient norm :     0.0123221 Eh/α   predicted    -0.8606604E-03 (  -0.88%)
   displ. norm   :     0.3628588 α      lambda       -0.9583150E-03
   maximum displ.:     0.1421648 α      in ANC's #28, #25, #14, ...

........................................................................
.............................. CYCLE   30 ..............................
........................................................................

 iter      E             dE          RMSdq      gap      omega  full diag
   1   -111.8023327 -0.111802E+03  0.717E-02    3.36       0.0  T
   2   -111.8023375 -0.476779E-05  0.431E-02    3.36       1.0  T
   3   -111.8023309  0.653658E-05  0.108E-02    3.36       1.1  T
   4   -111.8023398 -0.890475E-05  0.299E-03    3.35       3.8  T
   5   -111.8023399 -0.101922E-06  0.165E-03    3.35       6.9  T
   6   -111.8023400 -0.618634E-07  0.659E-04    3.35      17.4  T
   7   -111.8023400 -0.105965E-07  0.236E-04    3.35      48.6  T
     SCC iter.                  ...        0 min,  0.036 sec
     gradient                   ...        0 min,  0.049 sec
 * total energy  :  -110.2754965 Eh     change        0.1164067E-03 Eh
   gradient norm :     0.0335560 Eh/α   predicted    -0.5422478E-03 (-565.82%)
   displ. norm   :     0.1839623 α      lambda       -0.1573421E-02
   maximum displ.:     0.0518001 α      in ANC's #21, #11, #7, ...

........................................................................
.............................. CYCLE   31 ..............................
........................................................................

 iter      E             dE          RMSdq      gap      omega  full diag
   1   -111.8071836 -0.111807E+03  0.399E-02    3.35       0.0  T
   2   -111.8071858 -0.220207E-05  0.236E-02    3.35       1.0  T
   3   -111.8071849  0.931564E-06  0.548E-03    3.35       2.1  T
   4   -111.8071868 -0.188109E-05  0.216E-03    3.35       5.3  T
   5   -111.8071868 -0.783159E-07  0.985E-04    3.35      11.6  T
   6   -111.8071869 -0.189958E-07  0.475E-04    3.35      24.1  T
     SCC iter.                  ...        0 min,  0.028 sec
     gradient                   ...        0 min,  0.049 sec
 * total energy  :  -110.2764006 Eh     change       -0.9040584E-03 Eh
   gradient norm :     0.0117455 Eh/α   predicted    -0.8133358E-03 ( -10.04%)
   displ. norm   :     0.3406085 α      lambda       -0.9035696E-03
   maximum displ.:     0.1119427 α      in ANC's #7, #1, #11, ...

........................................................................
.............................. CYCLE   32 ..............................
........................................................................

 iter      E             dE          RMSdq      gap      omega  full diag
   1   -111.8137920 -0.111814E+03  0.569E-02    3.36       0.0  T
   2   -111.8137994 -0.744823E-05  0.335E-02    3.36       1.0  T
   3   -111.8137993  0.125812E-06  0.763E-03    3.37       1.5  T
   4   -111.8138015 -0.218435E-05  0.330E-03    3.37       3.5  T
   5   -111.8138018 -0.291669E-06  0.162E-03    3.37       7.1  T
   6   -111.8138019 -0.646710E-07  0.694E-04    3.37      16.5  T
   7   -111.8138019 -0.168069E-08  0.344E-04    3.37      33.3  T
     SCC iter.                  ...        0 min,  0.043 sec
     gradient                   ...        0 min,  0.054 sec
 * total energy  :  -110.2763314 Eh     change        0.6922328E-04 Eh
   gradient norm :     0.0323121 Eh/α   predicted    -0.5042014E-03 (-828.37%)
   displ. norm   :     0.3689190 α      lambda       -0.1531464E-02
   maximum displ.:     0.1182628 α      in ANC's #1, #7, #11, ...

........................................................................
.............................. CYCLE   33 ..............................
........................................................................

 iter      E             dE          RMSdq      gap      omega  full diag
   1   -111.8083952 -0.111808E+03  0.574E-02    3.36       0.0  T
   2   -111.8084029 -0.764908E-05  0.340E-02    3.36       1.0  T
   3   -111.8084008  0.203129E-05  0.913E-03    3.36       1.3  T
   4   -111.8084050 -0.419947E-05  0.323E-03    3.36       3.6  T
   5   -111.8084053 -0.276692E-06  0.152E-03    3.36       7.6  T
   6   -111.8084054 -0.405370E-07  0.736E-04    3.36      15.6  T
   7   -111.8084054 -0.250078E-08  0.367E-04    3.36      31.2  T
     SCC iter.                  ...        0 min,  0.036 sec
     gradient                   ...        0 min,  0.052 sec
 * total energy  :  -110.2773104 Eh     change       -0.9790727E-03 Eh
   gradient norm :     0.0099048 Eh/α   predicted    -0.8699509E-03 ( -11.15%)
   displ. norm   :     0.4811634 α      lambda       -0.7093525E-03
   maximum displ.:     0.1674681 α      in ANC's #1, #7, #11, ...

........................................................................
.............................. CYCLE   34 ..............................
........................................................................

 iter      E             dE          RMSdq      gap      omega  full diag
   1   -111.8066652 -0.111807E+03  0.583E-02    3.37       0.0  T
   2   -111.8066685 -0.327591E-05  0.348E-02    3.37       1.0  T
   3   -111.8066623  0.613217E-05  0.102E-02    3.37       1.1  T
   4   -111.8066699 -0.755679E-05  0.211E-03    3.37       5.4  T
   5   -111.8066700 -0.106141E-06  0.119E-03    3.37       9.6  T
   6   -111.8066700 -0.214167E-07  0.535E-04    3.37      21.4  T
   7   -111.8066700 -0.820236E-08  0.158E-04    3.37      72.7  T
     SCC iter.                  ...        0 min,  0.035 sec
     gradient                   ...        0 min,  0.048 sec
 * total energy  :  -110.2778558 Eh     change       -0.5453991E-03 Eh
   gradient norm :     0.0105069 Eh/α   predicted    -0.4367959E-03 ( -19.91%)
   displ. norm   :     0.5995152 α      lambda       -0.7496903E-03
   maximum displ.:     0.2219611 α      in ANC's #1, #7, #11, ...

........................................................................
.............................. CYCLE   35 ..............................
........................................................................

 iter      E             dE          RMSdq      gap      omega  full diag
   1   -111.8063879 -0.111806E+03  0.638E-02    3.38       0.0  T
   2   -111.8063918 -0.387766E-05  0.378E-02    3.38       1.0  T
   3   -111.8063835  0.821715E-05  0.118E-02    3.38       1.0  T
   4   -111.8063936 -0.100543E-04  0.224E-03    3.38       5.1  T
   5   -111.8063937 -0.112522E-06  0.127E-03    3.38       9.0  T
   6   -111.8063937 -0.261322E-07  0.593E-04    3.38      19.4  T
   7   -111.8063937 -0.931239E-08  0.185E-04    3.38      62.0  T
     SCC iter.                  ...        0 min,  0.034 sec
     gradient                   ...        0 min,  0.050 sec
 * total energy  :  -110.2784674 Eh     change       -0.6115618E-03 Eh
   gradient norm :     0.0104901 Eh/α   predicted    -0.5095771E-03 ( -16.68%)
   displ. norm   :     0.6180011 α      lambda       -0.8009330E-03
   maximum displ.:     0.2439351 α      in ANC's #1, #7, #6, ...

........................................................................
.............................. CYCLE   36 ..............................
........................................................................

 iter      E             dE          RMSdq      gap      omega  full diag
   1   -111.8101998 -0.111810E+03  0.674E-02    3.39       0.0  T
   2   -111.8102053 -0.551959E-05  0.397E-02    3.39       1.0  T
   3   -111.8101944  0.108801E-04  0.138E-02    3.40       1.0  T
   4   -111.8102076 -0.132256E-04  0.261E-03    3.40       4.4  T
   5   -111.8102078 -0.182484E-06  0.136E-03    3.40       8.4  T
   6   -111.8102078 -0.349289E-07  0.680E-04    3.40      16.9  T
   7   -111.8102078 -0.947138E-08  0.248E-04    3.40      46.3  T
     SCC iter.                  ...        0 min,  0.036 sec
     gradient                   ...        0 min,  0.049 sec
 * total energy  :  -110.2790845 Eh     change       -0.6170700E-03 Eh
   gradient norm :     0.0105901 Eh/α   predicted    -0.5534155E-03 ( -10.32%)
   displ. norm   :     0.6579740 α      lambda       -0.6803048E-03
   maximum displ.:     0.2737992 α      in ANC's #1, #6, #7, ...

........................................................................
.............................. CYCLE   37 ..............................
........................................................................

 iter      E             dE          RMSdq      gap      omega  full diag
   1   -111.8100705 -0.111810E+03  0.734E-02    3.41       0.0  T
   2   -111.8100765 -0.595658E-05  0.434E-02    3.41       1.0  T
   3   -111.8100663  0.101752E-04  0.134E-02    3.41       1.0  T
   4   -111.8100790 -0.127283E-04  0.284E-03    3.41       4.0  T
   5   -111.8100792 -0.191585E-06  0.154E-03    3.41       7.5  T
   6   -111.8100793 -0.366122E-07  0.761E-04    3.41      15.1  T
   7   -111.8100793 -0.143146E-07  0.264E-04    3.41      43.5  T
     SCC iter.                  ...        0 min,  0.032 sec
     gradient                   ...        0 min,  0.055 sec
 * total energy  :  -110.2795845 Eh     change       -0.4999986E-03 Eh
   gradient norm :     0.0146347 Eh/α   predicted    -0.4874172E-03 (  -2.52%)
   displ. norm   :     0.5923271 α      lambda       -0.8532684E-03
   maximum displ.:     0.2697854 α      in ANC's #1, #6, #17, ...

........................................................................
.............................. CYCLE   38 ..............................
........................................................................

 iter      E             dE          RMSdq      gap      omega  full diag
   1   -111.8197025 -0.111820E+03  0.747E-02    3.43       0.0  T
   2   -111.8197106 -0.808708E-05  0.440E-02    3.43       1.0  T
   3   -111.8196973  0.133182E-04  0.155E-02    3.43       1.0  T
   4   -111.8197134 -0.161045E-04  0.328E-03    3.43       3.5  T
   5   -111.8197138 -0.427074E-06  0.147E-03    3.43       7.8  T
   6   -111.8197138 -0.133862E-07  0.803E-04    3.43      14.3  T
   7   -111.8197139 -0.161151E-07  0.233E-04    3.43      49.2  T
     SCC iter.                  ...        0 min,  0.033 sec
     gradient                   ...        0 min,  0.049 sec
 * total energy  :  -110.2801038 Eh     change       -0.5193373E-03 Eh
   gradient norm :     0.0154055 Eh/α   predicted    -0.5763248E-03 (  10.97%)
   displ. norm   :     0.6380626 α      lambda       -0.9686562E-03
   maximum displ.:     0.2766979 α      in ANC's #1, #6, #7, ...

........................................................................
.............................. CYCLE   39 ..............................
........................................................................

 iter      E             dE          RMSdq      gap      omega  full diag
   1   -111.8094087 -0.111809E+03  0.849E-02    3.44       0.0  T
   2   -111.8094213 -0.125881E-04  0.500E-02    3.44       1.0  T
   3   -111.8094024  0.188478E-04  0.194E-02    3.44       1.0  T
   4   -111.8094262 -0.237393E-04  0.430E-03    3.44       2.7  T
   5   -111.8094267 -0.534806E-06  0.213E-03    3.44       5.4  T
   6   -111.8094268 -0.591346E-07  0.104E-03    3.44      11.0  T
   7   -111.8094268 -0.226959E-07  0.433E-04    3.44      26.5  T
   8   -111.8094268 -0.286674E-08  0.138E-04    3.44      83.0  T
     SCC iter.                  ...        0 min,  0.044 sec
     gradient                   ...        0 min,  0.051 sec
 * total energy  :  -110.2803781 Eh     change       -0.2742430E-03 Eh
   gradient norm :     0.0244078 Eh/α   predicted    -0.6815148E-03 ( 148.51%)
   displ. norm   :     0.2818395 α      lambda       -0.9984839E-03
   maximum displ.:     0.1389029 α      in ANC's #1, #6, #10, ...

........................................................................
.............................. CYCLE   40 ..............................
........................................................................

 iter      E             dE          RMSdq      gap      omega  full diag
   1   -111.8147586 -0.111815E+03  0.461E-02    3.44       0.0  T
   2   -111.8147624 -0.386407E-05  0.270E-02    3.44       1.0  T
   3   -111.8147613  0.111756E-05  0.630E-03    3.44       1.8  T
   4   -111.8147633 -0.194821E-05  0.255E-03    3.44       4.5  T
   5   -111.8147635 -0.230915E-06  0.110E-03    3.44      10.4  T
   6   -111.8147635 -0.183988E-07  0.514E-04    3.44      22.3  T
   7   -111.8147635 -0.386358E-08  0.254E-04    3.44      45.1  T
     SCC iter.                  ...        0 min,  0.036 sec
     gradient                   ...        0 min,  0.048 sec
 * total energy  :  -110.2809371 Eh     change       -0.5590858E-03 Eh
   gradient norm :     0.0110668 Eh/α   predicted    -0.5388988E-03 (  -3.61%)
   displ. norm   :     0.4929573 α      lambda       -0.5229913E-03
   maximum displ.:     0.2463229 α      in ANC's #1, #6, #46, ...

........................................................................
.............................. CYCLE   41 ..............................
........................................................................

 iter      E             dE          RMSdq      gap      omega  full diag
   1   -111.8135397 -0.111814E+03  0.591E-02    3.44       0.0  T
   2   -111.8135460 -0.621886E-05  0.350E-02    3.45       1.0  T
   3   -111.8135387  0.722642E-05  0.120E-02    3.45       1.0  T
   4   -111.8135476 -0.887865E-05  0.289E-03    3.45       4.0  T
   5   -111.8135480 -0.407180E-06  0.119E-03    3.45       9.6  T
   6   -111.8135480 -0.175298E-07  0.578E-04    3.45      19.9  T
   7   -111.8135480 -0.483364E-08  0.267E-04    3.45      42.9  T
     SCC iter.                  ...        0 min,  0.032 sec
     gradient                   ...        0 min,  0.054 sec
 * total energy  :  -110.2812691 Eh     change       -0.3319730E-03 Eh
   gradient norm :     0.0100656 Eh/α   predicted    -0.3250417E-03 (  -2.09%)
   displ. norm   :     0.4273003 α      lambda       -0.5305885E-03
   maximum displ.:     0.2315298 α      in ANC's #1, #6, #9, ...

........................................................................
.............................. CYCLE   42 ..............................
........................................................................

 iter      E             dE          RMSdq      gap      omega  full diag
   1   -111.8190212 -0.111819E+03  0.552E-02    3.46       0.0  T
   2   -111.8190297 -0.849307E-05  0.326E-02    3.46       1.0  T
   3   -111.8190221  0.755642E-05  0.132E-02    3.46       1.0  T
   4   -111.8190315 -0.933011E-05  0.355E-03    3.46       3.2  T
   5   -111.8190321 -0.641434E-06  0.126E-03    3.46       9.1  T
   6   -111.8190321 -0.179201E-07  0.631E-04    3.46      18.2  T
   7   -111.8190321 -0.437915E-08  0.258E-04    3.46      44.4  T
     SCC iter.                  ...        0 min,  0.037 sec
     gradient                   ...        0 min,  0.051 sec
 * total energy  :  -110.2815993 Eh     change       -0.3301511E-03 Eh
   gradient norm :     0.0097821 Eh/α   predicted    -0.3137389E-03 (  -4.97%)
   displ. norm   :     0.6032155 α      lambda       -0.6307287E-03
   maximum displ.:     0.3149384 α      in ANC's #1, #6, #46, ...
 * RMSD in coord.:     0.9240797 α      energy gain  -0.3974543E-01 Eh

generating ANC from exact Hessian ...
Using Lindh-Hessian (1995)
 Shifting diagonal of input Hessian by   1.018930530614671E-002
 Lowest  eigenvalues of input Hessian
    0.010000    0.010141    0.000000    0.000000    0.000000    0.000000
    0.000000    0.000000    0.010258    0.010333    0.010380    0.010458
    0.010512    0.010626    0.010709    0.010755    0.010790    0.010954
 Highest eigenvalues
    2.001662    2.071913    2.084421    2.198573    2.315578    2.354668
 

........................................................................
.............................. CYCLE   43 ..............................
........................................................................

 iter      E             dE          RMSdq      gap      omega  full diag
   1   -111.8138904 -0.111814E+03  0.736E-02    3.47       0.0  T
   2   -111.8138993 -0.892178E-05  0.433E-02    3.47       1.0  T
   3   -111.8138869  0.124520E-04  0.152E-02    3.47       1.0  T
   4   -111.8139018 -0.149076E-04  0.366E-03    3.47       3.1  T
   5   -111.8139024 -0.625187E-06  0.145E-03    3.47       7.9  T
   6   -111.8139024 -0.124319E-07  0.698E-04    3.47      16.4  T
   7   -111.8139024 -0.998959E-08  0.241E-04    3.47      47.6  T
     SCC iter.                  ...        0 min,  0.038 sec
     gradient                   ...        0 min,  0.051 sec
 * total energy  :  -110.2817860 Eh     change       -0.1867043E-03 Eh
   gradient norm :     0.0157229 Eh/α   predicted     0.0000000E+00 (-100.00%)
   displ. norm   :     0.1560401 α      lambda       -0.6497188E-03
   maximum displ.:     0.0665941 α      in ANC's #35, #13, #14, ...

........................................................................
.............................. CYCLE   44 ..............................
........................................................................

 iter      E             dE          RMSdq      gap      omega  full diag
   1   -111.8153073 -0.111815E+03  0.532E-02    3.48       0.0  T
   2   -111.8153124 -0.510901E-05  0.328E-02    3.48       1.0  T
   3   -111.8153017  0.106629E-04  0.143E-02    3.48       1.0  T
   4   -111.8153151 -0.133710E-04  0.259E-03    3.48       4.4  T
   5   -111.8153153 -0.200780E-06  0.119E-03    3.48       9.6  T
   6   -111.8153153 -0.676596E-08  0.537E-04    3.48      21.3  T
   7   -111.8153153 -0.818945E-08  0.164E-04    3.48      70.0  T
     SCC iter.                  ...        0 min,  0.036 sec
     gradient                   ...        0 min,  0.050 sec
 * total energy  :  -110.2822324 Eh     change       -0.4464062E-03 Eh
   gradient norm :     0.0050176 Eh/α   predicted    -0.3327729E-03 ( -25.46%)
   displ. norm   :     0.1826491 α      lambda       -0.2825511E-03
   maximum displ.:     0.0642051 α      in ANC's #1, #9, #7, ...

........................................................................
.............................. CYCLE   45 ..............................
........................................................................

 iter      E             dE          RMSdq      gap      omega  full diag
   1   -111.8157021 -0.111816E+03  0.398E-02    3.49       0.0  T
   2   -111.8157051 -0.303392E-05  0.244E-02    3.49       1.0  T
   3   -111.8156967  0.841786E-05  0.130E-02    3.49       1.0  T
   4   -111.8157074 -0.106637E-04  0.203E-03    3.49       5.7  T
   5   -111.8157075 -0.889950E-07  0.106E-03    3.49      10.8  T
   6   -111.8157075 -0.643784E-08  0.465E-04    3.49      24.7  T
   7   -111.8157075 -0.513676E-08  0.152E-04    3.49      75.3  T
     SCC iter.                  ...        0 min,  0.032 sec
     gradient                   ...        0 min,  0.053 sec
 * total energy  :  -110.2824056 Eh     change       -0.1732487E-03 Eh
   gradient norm :     0.0107088 Eh/α   predicted    -0.1462517E-03 ( -15.58%)
   displ. norm   :     0.1889342 α      lambda       -0.2399283E-03
   maximum displ.:     0.0857053 α      in ANC's #1, #10, #6, ...

........................................................................
.............................. CYCLE   46 ..............................
........................................................................

 iter      E             dE          RMSdq      gap      omega  full diag
   1   -111.8171573 -0.111817E+03  0.326E-02    3.50       0.0  T
   2   -111.8171596 -0.226048E-05  0.198E-02    3.50       1.0  T
   3   -111.8171542  0.542498E-05  0.104E-02    3.50       1.1  T
   4   -111.8171612 -0.701092E-05  0.186E-03    3.50       6.2  T
   5   -111.8171612 -0.691890E-07  0.981E-04    3.50      11.7  T
   6   -111.8171613 -0.108223E-07  0.437E-04    3.50      26.2  T
     SCC iter.                  ...        0 min,  0.033 sec
     gradient                   ...        0 min,  0.051 sec
 * total energy  :  -110.2825628 Eh     change       -0.1572103E-03 Eh
   gradient norm :     0.0098693 Eh/α   predicted    -0.1242472E-03 ( -20.97%)
   displ. norm   :     0.2461555 α      lambda       -0.2883725E-03
   maximum displ.:     0.1356725 α      in ANC's #1, #5, #10, ...

........................................................................
.............................. CYCLE   47 ..............................
........................................................................

 iter      E             dE          RMSdq      gap      omega  full diag
   1   -111.8177835 -0.111818E+03  0.338E-02    3.51       0.0  T
   2   -111.8177860 -0.246606E-05  0.205E-02    3.51       1.0  T
   3   -111.8177794  0.650555E-05  0.117E-02    3.51       1.0  T
   4   -111.8177881 -0.860326E-05  0.186E-03    3.51       6.2  T
   5   -111.8177881 -0.724635E-07  0.969E-04    3.51      11.8  T
   6   -111.8177881 -0.117697E-07  0.446E-04    3.51      25.7  T
     SCC iter.                  ...        0 min,  0.036 sec
     gradient                   ...        0 min,  0.047 sec
 * total energy  :  -110.2827811 Eh     change       -0.2183090E-03 Eh
   gradient norm :     0.0049822 Eh/α   predicted    -0.1529236E-03 ( -29.95%)
   displ. norm   :     0.3716064 α      lambda       -0.2796016E-03
   maximum displ.:     0.2041037 α      in ANC's #1, #5, #10, ...

........................................................................
.............................. CYCLE   48 ..............................
........................................................................

 iter      E             dE          RMSdq      gap      omega  full diag
   1   -111.8146309 -0.111815E+03  0.544E-02    3.52       0.0  T
   2   -111.8146361 -0.519470E-05  0.334E-02    3.52       1.0  T
   3   -111.8146175  0.185420E-04  0.197E-02    3.53       1.0  T
   4   -111.8146417 -0.241501E-04  0.264E-03    3.53       4.3  T
   5   -111.8146418 -0.127088E-06  0.151E-03    3.53       7.6  T
   6   -111.8146418 -0.188008E-07  0.607E-04    3.53      18.9  T
   7   -111.8146418 -0.968227E-08  0.194E-04    3.53      59.0  T
     SCC iter.                  ...        0 min,  0.035 sec
     gradient                   ...        0 min,  0.057 sec
 * total energy  :  -110.2829609 Eh     change       -0.1797528E-03 Eh
   gradient norm :     0.0086721 Eh/α   predicted    -0.1591106E-03 ( -11.48%)
   displ. norm   :     0.3283449 α      lambda       -0.3216141E-03
   maximum displ.:     0.2084519 α      in ANC's #1, #5, #9, ...

........................................................................
.............................. CYCLE   49 ..............................
........................................................................

 iter      E             dE          RMSdq      gap      omega  full diag
   1   -111.8157532 -0.111816E+03  0.382E-02    3.53       0.0  T
   2   -111.8157561 -0.285445E-05  0.228E-02    3.53       1.0  T
   3   -111.8157504  0.564919E-05  0.105E-02    3.53       1.1  T
   4   -111.8157575 -0.709458E-05  0.197E-03    3.53       5.8  T
   5   -111.8157576 -0.997865E-07  0.952E-04    3.53      12.0  T
   6   -111.8157576 -0.183061E-07  0.434E-04    3.53      26.4  T
     SCC iter.                  ...        0 min,  0.042 sec
     gradient                   ...        0 min,  0.042 sec
 * total energy  :  -110.2831335 Eh     change       -0.1726180E-03 Eh
   gradient norm :     0.0066735 Eh/α   predicted    -0.1781442E-03 (   3.20%)
   displ. norm   :     0.3343393 α      lambda       -0.2293831E-03
   maximum displ.:     0.2045284 α      in ANC's #1, #5, #9, ...

........................................................................
.............................. CYCLE   50 ..............................
........................................................................

 iter      E             dE          RMSdq      gap      omega  full diag
   1   -111.8151592 -0.111815E+03  0.413E-02    3.53       0.0  T
   2   -111.8151619 -0.263054E-05  0.249E-02    3.53       1.0  T
   3   -111.8151535  0.836578E-05  0.124E-02    3.53       1.0  T
   4   -111.8151640 -0.104796E-04  0.198E-03    3.53       5.8  T
   5   -111.8151641 -0.831265E-07  0.114E-03    3.53      10.0  T
   6   -111.8151641 -0.148999E-07  0.473E-04    3.53      24.3  T
   7   -111.8151641 -0.419482E-08  0.177E-04    3.53      64.7  T
     SCC iter.                  ...        0 min,  0.045 sec
     gradient                   ...        0 min,  0.051 sec
 * total energy  :  -110.2833218 Eh     change       -0.1883021E-03 Eh
   gradient norm :     0.0055748 Eh/α   predicted    -0.1275153E-03 ( -32.28%)
   displ. norm   :     0.4198905 α      lambda       -0.3023045E-03
   maximum displ.:     0.2671881 α      in ANC's #1, #5, #9, ...

........................................................................
.............................. CYCLE   51 ..............................
........................................................................

 iter      E             dE          RMSdq      gap      omega  full diag
   1   -111.8162768 -0.111816E+03  0.508E-02    3.53       0.0  T
   2   -111.8162799 -0.313538E-05  0.304E-02    3.53       1.0  T
   3   -111.8162725  0.746168E-05  0.115E-02    3.53       1.0  T
   4   -111.8162818 -0.933464E-05  0.219E-03    3.53       5.2  T
   5   -111.8162819 -0.103512E-06  0.127E-03    3.53       9.0  T
   6   -111.8162819 -0.193709E-07  0.522E-04    3.53      22.0  T
   7   -111.8162819 -0.596640E-08  0.191E-04    3.53      60.1  T
     SCC iter.                  ...        0 min,  0.040 sec
     gradient                   ...        0 min,  0.053 sec
 * total energy  :  -110.2835379 Eh     change       -0.2161242E-03 Eh
   gradient norm :     0.0095184 Eh/α   predicted    -0.1778035E-03 ( -17.73%)
   displ. norm   :     0.3329903 α      lambda       -0.2825774E-03
   maximum displ.:     0.2124701 α      in ANC's #1, #5, #3, ...

........................................................................
.............................. CYCLE   52 ..............................
........................................................................

 iter      E             dE          RMSdq      gap      omega  full diag
   1   -111.8202762 -0.111820E+03  0.397E-02    3.53       0.0  T
   2   -111.8202780 -0.179404E-05  0.234E-02    3.53       1.0  T
   3   -111.8202763  0.167432E-05  0.569E-03    3.53       2.0  T
   4   -111.8202786 -0.224641E-05  0.127E-03    3.53       9.0  T
   5   -111.8202786 -0.354689E-07  0.669E-04    3.53      17.2  T
   6   -111.8202786 -0.897316E-08  0.297E-04    3.53      38.7  T
     SCC iter.                  ...        0 min,  0.031 sec
     gradient                   ...        0 min,  0.057 sec
 * total energy  :  -110.2837292 Eh     change       -0.1912198E-03 Eh
   gradient norm :     0.0084726 Eh/α   predicted    -0.1569575E-03 ( -17.92%)
   displ. norm   :     0.4549523 α      lambda       -0.2746544E-03
   maximum displ.:     0.2920729 α      in ANC's #1, #5, #3, ...

........................................................................
.............................. CYCLE   53 ..............................
........................................................................

 iter      E             dE          RMSdq      gap      omega  full diag
   1   -111.8174571 -0.111817E+03  0.562E-02    3.53       0.0  T
   2   -111.8174601 -0.302461E-05  0.335E-02    3.53       1.0  T
   3   -111.8174572  0.295160E-05  0.803E-03    3.53       1.4  T
   4   -111.8174615 -0.429513E-05  0.213E-03    3.53       5.4  T
   5   -111.8174615 -0.538692E-07  0.120E-03    3.53       9.5  T
   6   -111.8174615 -0.314926E-07  0.479E-04    3.53      23.9  T
   7   -111.8174615 -0.378699E-08  0.220E-04    3.53      52.1  T
     SCC iter.                  ...        0 min,  0.026 sec
     gradient                   ...        0 min,  0.062 sec
 * total energy  :  -110.2838739 Eh     change       -0.1447248E-03 Eh
   gradient norm :     0.0117683 Eh/α   predicted    -0.1657530E-03 (  14.53%)
   displ. norm   :     0.3819818 α      lambda       -0.3323273E-03
   maximum displ.:     0.2519648 α      in ANC's #1, #5, #3, ...

........................................................................
.............................. CYCLE   54 ..............................
........................................................................

 iter      E             dE          RMSdq      gap      omega  full diag
   1   -111.8159795 -0.111816E+03  0.421E-02    3.53       0.0  T
   2   -111.8159819 -0.239210E-05  0.248E-02    3.53       1.0  T
   3   -111.8159806  0.133107E-05  0.594E-03    3.53       1.9  T
   4   -111.8159827 -0.212399E-05  0.170E-03    3.53       6.8  T
   5   -111.8159827 -0.498556E-07  0.829E-04    3.53      13.8  T
   6   -111.8159828 -0.993134E-08  0.375E-04    3.53      30.6  T
     SCC iter.                  ...        0 min,  0.032 sec
     gradient                   ...        0 min,  0.051 sec
 * total energy  :  -110.2840802 Eh     change       -0.2063622E-03 Eh
   gradient norm :     0.0063820 Eh/α   predicted    -0.1904125E-03 (  -7.73%)
   displ. norm   :     0.3176652 α      lambda       -0.1945800E-03
   maximum displ.:     0.2138316 α      in ANC's #1, #5, #3, ...

........................................................................
.............................. CYCLE   55 ..............................
........................................................................

 iter      E             dE          RMSdq      gap      omega  full diag
   1   -111.8176242 -0.111818E+03  0.297E-02    3.53       0.0  T
   2   -111.8176251 -0.893779E-06  0.174E-02    3.53       1.0  T
   3   -111.8176241  0.102935E-05  0.434E-03    3.53       2.6  T
   4   -111.8176255 -0.135153E-05  0.864E-04    3.53      13.3  T
   5   -111.8176255 -0.140291E-07  0.466E-04    3.53      24.6  T
   6   -111.8176255 -0.432922E-08  0.180E-04    3.53      63.6  T
     SCC iter.                  ...        0 min,  0.026 sec
     gradient                   ...        0 min,  0.049 sec
 * total energy  :  -110.2842355 Eh     change       -0.1552540E-03 Eh
   gradient norm :     0.0051851 Eh/α   predicted    -0.1071083E-03 ( -31.01%)
   displ. norm   :     0.5181948 α      lambda       -0.2786544E-03
   maximum displ.:     0.3466571 α      in ANC's #1, #5, #3, ...

........................................................................
.............................. CYCLE   56 ..............................
........................................................................

 iter      E             dE          RMSdq      gap      omega  full diag
   1   -111.8177095 -0.111818E+03  0.497E-02    3.52       0.0  T
   2   -111.8177114 -0.190657E-05  0.295E-02    3.52       1.0  T
   3   -111.8177093  0.211958E-05  0.699E-03    3.52       1.6  T
   4   -111.8177122 -0.296306E-05  0.161E-03    3.52       7.1  T
   5   -111.8177123 -0.399544E-07  0.960E-04    3.52      12.0  T
   6   -111.8177123 -0.139377E-07  0.340E-04    3.52      33.7  T
     SCC iter.                  ...        0 min,  0.028 sec
     gradient                   ...        0 min,  0.057 sec
 * total energy  :  -110.2844612 Eh     change       -0.2256800E-03 Eh
   gradient norm :     0.0047411 Eh/α   predicted    -0.1767448E-03 ( -21.68%)
   displ. norm   :     0.5670948 α      lambda       -0.2669238E-03
   maximum displ.:     0.3780453 α      in ANC's #1, #5, #3, ...

........................................................................
.............................. CYCLE   57 ..............................
........................................................................

 iter      E             dE          RMSdq      gap      omega  full diag
   1   -111.8182910 -0.111818E+03  0.501E-02    3.51       0.0  T
   2   -111.8182932 -0.217395E-05  0.296E-02    3.51       1.0  T
   3   -111.8182901  0.310993E-05  0.804E-03    3.51       1.4  T
   4   -111.8182941 -0.399654E-05  0.170E-03    3.51       6.8  T
   5   -111.8182942 -0.701486E-07  0.939E-04    3.51      12.2  T
   6   -111.8182942 -0.151451E-07  0.388E-04    3.51      29.6  T
     SCC iter.                  ...        0 min,  0.030 sec
     gradient                   ...        0 min,  0.050 sec
 * total energy  :  -110.2846671 Eh     change       -0.2059275E-03 Eh
   gradient norm :     0.0041928 Eh/α   predicted    -0.1763854E-03 ( -14.35%)
   displ. norm   :     0.5888977 α      lambda       -0.2004328E-03
   maximum displ.:     0.3954023 α      in ANC's #1, #5, #3, ...

........................................................................
.............................. CYCLE   58 ..............................
........................................................................

 iter      E             dE          RMSdq      gap      omega  full diag
   1   -111.8162926 -0.111816E+03  0.517E-02    3.50       0.0  T
   2   -111.8162948 -0.228813E-05  0.307E-02    3.50       1.0  T
   3   -111.8162910  0.387428E-05  0.878E-03    3.50       1.3  T
   4   -111.8162959 -0.494689E-05  0.180E-03    3.50       6.4  T
   5   -111.8162960 -0.691738E-07  0.103E-03    3.50      11.1  T
   6   -111.8162960 -0.156559E-07  0.436E-04    3.50      26.3  T
   7   -111.8162960 -0.530825E-08  0.170E-04    3.50      67.4  T
     SCC iter.                  ...        0 min,  0.031 sec
     gradient                   ...        0 min,  0.048 sec
 * total energy  :  -110.2848259 Eh     change       -0.1587754E-03 Eh
   gradient norm :     0.0063188 Eh/α   predicted    -0.1349733E-03 ( -14.99%)
   displ. norm   :     0.5359284 α      lambda       -0.2304662E-03
   maximum displ.:     0.3542320 α      in ANC's #1, #5, #3, ...

........................................................................
.............................. CYCLE   59 ..............................
........................................................................

 iter      E             dE          RMSdq      gap      omega  full diag
   1   -111.8192620 -0.111819E+03  0.424E-02    3.49       0.0  T
   2   -111.8192642 -0.223698E-05  0.251E-02    3.49       1.0  T
   3   -111.8192600  0.417253E-05  0.884E-03    3.49       1.3  T
   4   -111.8192652 -0.518801E-05  0.159E-03    3.49       7.2  T
   5   -111.8192653 -0.652225E-07  0.845E-04    3.49      13.6  T
   6   -111.8192653 -0.972243E-08  0.436E-04    3.49      26.3  T
     SCC iter.                  ...        0 min,  0.032 sec
     gradient                   ...        0 min,  0.051 sec
 * total energy  :  -110.2849918 Eh     change       -0.1659480E-03 Eh
   gradient norm :     0.0043395 Eh/α   predicted    -0.1483350E-03 ( -10.61%)
   displ. norm   :     0.6029043 α      lambda       -0.2060516E-03
   maximum displ.:     0.4047294 α      in ANC's #1, #5, #3, ...

........................................................................
.............................. CYCLE   60 ..............................
........................................................................

 iter      E             dE          RMSdq      gap      omega  full diag
   1   -111.8164733 -0.111816E+03  0.509E-02    3.48       0.0  T
   2   -111.8164764 -0.301146E-05  0.302E-02    3.48       1.0  T
   3   -111.8164713  0.508622E-05  0.975E-03    3.48       1.2  T
   4   -111.8164777 -0.639982E-05  0.193E-03    3.48       5.9  T
   5   -111.8164778 -0.857649E-07  0.107E-03    3.48      10.7  T
   6   -111.8164778 -0.149288E-07  0.519E-04    3.48      22.1  T
   7   -111.8164778 -0.751210E-08  0.176E-04    3.48      65.2  T
     SCC iter.                  ...        0 min,  0.077 sec
     gradient                   ...        0 min,  0.058 sec
 * total energy  :  -110.2851544 Eh     change       -0.1625559E-03 Eh
   gradient norm :     0.0071671 Eh/α   predicted    -0.1404766E-03 ( -13.58%)
   displ. norm   :     0.5156103 α      lambda       -0.2499461E-03
   maximum displ.:     0.3328785 α      in ANC's #1, #5, #3, ...

........................................................................
.............................. CYCLE   61 ..............................
........................................................................

 iter      E             dE          RMSdq      gap      omega  full diag
   1   -111.8182109 -0.111818E+03  0.404E-02    3.48       0.0  T
   2   -111.8182128 -0.189711E-05  0.239E-02    3.48       1.0  T
   3   -111.8182097  0.305415E-05  0.733E-03    3.48       1.6  T
   4   -111.8182135 -0.374981E-05  0.159E-03    3.48       7.2  T
   5   -111.8182136 -0.781940E-07  0.768E-04    3.48      14.9  T
   6   -111.8182136 -0.576601E-08  0.395E-04    3.48      29.1  T
     SCC iter.                  ...        0 min,  0.032 sec
     gradient                   ...        0 min,  0.056 sec
 * total energy  :  -110.2853479 Eh     change       -0.1935407E-03 Eh
   gradient norm :     0.0065491 Eh/α   predicted    -0.1582041E-03 ( -18.26%)
   displ. norm   :     0.5275683 α      lambda       -0.2254768E-03
   maximum displ.:     0.3335734 α      in ANC's #1, #5, #3, ...

........................................................................
.............................. CYCLE   62 ..............................
........................................................................

 iter      E             dE          RMSdq      gap      omega  full diag
   1   -111.8182561 -0.111818E+03  0.403E-02    3.47       0.0  T
   2   -111.8182574 -0.133186E-05  0.237E-02    3.48       1.0  T
   3   -111.8182558  0.158202E-05  0.529E-03    3.48       2.2  T
   4   -111.8182578 -0.203369E-05  0.139E-03    3.48       8.3  T
   5   -111.8182579 -0.534068E-07  0.700E-04    3.48      16.4  T
   6   -111.8182579 -0.438069E-08  0.326E-04    3.48      35.2  T
     SCC iter.                  ...        0 min,  0.035 sec
     gradient                   ...        0 min,  0.051 sec
 * total energy  :  -110.2855238 Eh     change       -0.1758716E-03 Eh
   gradient norm :     0.0056651 Eh/α   predicted    -0.1441188E-03 ( -18.05%)
   displ. norm   :     0.6109543 α      lambda       -0.2542876E-03
   maximum displ.:     0.3743832 α      in ANC's #1, #5, #3, ...

........................................................................
.............................. CYCLE   63 ..............................
........................................................................

 iter      E             dE          RMSdq      gap      omega  full diag
   1   -111.8197623 -0.111820E+03  0.452E-02    3.47       0.0  T
   2   -111.8197643 -0.199396E-05  0.267E-02    3.47       1.0  T
   3   -111.8197616  0.265867E-05  0.707E-03    3.47       1.6  T
   4   -111.8197650 -0.335040E-05  0.183E-03    3.47       6.3  T
   5   -111.8197651 -0.113685E-06  0.886E-04    3.47      13.0  T
   6   -111.8197651 -0.364292E-08  0.391E-04    3.47      29.4  T
     SCC iter.                  ...        0 min,  0.032 sec
     gradient                   ...        0 min,  0.053 sec
 * total energy  :  -110.2857117 Eh     change       -0.1879053E-03 Eh
   gradient norm :     0.0070931 Eh/α   predicted    -0.1746074E-03 (  -7.08%)
   displ. norm   :     0.5335844 α      lambda       -0.2792735E-03
   maximum displ.:     0.3006667 α      in ANC's #1, #5, #3, ...

........................................................................
.............................. CYCLE   64 ..............................
........................................................................

 iter      E             dE          RMSdq      gap      omega  full diag
   1   -111.8222512 -0.111822E+03  0.390E-02    3.47       0.0  T
   2   -111.8222534 -0.220052E-05  0.230E-02    3.48       1.0  T
   3   -111.8222506  0.286179E-05  0.748E-03    3.48       1.5  T
   4   -111.8222541 -0.355444E-05  0.183E-03    3.48       6.3  T
   5   -111.8222542 -0.135463E-06  0.842E-04    3.48      13.6  T
   6   -111.8222542 -0.672836E-08  0.389E-04    3.48      29.5  T
     SCC iter.                  ...        0 min,  0.030 sec
     gradient                   ...        0 min,  0.053 sec
 * total energy  :  -110.2859177 Eh     change       -0.2060096E-03 Eh
   gradient norm :     0.0058399 Eh/α   predicted    -0.1793952E-03 ( -12.92%)
   displ. norm   :     0.7143696 α      lambda       -0.3090305E-03
   maximum displ.:     0.4312701 α      in ANC's #1, #5, #3, ...

........................................................................
.............................. CYCLE   65 ..............................
........................................................................

 iter      E             dE          RMSdq      gap      omega  full diag
   1   -111.8159239 -0.111816E+03  0.547E-02    3.47       0.0  T
   2   -111.8159266 -0.270989E-05  0.325E-02    3.47       1.0  T
   3   -111.8159225  0.406792E-05  0.838E-03    3.47       1.4  T
   4   -111.8159277 -0.523544E-05  0.203E-03    3.47       5.6  T
   5   -111.8159278 -0.827245E-07  0.111E-03    3.47      10.3  T
   6   -111.8159278 -0.112769E-07  0.523E-04    3.47      21.9  T
   7   -111.8159278 -0.955336E-08  0.160E-04    3.47      71.8  T
     SCC iter.                  ...        0 min,  0.036 sec
     gradient                   ...        0 min,  0.047 sec
 * total energy  :  -110.2861162 Eh     change       -0.1984616E-03 Eh
   gradient norm :     0.0094157 Eh/α   predicted    -0.2333755E-03 (  17.59%)
   displ. norm   :     0.3963302 α      lambda       -0.3123709E-03
   maximum displ.:     0.1718506 α      in ANC's #1, #3, #5, ...

........................................................................
.............................. CYCLE   66 ..............................
........................................................................

 iter      E             dE          RMSdq      gap      omega  full diag
   1   -111.8191832 -0.111819E+03  0.358E-02    3.47       0.0  T
   2   -111.8191870 -0.388067E-05  0.213E-02    3.47       1.0  T
   3   -111.8191820  0.502574E-05  0.108E-02    3.48       1.1  T
   4   -111.8191887 -0.672392E-05  0.221E-03    3.47       5.2  T
   5   -111.8191889 -0.192512E-06  0.993E-04    3.47      11.5  T
   6   -111.8191889 -0.156394E-07  0.452E-04    3.47      25.4  T
     SCC iter.                  ...        0 min,  0.033 sec
     gradient                   ...        0 min,  0.050 sec
 * total energy  :  -110.2862949 Eh     change       -0.1787115E-03 Eh
   gradient norm :     0.0091569 Eh/α   predicted    -0.1807219E-03 (   1.12%)
   displ. norm   :     0.4303156 α      lambda       -0.3097564E-03
   maximum displ.:     0.1846134 α      in ANC's #3, #1, #5, ...
 * RMSD in coord.:     1.0449974 α      energy gain  -0.4695624E-02 Eh

generating ANC from exact Hessian ...
Using Lindh-Hessian (1995)
 Shifting diagonal of input Hessian by   1.017319119067880E-002
 Lowest  eigenvalues of input Hessian
    0.010000    0.000000    0.000000    0.000000    0.000000    0.000000
    0.000000    0.010194    0.010260    0.010330    0.010455    0.010530
    0.010554    0.010603    0.010747    0.010920    0.011040    0.011111
 Highest eigenvalues
    2.003290    2.074963    2.078980    2.204398    2.326886    2.356414
 

........................................................................
.............................. CYCLE   67 ..............................
........................................................................

 iter      E             dE          RMSdq      gap      omega  full diag
   1   -111.8241430 -0.111824E+03  0.362E-02    3.47       0.0  T
   2   -111.8241453 -0.236944E-05  0.216E-02    3.48       1.0  T
   3   -111.8241424  0.292863E-05  0.762E-03    3.48       1.5  T
   4   -111.8241463 -0.391226E-05  0.205E-03    3.48       5.6  T
   5   -111.8241464 -0.122204E-06  0.106E-03    3.48      10.9  T
   6   -111.8241465 -0.845618E-08  0.439E-04    3.48      26.1  T
   7   -111.8241465 -0.433702E-08  0.140E-04    3.48      82.0  T
     SCC iter.                  ...        0 min,  0.028 sec
     gradient                   ...        0 min,  0.061 sec
 * total energy  :  -110.2863551 Eh     change       -0.6026214E-04 Eh
   gradient norm :     0.0161052 Eh/α   predicted     0.0000000E+00 (-100.00%)
   displ. norm   :     0.0791913 α      lambda       -0.3003556E-03
   maximum displ.:     0.0386983 α      in ANC's #17, #11, #12, ...

........................................................................
.............................. CYCLE   68 ..............................
........................................................................

 iter      E             dE          RMSdq      gap      omega  full diag
   1   -111.8220792 -0.111822E+03  0.235E-02    3.47       0.0  T
   2   -111.8220801 -0.871172E-06  0.143E-02    3.47       1.0  T
   3   -111.8220792  0.918234E-06  0.450E-03    3.47       2.5  T
   4   -111.8220804 -0.125620E-05  0.119E-03    3.47       9.6  T
   5   -111.8220805 -0.454300E-07  0.579E-04    3.47      19.8  T
   6   -111.8220805 -0.339881E-08  0.231E-04    3.47      49.6  T
     SCC iter.                  ...        0 min,  0.025 sec
     gradient                   ...        0 min,  0.049 sec
 * total energy  :  -110.2865646 Eh     change       -0.2094706E-03 Eh
   gradient norm :     0.0046608 Eh/α   predicted    -0.1511199E-03 ( -27.86%)
   displ. norm   :     0.1236468 α      lambda       -0.1560698E-03
   maximum displ.:     0.0403971 α      in ANC's #11, #25, #12, ...

........................................................................
.............................. CYCLE   69 ..............................
........................................................................

 iter      E             dE          RMSdq      gap      omega  full diag
   1   -111.8206165 -0.111821E+03  0.257E-02    3.47       0.0  T
   2   -111.8206171 -0.586877E-06  0.154E-02    3.47       1.0  T
   3   -111.8206169  0.156407E-06  0.252E-03    3.47       4.5  T
   4   -111.8206173 -0.332730E-06  0.852E-04    3.47      13.5  T
   5   -111.8206173 -0.154793E-07  0.454E-04    3.47      25.3  T
     SCC iter.                  ...        0 min,  0.032 sec
     gradient                   ...        0 min,  0.051 sec
 * total energy  :  -110.2866603 Eh     change       -0.9564071E-04 Eh
   gradient norm :     0.0054641 Eh/α   predicted    -0.7923158E-04 ( -17.16%)
   displ. norm   :     0.1068905 α      lambda       -0.7114482E-04
   maximum displ.:     0.0430984 α      in ANC's #25, #11, #7, ...

........................................................................
.............................. CYCLE   70 ..............................
........................................................................

 iter      E             dE          RMSdq      gap      omega  full diag
   1   -111.8202676 -0.111820E+03  0.208E-02    3.46       0.0  T
   2   -111.8202679 -0.373608E-06  0.126E-02    3.46       1.0  T
   3   -111.8202676  0.365149E-06  0.275E-03    3.46       4.2  T
   4   -111.8202681 -0.533912E-06  0.774E-04    3.46      14.8  T
   5   -111.8202681 -0.116546E-07  0.428E-04    3.46      26.8  T
     SCC iter.                  ...        0 min,  0.019 sec
     gradient                   ...        0 min,  0.067 sec
 * total energy  :  -110.2867211 Eh     change       -0.6081552E-04 Eh
   gradient norm :     0.0066265 Eh/α   predicted    -0.3598253E-04 ( -40.83%)
   displ. norm   :     0.3461017 α      lambda       -0.2266404E-03
   maximum displ.:     0.1569427 α      in ANC's #25, #11, #7, ...

........................................................................
.............................. CYCLE   71 ..............................
........................................................................

 iter      E             dE          RMSdq      gap      omega  full diag
   1   -111.8191417 -0.111819E+03  0.598E-02    3.45       0.0  T
   2   -111.8191443 -0.261447E-05  0.359E-02    3.45       1.0  T
   3   -111.8191432  0.107163E-05  0.590E-03    3.45       1.9  T
   4   -111.8191454 -0.220701E-05  0.203E-03    3.45       5.6  T
   5   -111.8191455 -0.626439E-07  0.111E-03    3.45      10.4  T
   6   -111.8191455 -0.102796E-07  0.341E-04    3.45      33.7  T
   7   -111.8191455 -0.299302E-08  0.155E-04    3.45      74.1  T
     SCC iter.                  ...        0 min,  0.059 sec
     gradient                   ...        0 min,  0.073 sec
 * total energy  :  -110.2868681 Eh     change       -0.1470271E-03 Eh
   gradient norm :     0.0079935 Eh/α   predicted    -0.1268991E-03 ( -13.69%)
   displ. norm   :     0.2419989 α      lambda       -0.1598492E-03
   maximum displ.:     0.1202039 α      in ANC's #25, #8, #5, ...

........................................................................
.............................. CYCLE   72 ..............................
........................................................................

 iter      E             dE          RMSdq      gap      omega  full diag
   1   -111.8194085 -0.111819E+03  0.385E-02    3.44       0.0  T
   2   -111.8194097 -0.120213E-05  0.230E-02    3.44       1.0  T
   3   -111.8194092  0.438508E-06  0.382E-03    3.44       3.0  T
   4   -111.8194101 -0.875826E-06  0.133E-03    3.44       8.6  T
   5   -111.8194101 -0.290416E-07  0.684E-04    3.44      16.8  T
   6   -111.8194101 -0.653854E-08  0.278E-04    3.44      41.2  T
     SCC iter.                  ...        0 min,  0.047 sec
     gradient                   ...        0 min,  0.077 sec
 * total energy  :  -110.2869878 Eh     change       -0.1196719E-03 Eh
   gradient norm :     0.0062665 Eh/α   predicted    -0.8461683E-04 ( -29.29%)
   displ. norm   :     0.3627935 α      lambda       -0.2479695E-03
   maximum displ.:     0.1774167 α      in ANC's #25, #8, #5, ...

........................................................................
.............................. CYCLE   73 ..............................
........................................................................

 iter      E             dE          RMSdq      gap      omega  full diag
   1   -111.8209210 -0.111821E+03  0.517E-02    3.44       0.0  T
   2   -111.8209236 -0.260787E-05  0.306E-02    3.44       1.0  T
   3   -111.8209194  0.427303E-05  0.844E-03    3.44       1.4  T
   4   -111.8209248 -0.541850E-05  0.192E-03    3.44       6.0  T
   5   -111.8209249 -0.956396E-07  0.108E-03    3.44      10.7  T
   6   -111.8209249 -0.165277E-07  0.483E-04    3.44      23.8  T
   7   -111.8209249 -0.570320E-08  0.178E-04    3.44      64.5  T
     SCC iter.                  ...        0 min,  0.055 sec
     gradient                   ...        0 min,  0.063 sec
 * total energy  :  -110.2871736 Eh     change       -0.1858422E-03 Eh
   gradient norm :     0.0072560 Eh/α   predicted    -0.1403150E-03 ( -24.50%)
   displ. norm   :     0.5547706 α      lambda       -0.4005154E-03
   maximum displ.:     0.2548555 α      in ANC's #25, #8, #5, ...

........................................................................
.............................. CYCLE   74 ..............................
........................................................................

 iter      E             dE          RMSdq      gap      omega  full diag
   1   -111.8180472 -0.111818E+03  0.847E-02    3.42       0.0  T
   2   -111.8180535 -0.632619E-05  0.507E-02    3.42       1.0  T
   3   -111.8180510  0.249758E-05  0.881E-03    3.42       1.3  T
   4   -111.8180558 -0.483668E-05  0.294E-03    3.42       3.9  T
   5   -111.8180560 -0.148479E-06  0.159E-03    3.42       7.2  T
   6   -111.8180560 -0.334544E-07  0.609E-04    3.42      18.8  T
   7   -111.8180560 -0.809590E-08  0.245E-04    3.42      46.8  T
     SCC iter.                  ...        0 min,  0.042 sec
     gradient                   ...        0 min,  0.076 sec
 * total energy  :  -110.2874070 Eh     change       -0.2333871E-03 Eh
   gradient norm :     0.0110007 Eh/α   predicted    -0.2618951E-03 (  12.21%)
   displ. norm   :     0.3045012 α      lambda       -0.5270016E-03
   maximum displ.:     0.1123479 α      in ANC's #8, #5, #1, ...

........................................................................
.............................. CYCLE   75 ..............................
........................................................................

 iter      E             dE          RMSdq      gap      omega  full diag
   1   -111.8289935 -0.111829E+03  0.526E-02    3.42       0.0  T
   2   -111.8290063 -0.128012E-04  0.297E-02    3.42       1.0  T
   3   -111.8290053  0.103892E-05  0.997E-03    3.42       1.2  T
   4   -111.8290078 -0.259482E-05  0.308E-03    3.42       3.7  T
   5   -111.8290082 -0.403351E-06  0.141E-03    3.42       8.2  T
   6   -111.8290083 -0.220647E-07  0.671E-04    3.42      17.1  T
   7   -111.8290083 -0.112089E-07  0.252E-04    3.42      45.6  T
     SCC iter.                  ...        0 min,  0.048 sec
     gradient                   ...        0 min,  0.066 sec
 * total energy  :  -110.2872760 Eh     change        0.1310093E-03 Eh
   gradient norm :     0.0197307 Eh/α   predicted    -0.2879335E-03 (-319.78%)
   displ. norm   :     0.3222982 α      lambda       -0.9175353E-03
   maximum displ.:     0.1751515 α      in ANC's #25, #7, #8, ...

........................................................................
.............................. CYCLE   76 ..............................
........................................................................

 iter      E             dE          RMSdq      gap      omega  full diag
   1   -111.8209319 -0.111821E+03  0.615E-02    3.42       0.0  T
   2   -111.8209430 -0.111712E-04  0.358E-02    3.42       1.0  T
   3   -111.8209384  0.460980E-05  0.117E-02    3.42       1.0  T
   4   -111.8209444 -0.593190E-05  0.409E-03    3.42       2.8  T
   5   -111.8209453 -0.918720E-06  0.153E-03    3.42       7.5  T
   6   -111.8209453 -0.100171E-07  0.738E-04    3.42      15.5  T
   7   -111.8209453 -0.147013E-07  0.271E-04    3.42      42.4  T
     SCC iter.                  ...        0 min,  0.051 sec
     gradient                   ...        0 min,  0.066 sec
 * total energy  :  -110.2876863 Eh     change       -0.4103541E-03 Eh
   gradient norm :     0.0121877 Eh/α   predicted    -0.5064269E-03 (  23.41%)
   displ. norm   :     0.2209722 α      lambda       -0.2520063E-03
   maximum displ.:     0.0981557 α      in ANC's #25, #8, #5, ...

........................................................................
.............................. CYCLE   77 ..............................
........................................................................

 iter      E             dE          RMSdq      gap      omega  full diag
   1   -111.8182630 -0.111818E+03  0.375E-02    3.41       0.0  T
   2   -111.8182654 -0.238924E-05  0.225E-02    3.41       1.0  T
   3   -111.8182628  0.266135E-05  0.746E-03    3.41       1.5  T
   4   -111.8182663 -0.359216E-05  0.207E-03    3.41       5.5  T
   5   -111.8182664 -0.923963E-07  0.896E-04    3.41      12.8  T
   6   -111.8182664 -0.110963E-07  0.436E-04    3.41      26.3  T
     SCC iter.                  ...        0 min,  0.042 sec
     gradient                   ...        0 min,  0.066 sec
 * total energy  :  -110.2878026 Eh     change       -0.1162128E-03 Eh
   gradient norm :     0.0105485 Eh/α   predicted    -0.1321572E-03 (  13.72%)
   displ. norm   :     0.1614704 α      lambda       -0.3291218E-03
   maximum displ.:     0.0631077 α      in ANC's #7, #1, #5, ...

........................................................................
.............................. CYCLE   78 ..............................
........................................................................

 iter      E             dE          RMSdq      gap      omega  full diag
   1   -111.8210018 -0.111821E+03  0.344E-02    3.41       0.0  T
   2   -111.8210079 -0.606046E-05  0.198E-02    3.41       1.0  T
   3   -111.8210079  0.220113E-07  0.666E-03    3.41       1.7  T
   4   -111.8210085 -0.610589E-06  0.242E-03    3.41       4.7  T
   5   -111.8210087 -0.234987E-06  0.107E-03    3.41      10.8  T
   6   -111.8210087 -0.142319E-07  0.455E-04    3.41      25.2  T
   7   -111.8210088 -0.567880E-08  0.157E-04    3.41      72.9  T
     SCC iter.                  ...        0 min,  0.049 sec
     gradient                   ...        0 min,  0.058 sec
 * total energy  :  -110.2878488 Eh     change       -0.4628936E-04 Eh
   gradient norm :     0.0146218 Eh/α   predicted    -0.1688561E-03 ( 264.78%)
   displ. norm   :     0.2912839 α      lambda       -0.4298856E-03
   maximum displ.:     0.1302292 α      in ANC's #25, #7, #8, ...

........................................................................
.............................. CYCLE   79 ..............................
........................................................................

 iter      E             dE          RMSdq      gap      omega  full diag
   1   -111.8219487 -0.111822E+03  0.421E-02    3.40       0.0  T
   2   -111.8219520 -0.332174E-05  0.250E-02    3.41       1.0  T
   3   -111.8219507  0.137467E-05  0.642E-03    3.41       1.8  T
   4   -111.8219530 -0.233438E-05  0.206E-03    3.41       5.6  T
   5   -111.8219531 -0.126373E-06  0.106E-03    3.41      10.8  T
   6   -111.8219531 -0.104335E-07  0.466E-04    3.41      24.6  T
   7   -111.8219531 -0.517640E-08  0.211E-04    3.41      54.4  T
     SCC iter.                  ...        0 min,  0.049 sec
     gradient                   ...        0 min,  0.062 sec
 * total energy  :  -110.2881256 Eh     change       -0.2767349E-03 Eh
   gradient norm :     0.0042018 Eh/α   predicted    -0.2331854E-03 ( -15.74%)
   displ. norm   :     0.6358921 α      lambda       -0.3453207E-03
   maximum displ.:     0.2934099 α      in ANC's #25, #8, #7, ...

........................................................................
.............................. CYCLE   80 ..............................
........................................................................

 iter      E             dE          RMSdq      gap      omega  full diag
   1   -111.8152322 -0.111815E+03  0.817E-02    3.40       0.0  T
   2   -111.8152461 -0.139523E-04  0.478E-02    3.40       1.0  T
   3   -111.8152391  0.709527E-05  0.130E-02    3.40       1.0  T
   4   -111.8152481 -0.906183E-05  0.388E-03    3.40       3.0  T
   5   -111.8152490 -0.919077E-06  0.159E-03    3.40       7.2  T
   6   -111.8152490 -0.517332E-09  0.874E-04    3.40      13.1  T
   7   -111.8152491 -0.257080E-07  0.212E-04    3.40      54.1  T
     SCC iter.                  ...        0 min,  0.046 sec
     gradient                   ...        0 min,  0.051 sec
 * total energy  :  -110.2881834 Eh     change       -0.5784068E-04 Eh
   gradient norm :     0.0147277 Eh/α   predicted    -0.2424835E-03 ( 319.23%)
   displ. norm   :     0.1284700 α      lambda       -0.4354807E-03
   maximum displ.:     0.0517849 α      in ANC's #11, #16, #23, ...

........................................................................
.............................. CYCLE   81 ..............................
........................................................................

 iter      E             dE          RMSdq      gap      omega  full diag
   1   -111.8232563 -0.111823E+03  0.311E-02    3.40       0.0  T
   2   -111.8232614 -0.514220E-05  0.178E-02    3.41       1.0  T
   3   -111.8232608  0.623530E-06  0.683E-03    3.41       1.7  T
   4   -111.8232620 -0.114207E-05  0.234E-03    3.41       4.9  T
   5   -111.8232622 -0.280032E-06  0.936E-04    3.41      12.3  T
   6   -111.8232622 -0.703712E-08  0.489E-04    3.41      23.4  T
     SCC iter.                  ...        0 min,  0.041 sec
     gradient                   ...        0 min,  0.062 sec
 * total energy  :  -110.2883847 Eh     change       -0.2013188E-03 Eh
   gradient norm :     0.0102109 Eh/α   predicted    -0.2213395E-03 (   9.94%)
   displ. norm   :     0.3232004 α      lambda       -0.3594402E-03
   maximum displ.:     0.1562620 α      in ANC's #7, #1, #5, ...

........................................................................
.............................. CYCLE   82 ..............................
........................................................................

 iter      E             dE          RMSdq      gap      omega  full diag
   1   -111.8208448 -0.111821E+03  0.520E-02    3.39       0.0  T
   2   -111.8208513 -0.648651E-05  0.312E-02    3.40       1.0  T
   3   -111.8208494  0.184117E-05  0.838E-03    3.39       1.4  T
   4   -111.8208533 -0.388494E-05  0.284E-03    3.40       4.0  T
   5   -111.8208535 -0.211513E-06  0.144E-03    3.40       8.0  T
   6   -111.8208535 -0.258303E-07  0.527E-04    3.40      21.8  T
   7   -111.8208535 -0.423050E-08  0.206E-04    3.40      55.5  T
     SCC iter.                  ...        0 min,  0.055 sec
     gradient                   ...        0 min,  0.066 sec
 * total energy  :  -110.2883751 Eh     change        0.9674249E-05 Eh
   gradient norm :     0.0163011 Eh/α   predicted    -0.1984972E-03 (*******%)
   displ. norm   :     0.2107746 α      lambda       -0.4336452E-03
   maximum displ.:     0.0943090 α      in ANC's #25, #8, #1, ...

........................................................................
.............................. CYCLE   83 ..............................
........................................................................

 iter      E             dE          RMSdq      gap      omega  full diag
   1   -111.8218980 -0.111822E+03  0.352E-02    3.40       0.0  T
   2   -111.8219021 -0.406465E-05  0.209E-02    3.40       1.0  T
   3   -111.8219001  0.192039E-05  0.743E-03    3.40       1.5  T
   4   -111.8219030 -0.291112E-05  0.196E-03    3.40       5.8  T
   5   -111.8219032 -0.175328E-06  0.942E-04    3.40      12.2  T
   6   -111.8219032 -0.354690E-08  0.447E-04    3.40      25.6  T
     SCC iter.                  ...        0 min,  0.034 sec
     gradient                   ...        0 min,  0.055 sec
 * total energy  :  -110.2886344 Eh     change       -0.2593342E-03 Eh
   gradient norm :     0.0034725 Eh/α   predicted    -0.2264558E-03 ( -12.68%)
   displ. norm   :     0.4361647 α      lambda       -0.1608719E-03
   maximum displ.:     0.1702946 α      in ANC's #7, #25, #1, ...

........................................................................
.............................. CYCLE   84 ..............................
........................................................................

 iter      E             dE          RMSdq      gap      omega  full diag
   1   -111.8197241 -0.111820E+03  0.486E-02    3.39       0.0  T
   2   -111.8197277 -0.365430E-05  0.286E-02    3.39       1.0  T
   3   -111.8197256  0.211052E-05  0.693E-03    3.40       1.7  T
   4   -111.8197284 -0.278740E-05  0.196E-03    3.40       5.8  T
   5   -111.8197286 -0.207752E-06  0.895E-04    3.40      12.8  T
   6   -111.8197286 -0.134420E-09  0.467E-04    3.40      24.5  T
     SCC iter.                  ...        0 min,  0.034 sec
     gradient                   ...        0 min,  0.057 sec
 * total energy  :  -110.2887425 Eh     change       -0.1080988E-03 Eh
   gradient norm :     0.0070116 Eh/α   predicted    -0.9574265E-04 ( -11.43%)
   displ. norm   :     0.3682292 α      lambda       -0.1901830E-03
   maximum displ.:     0.1448017 α      in ANC's #1, #7, #8, ...

........................................................................
.............................. CYCLE   85 ..............................
........................................................................

 iter      E             dE          RMSdq      gap      omega  full diag
   1   -111.8220567 -0.111822E+03  0.402E-02    3.39       0.0  T
   2   -111.8220597 -0.301948E-05  0.235E-02    3.39       1.0  T
   3   -111.8220573  0.241051E-05  0.741E-03    3.39       1.5  T
   4   -111.8220604 -0.307310E-05  0.189E-03    3.39       6.1  T
   5   -111.8220606 -0.199003E-06  0.786E-04    3.39      14.6  T
   6   -111.8220606 -0.456360E-08  0.404E-04    3.39      28.4  T
     SCC iter.                  ...        0 min,  0.034 sec
     gradient                   ...        0 min,  0.062 sec
 * total energy  :  -110.2888785 Eh     change       -0.1359579E-03 Eh
   gradient norm :     0.0065772 Eh/α   predicted    -0.1079867E-03 ( -20.57%)
   displ. norm   :     0.4118797 α      lambda       -0.1936184E-03
   maximum displ.:     0.1585070 α      in ANC's #1, #7, #25, ...

........................................................................
.............................. CYCLE   86 ..............................
........................................................................

 iter      E             dE          RMSdq      gap      omega  full diag
   1   -111.8229530 -0.111823E+03  0.473E-02    3.38       0.0  T
   2   -111.8229555 -0.253940E-05  0.278E-02    3.39       1.0  T
   3   -111.8229540  0.147247E-05  0.606E-03    3.39       1.9  T
   4   -111.8229563 -0.222656E-05  0.176E-03    3.39       6.5  T
   5   -111.8229564 -0.999003E-07  0.966E-04    3.39      11.9  T
   6   -111.8229564 -0.785867E-08  0.419E-04    3.39      27.4  T
     SCC iter.                  ...        0 min,  0.034 sec
     gradient                   ...        0 min,  0.060 sec
 * total energy  :  -110.2890314 Eh     change       -0.1529612E-03 Eh
   gradient norm :     0.0055576 Eh/α   predicted    -0.1132347E-03 ( -25.97%)
   displ. norm   :     0.4962081 α      lambda       -0.2549075E-03
   maximum displ.:     0.1810728 α      in ANC's #1, #25, #8, ...

........................................................................
.............................. CYCLE   87 ..............................
........................................................................

 iter      E             dE          RMSdq      gap      omega  full diag
   1   -111.8236603 -0.111824E+03  0.611E-02    3.38       0.0  T
   2   -111.8236656 -0.522828E-05  0.359E-02    3.38       1.0  T
   3   -111.8236617  0.392142E-05  0.953E-03    3.39       1.2  T
   4   -111.8236669 -0.526345E-05  0.258E-03    3.38       4.4  T
   5   -111.8236672 -0.306738E-06  0.124E-03    3.38       9.2  T
   6   -111.8236672 -0.817184E-08  0.595E-04    3.38      19.3  T
   7   -111.8236672 -0.119151E-07  0.196E-04    3.38      58.6  T
     SCC iter.                  ...        0 min,  0.039 sec
     gradient                   ...        0 min,  0.053 sec
 * total energy  :  -110.2892297 Eh     change       -0.1982688E-03 Eh
   gradient norm :     0.0044383 Eh/α   predicted    -0.1588372E-03 ( -19.89%)
   displ. norm   :     0.5319188 α      lambda       -0.2921330E-03
   maximum displ.:     0.1988494 α      in ANC's #25, #1, #2, ...

........................................................................
.............................. CYCLE   88 ..............................
........................................................................

 iter      E             dE          RMSdq      gap      omega  full diag
   1   -111.8235508 -0.111824E+03  0.711E-02    3.37       0.0  T
   2   -111.8235572 -0.641473E-05  0.418E-02    3.37       1.0  T
   3   -111.8235542  0.307698E-05  0.912E-03    3.38       1.3  T
   4   -111.8235588 -0.458938E-05  0.244E-03    3.38       4.7  T
   5   -111.8235590 -0.218149E-06  0.123E-03    3.38       9.3  T
   6   -111.8235590 -0.116656E-07  0.429E-04    3.38      26.7  T
   7   -111.8235590 -0.305489E-08  0.196E-04    3.38      58.5  T
     SCC iter.                  ...        0 min,  0.038 sec
     gradient                   ...        0 min,  0.052 sec
 * total energy  :  -110.2894451 Eh     change       -0.2154589E-03 Eh
   gradient norm :     0.0050781 Eh/α   predicted    -0.1873969E-03 ( -13.02%)
   displ. norm   :     0.4417107 α      lambda       -0.2272330E-03
   maximum displ.:     0.1610616 α      in ANC's #25, #22, #1, ...

........................................................................
.............................. CYCLE   89 ..............................
........................................................................

 iter      E             dE          RMSdq      gap      omega  full diag
   1   -111.8216323 -0.111822E+03  0.602E-02    3.37       0.0  T
   2   -111.8216365 -0.419762E-05  0.355E-02    3.37       1.0  T
   3   -111.8216341  0.240121E-05  0.788E-03    3.37       1.5  T
   4   -111.8216376 -0.345561E-05  0.204E-03    3.37       5.6  T
   5   -111.8216377 -0.135619E-06  0.105E-03    3.37      10.9  T
   6   -111.8216377 -0.113219E-07  0.477E-04    3.37      24.0  T
   7   -111.8216377 -0.472802E-08  0.205E-04    3.37      56.0  T
     SCC iter.                  ...        0 min,  0.038 sec
     gradient                   ...        0 min,  0.052 sec
 * total energy  :  -110.2895801 Eh     change       -0.1349011E-03 Eh
   gradient norm :     0.0056485 Eh/α   predicted    -0.1357875E-03 (   0.66%)
   displ. norm   :     0.3723938 α      lambda       -0.2370768E-03
   maximum displ.:     0.1501063 α      in ANC's #7, #21, #22, ...

........................................................................
.............................. CYCLE   90 ..............................
........................................................................

 iter      E             dE          RMSdq      gap      omega  full diag
   1   -111.8279238 -0.111828E+03  0.500E-02    3.37       0.0  T
   2   -111.8279312 -0.739034E-05  0.290E-02    3.37       1.0  T
   3   -111.8279303  0.932640E-06  0.823E-03    3.37       1.4  T
   4   -111.8279320 -0.166587E-05  0.239E-03    3.37       4.8  T
   5   -111.8279322 -0.265786E-06  0.975E-04    3.37      11.8  T
   6   -111.8279322 -0.673340E-08  0.425E-04    3.37      27.0  T
     SCC iter.                  ...        0 min,  0.032 sec
     gradient                   ...        0 min,  0.054 sec
 * total energy  :  -110.2895598 Eh     change        0.2022494E-04 Eh
   gradient norm :     0.0119285 Eh/α   predicted    -0.1349774E-03 (-767.38%)
   displ. norm   :     0.3154220 α      lambda       -0.4643010E-03
   maximum displ.:     0.1765618 α      in ANC's #25, #1, #8, ...

........................................................................
.............................. CYCLE   91 ..............................
........................................................................

 iter      E             dE          RMSdq      gap      omega  full diag
   1   -111.8197515 -0.111820E+03  0.615E-02    3.36       0.0  T
   2   -111.8197720 -0.204416E-04  0.362E-02    3.36       1.0  T
   3   -111.8197696  0.233144E-05  0.136E-02    3.37       1.0  T
   4   -111.8197752 -0.562667E-05  0.287E-03    3.36       4.0  T
   5   -111.8197756 -0.316013E-06  0.156E-03    3.37       7.4  T
   6   -111.8197756 -0.343609E-07  0.857E-04    3.37      13.4  T
   7   -111.8197756 -0.144050E-07  0.260E-04    3.37      44.0  T
     SCC iter.                  ...        0 min,  0.044 sec
     gradient                   ...        0 min,  0.054 sec
 * total energy  :  -110.2895222 Eh     change        0.3764619E-04 Eh
   gradient norm :     0.0194525 Eh/α   predicted    -0.2552467E-03 (-778.01%)
   displ. norm   :     0.2524491 α      lambda       -0.6397144E-03
   maximum displ.:     0.1165631 α      in ANC's #25, #22, #48, ...

........................................................................
.............................. CYCLE   92 ..............................
........................................................................

 iter      E             dE          RMSdq      gap      omega  full diag
   1   -111.8241905 -0.111824E+03  0.578E-02    3.37       0.0  T
   2   -111.8242261 -0.356133E-04  0.333E-02    3.38       1.0  T
   3   -111.8242272 -0.113867E-05  0.148E-02    3.37       1.0  T
   4   -111.8242296 -0.238185E-05  0.313E-03    3.37       3.7  T
   5   -111.8242301 -0.463310E-06  0.145E-03    3.37       7.9  T
   6   -111.8242301 -0.579184E-07  0.693E-04    3.38      16.6  T
   7   -111.8242301 -0.117848E-07  0.310E-04    3.38      37.1  T
     SCC iter.                  ...        0 min,  0.037 sec
     gradient                   ...        0 min,  0.050 sec
 * total energy  :  -110.2896731 Eh     change       -0.1509096E-03 Eh
   gradient norm :     0.0119347 Eh/α   predicted    -0.3402527E-03 ( 125.47%)
   displ. norm   :     0.1510164 α      lambda       -0.3493817E-03
   maximum displ.:     0.0540493 α      in ANC's #21, #22, #11, ...
 * RMSD in coord.:     0.6888822 α      energy gain  -0.3378204E-02 Eh

generating ANC from exact Hessian ...
Using Lindh-Hessian (1995)
 Shifting diagonal of input Hessian by   1.027525203498841E-002
 Lowest  eigenvalues of input Hessian
    0.010000    0.010161    0.000000    0.000000    0.000000    0.000000
    0.000000    0.000000    0.010301    0.010398    0.010469    0.010645
    0.010648    0.010758    0.010844    0.010889    0.010949    0.011070
 Highest eigenvalues
    2.003676    2.075719    2.079037    2.208570    2.320553    2.357464
 

........................................................................
.............................. CYCLE   93 ..............................
........................................................................

 iter      E             dE          RMSdq      gap      omega  full diag
   1   -111.8235309 -0.111824E+03  0.356E-02    3.37       0.0  T
   2   -111.8235493 -0.183910E-04  0.201E-02    3.37       1.0  T
   3   -111.8235502 -0.892445E-06  0.982E-03    3.37       1.2  T
   4   -111.8235506 -0.376634E-06  0.234E-03    3.37       4.9  T
   5   -111.8235509 -0.279617E-06  0.100E-03    3.37      11.4  T
   6   -111.8235509 -0.292107E-07  0.409E-04    3.37      28.1  T
   7   -111.8235509 -0.309124E-08  0.182E-04    3.37      62.9  T
     SCC iter.                  ...        0 min,  0.031 sec
     gradient                   ...        0 min,  0.057 sec
 * total energy  :  -110.2897113 Eh     change       -0.3818361E-04 Eh
   gradient norm :     0.0102659 Eh/α   predicted     0.0000000E+00 (-100.00%)
   displ. norm   :     0.0597843 α      lambda       -0.1668134E-03
   maximum displ.:     0.0227783 α      in ANC's #19, #13, #1, ...

........................................................................
.............................. CYCLE   94 ..............................
........................................................................

 iter      E             dE          RMSdq      gap      omega  full diag
   1   -111.8234884 -0.111823E+03  0.164E-02    3.37       0.0  T
   2   -111.8234899 -0.145171E-05  0.974E-03    3.37       1.2  T
   3   -111.8234896  0.248677E-06  0.386E-03    3.37       3.0  T
   4   -111.8234901 -0.477997E-06  0.103E-03    3.37      11.2  T
   5   -111.8234902 -0.575522E-07  0.437E-04    3.37      26.2  T
   6   -111.8234902 -0.198816E-08  0.207E-04    3.37      55.5  T
     SCC iter.                  ...        0 min,  0.042 sec
     gradient                   ...        0 min,  0.059 sec
 * total energy  :  -110.2898272 Eh     change       -0.1159084E-03 Eh
   gradient norm :     0.0029730 Eh/α   predicted    -0.8525524E-04 ( -26.45%)
   displ. norm   :     0.0866133 α      lambda       -0.7444615E-04
   maximum displ.:     0.0337922 α      in ANC's #13, #8, #1, ...

........................................................................
.............................. CYCLE   95 ..............................
........................................................................

 iter      E             dE          RMSdq      gap      omega  full diag
   1   -111.8234210 -0.111823E+03  0.170E-02    3.37       0.0  T
   2   -111.8234220 -0.996160E-06  0.102E-02    3.37       1.1  T
   3   -111.8234216  0.383769E-06  0.353E-03    3.37       3.3  T
   4   -111.8234222 -0.560065E-06  0.105E-03    3.37      11.0  T
   5   -111.8234222 -0.595242E-07  0.434E-04    3.37      26.4  T
   6   -111.8234222 -0.112028E-08  0.221E-04    3.37      51.9  T
     SCC iter.                  ...        0 min,  0.036 sec
     gradient                   ...        0 min,  0.053 sec
 * total energy  :  -110.2898813 Eh     change       -0.5408793E-04 Eh
   gradient norm :     0.0018617 Eh/α   predicted    -0.3750415E-04 ( -30.66%)
   displ. norm   :     0.2273277 α      lambda       -0.7508163E-04
   maximum displ.:     0.0915411 α      in ANC's #13, #8, #18, ...

........................................................................
.............................. CYCLE   96 ..............................
........................................................................

 iter      E             dE          RMSdq      gap      omega  full diag
   1   -111.8223030 -0.111822E+03  0.429E-02    3.38       0.0  T
   2   -111.8223063 -0.336977E-05  0.257E-02    3.38       1.0  T
   3   -111.8223030  0.334628E-05  0.813E-03    3.38       1.4  T
   4   -111.8223075 -0.453718E-05  0.217E-03    3.38       5.3  T
   5   -111.8223077 -0.155311E-06  0.113E-03    3.38      10.1  T
   6   -111.8223077 -0.110429E-07  0.516E-04    3.38      22.2  T
   7   -111.8223077 -0.782995E-08  0.199E-04    3.38      57.6  T
     SCC iter.                  ...        0 min,  0.035 sec
     gradient                   ...        0 min,  0.061 sec
 * total energy  :  -110.2899550 Eh     change       -0.7376966E-04 Eh
   gradient norm :     0.0051592 Eh/α   predicted    -0.3840470E-04 ( -47.94%)
   displ. norm   :     0.1472813 α      lambda       -0.6383062E-04
   maximum displ.:     0.0642967 α      in ANC's #18, #8, #13, ...

........................................................................
.............................. CYCLE   97 ..............................
........................................................................

 iter      E             dE          RMSdq      gap      omega  full diag
   1   -111.8223319 -0.111822E+03  0.260E-02    3.37       0.0  T
   2   -111.8223325 -0.603255E-06  0.156E-02    3.37       1.0  T
   3   -111.8223307  0.182274E-05  0.549E-03    3.37       2.1  T
   4   -111.8223330 -0.230368E-05  0.110E-03    3.37      10.4  T
   5   -111.8223330 -0.724235E-08  0.617E-04    3.37      18.6  T
   6   -111.8223330 -0.507309E-08  0.205E-04    3.37      56.1  T
     SCC iter.                  ...        0 min,  0.020 sec
     gradient                   ...        0 min,  0.064 sec
 * total energy  :  -110.2900063 Eh     change       -0.5124093E-04 Eh
   gradient norm :     0.0041274 Eh/α   predicted    -0.3260896E-04 ( -36.36%)
   displ. norm   :     0.2319187 α      lambda       -0.8677250E-04
   maximum displ.:     0.1086110 α      in ANC's #18, #13, #8, ...

........................................................................
.............................. CYCLE   98 ..............................
........................................................................

 iter      E             dE          RMSdq      gap      omega  full diag
   1   -111.8226747 -0.111823E+03  0.373E-02    3.37       0.0  T
   2   -111.8226760 -0.123371E-05  0.222E-02    3.37       1.0  T
   3   -111.8226736  0.233050E-05  0.650E-03    3.37       1.8  T
   4   -111.8226767 -0.304352E-05  0.157E-03    3.37       7.3  T
   5   -111.8226767 -0.459716E-07  0.868E-04    3.37      13.2  T
   6   -111.8226767 -0.349476E-08  0.282E-04    3.37      40.6  T
     SCC iter.                  ...        0 min,  0.033 sec
     gradient                   ...        0 min,  0.053 sec
 * total energy  :  -110.2900638 Eh     change       -0.5754141E-04 Eh
   gradient norm :     0.0024014 Eh/α   predicted    -0.4572369E-04 ( -20.54%)
   displ. norm   :     0.1380892 α      lambda       -0.3802331E-04
   maximum displ.:     0.0648220 α      in ANC's #18, #13, #8, ...

........................................................................
.............................. CYCLE   99 ..............................
........................................................................

 iter      E             dE          RMSdq      gap      omega  full diag
   1   -111.8236174 -0.111824E+03  0.193E-02    3.37       0.0  T
   2   -111.8236178 -0.389641E-06  0.113E-02    3.37       1.0  T
   3   -111.8236176  0.208832E-06  0.234E-03    3.37       4.9  T
   4   -111.8236179 -0.309573E-06  0.852E-04    3.37      13.5  T
   5   -111.8236179 -0.287858E-07  0.403E-04    3.37      28.4  T
     SCC iter.                  ...        0 min,  0.026 sec
     gradient                   ...        0 min,  0.059 sec
 * total energy  :  -110.2900899 Eh     change       -0.2611322E-04 Eh
   gradient norm :     0.0017735 Eh/α   predicted    -0.1937434E-04 ( -25.81%)
   displ. norm   :     0.3593132 α      lambda       -0.3991597E-04
   maximum displ.:     0.1533251 α      in ANC's #18, #13, #8, ...

........................................................................
.............................. CYCLE  100 ..............................
........................................................................

 iter      E             dE          RMSdq      gap      omega  full diag
   1   -111.8217804 -0.111822E+03  0.548E-02    3.38       0.0  T
   2   -111.8217831 -0.270185E-05  0.326E-02    3.37       1.0  T
   3   -111.8217806  0.253115E-05  0.713E-03    3.37       1.6  T
   4   -111.8217843 -0.368179E-05  0.216E-03    3.37       5.3  T
   5   -111.8217844 -0.979553E-07  0.122E-03    3.37       9.4  T
   6   -111.8217844 -0.148632E-07  0.471E-04    3.37      24.3  T
   7   -111.8217844 -0.809108E-08  0.179E-04    3.37      63.9  T
     SCC iter.                  ...        0 min,  0.044 sec
     gradient                   ...        0 min,  0.053 sec
 * total energy  :  -110.2900858 Eh     change        0.4120837E-05 Eh
   gradient norm :     0.0062136 Eh/α   predicted    -0.2111173E-04 (-612.32%)
   displ. norm   :     0.0646055 α      lambda       -0.6810877E-04
   maximum displ.:     0.0263311 α      in ANC's #1, #9, #13, ...

........................................................................
.............................. CYCLE  101 ..............................
........................................................................

 iter      E             dE          RMSdq      gap      omega  full diag
   1   -111.8238570 -0.111824E+03  0.150E-02    3.37       0.0  T
   2   -111.8238575 -0.439645E-06  0.890E-03    3.37       1.3  T
   3   -111.8238571  0.405008E-06  0.301E-03    3.37       3.8  T
   4   -111.8238576 -0.550798E-06  0.906E-04    3.37      12.7  T
   5   -111.8238577 -0.245842E-07  0.403E-04    3.37      28.5  T
     SCC iter.                  ...        0 min,  0.027 sec
     gradient                   ...        0 min,  0.052 sec
 * total energy  :  -110.2901245 Eh     change       -0.3869896E-04 Eh
   gradient norm :     0.0015235 Eh/α   predicted    -0.3420173E-04 ( -11.62%)
   displ. norm   :     0.0537463 α      lambda       -0.1335087E-04
   maximum displ.:     0.0190779 α      in ANC's #18, #4, #2, ...

........................................................................
.............................. CYCLE  102 ..............................
........................................................................

 iter      E             dE          RMSdq      gap      omega  full diag
   1   -111.8241736 -0.111824E+03  0.890E-03    3.37       0.0  T
   2   -111.8241738 -0.204287E-06  0.530E-03    3.37       2.2  T
   3   -111.8241737  0.897169E-07  0.167E-03    3.37       6.9  T
   4   -111.8241738 -0.110886E-06  0.567E-04    3.37      20.2  T
   5   -111.8241738 -0.200802E-07  0.188E-04    3.37      60.9  T
     SCC iter.                  ...        0 min,  0.024 sec
     gradient                   ...        0 min,  0.049 sec
 * total energy  :  -110.2901388 Eh     change       -0.1431045E-04 Eh
   gradient norm :     0.0014262 Eh/α   predicted    -0.6687167E-05 ( -53.27%)
   displ. norm   :     0.0946702 α      lambda       -0.1457493E-04
   maximum displ.:     0.0462953 α      in ANC's #4, #2, #16, ...

........................................................................
.............................. CYCLE  103 ..............................
........................................................................

 iter      E             dE          RMSdq      gap      omega  full diag
   1   -111.8240028 -0.111824E+03  0.116E-02    3.37       0.0  T
   2   -111.8240031 -0.247936E-06  0.690E-03    3.37       1.7  T
   3   -111.8240030  0.100814E-06  0.171E-03    3.37       6.7  T
   4   -111.8240031 -0.125931E-06  0.589E-04    3.37      19.5  T
   5   -111.8240031 -0.203985E-07  0.210E-04    3.37      54.6  T
     SCC iter.                  ...        0 min,  0.028 sec
     gradient                   ...        0 min,  0.054 sec
 * total energy  :  -110.2901553 Eh     change       -0.1650851E-04 Eh
   gradient norm :     0.0014541 Eh/α   predicted    -0.7316747E-05 ( -55.68%)
   displ. norm   :     0.1473004 α      lambda       -0.1538569E-04
   maximum displ.:     0.0791721 α      in ANC's #4, #2, #23, ...

........................................................................
.............................. CYCLE  104 ..............................
........................................................................

 iter      E             dE          RMSdq      gap      omega  full diag
   1   -111.8233526 -0.111823E+03  0.163E-02    3.37       0.0  T
   2   -111.8233528 -0.207784E-06  0.972E-03    3.37       1.2  T
   3   -111.8233524  0.361984E-06  0.232E-03    3.37       4.9  T
   4   -111.8233529 -0.446653E-06  0.492E-04    3.37      23.3  T
   5   -111.8233529 -0.650961E-08  0.273E-04    3.37      42.1  T
     SCC iter.                  ...        0 min,  0.025 sec
     gradient                   ...        0 min,  0.053 sec
 * total energy  :  -110.2901728 Eh     change       -0.1750588E-04 Eh
   gradient norm :     0.0011408 Eh/α   predicted    -0.7771334E-05 ( -55.61%)
   displ. norm   :     0.1770404 α      lambda       -0.1592460E-04
   maximum displ.:     0.0970916 α      in ANC's #4, #2, #5, ...

........................................................................
.............................. CYCLE  105 ..............................
........................................................................

 iter      E             dE          RMSdq      gap      omega  full diag
   1   -111.8231473 -0.111823E+03  0.179E-02    3.37       0.0  T
   2   -111.8231475 -0.213161E-06  0.107E-02    3.37       1.1  T
   3   -111.8231472  0.299909E-06  0.215E-03    3.37       5.3  T
   4   -111.8231476 -0.389563E-06  0.474E-04    3.37      24.2  T
   5   -111.8231476 -0.299750E-08  0.265E-04    3.37      43.2  T
     SCC iter.                  ...        0 min,  0.028 sec
     gradient                   ...        0 min,  0.052 sec
 * total energy  :  -110.2901907 Eh     change       -0.1782851E-04 Eh
   gradient norm :     0.0017163 Eh/α   predicted    -0.8075369E-05 ( -54.71%)
   displ. norm   :     0.2018105 α      lambda       -0.1733347E-04
   maximum displ.:     0.1120833 α      in ANC's #4, #2, #5, ...

........................................................................
.............................. CYCLE  106 ..............................
........................................................................

 iter      E             dE          RMSdq      gap      omega  full diag
   1   -111.8226804 -0.111823E+03  0.191E-02    3.37       0.0  T
   2   -111.8226807 -0.343236E-06  0.114E-02    3.37       1.0  T
   3   -111.8226801  0.669351E-06  0.323E-03    3.37       3.5  T
   4   -111.8226809 -0.814977E-06  0.628E-04    3.37      18.3  T
   5   -111.8226809 -0.128981E-07  0.339E-04    3.37      33.9  T
     SCC iter.                  ...        0 min,  0.025 sec
     gradient                   ...        0 min,  0.054 sec
 * total energy  :  -110.2902117 Eh     change       -0.2106958E-04 Eh
   gradient norm :     0.0021644 Eh/α   predicted    -0.8824390E-05 ( -58.12%)
   displ. norm   :     0.1874095 α      lambda       -0.2784497E-04
   maximum displ.:     0.1081798 α      in ANC's #4, #2, #5, ...

........................................................................
.............................. CYCLE  107 ..............................
........................................................................

 iter      E             dE          RMSdq      gap      omega  full diag
   1   -111.8230917 -0.111823E+03  0.152E-02    3.37       0.0  T
   2   -111.8230919 -0.172741E-06  0.907E-03    3.37       1.3  T
   3   -111.8230916  0.323918E-06  0.221E-03    3.37       5.2  T
   4   -111.8230920 -0.402869E-06  0.416E-04    3.37      27.6  T
   5   -111.8230920 -0.277312E-08  0.234E-04    3.37      49.1  T
     SCC iter.                  ...        0 min,  0.030 sec
     gradient                   ...        0 min,  0.050 sec
 * total energy  :  -110.2902355 Eh     change       -0.2380983E-04 Eh
   gradient norm :     0.0020616 Eh/α   predicted    -0.1441284E-04 ( -39.47%)
   displ. norm   :     0.3211429 α      lambda       -0.4217711E-04
   maximum displ.:     0.1867151 α      in ANC's #4, #2, #5, ...

........................................................................
.............................. CYCLE  108 ..............................
........................................................................

 iter      E             dE          RMSdq      gap      omega  full diag
   1   -111.8231327 -0.111823E+03  0.257E-02    3.36       0.0  T
   2   -111.8231331 -0.408619E-06  0.152E-02    3.37       1.0  T
   3   -111.8231324  0.685303E-06  0.329E-03    3.36       3.5  T
   4   -111.8231333 -0.873373E-06  0.671E-04    3.37      17.1  T
   5   -111.8231333 -0.547027E-08  0.371E-04    3.37      30.9  T
     SCC iter.                  ...        0 min,  0.026 sec
     gradient                   ...        0 min,  0.051 sec
 * total energy  :  -110.2902677 Eh     change       -0.3213920E-04 Eh
   gradient norm :     0.0017350 Eh/α   predicted    -0.2326496E-04 ( -27.61%)
   displ. norm   :     0.4282478 α      lambda       -0.2840865E-04
   maximum displ.:     0.2552974 α      in ANC's #4, #2, #5, ...

........................................................................
.............................. CYCLE  109 ..............................
........................................................................

 iter      E             dE          RMSdq      gap      omega  full diag
   1   -111.8233272 -0.111823E+03  0.333E-02    3.36       0.0  T
   2   -111.8233280 -0.790924E-06  0.198E-02    3.36       1.0  T
   3   -111.8233264  0.168320E-05  0.503E-03    3.36       2.3  T
   4   -111.8233284 -0.206484E-05  0.890E-04    3.36      12.9  T
   5   -111.8233284 -0.140213E-07  0.510E-04    3.36      22.5  T
   6   -111.8233284 -0.285367E-08  0.205E-04    3.36      55.9  T
     SCC iter.                  ...        0 min,  0.025 sec
     gradient                   ...        0 min,  0.057 sec
 * total energy  :  -110.2902958 Eh     change       -0.2814873E-04 Eh
   gradient norm :     0.0016276 Eh/α   predicted    -0.1536412E-04 ( -45.42%)
   displ. norm   :     0.2187301 α      lambda       -0.1578165E-04
   maximum displ.:     0.1327364 α      in ANC's #4, #2, #5, ...

........................................................................
.............................. CYCLE  110 ..............................
........................................................................

 iter      E             dE          RMSdq      gap      omega  full diag
   1   -111.8236947 -0.111824E+03  0.194E-02    3.36       0.0  T
   2   -111.8236949 -0.204837E-06  0.115E-02    3.36       1.0  T
   3   -111.8236947  0.175065E-06  0.193E-03    3.36       5.9  T
   4   -111.8236950 -0.249704E-06  0.517E-04    3.36      22.2  T
   5   -111.8236950 -0.464274E-08  0.273E-04    3.36      42.0  T
     SCC iter.                  ...        0 min,  0.027 sec
     gradient                   ...        0 min,  0.047 sec
 * total energy  :  -110.2903143 Eh     change       -0.1850235E-04 Eh
   gradient norm :     0.0013129 Eh/α   predicted    -0.8059744E-05 ( -56.44%)
   displ. norm   :     0.2159356 α      lambda       -0.2099771E-04
   maximum displ.:     0.1336112 α      in ANC's #4, #2, #3, ...

........................................................................
.............................. CYCLE  111 ..............................
........................................................................

 iter      E             dE          RMSdq      gap      omega  full diag
   1   -111.8247169 -0.111825E+03  0.219E-02    3.36       0.0  T
   2   -111.8247173 -0.446869E-06  0.129E-02    3.36       1.0  T
   3   -111.8247170  0.292391E-06  0.260E-03    3.36       4.4  T
   4   -111.8247174 -0.388519E-06  0.669E-04    3.36      17.2  T
   5   -111.8247174 -0.172541E-07  0.313E-04    3.36      36.7  T
     SCC iter.                  ...        0 min,  0.035 sec
     gradient                   ...        0 min,  0.049 sec
 * total energy  :  -110.2903393 Eh     change       -0.2495717E-04 Eh
   gradient norm :     0.0014978 Eh/α   predicted    -0.1072060E-04 ( -57.04%)
   displ. norm   :     0.3628695 α      lambda       -0.3038419E-04
   maximum displ.:     0.2156767 α      in ANC's #4, #2, #3, ...

........................................................................
.............................. CYCLE  112 ..............................
........................................................................

 iter      E             dE          RMSdq      gap      omega  full diag
   1   -111.8226317 -0.111823E+03  0.426E-02    3.36       0.0  T
   2   -111.8226330 -0.130098E-05  0.253E-02    3.36       1.0  T
   3   -111.8226326  0.348248E-06  0.388E-03    3.37       3.0  T
   4   -111.8226334 -0.770872E-06  0.138E-03    3.37       8.3  T
   5   -111.8226335 -0.352619E-07  0.705E-04    3.37      16.3  T
   6   -111.8226335 -0.395471E-08  0.255E-04    3.37      45.0  T
     SCC iter.                  ...        0 min,  0.031 sec
     gradient                   ...        0 min,  0.038 sec
 * total energy  :  -110.2903590 Eh     change       -0.1975454E-04 Eh
   gradient norm :     0.0044967 Eh/α   predicted    -0.1608334E-04 ( -18.58%)
   displ. norm   :     0.1650728 α      lambda       -0.3749453E-04
   maximum displ.:     0.1024828 α      in ANC's #4, #2, #3, ...

........................................................................
.............................. CYCLE  113 ..............................
........................................................................

 iter      E             dE          RMSdq      gap      omega  full diag
   1   -111.8228296 -0.111823E+03  0.189E-02    3.36       0.0  T
   2   -111.8228298 -0.268603E-06  0.111E-02    3.37       1.0  T
   3   -111.8228294  0.386023E-06  0.263E-03    3.37       4.4  T
   4   -111.8228299 -0.484483E-06  0.498E-04    3.37      23.0  T
   5   -111.8228299 -0.511697E-08  0.265E-04    3.37      43.3  T
     SCC iter.                  ...        0 min,  0.021 sec
     gradient                   ...        0 min,  0.054 sec
 * total energy  :  -110.2903860 Eh     change       -0.2692239E-04 Eh
   gradient norm :     0.0018123 Eh/α   predicted    -0.1926218E-04 ( -28.45%)
   displ. norm   :     0.4524875 α      lambda       -0.4710349E-04
   maximum displ.:     0.2865382 α      in ANC's #2, #4, #3, ...

........................................................................
.............................. CYCLE  114 ..............................
........................................................................

 iter      E             dE          RMSdq      gap      omega  full diag
   1   -111.8252015 -0.111825E+03  0.500E-02    3.36       0.0  T
   2   -111.8252031 -0.167015E-05  0.293E-02    3.37       1.0  T
   3   -111.8252013  0.184777E-05  0.610E-03    3.37       1.9  T
   4   -111.8252036 -0.230807E-05  0.118E-03    3.37       9.7  T
   5   -111.8252036 -0.414797E-07  0.543E-04    3.37      21.1  T
   6   -111.8252036 -0.100444E-08  0.251E-04    3.37      45.8  T
     SCC iter.                  ...        0 min,  0.028 sec
     gradient                   ...        0 min,  0.056 sec
 * total energy  :  -110.2904260 Eh     change       -0.4000131E-04 Eh
   gradient norm :     0.0040352 Eh/α   predicted    -0.2569656E-04 ( -35.76%)
   displ. norm   :     0.4033755 α      lambda       -0.4904356E-04
   maximum displ.:     0.2515049 α      in ANC's #4, #2, #3, ...

........................................................................
.............................. CYCLE  115 ..............................
........................................................................

 iter      E             dE          RMSdq      gap      omega  full diag
   1   -111.8240112 -0.111824E+03  0.440E-02    3.37       0.0  T
   2   -111.8240120 -0.868011E-06  0.259E-02    3.37       1.0  T
   3   -111.8240105  0.150215E-05  0.520E-03    3.37       2.2  T
   4   -111.8240124 -0.187720E-05  0.981E-04    3.37      11.7  T
   5   -111.8240124 -0.161762E-07  0.551E-04    3.37      20.8  T
   6   -111.8240124 -0.247958E-08  0.269E-04    3.37      42.7  T
     SCC iter.                  ...        0 min,  0.029 sec
     gradient                   ...        0 min,  0.056 sec
 * total energy  :  -110.2904702 Eh     change       -0.4421785E-04 Eh
   gradient norm :     0.0042026 Eh/α   predicted    -0.2851437E-04 ( -35.51%)
   displ. norm   :     0.3139651 α      lambda       -0.6207154E-04
   maximum displ.:     0.1969144 α      in ANC's #4, #2, #3, ...

........................................................................
.............................. CYCLE  116 ..............................
........................................................................

 iter      E             dE          RMSdq      gap      omega  full diag
   1   -111.8235722 -0.111824E+03  0.351E-02    3.37       0.0  T
   2   -111.8235727 -0.491323E-06  0.207E-02    3.37       1.0  T
   3   -111.8235721  0.587904E-06  0.349E-03    3.37       3.3  T
   4   -111.8235729 -0.811078E-06  0.827E-04    3.37      13.9  T
   5   -111.8235729 -0.807530E-08  0.449E-04    3.37      25.6  T
     SCC iter.                  ...        0 min,  0.026 sec
     gradient                   ...        0 min,  0.040 sec
 * total energy  :  -110.2905228 Eh     change       -0.5264156E-04 Eh
   gradient norm :     0.0024259 Eh/α   predicted    -0.3409726E-04 ( -35.23%)
   displ. norm   :     0.3622899 α      lambda       -0.6472905E-04
   maximum displ.:     0.2278327 α      in ANC's #4, #2, #3, ...

........................................................................
.............................. CYCLE  117 ..............................
........................................................................

 iter      E             dE          RMSdq      gap      omega  full diag
   1   -111.8228359 -0.111823E+03  0.419E-02    3.37       0.0  T
   2   -111.8228366 -0.627001E-06  0.246E-02    3.37       1.0  T
   3   -111.8228359  0.670104E-06  0.378E-03    3.37       3.0  T
   4   -111.8228368 -0.934507E-06  0.890E-04    3.37      12.9  T
   5   -111.8228369 -0.113621E-07  0.478E-04    3.37      24.0  T
     SCC iter.                  ...        0 min,  0.026 sec
     gradient                   ...        0 min,  0.049 sec
 * total energy  :  -110.2905778 Eh     change       -0.5497068E-04 Eh
   gradient norm :     0.0026388 Eh/α   predicted    -0.3661328E-04 ( -33.39%)
   displ. norm   :     0.4400917 α      lambda       -0.7317790E-04
   maximum displ.:     0.2812123 α      in ANC's #2, #4, #3, ...

........................................................................
.............................. CYCLE  118 ..............................
........................................................................

 iter      E             dE          RMSdq      gap      omega  full diag
   1   -111.8227318 -0.111823E+03  0.524E-02    3.37       0.0  T
   2   -111.8227326 -0.779703E-06  0.308E-02    3.37       1.0  T
   3   -111.8227314  0.118639E-05  0.476E-03    3.37       2.4  T
   4   -111.8227329 -0.155708E-05  0.924E-04    3.37      12.4  T
   5   -111.8227329 -0.791842E-08  0.482E-04    3.37      23.8  T
   6   -111.8227329 -0.229490E-08  0.195E-04    3.37      58.8  T
     SCC iter.                  ...        0 min,  0.027 sec
     gradient                   ...        0 min,  0.066 sec
 * total energy  :  -110.2906428 Eh     change       -0.6497588E-04 Eh
   gradient norm :     0.0036071 Eh/α   predicted    -0.4367925E-04 ( -32.78%)
   displ. norm   :     0.5954253 α      lambda       -0.1010411E-03
   maximum displ.:     0.3840946 α      in ANC's #2, #4, #3, ...

........................................................................
.............................. CYCLE  119 ..............................
........................................................................

 iter      E             dE          RMSdq      gap      omega  full diag
   1   -111.8219343 -0.111822E+03  0.729E-02    3.37       0.0  T
   2   -111.8219359 -0.162925E-05  0.428E-02    3.37       1.0  T
   3   -111.8219337  0.222999E-05  0.658E-03    3.38       1.7  T
   4   -111.8219366 -0.288309E-05  0.128E-03    3.38       9.0  T
   5   -111.8219366 -0.289857E-07  0.676E-04    3.38      17.0  T
   6   -111.8219366 -0.217601E-08  0.305E-04    3.38      37.6  T
     SCC iter.                  ...        0 min,  0.035 sec
     gradient                   ...        0 min,  0.055 sec
 * total energy  :  -110.2907370 Eh     change       -0.9421140E-04 Eh
   gradient norm :     0.0045309 Eh/α   predicted    -0.6843468E-04 ( -27.36%)
   displ. norm   :     0.7521912 α      lambda       -0.1505171E-03
   maximum displ.:     0.4941501 α      in ANC's #2, #4, #3, ...

........................................................................
.............................. CYCLE  120 ..............................
........................................................................

 iter      E             dE          RMSdq      gap      omega  full diag
   1   -111.8216552 -0.111822E+03  0.931E-02    3.37       0.0  T
   2   -111.8216576 -0.240769E-05  0.546E-02    3.38       1.0  T
   3   -111.8216541  0.350701E-05  0.824E-03    3.38       1.4  T
   4   -111.8216586 -0.451827E-05  0.148E-03    3.38       7.7  T
   5   -111.8216587 -0.318491E-07  0.758E-04    3.38      15.1  T
   6   -111.8216587 -0.346084E-08  0.315E-04    3.38      36.4  T
     SCC iter.                  ...        0 min,  0.045 sec
     gradient                   ...        0 min,  0.057 sec
 * total energy  :  -110.2908780 Eh     change       -0.1410529E-03 Eh
   gradient norm :     0.0045438 Eh/α   predicted    -0.1178468E-03 ( -16.45%)
   displ. norm   :     0.7788713 α      lambda       -0.2054345E-03
   maximum displ.:     0.5215061 α      in ANC's #2, #4, #13, ...
 * RMSD in coord.:     0.7083134 α      energy gain  -0.1204952E-02 Eh

generating ANC from exact Hessian ...
Using Lindh-Hessian (1995)
 Shifting diagonal of input Hessian by   1.011740946885422E-002
 Lowest  eigenvalues of input Hessian
    0.010000    0.000000    0.000000    0.000000    0.000000    0.000000
    0.000000    0.010169    0.010222    0.010303    0.010431    0.010480
    0.010537    0.010677    0.010706    0.010765    0.010905    0.011070
 Highest eigenvalues
    2.000819    2.073920    2.075474    2.204697    2.319019    2.350256
 

........................................................................
.............................. CYCLE  121 ..............................
........................................................................

 iter      E             dE          RMSdq      gap      omega  full diag
   1   -111.8222044 -0.111822E+03  0.984E-02    3.37       0.0  T
   2   -111.8222074 -0.301857E-05  0.578E-02    3.38       1.0  T
   3   -111.8222040  0.337306E-05  0.836E-03    3.38       1.4  T
   4   -111.8222085 -0.446156E-05  0.173E-03    3.38       6.6  T
   5   -111.8222085 -0.519748E-07  0.838E-04    3.38      13.7  T
   6   -111.8222085 -0.532442E-08  0.344E-04    3.38      33.3  T
     SCC iter.                  ...        0 min,  0.034 sec
     gradient                   ...        0 min,  0.047 sec
 * total energy  :  -110.2910609 Eh     change       -0.1828389E-03 Eh
   gradient norm :     0.0055149 Eh/α   predicted     0.0000000E+00 (-100.00%)
   displ. norm   :     0.0723332 α      lambda       -0.1072345E-03
   maximum displ.:     0.0301575 α      in ANC's #18, #1, #11, ...

........................................................................
.............................. CYCLE  122 ..............................
........................................................................

 iter      E             dE          RMSdq      gap      omega  full diag
   1   -111.8242582 -0.111824E+03  0.186E-02    3.39       0.0  T
   2   -111.8242588 -0.605188E-06  0.113E-02    3.39       1.0  T
   3   -111.8242581  0.787277E-06  0.399E-03    3.39       2.9  T
   4   -111.8242591 -0.104808E-05  0.903E-04    3.39      12.7  T
   5   -111.8242591 -0.220453E-07  0.479E-04    3.39      23.9  T
   6   -111.8242591 -0.286143E-08  0.223E-04    3.39      51.5  T
     SCC iter.                  ...        0 min,  0.035 sec
     gradient                   ...        0 min,  0.054 sec
 * total energy  :  -110.2911459 Eh     change       -0.8502564E-04 Eh
   gradient norm :     0.0018084 Eh/α   predicted    -0.5439665E-04 ( -36.02%)
   displ. norm   :     0.2724138 α      lambda       -0.1505571E-03
   maximum displ.:     0.1055899 α      in ANC's #1, #18, #19, ...

........................................................................
.............................. CYCLE  123 ..............................
........................................................................

 iter      E             dE          RMSdq      gap      omega  full diag
   1   -111.8264136 -0.111826E+03  0.535E-02    3.40       0.0  T
   2   -111.8264175 -0.390131E-05  0.323E-02    3.40       1.0  T
   3   -111.8264154  0.207744E-05  0.775E-03    3.40       1.5  T
   4   -111.8264190 -0.359898E-05  0.258E-03    3.40       4.4  T
   5   -111.8264191 -0.155103E-06  0.130E-03    3.40       8.8  T
   6   -111.8264192 -0.268914E-07  0.611E-04    3.40      18.8  T
   7   -111.8264192 -0.811144E-08  0.250E-04    3.40      45.8  T
     SCC iter.                  ...        0 min,  0.044 sec
     gradient                   ...        0 min,  0.057 sec
 * total energy  :  -110.2912240 Eh     change       -0.7811850E-04 Eh
   gradient norm :     0.0109693 Eh/α   predicted    -0.7776466E-04 (  -0.45%)
   displ. norm   :     0.0797708 α      lambda       -0.1240301E-03
   maximum displ.:     0.0386967 α      in ANC's #1, #2, #9, ...

........................................................................
.............................. CYCLE  124 ..............................
........................................................................

 iter      E             dE          RMSdq      gap      omega  full diag
   1   -111.8270678 -0.111827E+03  0.169E-02    3.39       0.0  T
   2   -111.8270686 -0.801476E-06  0.103E-02    3.39       1.1  T
   3   -111.8270678  0.788044E-06  0.419E-03    3.39       2.7  T
   4   -111.8270690 -0.113048E-05  0.863E-04    3.39      13.3  T
   5   -111.8270690 -0.174984E-07  0.455E-04    3.39      25.2  T
   6   -111.8270690 -0.546949E-08  0.193E-04    3.39      59.5  T
     SCC iter.                  ...        0 min,  0.030 sec
     gradient                   ...        0 min,  0.053 sec
 * total energy  :  -110.2913180 Eh     change       -0.9393713E-04 Eh
   gradient norm :     0.0067260 Eh/α   predicted    -0.6240995E-04 ( -33.56%)
   displ. norm   :     0.2227404 α      lambda       -0.2023683E-03
   maximum displ.:     0.1170249 α      in ANC's #1, #2, #9, ...

........................................................................
.............................. CYCLE  125 ..............................
........................................................................

 iter      E             dE          RMSdq      gap      omega  full diag
   1   -111.8257106 -0.111826E+03  0.253E-02    3.39       0.0  T
   2   -111.8257116 -0.911820E-06  0.153E-02    3.39       1.0  T
   3   -111.8257111  0.438203E-06  0.364E-03    3.39       3.2  T
   4   -111.8257119 -0.794923E-06  0.114E-03    3.39      10.1  T
   5   -111.8257119 -0.217826E-07  0.585E-04    3.39      19.6  T
   6   -111.8257119 -0.581626E-08  0.266E-04    3.39      43.2  T
     SCC iter.                  ...        0 min,  0.031 sec
     gradient                   ...        0 min,  0.053 sec
 * total energy  :  -110.2914833 Eh     change       -0.1653140E-03 Eh
   gradient norm :     0.0022078 Eh/α   predicted    -0.1062143E-03 ( -35.75%)
   displ. norm   :     0.5071821 α      lambda       -0.3333593E-03
   maximum displ.:     0.2601551 α      in ANC's #1, #2, #9, ...

........................................................................
.............................. CYCLE  126 ..............................
........................................................................

 iter      E             dE          RMSdq      gap      omega  full diag
   1   -111.8222372 -0.111822E+03  0.522E-02    3.38       0.0  T
   2   -111.8222403 -0.307691E-05  0.315E-02    3.39       1.0  T
   3   -111.8222369  0.336992E-05  0.835E-03    3.38       1.4  T
   4   -111.8222420 -0.502030E-05  0.225E-03    3.38       5.1  T
   5   -111.8222420 -0.678437E-07  0.134E-03    3.38       8.5  T
   6   -111.8222421 -0.263875E-07  0.539E-04    3.38      21.3  T
   7   -111.8222421 -0.898275E-08  0.183E-04    3.38      62.6  T
     SCC iter.                  ...        0 min,  0.036 sec
     gradient                   ...        0 min,  0.052 sec
 * total energy  :  -110.2918013 Eh     change       -0.3180266E-03 Eh
   gradient norm :     0.0048836 Eh/α   predicted    -0.2095558E-03 ( -34.11%)
   displ. norm   :     0.8902455 α      lambda       -0.6103495E-03
   maximum displ.:     0.4721160 α      in ANC's #1, #2, #9, ...

........................................................................
.............................. CYCLE  127 ..............................
........................................................................

 iter      E             dE          RMSdq      gap      omega  full diag
   1   -111.8141967 -0.111814E+03  0.806E-02    3.37       0.0  T
   2   -111.8142047 -0.797025E-05  0.485E-02    3.37       1.0  T
   3   -111.8142017  0.297422E-05  0.104E-02    3.37       1.1  T
   4   -111.8142082 -0.644642E-05  0.375E-03    3.37       3.1  T
   5   -111.8142084 -0.245923E-06  0.196E-03    3.37       5.9  T
   6   -111.8142085 -0.731784E-07  0.916E-04    3.37      12.5  T
   7   -111.8142085 -0.146374E-07  0.371E-04    3.37      30.9  T
     SCC iter.                  ...        0 min,  0.036 sec
     gradient                   ...        0 min,  0.048 sec
 * total energy  :  -110.2921699 Eh     change       -0.3685710E-03 Eh
   gradient norm :     0.0187844 Eh/α   predicted    -0.5470378E-03 (  48.42%)
   displ. norm   :     0.2972994 α      lambda       -0.7199824E-03
   maximum displ.:     0.1647357 α      in ANC's #1, #2, #9, ...

........................................................................
.............................. CYCLE  128 ..............................
........................................................................

 iter      E             dE          RMSdq      gap      omega  full diag
   1   -111.8174353 -0.111817E+03  0.459E-02    3.36       0.0  T
   2   -111.8174448 -0.949314E-05  0.268E-02    3.36       1.0  T
   3   -111.8174445  0.274360E-06  0.791E-03    3.36       1.5  T
   4   -111.8174462 -0.161813E-05  0.363E-03    3.36       3.2  T
   5   -111.8174467 -0.567065E-06  0.120E-03    3.36       9.6  T
   6   -111.8174468 -0.635245E-07  0.511E-04    3.36      22.4  T
   7   -111.8174468 -0.321411E-08  0.272E-04    3.36      42.1  T
     SCC iter.                  ...        0 min,  0.038 sec
     gradient                   ...        0 min,  0.054 sec
 * total energy  :  -110.2924560 Eh     change       -0.2860860E-03 Eh
   gradient norm :     0.0153995 Eh/α   predicted    -0.3918100E-03 (  36.96%)
   displ. norm   :     0.1456932 α      lambda       -0.4729667E-03
   maximum displ.:     0.0591197 α      in ANC's #1, #15, #14, ...

........................................................................
.............................. CYCLE  129 ..............................
........................................................................

 iter      E             dE          RMSdq      gap      omega  full diag
   1   -111.8205622 -0.111821E+03  0.386E-02    3.37       0.0  T
   2   -111.8205653 -0.301256E-05  0.238E-02    3.37       1.0  T
   3   -111.8205601  0.518766E-05  0.997E-03    3.37       1.2  T
   4   -111.8205669 -0.679617E-05  0.200E-03    3.37       5.7  T
   5   -111.8205670 -0.107419E-06  0.105E-03    3.37      10.9  T
   6   -111.8205670 -0.162184E-07  0.441E-04    3.37      26.0  T
   7   -111.8205670 -0.544581E-08  0.149E-04    3.37      76.8  T
     SCC iter.                  ...        0 min,  0.037 sec
     gradient                   ...        0 min,  0.053 sec
 * total energy  :  -110.2927808 Eh     change       -0.3248277E-03 Eh
   gradient norm :     0.0118605 Eh/α   predicted    -0.2415037E-03 ( -25.65%)
   displ. norm   :     0.3685624 α      lambda       -0.6945183E-03
   maximum displ.:     0.2139931 α      in ANC's #1, #2, #11, ...

........................................................................
.............................. CYCLE  130 ..............................
........................................................................

 iter      E             dE          RMSdq      gap      omega  full diag
   1   -111.8274432 -0.111827E+03  0.484E-02    3.38       0.0  T
   2   -111.8274467 -0.351522E-05  0.291E-02    3.38       1.0  T
   3   -111.8274413  0.536775E-05  0.989E-03    3.38       1.2  T
   4   -111.8274482 -0.687690E-05  0.252E-03    3.37       4.6  T
   5   -111.8274484 -0.183464E-06  0.126E-03    3.38       9.1  T
   6   -111.8274484 -0.159751E-07  0.513E-04    3.38      22.4  T
   7   -111.8274484 -0.530208E-08  0.179E-04    3.38      64.1  T
     SCC iter.                  ...        0 min,  0.037 sec
     gradient                   ...        0 min,  0.051 sec
 * total energy  :  -110.2930896 Eh     change       -0.3088103E-03 Eh
   gradient norm :     0.0123866 Eh/α   predicted    -0.3944349E-03 (  27.73%)
   displ. norm   :     0.2570641 α      lambda       -0.4293282E-03
   maximum displ.:     0.1542470 α      in ANC's #1, #2, #4, ...

........................................................................
.............................. CYCLE  131 ..............................
........................................................................

 iter      E             dE          RMSdq      gap      omega  full diag
   1   -111.8305601 -0.111831E+03  0.348E-02    3.38       0.0  T
   2   -111.8305620 -0.181800E-05  0.211E-02    3.38       1.0  T
   3   -111.8305616  0.346773E-06  0.402E-03    3.38       2.9  T
   4   -111.8305625 -0.922070E-06  0.149E-03    3.38       7.7  T
   5   -111.8305626 -0.543248E-07  0.685E-04    3.38      16.8  T
   6   -111.8305626 -0.966942E-08  0.273E-04    3.38      41.9  T
     SCC iter.                  ...        0 min,  0.035 sec
     gradient                   ...        0 min,  0.048 sec
 * total energy  :  -110.2933679 Eh     change       -0.2783033E-03 Eh
   gradient norm :     0.0065270 Eh/α   predicted    -0.2288499E-03 ( -17.77%)
   displ. norm   :     0.3346307 α      lambda       -0.2590884E-03
   maximum displ.:     0.2064494 α      in ANC's #1, #2, #4, ...

........................................................................
.............................. CYCLE  132 ..............................
........................................................................

 iter      E             dE          RMSdq      gap      omega  full diag
   1   -111.8277813 -0.111828E+03  0.324E-02    3.38       0.0  T
   2   -111.8277833 -0.205297E-05  0.194E-02    3.38       1.0  T
   3   -111.8277833  0.421586E-07  0.381E-03    3.38       3.0  T
   4   -111.8277838 -0.531856E-06  0.175E-03    3.38       6.6  T
   5   -111.8277839 -0.104424E-06  0.675E-04    3.38      17.0  T
   6   -111.8277839 -0.995347E-08  0.348E-04    3.38      32.9  T
     SCC iter.                  ...        0 min,  0.030 sec
     gradient                   ...        0 min,  0.051 sec
 * total energy  :  -110.2935483 Eh     change       -0.1804283E-03 Eh
   gradient norm :     0.0090479 Eh/α   predicted    -0.1440513E-03 ( -20.16%)
   displ. norm   :     0.4474364 α      lambda       -0.4416827E-03
   maximum displ.:     0.2450949 α      in ANC's #1, #2, #15, ...

........................................................................
.............................. CYCLE  133 ..............................
........................................................................

 iter      E             dE          RMSdq      gap      omega  full diag
   1   -111.8277445 -0.111828E+03  0.448E-02    3.38       0.0  T
   2   -111.8277481 -0.354004E-05  0.262E-02    3.38       1.0  T
   3   -111.8277459  0.219973E-05  0.685E-03    3.38       1.7  T
   4   -111.8277489 -0.301020E-05  0.201E-03    3.38       5.7  T
   5   -111.8277490 -0.129550E-06  0.889E-04    3.38      12.9  T
   6   -111.8277490 -0.225012E-07  0.409E-04    3.38      28.0  T
     SCC iter.                  ...        0 min,  0.032 sec
     gradient                   ...        0 min,  0.054 sec
 * total energy  :  -110.2937632 Eh     change       -0.2148990E-03 Eh
   gradient norm :     0.0087203 Eh/α   predicted    -0.2650555E-03 (  23.34%)
   displ. norm   :     0.3806195 α      lambda       -0.2764353E-03
   maximum displ.:     0.2292884 α      in ANC's #1, #2, #11, ...

........................................................................
.............................. CYCLE  134 ..............................
........................................................................

 iter      E             dE          RMSdq      gap      omega  full diag
   1   -111.8233775 -0.111823E+03  0.390E-02    3.38       0.0  T
   2   -111.8233791 -0.158280E-05  0.236E-02    3.38       1.0  T
   3   -111.8233775  0.156180E-05  0.573E-03    3.38       2.0  T
   4   -111.8233798 -0.231826E-05  0.176E-03    3.38       6.5  T
   5   -111.8233799 -0.683012E-07  0.884E-04    3.38      13.0  T
   6   -111.8233799 -0.743702E-08  0.351E-04    3.38      32.7  T
     SCC iter.                  ...        0 min,  0.034 sec
     gradient                   ...        0 min,  0.052 sec
 * total energy  :  -110.2939382 Eh     change       -0.1749301E-03 Eh
   gradient norm :     0.0053567 Eh/α   predicted    -0.1582424E-03 (  -9.54%)
   displ. norm   :     0.2503118 α      lambda       -0.1278266E-03
   maximum displ.:     0.1464601 α      in ANC's #1, #2, #15, ...

........................................................................
.............................. CYCLE  135 ..............................
........................................................................

 iter      E             dE          RMSdq      gap      omega  full diag
   1   -111.8233297 -0.111823E+03  0.245E-02    3.39       0.0  T
   2   -111.8233305 -0.782221E-06  0.148E-02    3.39       1.0  T
   3   -111.8233296  0.834238E-06  0.424E-03    3.39       2.7  T
   4   -111.8233308 -0.114728E-05  0.123E-03    3.39       9.3  T
   5   -111.8233308 -0.478586E-07  0.608E-04    3.39      18.9  T
   6   -111.8233308 -0.189132E-08  0.214E-04    3.39      53.6  T
     SCC iter.                  ...        0 min,  0.031 sec
     gradient                   ...        0 min,  0.052 sec
 * total energy  :  -110.2940353 Eh     change       -0.9710912E-04 Eh
   gradient norm :     0.0053849 Eh/α   predicted    -0.6792045E-04 ( -30.06%)
   displ. norm   :     0.3397511 α      lambda       -0.1842376E-03
   maximum displ.:     0.1898846 α      in ANC's #1, #2, #23, ...

........................................................................
.............................. CYCLE  136 ..............................
........................................................................

 iter      E             dE          RMSdq      gap      omega  full diag
   1   -111.8252705 -0.111825E+03  0.359E-02    3.39       0.0  T
   2   -111.8252721 -0.159400E-05  0.214E-02    3.39       1.0  T
   3   -111.8252699  0.218643E-05  0.655E-03    3.39       1.8  T
   4   -111.8252726 -0.268106E-05  0.165E-03    3.39       6.9  T
   5   -111.8252727 -0.107486E-06  0.706E-04    3.39      16.2  T
   6   -111.8252727 -0.371438E-08  0.277E-04    3.39      41.5  T
     SCC iter.                  ...        0 min,  0.031 sec
     gradient                   ...        0 min,  0.052 sec
 * total energy  :  -110.2941566 Eh     change       -0.1213203E-03 Eh
   gradient norm :     0.0035959 Eh/α   predicted    -0.1027547E-03 ( -15.30%)
   displ. norm   :     0.2359559 α      lambda       -0.8272107E-04
   maximum displ.:     0.1232083 α      in ANC's #1, #2, #23, ...

........................................................................
.............................. CYCLE  137 ..............................
........................................................................

 iter      E             dE          RMSdq      gap      omega  full diag
   1   -111.8261947 -0.111826E+03  0.258E-02    3.39       0.0  T
   2   -111.8261953 -0.647871E-06  0.155E-02    3.39       1.0  T
   3   -111.8261948  0.573022E-06  0.348E-03    3.39       3.3  T
   4   -111.8261956 -0.837717E-06  0.104E-03    3.39      11.1  T
   5   -111.8261956 -0.182625E-07  0.544E-04    3.39      21.1  T
   6   -111.8261956 -0.516123E-08  0.223E-04    3.39      51.5  T
     SCC iter.                  ...        0 min,  0.032 sec
     gradient                   ...        0 min,  0.037 sec
 * total energy  :  -110.2942099 Eh     change       -0.5334858E-04 Eh
   gradient norm :     0.0027467 Eh/α   predicted    -0.4366635E-04 ( -18.15%)
   displ. norm   :     0.1937724 α      lambda       -0.5176080E-04
   maximum displ.:     0.1047025 α      in ANC's #1, #2, #23, ...

........................................................................
.............................. CYCLE  138 ..............................
........................................................................

 iter      E             dE          RMSdq      gap      omega  full diag
   1   -111.8261732 -0.111826E+03  0.217E-02    3.39       0.0  T
   2   -111.8261736 -0.408386E-06  0.131E-02    3.39       1.0  T
   3   -111.8261733  0.356060E-06  0.267E-03    3.39       4.3  T
   4   -111.8261738 -0.498621E-06  0.796E-04    3.39      14.4  T
   5   -111.8261738 -0.152096E-07  0.409E-04    3.39      28.0  T
     SCC iter.                  ...        0 min,  0.027 sec
     gradient                   ...        0 min,  0.050 sec
 * total energy  :  -110.2942460 Eh     change       -0.3602850E-04 Eh
   gradient norm :     0.0019269 Eh/α   predicted    -0.2685318E-04 ( -25.47%)
   displ. norm   :     0.2866174 α      lambda       -0.7074354E-04
   maximum displ.:     0.1010544 α      in ANC's #23, #1, #16, ...

........................................................................
.............................. CYCLE  139 ..............................
........................................................................

 iter      E             dE          RMSdq      gap      omega  full diag
   1   -111.8286465 -0.111829E+03  0.415E-02    3.38       0.0  T
   2   -111.8286489 -0.238529E-05  0.249E-02    3.38       1.0  T
   3   -111.8286463  0.256928E-05  0.674E-03    3.38       1.7  T
   4   -111.8286496 -0.328583E-05  0.161E-03    3.38       7.1  T
   5   -111.8286497 -0.990916E-07  0.806E-04    3.38      14.2  T
   6   -111.8286497 -0.533801E-08  0.405E-04    3.38      28.3  T
     SCC iter.                  ...        0 min,  0.035 sec
     gradient                   ...        0 min,  0.049 sec
 * total energy  :  -110.2942578 Eh     change       -0.1183722E-04 Eh
   gradient norm :     0.0080359 Eh/α   predicted    -0.3666602E-04 ( 209.75%)
   displ. norm   :     0.1167083 α      lambda       -0.9356659E-04
   maximum displ.:     0.0390584 α      in ANC's #22, #1, #15, ...

........................................................................
.............................. CYCLE  140 ..............................
........................................................................

 iter      E             dE          RMSdq      gap      omega  full diag
   1   -111.8271902 -0.111827E+03  0.185E-02    3.38       0.0  T
   2   -111.8271908 -0.563225E-06  0.109E-02    3.38       1.0  T
   3   -111.8271907  0.568145E-07  0.227E-03    3.38       5.1  T
   4   -111.8271909 -0.200021E-06  0.886E-04    3.38      13.0  T
   5   -111.8271910 -0.175347E-07  0.386E-04    3.38      29.7  T
     SCC iter.                  ...        0 min,  0.026 sec
     gradient                   ...        0 min,  0.042 sec
 * total energy  :  -110.2943112 Eh     change       -0.5340576E-04 Eh
   gradient norm :     0.0034030 Eh/α   predicted    -0.4742549E-04 ( -11.20%)
   displ. norm   :     0.0586193 α      lambda       -0.3884480E-04
   maximum displ.:     0.0300520 α      in ANC's #1, #12, #22, ...

........................................................................
.............................. CYCLE  141 ..............................
........................................................................

 iter      E             dE          RMSdq      gap      omega  full diag
   1   -111.8256431 -0.111826E+03  0.907E-03    3.38       0.0  T
   2   -111.8256434 -0.269163E-06  0.537E-03    3.38       2.1  T
   3   -111.8256433  0.119277E-06  0.192E-03    3.38       6.0  T
   4   -111.8256434 -0.172102E-06  0.611E-04    3.38      18.8  T
   5   -111.8256434 -0.163741E-07  0.251E-04    3.38      45.8  T
     SCC iter.                  ...        0 min,  0.030 sec
     gradient                   ...        0 min,  0.047 sec
 * total energy  :  -110.2943355 Eh     change       -0.2431623E-04 Eh
   gradient norm :     0.0017231 Eh/α   predicted    -0.1949251E-04 ( -19.84%)
   displ. norm   :     0.1503698 α      lambda       -0.3456341E-04
   maximum displ.:     0.0740917 α      in ANC's #11, #2, #12, ...

........................................................................
.............................. CYCLE  142 ..............................
........................................................................

 iter      E             dE          RMSdq      gap      omega  full diag
   1   -111.8264301 -0.111826E+03  0.187E-02    3.38       0.0  T
   2   -111.8264309 -0.749997E-06  0.111E-02    3.38       1.0  T
   3   -111.8264301  0.828100E-06  0.413E-03    3.38       2.8  T
   4   -111.8264311 -0.103861E-05  0.978E-04    3.38      11.7  T
   5   -111.8264311 -0.421959E-07  0.407E-04    3.38      28.2  T
   6   -111.8264311 -0.144536E-08  0.207E-04    3.38      55.5  T
     SCC iter.                  ...        0 min,  0.032 sec
     gradient                   ...        0 min,  0.051 sec
 * total energy  :  -110.2943606 Eh     change       -0.2511835E-04 Eh
   gradient norm :     0.0031611 Eh/α   predicted    -0.1745981E-04 ( -30.49%)
   displ. norm   :     0.1451831 α      lambda       -0.3296959E-04
   maximum displ.:     0.0574028 α      in ANC's #11, #1, #5, ...

........................................................................
.............................. CYCLE  143 ..............................
........................................................................

 iter      E             dE          RMSdq      gap      omega  full diag
   1   -111.8254372 -0.111825E+03  0.163E-02    3.37       0.0  T
   2   -111.8254375 -0.287017E-06  0.973E-03    3.37       1.2  T
   3   -111.8254371  0.389825E-06  0.269E-03    3.37       4.3  T
   4   -111.8254376 -0.485416E-06  0.575E-04    3.37      19.9  T
   5   -111.8254376 -0.871341E-08  0.300E-04    3.37      38.3  T
     SCC iter.                  ...        0 min,  0.027 sec
     gradient                   ...        0 min,  0.053 sec
 * total energy  :  -110.2943839 Eh     change       -0.2324143E-04 Eh
   gradient norm :     0.0026377 Eh/α   predicted    -0.1683619E-04 ( -27.56%)
   displ. norm   :     0.2002293 α      lambda       -0.4481832E-04
   maximum displ.:     0.0930619 α      in ANC's #11, #5, #1, ...

........................................................................
.............................. CYCLE  144 ..............................
........................................................................

 iter      E             dE          RMSdq      gap      omega  full diag
   1   -111.8255420 -0.111826E+03  0.202E-02    3.37       0.0  T
   2   -111.8255425 -0.542617E-06  0.120E-02    3.37       1.0  T
   3   -111.8255421  0.397536E-06  0.315E-03    3.37       3.6  T
   4   -111.8255427 -0.554867E-06  0.783E-04    3.37      14.6  T
   5   -111.8255427 -0.149701E-07  0.381E-04    3.37      30.1  T
     SCC iter.                  ...        0 min,  0.034 sec
     gradient                   ...        0 min,  0.053 sec
 * total energy  :  -110.2944129 Eh     change       -0.2906185E-04 Eh
   gradient norm :     0.0020908 Eh/α   predicted    -0.2330843E-04 ( -19.80%)
   displ. norm   :     0.2002079 α      lambda       -0.3420715E-04
   maximum displ.:     0.0943097 α      in ANC's #11, #5, #1, ...

........................................................................
.............................. CYCLE  145 ..............................
........................................................................

 iter      E             dE          RMSdq      gap      omega  full diag
   1   -111.8258848 -0.111826E+03  0.192E-02    3.37       0.0  T
   2   -111.8258852 -0.438035E-06  0.115E-02    3.37       1.0  T
   3   -111.8258848  0.359810E-06  0.289E-03    3.37       4.0  T
   4   -111.8258853 -0.487988E-06  0.711E-04    3.37      16.1  T
   5   -111.8258853 -0.132557E-07  0.360E-04    3.37      31.9  T
     SCC iter.                  ...        0 min,  0.025 sec
     gradient                   ...        0 min,  0.053 sec
 * total energy  :  -110.2944341 Eh     change       -0.2111134E-04 Eh
   gradient norm :     0.0023271 Eh/α   predicted    -0.1779275E-04 ( -15.72%)
   displ. norm   :     0.1420770 α      lambda       -0.2787908E-04
   maximum displ.:     0.0615902 α      in ANC's #5, #11, #12, ...

........................................................................
.............................. CYCLE  146 ..............................
........................................................................

 iter      E             dE          RMSdq      gap      omega  full diag
   1   -111.8271510 -0.111827E+03  0.132E-02    3.37       0.0  T
   2   -111.8271513 -0.231733E-06  0.789E-03    3.37       1.5  T
   3   -111.8271511  0.150560E-06  0.199E-03    3.37       5.8  T
   4   -111.8271513 -0.226113E-06  0.588E-04    3.37      19.5  T
   5   -111.8271513 -0.770027E-08  0.296E-04    3.37      38.7  T
     SCC iter.                  ...        0 min,  0.025 sec
     gradient                   ...        0 min,  0.050 sec
 * total energy  :  -110.2944520 Eh     change       -0.1790911E-04 Eh
   gradient norm :     0.0018894 Eh/α   predicted    -0.1422472E-04 ( -20.57%)
   displ. norm   :     0.2187382 α      lambda       -0.1792953E-04
   maximum displ.:     0.0936349 α      in ANC's #1, #5, #11, ...

........................................................................
.............................. CYCLE  147 ..............................
........................................................................

 iter      E             dE          RMSdq      gap      omega  full diag
   1   -111.8266675 -0.111827E+03  0.195E-02    3.38       0.0  T
   2   -111.8266679 -0.414008E-06  0.116E-02    3.37       1.0  T
   3   -111.8266676  0.365242E-06  0.287E-03    3.38       4.0  T
   4   -111.8266681 -0.514403E-06  0.721E-04    3.37      15.9  T
   5   -111.8266681 -0.974167E-08  0.375E-04    3.37      30.6  T
     SCC iter.                  ...        0 min,  0.028 sec
     gradient                   ...        0 min,  0.050 sec
 * total energy  :  -110.2944685 Eh     change       -0.1650351E-04 Eh
   gradient norm :     0.0015977 Eh/α   predicted    -0.9160373E-05 ( -44.49%)
   displ. norm   :     0.0891089 α      lambda       -0.1162355E-04
   maximum displ.:     0.0350345 α      in ANC's #5, #1, #7, ...

........................................................................
.............................. CYCLE  148 ..............................
........................................................................

 iter      E             dE          RMSdq      gap      omega  full diag
   1   -111.8274168 -0.111827E+03  0.106E-02    3.38       0.0  T
   2   -111.8274170 -0.188396E-06  0.626E-03    3.37       1.8  T
   3   -111.8274169  0.908824E-07  0.152E-03    3.38       7.6  T
   4   -111.8274170 -0.120377E-06  0.452E-04    3.38      25.4  T
   5   -111.8274170 -0.101897E-07  0.198E-04    3.38      58.0  T
     SCC iter.                  ...        0 min,  0.024 sec
     gradient                   ...        0 min,  0.049 sec
 * total energy  :  -110.2944804 Eh     change       -0.1188646E-04 Eh
   gradient norm :     0.0017607 Eh/α   predicted    -0.5835423E-05 ( -50.91%)
   displ. norm   :     0.2156959 α      lambda       -0.1862027E-04
   maximum displ.:     0.0912582 α      in ANC's #5, #1, #7, ...

........................................................................
.............................. CYCLE  149 ..............................
........................................................................

 iter      E             dE          RMSdq      gap      omega  full diag
   1   -111.8263304 -0.111826E+03  0.217E-02    3.38       0.0  T
   2   -111.8263308 -0.435703E-06  0.129E-02    3.37       1.0  T
   3   -111.8263305  0.313127E-06  0.268E-03    3.38       4.3  T
   4   -111.8263309 -0.433751E-06  0.784E-04    3.38      14.6  T
   5   -111.8263309 -0.186470E-07  0.391E-04    3.38      29.3  T
     SCC iter.                  ...        0 min,  0.021 sec
     gradient                   ...        0 min,  0.057 sec
 * total energy  :  -110.2944967 Eh     change       -0.1637775E-04 Eh
   gradient norm :     0.0021218 Eh/α   predicted    -0.9504486E-05 ( -41.97%)
   displ. norm   :     0.0854747 α      lambda       -0.1443707E-04
   maximum displ.:     0.0332226 α      in ANC's #5, #7, #8, ...

........................................................................
.............................. CYCLE  150 ..............................
........................................................................

 iter      E             dE          RMSdq      gap      omega  full diag
   1   -111.8265809 -0.111827E+03  0.951E-03    3.38       0.0  T
   2   -111.8265810 -0.695500E-07  0.566E-03    3.38       2.0  T
   3   -111.8265810  0.551115E-07  0.101E-03    3.38      11.3  T
   4   -111.8265810 -0.757253E-07  0.320E-04    3.38      35.8  T
   5   -111.8265810 -0.345463E-08  0.166E-04    3.38      69.0  T
     SCC iter.                  ...        0 min,  0.035 sec
     gradient                   ...        0 min,  0.049 sec
 * total energy  :  -110.2945083 Eh     change       -0.1159557E-04 Eh
   gradient norm :     0.0019235 Eh/α   predicted    -0.7273467E-05 ( -37.27%)
   displ. norm   :     0.2685669 α      lambda       -0.2561741E-04
   maximum displ.:     0.1055089 α      in ANC's #5, #7, #8, ...
 * RMSD in coord.:     0.5806979 α      energy gain  -0.3630288E-02 Eh

generating ANC from exact Hessian ...
Using Lindh-Hessian (1995)
 Shifting diagonal of input Hessian by   1.005275146267237E-002
 Lowest  eigenvalues of input Hessian
    0.010000    0.000000    0.000000    0.000000    0.000000    0.000000
    0.000000    0.010169    0.010205    0.010270    0.010360    0.010400
    0.010480    0.010618    0.010723    0.010926    0.011012    0.011255
 Highest eigenvalues
    2.006902    2.077221    2.079583    2.208672    2.316373    2.352570
 

........................................................................
.............................. CYCLE  151 ..............................
........................................................................

 iter      E             dE          RMSdq      gap      omega  full diag
   1   -111.8266308 -0.111827E+03  0.283E-02    3.38       0.0  T
   2   -111.8266314 -0.583579E-06  0.168E-02    3.38       1.0  T
   3   -111.8266309  0.478861E-06  0.300E-03    3.38       3.8  T
   4   -111.8266315 -0.647749E-06  0.902E-04    3.38      12.7  T
   5   -111.8266315 -0.272856E-07  0.469E-04    3.38      24.5  T
     SCC iter.                  ...        0 min,  0.025 sec
     gradient                   ...        0 min,  0.050 sec
 * total energy  :  -110.2945261 Eh     change       -0.1773610E-04 Eh
   gradient norm :     0.0020374 Eh/α   predicted     0.0000000E+00 (-100.00%)
   displ. norm   :     0.0215934 α      lambda       -0.1128649E-04
   maximum displ.:     0.0075508 α      in ANC's #12, #33, #14, ...

........................................................................
.............................. CYCLE  152 ..............................
........................................................................

 iter      E             dE          RMSdq      gap      omega  full diag
   1   -111.8265963 -0.111827E+03  0.620E-03    3.38       0.0  T
   2   -111.8265964 -0.810522E-07  0.380E-03    3.38       3.0  T
   3   -111.8265962  0.150905E-06  0.170E-03    3.38       6.8  T
   4   -111.8265964 -0.192160E-06  0.325E-04    3.38      35.3  T
   5   -111.8265964 -0.391648E-08  0.154E-04    3.38      74.4  T
     SCC iter.                  ...        0 min,  0.014 sec
     gradient                   ...        0 min,  0.056 sec
 * total energy  :  -110.2945343 Eh     change       -0.8212994E-05 Eh
   gradient norm :     0.0008464 Eh/α   predicted    -0.5779691E-05 ( -29.63%)
   displ. norm   :     0.0514918 α      lambda       -0.9388358E-05
   maximum displ.:     0.0159070 α      in ANC's #26, #14, #18, ...

........................................................................
.............................. CYCLE  153 ..............................
........................................................................

 iter      E             dE          RMSdq      gap      omega  full diag
   1   -111.8265721 -0.111827E+03  0.957E-03    3.38       0.0  T
   2   -111.8265723 -0.129428E-06  0.575E-03    3.38       2.0  T
   3   -111.8265722  0.822834E-07  0.138E-03    3.38       8.3  T
   4   -111.8265723 -0.118314E-06  0.401E-04    3.38      28.6  T
   5   -111.8265723 -0.592009E-08  0.209E-04    3.38      54.8  T
     SCC iter.                  ...        0 min,  0.032 sec
     gradient                   ...        0 min,  0.051 sec
 * total energy  :  -110.2945421 Eh     change       -0.7810469E-05 Eh
   gradient norm :     0.0013251 Eh/α   predicted    -0.4700059E-05 ( -39.82%)
   displ. norm   :     0.0357666 α      lambda       -0.3846385E-05
   maximum displ.:     0.0115269 α      in ANC's #18, #26, #10, ...

........................................................................
.............................. CYCLE  154 ..............................
........................................................................

 iter      E             dE          RMSdq      gap      omega  full diag
   1   -111.8266763 -0.111827E+03  0.557E-03    3.38       0.0  T
   2   -111.8266763 -0.194273E-07  0.334E-03    3.38       3.4  T
   3   -111.8266763  0.263682E-07  0.706E-04    3.38      16.2  T
   4   -111.8266764 -0.338124E-07  0.186E-04    3.38      61.5  T
     SCC iter.                  ...        0 min,  0.020 sec
     gradient                   ...        0 min,  0.058 sec
 * total energy  :  -110.2945470 Eh     change       -0.4886022E-05 Eh
   gradient norm :     0.0008685 Eh/α   predicted    -0.2037078E-05 ( -58.31%)
   displ. norm   :     0.0737556 α      lambda       -0.5943150E-05
   maximum displ.:     0.0268819 α      in ANC's #18, #3, #10, ...

........................................................................
.............................. CYCLE  155 ..............................
........................................................................

 iter      E             dE          RMSdq      gap      omega  full diag
   1   -111.8267560 -0.111827E+03  0.105E-02    3.38       0.0  T
   2   -111.8267561 -0.652540E-07  0.628E-03    3.38       1.8  T
   3   -111.8267560  0.627546E-07  0.112E-03    3.38      10.2  T
   4   -111.8267561 -0.818441E-07  0.346E-04    3.38      33.1  T
   5   -111.8267561 -0.423199E-08  0.164E-04    3.38      69.9  T
     SCC iter.                  ...        0 min,  0.028 sec
     gradient                   ...        0 min,  0.057 sec
 * total energy  :  -110.2945527 Eh     change       -0.5748634E-05 Eh
   gradient norm :     0.0004677 Eh/α   predicted    -0.2979695E-05 ( -48.17%)
   displ. norm   :     0.0492816 α      lambda       -0.2490217E-05
   maximum displ.:     0.0197018 α      in ANC's #18, #3, #10, ...

........................................................................
.............................. CYCLE  156 ..............................
........................................................................

 iter      E             dE          RMSdq      gap      omega  full diag
   1   -111.8268071 -0.111827E+03  0.631E-03    3.38       0.0  T
   2   -111.8268071 -0.183377E-07  0.375E-03    3.38       3.1  T
   3   -111.8268071  0.973311E-08  0.507E-04    3.38      22.6  T
   4   -111.8268071 -0.156440E-07  0.169E-04    3.38      67.9  T
     SCC iter.                  ...        0 min,  0.023 sec
     gradient                   ...        0 min,  0.053 sec
 * total energy  :  -110.2945557 Eh     change       -0.2974394E-05 Eh
   gradient norm :     0.0004767 Eh/α   predicted    -0.1246720E-05 ( -58.08%)
   displ. norm   :     0.0807035 α      lambda       -0.3970032E-05
   maximum displ.:     0.0322673 α      in ANC's #18, #3, #10, ...

........................................................................
.............................. CYCLE  157 ..............................
........................................................................

 iter      E             dE          RMSdq      gap      omega  full diag
   1   -111.8267593 -0.111827E+03  0.101E-02    3.38       0.0  T
   2   -111.8267594 -0.352159E-07  0.597E-03    3.38       1.9  T
   3   -111.8267593  0.824927E-08  0.590E-04    3.38      19.4  T
   4   -111.8267594 -0.194245E-07  0.238E-04    3.38      48.2  T
     SCC iter.                  ...        0 min,  0.019 sec
     gradient                   ...        0 min,  0.058 sec
 * total energy  :  -110.2945600 Eh     change       -0.4334902E-05 Eh
   gradient norm :     0.0004946 Eh/α   predicted    -0.1993094E-05 ( -54.02%)
   displ. norm   :     0.0806395 α      lambda       -0.3270663E-05
   maximum displ.:     0.0309575 α      in ANC's #3, #18, #1, ...

........................................................................
.............................. CYCLE  158 ..............................
........................................................................

 iter      E             dE          RMSdq      gap      omega  full diag
   1   -111.8267037 -0.111827E+03  0.955E-03    3.38       0.0  T
   2   -111.8267037 -0.309911E-07  0.567E-03    3.38       2.0  T
   3   -111.8267037  0.677738E-08  0.522E-04    3.38      22.0  T
   4   -111.8267037 -0.165569E-07  0.225E-04    3.38      51.1  T
     SCC iter.                  ...        0 min,  0.022 sec
     gradient                   ...        0 min,  0.051 sec
 * total energy  :  -110.2945636 Eh     change       -0.3586405E-05 Eh
   gradient norm :     0.0005220 Eh/α   predicted    -0.1643546E-05 ( -54.17%)
   displ. norm   :     0.0907115 α      lambda       -0.3350781E-05
   maximum displ.:     0.0353394 α      in ANC's #3, #1, #10, ...

........................................................................
.............................. CYCLE  159 ..............................
........................................................................

 iter      E             dE          RMSdq      gap      omega  full diag
   1   -111.8266384 -0.111827E+03  0.103E-02    3.37       0.0  T
   2   -111.8266385 -0.390451E-07  0.611E-03    3.37       1.9  T
   3   -111.8266384  0.204314E-07  0.671E-04    3.37      17.1  T
   4   -111.8266385 -0.324718E-07  0.249E-04    3.37      46.0  T
     SCC iter.                  ...        0 min,  0.035 sec
     gradient                   ...        0 min,  0.049 sec
 * total energy  :  -110.2945673 Eh     change       -0.3724912E-05 Eh
   gradient norm :     0.0005373 Eh/α   predicted    -0.1683602E-05 ( -54.80%)
   displ. norm   :     0.1048180 α      lambda       -0.3819328E-05
   maximum displ.:     0.0415816 α      in ANC's #1, #3, #10, ...

........................................................................
.............................. CYCLE  160 ..............................
........................................................................

 iter      E             dE          RMSdq      gap      omega  full diag
   1   -111.8265719 -0.111827E+03  0.112E-02    3.37       0.0  T
   2   -111.8265720 -0.565209E-07  0.666E-03    3.37       1.7  T
   3   -111.8265719  0.397480E-07  0.888E-04    3.37      12.9  T
   4   -111.8265720 -0.598597E-07  0.312E-04    3.37      36.8  T
     SCC iter.                  ...        0 min,  0.023 sec
     gradient                   ...        0 min,  0.044 sec
 * total energy  :  -110.2945715 Eh     change       -0.4196679E-05 Eh
   gradient norm :     0.0005167 Eh/α   predicted    -0.1923287E-05 ( -54.17%)
   displ. norm   :     0.0972624 α      lambda       -0.3686411E-05
   maximum displ.:     0.0398825 α      in ANC's #1, #3, #2, ...

........................................................................
.............................. CYCLE  161 ..............................
........................................................................

 iter      E             dE          RMSdq      gap      omega  full diag
   1   -111.8266064 -0.111827E+03  0.997E-03    3.37       0.0  T
   2   -111.8266064 -0.461699E-07  0.595E-03    3.37       1.9  T
   3   -111.8266064  0.162854E-07  0.706E-04    3.37      16.3  T
   4   -111.8266065 -0.338900E-07  0.278E-04    3.37      41.3  T
     SCC iter.                  ...        0 min,  0.023 sec
     gradient                   ...        0 min,  0.052 sec
 * total energy  :  -110.2945756 Eh     change       -0.4026487E-05 Eh
   gradient norm :     0.0004736 Eh/α   predicted    -0.1854107E-05 ( -53.95%)
   displ. norm   :     0.0966530 α      lambda       -0.3472806E-05
   maximum displ.:     0.0399977 α      in ANC's #1, #3, #2, ...

........................................................................
.............................. CYCLE  162 ..............................
........................................................................

 iter      E             dE          RMSdq      gap      omega  full diag
   1   -111.8265454 -0.111827E+03  0.101E-02    3.37       0.0  T
   2   -111.8265454 -0.447396E-07  0.602E-03    3.37       1.9  T
   3   -111.8265454  0.100681E-07  0.670E-04    3.37      17.1  T
   4   -111.8265454 -0.275534E-07  0.272E-04    3.37      42.2  T
     SCC iter.                  ...        0 min,  0.016 sec
     gradient                   ...        0 min,  0.053 sec
 * total energy  :  -110.2945794 Eh     change       -0.3822327E-05 Eh
   gradient norm :     0.0004967 Eh/α   predicted    -0.1744897E-05 ( -54.35%)
   displ. norm   :     0.1070041 α      lambda       -0.3813079E-05
   maximum displ.:     0.0442720 α      in ANC's #1, #2, #3, ...

........................................................................
.............................. CYCLE  163 ..............................
........................................................................

 iter      E             dE          RMSdq      gap      omega  full diag
   1   -111.8265522 -0.111827E+03  0.117E-02    3.37       0.0  T
   2   -111.8265523 -0.430032E-07  0.694E-03    3.37       1.7  T
   3   -111.8265523  0.299425E-07  0.887E-04    3.37      12.9  T
   4   -111.8265523 -0.502219E-07  0.291E-04    3.37      39.4  T
     SCC iter.                  ...        0 min,  0.021 sec
     gradient                   ...        0 min,  0.050 sec
 * total energy  :  -110.2945837 Eh     change       -0.4310124E-05 Eh
   gradient norm :     0.0005780 Eh/α   predicted    -0.1920970E-05 ( -55.43%)
   displ. norm   :     0.1314464 α      lambda       -0.4691402E-05
   maximum displ.:     0.0545505 α      in ANC's #1, #2, #3, ...

........................................................................
.............................. CYCLE  164 ..............................
........................................................................

 iter      E             dE          RMSdq      gap      omega  full diag
   1   -111.8264675 -0.111826E+03  0.152E-02    3.37       0.0  T
   2   -111.8264676 -0.636190E-07  0.902E-03    3.36       1.3  T
   3   -111.8264675  0.866217E-07  0.130E-03    3.37       8.9  T
   4   -111.8264676 -0.118056E-06  0.350E-04    3.37      32.8  T
   5   -111.8264676 -0.135356E-08  0.184E-04    3.36      62.2  T
     SCC iter.                  ...        0 min,  0.028 sec
     gradient                   ...        0 min,  0.050 sec
 * total energy  :  -110.2945890 Eh     change       -0.5329551E-05 Eh
   gradient norm :     0.0006203 Eh/α   predicted    -0.2368237E-05 ( -55.56%)
   displ. norm   :     0.1334251 α      lambda       -0.5384710E-05
   maximum displ.:     0.0569788 α      in ANC's #2, #1, #4, ...

........................................................................
.............................. CYCLE  165 ..............................
........................................................................

 iter      E             dE          RMSdq      gap      omega  full diag
   1   -111.8265269 -0.111827E+03  0.172E-02    3.37       0.0  T
   2   -111.8265270 -0.761220E-07  0.102E-02    3.36       1.1  T
   3   -111.8265269  0.108102E-06  0.134E-03    3.37       8.5  T
   4   -111.8265270 -0.146441E-06  0.343E-04    3.37      33.5  T
   5   -111.8265270 -0.760863E-09  0.162E-04    3.37      70.9  T
     SCC iter.                  ...        0 min,  0.022 sec
     gradient                   ...        0 min,  0.057 sec
 * total energy  :  -110.2945948 Eh     change       -0.5802676E-05 Eh
   gradient norm :     0.0005035 Eh/α   predicted    -0.2714171E-05 ( -53.23%)
   displ. norm   :     0.1516196 α      lambda       -0.4634492E-05
   maximum displ.:     0.0664179 α      in ANC's #2, #1, #4, ...

........................................................................
.............................. CYCLE  166 ..............................
........................................................................

 iter      E             dE          RMSdq      gap      omega  full diag
   1   -111.8260474 -0.111826E+03  0.186E-02    3.37       0.0  T
   2   -111.8260476 -0.131626E-06  0.110E-02    3.37       1.0  T
   3   -111.8260475  0.711729E-07  0.125E-03    3.37       9.2  T
   4   -111.8260476 -0.108062E-06  0.405E-04    3.37      28.3  T
   5   -111.8260476 -0.428484E-08  0.203E-04    3.37      56.5  T
     SCC iter.                  ...        0 min,  0.035 sec
     gradient                   ...        0 min,  0.051 sec
 * total energy  :  -110.2945989 Eh     change       -0.4052891E-05 Eh
   gradient norm :     0.0011457 Eh/α   predicted    -0.2343354E-05 ( -42.18%)
   displ. norm   :     0.1217468 α      lambda       -0.8511371E-05
   maximum displ.:     0.0566884 α      in ANC's #2, #1, #17, ...

........................................................................
.............................. CYCLE  167 ..............................
........................................................................

 iter      E             dE          RMSdq      gap      omega  full diag
   1   -111.8270063 -0.111827E+03  0.210E-02    3.37       0.0  T
   2   -111.8270065 -0.233611E-06  0.124E-02    3.37       1.0  T
   3   -111.8270063  0.154767E-06  0.179E-03    3.37       6.4  T
   4   -111.8270066 -0.217528E-06  0.531E-04    3.37      21.6  T
   5   -111.8270066 -0.816932E-08  0.270E-04    3.37      42.5  T
     SCC iter.                  ...        0 min,  0.017 sec
     gradient                   ...        0 min,  0.049 sec
 * total energy  :  -110.2946014 Eh     change       -0.2541201E-05 Eh
   gradient norm :     0.0014108 Eh/α   predicted    -0.4284325E-05 (  68.59%)
   displ. norm   :     0.0731609 α      lambda       -0.5857124E-05
   maximum displ.:     0.0319313 α      in ANC's #1, #2, #3, ...

........................................................................
.............................. CYCLE  168 ..............................
........................................................................

 iter      E             dE          RMSdq      gap      omega  full diag
   1   -111.8264052 -0.111826E+03  0.873E-03    3.37       0.0  T
   2   -111.8264053 -0.886655E-07  0.516E-03    3.37       2.2  T
   3   -111.8264053  0.265497E-07  0.882E-04    3.37      13.0  T
   4   -111.8264053 -0.381478E-07  0.356E-04    3.37      32.2  T
     SCC iter.                  ...        0 min,  0.016 sec
     gradient                   ...        0 min,  0.056 sec
 * total energy  :  -110.2946070 Eh     change       -0.5590704E-05 Eh
   gradient norm :     0.0006845 Eh/α   predicted    -0.2940355E-05 ( -47.41%)
   displ. norm   :     0.0602002 α      lambda       -0.4117085E-05
   maximum displ.:     0.0291327 α      in ANC's #2, #1, #13, ...

........................................................................
.............................. CYCLE  169 ..............................
........................................................................

 iter      E             dE          RMSdq      gap      omega  full diag
   1   -111.8263244 -0.111826E+03  0.790E-03    3.37       0.0  T
   2   -111.8263244 -0.479985E-07  0.467E-03    3.37       2.5  T
   3   -111.8263244  0.949903E-08  0.634E-04    3.37      18.1  T
   4   -111.8263244 -0.209005E-07  0.244E-04    3.37      47.1  T
     SCC iter.                  ...        0 min,  0.020 sec
     gradient                   ...        0 min,  0.051 sec
 * total energy  :  -110.2946111 Eh     change       -0.4072905E-05 Eh
   gradient norm :     0.0009878 Eh/α   predicted    -0.2066177E-05 ( -49.27%)
   displ. norm   :     0.0691805 α      lambda       -0.4287035E-05
   maximum displ.:     0.0365926 α      in ANC's #2, #1, #13, ...

........................................................................
.............................. CYCLE  170 ..............................
........................................................................

 iter      E             dE          RMSdq      gap      omega  full diag
   1   -111.8263383 -0.111826E+03  0.101E-02    3.37       0.0  T
   2   -111.8263383 -0.650620E-07  0.596E-03    3.37       1.9  T
   3   -111.8263383  0.361767E-07  0.996E-04    3.37      11.5  T
   4   -111.8263383 -0.586850E-07  0.317E-04    3.37      36.2  T
     SCC iter.                  ...        0 min,  0.019 sec
     gradient                   ...        0 min,  0.050 sec
 * total energy  :  -110.2946148 Eh     change       -0.3698747E-05 Eh
   gradient norm :     0.0008251 Eh/α   predicted    -0.2150993E-05 ( -41.85%)
   displ. norm   :     0.0869704 α      lambda       -0.2713272E-05
   maximum displ.:     0.0488529 α      in ANC's #2, #1, #4, ...

........................................................................
.............................. CYCLE  171 ..............................
........................................................................

 iter      E             dE          RMSdq      gap      omega  full diag
   1   -111.8265334 -0.111827E+03  0.129E-02    3.37       0.0  T
   2   -111.8265334 -0.364275E-07  0.758E-03    3.37       1.5  T
   3   -111.8265334  0.299772E-07  0.850E-04    3.37      13.5  T
   4   -111.8265335 -0.450522E-07  0.220E-04    3.37      52.1  T
     SCC iter.                  ...        0 min,  0.020 sec
     gradient                   ...        0 min,  0.050 sec
 * total energy  :  -110.2946180 Eh     change       -0.3241299E-05 Eh
   gradient norm :     0.0005519 Eh/α   predicted    -0.1363951E-05 ( -57.92%)
   displ. norm   :     0.1058560 α      lambda       -0.3165705E-05
   maximum displ.:     0.0602732 α      in ANC's #2, #1, #4, ...

........................................................................
.............................. CYCLE  172 ..............................
........................................................................

 iter      E             dE          RMSdq      gap      omega  full diag
   1   -111.8267123 -0.111827E+03  0.160E-02    3.37       0.0  T
   2   -111.8267124 -0.547641E-07  0.942E-03    3.37       1.2  T
   3   -111.8267123  0.110265E-06  0.137E-03    3.37       8.4  T
   4   -111.8267124 -0.138755E-06  0.268E-04    3.37      42.8  T
   5   -111.8267124 -0.514419E-09  0.146E-04    3.37      78.7  T
     SCC iter.                  ...        0 min,  0.021 sec
     gradient                   ...        0 min,  0.056 sec
 * total energy  :  -110.2946220 Eh     change       -0.3928359E-05 Eh
   gradient norm :     0.0005144 Eh/α   predicted    -0.1594669E-05 ( -59.41%)
   displ. norm   :     0.1537054 α      lambda       -0.3784581E-05
   maximum displ.:     0.0886310 α      in ANC's #2, #1, #4, ...

........................................................................
.............................. CYCLE  173 ..............................
........................................................................

 iter      E             dE          RMSdq      gap      omega  full diag
   1   -111.8266486 -0.111827E+03  0.224E-02    3.37       0.0  T
   2   -111.8266487 -0.112173E-06  0.132E-02    3.37       1.0  T
   3   -111.8266485  0.184973E-06  0.181E-03    3.37       6.3  T
   4   -111.8266488 -0.237802E-06  0.371E-04    3.37      30.9  T
   5   -111.8266488 -0.132070E-08  0.195E-04    3.37      58.9  T
     SCC iter.                  ...        0 min,  0.035 sec
     gradient                   ...        0 min,  0.049 sec
 * total energy  :  -110.2946265 Eh     change       -0.4557296E-05 Eh
   gradient norm :     0.0006140 Eh/α   predicted    -0.1914458E-05 ( -57.99%)
   displ. norm   :     0.1448573 α      lambda       -0.3731834E-05
   maximum displ.:     0.0894712 α      in ANC's #2, #1, #4, ...

........................................................................
.............................. CYCLE  174 ..............................
........................................................................

 iter      E             dE          RMSdq      gap      omega  full diag
   1   -111.8267761 -0.111827E+03  0.206E-02    3.37       0.0  T
   2   -111.8267762 -0.101408E-06  0.122E-02    3.37       1.0  T
   3   -111.8267760  0.165365E-06  0.172E-03    3.37       6.7  T
   4   -111.8267762 -0.215355E-06  0.367E-04    3.37      31.3  T
   5   -111.8267762 -0.109203E-08  0.190E-04    3.37      60.3  T
     SCC iter.                  ...        0 min,  0.027 sec
     gradient                   ...        0 min,  0.039 sec
 * total energy  :  -110.2946308 Eh     change       -0.4290011E-05 Eh
   gradient norm :     0.0004520 Eh/α   predicted    -0.1886660E-05 ( -56.02%)
   displ. norm   :     0.1548913 α      lambda       -0.3111772E-05
   maximum displ.:     0.0934805 α      in ANC's #2, #1, #4, ...

........................................................................
.............................. CYCLE  175 ..............................
........................................................................

 iter      E             dE          RMSdq      gap      omega  full diag
   1   -111.8263767 -0.111826E+03  0.206E-02    3.37       0.0  T
   2   -111.8263768 -0.124790E-06  0.121E-02    3.37       1.0  T
   3   -111.8263767  0.132323E-06  0.160E-03    3.37       7.2  T
   4   -111.8263769 -0.178270E-06  0.392E-04    3.37      29.3  T
   5   -111.8263769 -0.286586E-08  0.201E-04    3.37      57.1  T
     SCC iter.                  ...        0 min,  0.025 sec
     gradient                   ...        0 min,  0.051 sec
 * total energy  :  -110.2946340 Eh     change       -0.3200858E-05 Eh
   gradient norm :     0.0007719 Eh/α   predicted    -0.1575492E-05 ( -50.78%)
   displ. norm   :     0.0872037 α      lambda       -0.3073515E-05
   maximum displ.:     0.0585659 α      in ANC's #2, #1, #4, ...

........................................................................
.............................. CYCLE  176 ..............................
........................................................................

 iter      E             dE          RMSdq      gap      omega  full diag
   1   -111.8266660 -0.111827E+03  0.108E-02    3.37       0.0  T
   2   -111.8266660 -0.451376E-07  0.638E-03    3.38       1.8  T
   3   -111.8266660  0.385222E-07  0.901E-04    3.38      12.7  T
   4   -111.8266660 -0.560410E-07  0.247E-04    3.38      46.5  T
     SCC iter.                  ...        0 min,  0.016 sec
     gradient                   ...        0 min,  0.055 sec
 * total energy  :  -110.2946373 Eh     change       -0.3322093E-05 Eh
   gradient norm :     0.0003727 Eh/α   predicted    -0.1543758E-05 ( -53.53%)
   displ. norm   :     0.0873975 α      lambda       -0.2347327E-05
   maximum displ.:     0.0568825 α      in ANC's #2, #1, #4, ...

........................................................................
.............................. CYCLE  177 ..............................
........................................................................

 iter      E             dE          RMSdq      gap      omega  full diag
   1   -111.8266664 -0.111827E+03  0.990E-03    3.38       0.0  T
   2   -111.8266664 -0.243018E-07  0.584E-03    3.38       2.0  T
   3   -111.8266664  0.252870E-07  0.707E-04    3.38      16.2  T
   4   -111.8266665 -0.366546E-07  0.190E-04    3.38      60.4  T
     SCC iter.                  ...        0 min,  0.021 sec
     gradient                   ...        0 min,  0.045 sec
 * total energy  :  -110.2946403 Eh     change       -0.2966999E-05 Eh
   gradient norm :     0.0003920 Eh/α   predicted    -0.1178627E-05 ( -60.28%)
   displ. norm   :     0.0973196 α      lambda       -0.2826986E-05
   maximum displ.:     0.0624818 α      in ANC's #2, #1, #4, ...

........................................................................
.............................. CYCLE  178 ..............................
........................................................................

 iter      E             dE          RMSdq      gap      omega  full diag
   1   -111.8266607 -0.111827E+03  0.105E-02    3.38       0.0  T
   2   -111.8266607 -0.227563E-07  0.620E-03    3.38       1.9  T
   3   -111.8266607  0.204933E-07  0.644E-04    3.38      17.8  T
   4   -111.8266608 -0.311679E-07  0.190E-04    3.38      60.4  T
     SCC iter.                  ...        0 min,  0.029 sec
     gradient                   ...        0 min,  0.049 sec
 * total energy  :  -110.2946440 Eh     change       -0.3705185E-05 Eh
   gradient norm :     0.0003388 Eh/α   predicted    -0.1422598E-05 ( -61.61%)
   displ. norm   :     0.1295376 α      lambda       -0.3550708E-05
   maximum displ.:     0.0830072 α      in ANC's #2, #1, #4, ...

........................................................................
.............................. CYCLE  179 ..............................
........................................................................

 iter      E             dE          RMSdq      gap      omega  full diag
   1   -111.8266158 -0.111827E+03  0.138E-02    3.38       0.0  T
   2   -111.8266159 -0.317941E-07  0.816E-03    3.38       1.4  T
   3   -111.8266158  0.266790E-07  0.769E-04    3.38      14.9  T
   4   -111.8266159 -0.412480E-07  0.227E-04    3.38      50.4  T
     SCC iter.                  ...        0 min,  0.020 sec
     gradient                   ...        0 min,  0.050 sec
 * total energy  :  -110.2946485 Eh     change       -0.4494660E-05 Eh
   gradient norm :     0.0003566 Eh/α   predicted    -0.1791298E-05 ( -60.15%)
   displ. norm   :     0.1517806 α      lambda       -0.3592195E-05
   maximum displ.:     0.0984535 α      in ANC's #2, #1, #4, ...

........................................................................
.............................. CYCLE  180 ..............................
........................................................................

 iter      E             dE          RMSdq      gap      omega  full diag
   1   -111.8265918 -0.111827E+03  0.165E-02    3.38       0.0  T
   2   -111.8265919 -0.410144E-07  0.973E-03    3.38       1.2  T
   3   -111.8265918  0.465711E-07  0.989E-04    3.38      11.6  T
   4   -111.8265919 -0.669587E-07  0.261E-04    3.38      43.9  T
     SCC iter.                  ...        0 min,  0.020 sec
     gradient                   ...        0 min,  0.050 sec
 * total energy  :  -110.2946529 Eh     change       -0.4422443E-05 Eh
   gradient norm :     0.0003778 Eh/α   predicted    -0.1818083E-05 ( -58.89%)
   displ. norm   :     0.1572267 α      lambda       -0.3311198E-05
   maximum displ.:     0.1036864 α      in ANC's #2, #1, #4, ...

........................................................................
.............................. CYCLE  181 ..............................
........................................................................

 iter      E             dE          RMSdq      gap      omega  full diag
   1   -111.8265955 -0.111827E+03  0.178E-02    3.38       0.0  T
   2   -111.8265955 -0.455029E-07  0.105E-02    3.38       1.1  T
   3   -111.8265955  0.624743E-07  0.113E-03    3.38      10.1  T
   4   -111.8265955 -0.863775E-07  0.268E-04    3.38      42.8  T
   5   -111.8265955 -0.442952E-09  0.135E-04    3.38      84.9  T
     SCC iter.                  ...        0 min,  0.026 sec
     gradient                   ...        0 min,  0.044 sec
 * total energy  :  -110.2946570 Eh     change       -0.4068858E-05 Eh
   gradient norm :     0.0004261 Eh/α   predicted    -0.1677344E-05 ( -58.78%)
   displ. norm   :     0.1777909 α      lambda       -0.3594543E-05
   maximum displ.:     0.1186899 α      in ANC's #2, #1, #4, ...

........................................................................
.............................. CYCLE  182 ..............................
........................................................................

 iter      E             dE          RMSdq      gap      omega  full diag
   1   -111.8265837 -0.111827E+03  0.214E-02    3.38       0.0  T
   2   -111.8265838 -0.769085E-07  0.126E-02    3.38       1.0  T
   3   -111.8265837  0.915933E-07  0.142E-03    3.38       8.1  T
   4   -111.8265838 -0.127822E-06  0.329E-04    3.38      34.8  T
   5   -111.8265838 -0.103343E-08  0.170E-04    3.38      67.3  T
     SCC iter.                  ...        0 min,  0.033 sec
     gradient                   ...        0 min,  0.050 sec
 * total energy  :  -110.2946614 Eh     change       -0.4425086E-05 Eh
   gradient norm :     0.0003705 Eh/α   predicted    -0.1825674E-05 ( -58.74%)
   displ. norm   :     0.2219694 α      lambda       -0.4228285E-05
   maximum displ.:     0.1486960 α      in ANC's #2, #1, #4, ...

........................................................................
.............................. CYCLE  183 ..............................
........................................................................

 iter      E             dE          RMSdq      gap      omega  full diag
   1   -111.8264995 -0.111826E+03  0.284E-02    3.38       0.0  T
   2   -111.8264996 -0.140267E-06  0.167E-02    3.38       1.0  T
   3   -111.8264995  0.143972E-06  0.183E-03    3.38       6.3  T
   4   -111.8264997 -0.207509E-06  0.423E-04    3.38      27.1  T
   5   -111.8264997 -0.150297E-08  0.209E-04    3.38      54.9  T
     SCC iter.                  ...        0 min,  0.023 sec
     gradient                   ...        0 min,  0.050 sec
 * total energy  :  -110.2946664 Eh     change       -0.5027037E-05 Eh
   gradient norm :     0.0004447 Eh/α   predicted    -0.2163111E-05 ( -56.97%)
   displ. norm   :     0.2515399 α      lambda       -0.4592799E-05
   maximum displ.:     0.1695018 α      in ANC's #2, #1, #4, ...
 * RMSD in coord.:     0.3088995 α      energy gain  -0.1581093E-03 Eh

generating ANC from exact Hessian ...
Using Lindh-Hessian (1995)
 Shifting diagonal of input Hessian by   1.004939091575396E-002
 Lowest  eigenvalues of input Hessian
    0.010000    0.000000    0.000000    0.000000    0.000000    0.000000
    0.000000    0.010168    0.010198    0.010263    0.010342    0.010373
    0.010469    0.010608    0.010714    0.010912    0.010984    0.011247
 Highest eigenvalues
    2.006575    2.077175    2.078786    2.207854    2.316027    2.350866
 

........................................................................
.............................. CYCLE  184 ..............................
........................................................................

 iter      E             dE          RMSdq      gap      omega  full diag
   1   -111.8264734 -0.111826E+03  0.338E-02    3.38       0.0  T
   2   -111.8264736 -0.205294E-06  0.199E-02    3.38       1.0  T
   3   -111.8264734  0.196915E-06  0.218E-03    3.38       5.3  T
   4   -111.8264737 -0.288807E-06  0.507E-04    3.38      22.6  T
   5   -111.8264737 -0.210635E-08  0.245E-04    3.38      46.8  T
     SCC iter.                  ...        0 min,  0.028 sec
     gradient                   ...        0 min,  0.052 sec
 * total energy  :  -110.2946716 Eh     change       -0.5183523E-05 Eh
   gradient norm :     0.0004880 Eh/α   predicted     0.0000000E+00 (-100.00%)
   displ. norm   :     0.0122800 α      lambda       -0.2280638E-06
   maximum displ.:     0.0048209 α      in ANC's #11, #18, #12, ...

........................................................................
.............................. CYCLE  185 ..............................
........................................................................

 iter      E             dE          RMSdq      gap      omega  full diag
   1   -111.8268430 -0.111827E+03  0.261E-03    3.38       0.0  T
   2   -111.8268430 -0.481292E-08  0.155E-03    3.39       7.4  T
   3   -111.8268430  0.153502E-07  0.526E-04    3.38      21.8  T
   4   -111.8268430 -0.184312E-07  0.878E-05    3.38     130.7  T
     SCC iter.                  ...        0 min,  0.018 sec
     gradient                   ...        0 min,  0.053 sec
 * total energy  :  -110.2946732 Eh     change       -0.1535215E-05 Eh
   gradient norm :     0.0002074 Eh/α   predicted    -0.6593437E-06 ( -57.05%)
   displ. norm   :     0.0395403 α      lambda       -0.2613517E-05
   maximum displ.:     0.0150651 α      in ANC's #11, #13, #14, ...

........................................................................
.............................. CYCLE  186 ..............................
........................................................................

 iter      E             dE          RMSdq      gap      omega  full diag
   1   -111.8270973 -0.111827E+03  0.757E-03    3.39       0.0  T
   2   -111.8270974 -0.210638E-07  0.448E-03    3.39       2.6  T
   3   -111.8270973  0.506215E-07  0.967E-04    3.39      11.9  T
   4   -111.8270974 -0.642500E-07  0.204E-04    3.39      56.2  T
     SCC iter.                  ...        0 min,  0.020 sec
     gradient                   ...        0 min,  0.050 sec
 * total energy  :  -110.2946758 Eh     change       -0.2657119E-05 Eh
   gradient norm :     0.0004594 Eh/α   predicted    -0.1307991E-05 ( -50.77%)
   displ. norm   :     0.0376958 α      lambda       -0.1422060E-05
   maximum displ.:     0.0129934 α      in ANC's #11, #13, #14, ...

........................................................................
.............................. CYCLE  187 ..............................
........................................................................

 iter      E             dE          RMSdq      gap      omega  full diag
   1   -111.8269554 -0.111827E+03  0.720E-03    3.39       0.0  T
   2   -111.8269555 -0.142978E-07  0.425E-03    3.39       2.7  T
   3   -111.8269554  0.259430E-07  0.695E-04    3.39      16.5  T
   4   -111.8269555 -0.337479E-07  0.161E-04    3.39      71.1  T
     SCC iter.                  ...        0 min,  0.026 sec
     gradient                   ...        0 min,  0.051 sec
 * total energy  :  -110.2946774 Eh     change       -0.1586718E-05 Eh
   gradient norm :     0.0003971 Eh/α   predicted    -0.7412428E-06 ( -53.28%)
   displ. norm   :     0.0423546 α      lambda       -0.1316810E-05
   maximum displ.:     0.0130280 α      in ANC's #13, #17, #11, ...

........................................................................
.............................. CYCLE  188 ..............................
........................................................................

 iter      E             dE          RMSdq      gap      omega  full diag
   1   -111.8267961 -0.111827E+03  0.807E-03    3.39       0.0  T
   2   -111.8267961 -0.136755E-07  0.475E-03    3.39       2.4  T
   3   -111.8267961  0.122095E-07  0.533E-04    3.39      21.5  T
   4   -111.8267961 -0.182787E-07  0.145E-04    3.39      79.2  T
     SCC iter.                  ...        0 min,  0.020 sec
     gradient                   ...        0 min,  0.050 sec
 * total energy  :  -110.2946788 Eh     change       -0.1416105E-05 Eh
   gradient norm :     0.0002568 Eh/α   predicted    -0.6595790E-06 ( -53.42%)
   displ. norm   :     0.0453829 α      lambda       -0.1287636E-05
   maximum displ.:     0.0151676 α      in ANC's #17, #5, #1, ...

........................................................................
.............................. CYCLE  189 ..............................
........................................................................

 iter      E             dE          RMSdq      gap      omega  full diag
   1   -111.8265981 -0.111827E+03  0.855E-03    3.38       0.0  T
   2   -111.8265981 -0.143337E-07  0.503E-03    3.38       2.3  T
   3   -111.8265981  0.969439E-08  0.519E-04    3.38      22.1  T
   4   -111.8265981 -0.155986E-07  0.136E-04    3.38      84.6  T
     SCC iter.                  ...        0 min,  0.020 sec
     gradient                   ...        0 min,  0.049 sec
 * total energy  :  -110.2946802 Eh     change       -0.1380289E-05 Eh
   gradient norm :     0.0002550 Eh/α   predicted    -0.6451342E-06 ( -53.26%)
   displ. norm   :     0.0452564 α      lambda       -0.1183091E-05
   maximum displ.:     0.0164426 α      in ANC's #5, #17, #1, ...

........................................................................
.............................. CYCLE  190 ..............................
........................................................................

 iter      E             dE          RMSdq      gap      omega  full diag
   1   -111.8265598 -0.111827E+03  0.839E-03    3.38       0.0  T
   2   -111.8265598 -0.152302E-07  0.494E-03    3.38       2.3  T
   3   -111.8265598  0.122963E-07  0.588E-04    3.38      19.5  T
   4   -111.8265598 -0.188528E-07  0.146E-04    3.38      78.7  T
     SCC iter.                  ...        0 min,  0.021 sec
     gradient                   ...        0 min,  0.053 sec
 * total energy  :  -110.2946815 Eh     change       -0.1312551E-05 Eh
   gradient norm :     0.0003176 Eh/α   predicted    -0.5952339E-06 ( -54.65%)
   displ. norm   :     0.0441788 α      lambda       -0.1104915E-05
   maximum displ.:     0.0175649 α      in ANC's #5, #2, #17, ...

........................................................................
.............................. CYCLE  191 ..............................
........................................................................

 iter      E             dE          RMSdq      gap      omega  full diag
   1   -111.8266514 -0.111827E+03  0.793E-03    3.38       0.0  T
   2   -111.8266515 -0.161986E-07  0.467E-03    3.38       2.5  T
   3   -111.8266514  0.121992E-07  0.584E-04    3.38      19.6  T
   4   -111.8266515 -0.187746E-07  0.148E-04    3.38      77.4  T
     SCC iter.                  ...        0 min,  0.027 sec
     gradient                   ...        0 min,  0.051 sec
 * total energy  :  -110.2946827 Eh     change       -0.1230026E-05 Eh
   gradient norm :     0.0002726 Eh/α   predicted    -0.5564308E-06 ( -54.76%)
   displ. norm   :     0.0466500 α      lambda       -0.1052931E-05
   maximum displ.:     0.0192427 α      in ANC's #5, #2, #1, ...

........................................................................
.............................. CYCLE  192 ..............................
........................................................................

 iter      E             dE          RMSdq      gap      omega  full diag
   1   -111.8267554 -0.111827E+03  0.808E-03    3.38       0.0  T
   2   -111.8267554 -0.160903E-07  0.476E-03    3.38       2.4  T
   3   -111.8267554  0.175228E-07  0.640E-04    3.38      17.9  T
   4   -111.8267554 -0.238774E-07  0.148E-04    3.38      77.7  T
     SCC iter.                  ...        0 min,  0.026 sec
     gradient                   ...        0 min,  0.049 sec
 * total energy  :  -110.2946840 Eh     change       -0.1234317E-05 Eh
   gradient norm :     0.0002275 Eh/α   predicted    -0.5279928E-06 ( -57.22%)
   displ. norm   :     0.0595786 α      lambda       -0.1308155E-05
   maximum displ.:     0.0247871 α      in ANC's #5, #2, #1, ...

........................................................................
.............................. CYCLE  193 ..............................
........................................................................

 iter      E             dE          RMSdq      gap      omega  full diag
   1   -111.8268833 -0.111827E+03  0.994E-03    3.38       0.0  T
   2   -111.8268833 -0.232065E-07  0.586E-03    3.39       2.0  T
   3   -111.8268833  0.688112E-07  0.109E-03    3.39      10.5  T
   4   -111.8268833 -0.813917E-07  0.181E-04    3.39      63.4  T
   5   -111.8268833 -0.604800E-09  0.102E-04    3.39     112.6  T
     SCC iter.                  ...        0 min,  0.023 sec
     gradient                   ...        0 min,  0.048 sec
 * total energy  :  -110.2946855 Eh     change       -0.1547333E-05 Eh
   gradient norm :     0.0002605 Eh/α   predicted    -0.6563419E-06 ( -57.58%)
   displ. norm   :     0.0776062 α      lambda       -0.1580579E-05
   maximum displ.:     0.0323954 α      in ANC's #2, #1, #5, ...

........................................................................
.............................. CYCLE  194 ..............................
........................................................................

 iter      E             dE          RMSdq      gap      omega  full diag
   1   -111.8269254 -0.111827E+03  0.127E-02    3.39       0.0  T
   2   -111.8269254 -0.360662E-07  0.745E-03    3.39       1.5  T
   3   -111.8269253  0.949851E-07  0.132E-03    3.39       8.7  T
   4   -111.8269255 -0.113055E-06  0.221E-04    3.39      52.0  T
   5   -111.8269255 -0.992358E-09  0.122E-04    3.39      94.1  T
     SCC iter.                  ...        0 min,  0.025 sec
     gradient                   ...        0 min,  0.051 sec
 * total energy  :  -110.2946874 Eh     change       -0.1833114E-05 Eh
   gradient norm :     0.0003105 Eh/α   predicted    -0.7930483E-06 ( -56.74%)
   displ. norm   :     0.0897378 α      lambda       -0.1661071E-05
   maximum displ.:     0.0384548 α      in ANC's #2, #1, #5, ...

........................................................................
.............................. CYCLE  195 ..............................
........................................................................

 iter      E             dE          RMSdq      gap      omega  full diag
   1   -111.8268907 -0.111827E+03  0.144E-02    3.39       0.0  T
   2   -111.8268908 -0.479618E-07  0.849E-03    3.39       1.4  T
   3   -111.8268907  0.118057E-06  0.148E-03    3.39       7.7  T
   4   -111.8268908 -0.141213E-06  0.250E-04    3.39      45.9  T
   5   -111.8268908 -0.137541E-08  0.138E-04    3.39      83.2  T
     SCC iter.                  ...        0 min,  0.025 sec
     gradient                   ...        0 min,  0.052 sec
 * total energy  :  -110.2946893 Eh     change       -0.1963632E-05 Eh
   gradient norm :     0.0003094 Eh/α   predicted    -0.8395887E-06 ( -57.24%)
   displ. norm   :     0.1003602 α      lambda       -0.1803547E-05
   maximum displ.:     0.0443564 α      in ANC's #1, #2, #5, ...

........................................................................
.............................. CYCLE  196 ..............................
........................................................................

 iter      E             dE          RMSdq      gap      omega  full diag
   1   -111.8268106 -0.111827E+03  0.160E-02    3.39       0.0  T
   2   -111.8268107 -0.634540E-07  0.942E-03    3.39       1.2  T
   3   -111.8268106  0.894822E-07  0.138E-03    3.39       8.3  T
   4   -111.8268107 -0.115709E-06  0.277E-04    3.39      41.3  T
   5   -111.8268107 -0.116249E-08  0.153E-04    3.39      74.8  T
     SCC iter.                  ...        0 min,  0.026 sec
     gradient                   ...        0 min,  0.052 sec
 * total energy  :  -110.2946915 Eh     change       -0.2144503E-05 Eh
   gradient norm :     0.0002922 Eh/α   predicted    -0.9085252E-06 ( -57.63%)
   displ. norm   :     0.1031147 α      lambda       -0.1860004E-05
   maximum displ.:     0.0472379 α      in ANC's #1, #2, #5, ...

........................................................................
.............................. CYCLE  197 ..............................
........................................................................

 iter      E             dE          RMSdq      gap      omega  full diag
   1   -111.8267096 -0.111827E+03  0.160E-02    3.39       0.0  T
   2   -111.8267097 -0.654051E-07  0.944E-03    3.39       1.2  T
   3   -111.8267096  0.760899E-07  0.130E-03    3.39       8.8  T
   4   -111.8267097 -0.101465E-06  0.266E-04    3.39      43.1  T
   5   -111.8267097 -0.928253E-09  0.141E-04    3.39      81.4  T
     SCC iter.                  ...        0 min,  0.035 sec
     gradient                   ...        0 min,  0.050 sec
 * total energy  :  -110.2946936 Eh     change       -0.2183520E-05 Eh
   gradient norm :     0.0003026 Eh/α   predicted    -0.9359428E-06 ( -57.14%)
   displ. norm   :     0.0947139 α      lambda       -0.1700433E-05
   maximum displ.:     0.0452667 α      in ANC's #1, #2, #5, ...

........................................................................
.............................. CYCLE  198 ..............................
........................................................................

 iter      E             dE          RMSdq      gap      omega  full diag
   1   -111.8266799 -0.111827E+03  0.143E-02    3.39       0.0  T
   2   -111.8266800 -0.531124E-07  0.841E-03    3.39       1.4  T
   3   -111.8266799  0.633903E-07  0.117E-03    3.39       9.8  T
   4   -111.8266800 -0.841485E-07  0.241E-04    3.39      47.6  T
   5   -111.8266800 -0.751982E-09  0.129E-04    3.39      89.1  T
     SCC iter.                  ...        0 min,  0.027 sec
     gradient                   ...        0 min,  0.049 sec
 * total energy  :  -110.2946956 Eh     change       -0.1951707E-05 Eh
   gradient norm :     0.0002940 Eh/α   predicted    -0.8558231E-06 ( -56.15%)
   displ. norm   :     0.0746137 α      lambda       -0.1334579E-05
   maximum displ.:     0.0373790 α      in ANC's #1, #2, #7, ...

........................................................................
.............................. CYCLE  199 ..............................
........................................................................

 iter      E             dE          RMSdq      gap      omega  full diag
   1   -111.8267052 -0.111827E+03  0.108E-02    3.39       0.0  T
   2   -111.8267052 -0.314094E-07  0.634E-03    3.39       1.8  T
   3   -111.8267052  0.402653E-07  0.931E-04    3.39      12.3  T
   4   -111.8267052 -0.522612E-07  0.182E-04    3.39      63.2  T
     SCC iter.                  ...        0 min,  0.012 sec
     gradient                   ...        0 min,  0.060 sec
 * total energy  :  -110.2946972 Eh     change       -0.1563821E-05 Eh
   gradient norm :     0.0002341 Eh/α   predicted    -0.6708442E-06 ( -57.10%)
   displ. norm   :     0.0607964 α      lambda       -0.1117708E-05
   maximum displ.:     0.0320571 α      in ANC's #1, #2, #7, ...

........................................................................
.............................. CYCLE  200 ..............................
........................................................................

 iter      E             dE          RMSdq      gap      omega  full diag
   1   -111.8267759 -0.111827E+03  0.838E-03    3.39       0.0  T
   2   -111.8267759 -0.192923E-07  0.493E-03    3.39       2.3  T
   3   -111.8267759  0.247289E-07  0.728E-04    3.39      15.7  T
   4   -111.8267759 -0.318634E-07  0.139E-04    3.39      82.3  T
     SCC iter.                  ...        0 min,  0.020 sec
     gradient                   ...        0 min,  0.050 sec
 * total energy  :  -110.2946985 Eh     change       -0.1334131E-05 Eh
   gradient norm :     0.0001843 Eh/α   predicted    -0.5625452E-06 ( -57.83%)
   displ. norm   :     0.0572507 α      lambda       -0.9911765E-06
   maximum displ.:     0.0314289 α      in ANC's #1, #2, #7, ...

........................................................................
.............................. CYCLE  201 ..............................
........................................................................

 iter      E             dE          RMSdq      gap      omega  full diag
   1   -111.8268075 -0.111827E+03  0.774E-03    3.39       0.0  T
   2   -111.8268075 -0.163614E-07  0.455E-03    3.39       2.5  T
   3   -111.8268075  0.166833E-07  0.621E-04    3.39      18.5  T
   4   -111.8268075 -0.227619E-07  0.137E-04    3.39      83.6  T
     SCC iter.                  ...        0 min,  0.016 sec
     gradient                   ...        0 min,  0.055 sec
 * total energy  :  -110.2946997 Eh     change       -0.1235080E-05 Eh
   gradient norm :     0.0001812 Eh/α   predicted    -0.5012676E-06 ( -59.41%)
   displ. norm   :     0.0513185 α      lambda       -0.8921975E-06
   maximum displ.:     0.0290958 α      in ANC's #1, #2, #7, ...

........................................................................
.............................. CYCLE  202 ..............................
........................................................................

 iter      E             dE          RMSdq      gap      omega  full diag
   1   -111.8268305 -0.111827E+03  0.685E-03    3.39       0.0  T
   2   -111.8268305 -0.131972E-07  0.403E-03    3.39       2.8  T
   3   -111.8268305  0.187528E-07  0.603E-04    3.39      19.0  T
   4   -111.8268305 -0.245112E-07  0.130E-04    3.39      88.5  T
     SCC iter.                  ...        0 min,  0.015 sec
     gradient                   ...        0 min,  0.057 sec
 * total energy  :  -110.2947009 Eh     change       -0.1149508E-05 Eh
   gradient norm :     0.0001955 Eh/α   predicted    -0.4508393E-06 ( -60.78%)
   displ. norm   :     0.0521174 α      lambda       -0.9045250E-06
   maximum displ.:     0.0305462 α      in ANC's #1, #2, #7, ...

........................................................................
.............................. CYCLE  203 ..............................
........................................................................

 iter      E             dE          RMSdq      gap      omega  full diag
   1   -111.8268176 -0.111827E+03  0.688E-03    3.39       0.0  T
   2   -111.8268176 -0.102845E-07  0.405E-03    3.39       2.8  T
   3   -111.8268176  0.163724E-07  0.569E-04    3.39      20.2  T
   4   -111.8268176 -0.217351E-07  0.121E-04    3.39      95.1  T
     SCC iter.                  ...        0 min,  0.023 sec
     gradient                   ...        0 min,  0.049 sec
 * total energy  :  -110.2947020 Eh     change       -0.1162039E-05 Eh
   gradient norm :     0.0001641 Eh/α   predicted    -0.4556201E-06 ( -60.79%)
   displ. norm   :     0.0493917 α      lambda       -0.8293094E-06
   maximum displ.:     0.0298200 α      in ANC's #1, #2, #7, ...

........................................................................
.............................. CYCLE  204 ..............................
........................................................................

 iter      E             dE          RMSdq      gap      omega  full diag
   1   -111.8268132 -0.111827E+03  0.641E-03    3.39       0.0  T
   2   -111.8268132 -0.905283E-08  0.377E-03    3.39       3.0  T
   3   -111.8268132  0.191045E-07  0.577E-04    3.39      19.9  T
   4   -111.8268132 -0.242868E-07  0.115E-04    3.39      99.7  T
     SCC iter.                  ...        0 min,  0.022 sec
     gradient                   ...        0 min,  0.050 sec
 * total energy  :  -110.2947031 Eh     change       -0.1070666E-05 Eh
   gradient norm :     0.0001402 Eh/α   predicted    -0.4173400E-06 ( -61.02%)
   displ. norm   :     0.0470168 α      lambda       -0.7666380E-06
   maximum displ.:     0.0292614 α      in ANC's #1, #2, #7, ...

........................................................................
.............................. CYCLE  205 ..............................
........................................................................

 iter      E             dE          RMSdq      gap      omega  full diag
   1   -111.8267834 -0.111827E+03  0.610E-03    3.39       0.0  T
   2   -111.8267835 -0.738797E-08  0.358E-03    3.39       3.2  T
   3   -111.8267834  0.694295E-08  0.378E-04    3.39      30.4  T
   4   -111.8267835 -0.107882E-07  0.104E-04    3.39     110.4  T
     SCC iter.                  ...        0 min,  0.019 sec
     gradient                   ...        0 min,  0.050 sec
 * total energy  :  -110.2947041 Eh     change       -0.1006510E-05 Eh
   gradient norm :     0.0001333 Eh/α   predicted    -0.3860687E-06 ( -61.64%)
   displ. norm   :     0.0443390 α      lambda       -0.7211785E-06
   maximum displ.:     0.0283603 α      in ANC's #1, #2, #7, ...

........................................................................
.............................. CYCLE  206 ..............................
........................................................................

 iter      E             dE          RMSdq      gap      omega  full diag
   1   -111.8267849 -0.111827E+03  0.559E-03    3.39       0.0  T
   2   -111.8267849 -0.640314E-08  0.329E-03    3.39       3.5  T
   3   -111.8267849  0.735371E-08  0.364E-04    3.39      31.5  T
   4   -111.8267849 -0.107790E-07  0.996E-05    3.39     115.2  T
     SCC iter.                  ...        0 min,  0.019 sec
     gradient                   ...        0 min,  0.051 sec
 * total energy  :  -110.2947051 Eh     change       -0.9583055E-06 Eh
   gradient norm :     0.0001404 Eh/α   predicted    -0.3628369E-06 ( -62.14%)
   displ. norm   :     0.0447727 α      lambda       -0.7291891E-06
   maximum displ.:     0.0293271 α      in ANC's #1, #2, #7, ...

   *** GEOMETRY OPTIMIZATION CONVERGED AFTER 206 ITERATIONS ***

------------------------------------------------------------------------
 total energy gain   :        -0.3316033 Eh     -208.0842 kcal/mol
 total RMSD          :         3.0900442 a0        1.6352 Å
 total power (kW/mol):        -4.2263321 (step)  -40.3553 (real)
------------------------------------------------------------------------

 ANCopt (total)                0 d,  0 h,  0 min, 21.574 sec
 optimizer setup                ...        0 min,  0.000 sec (  0.000%)
 model hessian                  ...        0 min,  0.348 sec (  1.613%)
 ANC generation                 ...        0 min,  0.046 sec (  0.213%)
 coordinate transformation      ...        0 min,  0.018 sec (  0.083%)
 single point calculation       ...        0 min, 21.026 sec ( 97.460%)
 optimization log               ...        0 min,  0.064 sec (  0.297%)
 hessian update                 ...        0 min,  0.009 sec (  0.042%)
 rational function              ...        0 min,  0.054 sec (  0.250%)

================
 final structure:
================
76
 xtb: 6.7.1pre (5071a88)
N            0.39955772885387        0.12743724063252        1.08629653700111
C            1.74922967379404       -0.09639656876071        0.71998502872129
C            2.76898576438759        0.57152892781939        1.39268903344324
C            4.08895833530788        0.35740496757378        1.05436351979466
C            4.43519867027350       -0.52693771181497        0.03812487491253
C            3.41934299211689       -1.22065437657003       -0.60420190308699
C            2.09399759125226       -1.01771533397628       -0.26314099813797
C            5.87027420469097       -0.68337604829301       -0.37985135308167
C            6.44274687670996        0.64983762614696       -0.86752365053734
C           -0.28518368703372        1.27216702366578        0.52814782973800
C            0.49373672069941        2.57096457269699        0.69415604865243
C           -0.38226881720951        3.80802172976081        0.43526793287847
C            0.48863859082607        5.04431940508397        0.15764155178460
C            0.88530824367894        5.13890434624346       -1.31499673975917
C            1.89166448916665        6.25657530892206       -1.55791934668688
O           -0.53613835869882        1.10239655176336       -0.87058534622324
N           -2.27008583516991        4.51478549032014        3.54411951755509
C           -3.28826741671118        4.03310025544597        2.77587288815327
C           -2.74100205290910        3.70076399327422        1.51332416822851
C           -1.34475051898935        4.01353352446493        1.56696608445595
C           -4.63302080006450        3.85270307519533        3.06779849749444
C           -3.58000681017386        3.17196838558360        0.53074036419627
C           -1.09894499256729        4.50174398664992        2.82346163591561
C           -5.43646374302448        3.33087112597179        2.07658112845171
C           -4.91369219139087        2.99538656014780        0.82516074439883
C            0.14901735203647        5.00372078218950        3.46191791607995
O           -1.93647283817006        2.67469750806028       -2.71587730489499
H           -0.14848819840641       -0.71040288100408        0.90919367164726
H           -1.11476949179039        0.34062532193890       -0.99475910432738
H            2.52101530325123        1.24605369717173        2.19558826249581
H            4.86435807519153        0.88259607399344        1.59221518173057
H            3.66477946430419       -1.93003458367806       -1.38254433464614
H            1.31895529777958       -1.57351586299102       -0.77412511955353
H            5.96248530291918       -1.41648560973710       -1.18335593709337
H            6.48032277245853       -1.03269728643281        0.45540333614813
H            6.59851820644241        1.34052105729838       -0.02994538935212
H            4.84748033389152        0.69560990853996       -2.24772610396850
H            7.97020555349990        2.47867080422822       -1.50075408281261
H           -1.24777547806920        1.35025857034163        1.05632131153336
H            1.33538494543110        2.55510070326946        0.00062425087227
H           -0.97673388618340        3.62540851296466       -0.46144686652331
H           -0.07010853744323        5.94225878410248        0.42528884623492
H            1.38883232436552        5.01371953625431        0.77393261082743
H            1.31731309434477        4.18938335615309       -1.64018700299249
H           -0.01123694350471        5.32594968690607       -1.90802557736959
H            2.13959222235254        6.32608272040302       -2.61485366902096
H            1.47831108718211        7.21171191788506       -1.24283347396873
H            2.80894724903479        6.07914558287068       -0.99888725084478
H           -2.35555206612469        4.84323575125673        4.49093271082422
H           -2.92457373979723        5.38819015405694       -1.22294319732592
H           -5.03260613739180        4.11323005371525        4.03718692180987
H           -3.19833453378161        2.90226110036822       -0.44232776109730
H           -6.48825901999148        3.17745850881621        2.26747294510545
H           -5.57558479660679        2.58943061555830        0.07418251344160
H            1.02580565010316        4.55058792564509        3.01104820214148
H            0.23130335648702        6.08548987252582        3.34753885723935
H            0.14568689179444        4.77477725291811        4.52697553640091
H            0.87457760889027        2.60711281854127        1.71249915885358
H           -1.44147014271745        2.76882831193490       -3.53141166077840
O           -2.46885115233484        5.37787912285052       -2.06676301752953
H           -1.34896338137077        2.23205446198802       -2.08101088517281
H           -2.41571068508318        4.44622375222118       -2.33106318007632
N            5.50237056144356        1.29353748685626       -1.76941179569386
C            7.80049618426306        0.45461908492974       -1.57736864261583
O            8.21820970676401       -0.63194543711435       -1.92062527035379
C            4.24606674820949        3.10320717428906       -2.72544045225479
C            5.40444280982198        2.63251507613901       -1.87940502754939
O            6.20052376317651        3.38450611986769       -1.34307896547323
H            3.32362571712122        2.62920636168199       -2.39759824029210
H            4.42247172175261        2.84234690201480       -3.76711520189584
H            4.15207481744889        4.18176353696719       -2.64164057512553
N            8.44071657555526        1.61843239071535       -1.76473814230754
C            9.70736583760170        1.71050451399512       -2.44748519918625
H           10.44733476186252        2.19481151780705       -1.80837871647596
H            9.60887120060418        2.28163661797515       -3.37273204717417
H           10.03521387378755        0.69838659284896       -2.67994108599104
 
 Bond Distances (Angstroems)
 ---------------------------
N1-C2=1.4163         N1-C10=1.4460        N1-H28=1.0167        C2-N1=1.4163         C2-C3=1.3923         C2-C7=1.3908         
C3-C2=1.3923         C3-C4=1.3794         C3-H30=1.0776        C4-C3=1.3794         C4-C5=1.3909         C4-H31=1.0800        
C5-C4=1.3909         C5-C6=1.3877         C5-C8=1.5029         C6-C5=1.3877         C6-C7=1.3835         C6-H32=1.0813        
C7-C2=1.3908         C7-C6=1.3835         C7-H33=1.0820        C8-C5=1.5029         C8-C9=1.5307         C8-H34=1.0916        
C8-H35=1.0917        C9-C8=1.5307         C9-H36=1.0967        C9-N63=1.4533        C9-C64=1.5445        C10-N1=1.4460        
C10-C11=1.5235       C10-O16=1.4312       C10-H39=1.1007       C11-C10=1.5235       C11-C12=1.5378       C11-H40=1.0907       
C11-H58=1.0878       C12-C11=1.5378       C12-C13=1.5375       C12-C20=1.4998       C12-H41=1.0913       C13-C12=1.5375       
C13-C14=1.5281       C13-H42=1.0909       C13-H43=1.0914       C14-C13=1.5281       C14-C15=1.5235       C14-H44=1.0927       
C14-H45=1.0911       C15-C14=1.5235       C15-H46=1.0878       C15-H47=1.0874       C15-H48=1.0888       O16-C10=1.4312       
O16-H29=0.9646       N17-C18=1.3634       N17-C23=1.3752       N17-H49=1.0058       C18-N17=1.3634       C18-C19=1.4156       
C18-C21=1.3878       C19-C18=1.4156       C19-C20=1.4319       C19-C22=1.3961       C20-C12=1.4998       C20-C19=1.4319       
C20-C23=1.3702       C21-C18=1.3878       C21-C24=1.3785       C21-H51=1.0804       C22-C19=1.3961       C22-C25=1.3772       
C22-H52=1.0795       C23-N17=1.3752       C23-C20=1.3702       C23-C26=1.4890       C24-C21=1.3785       C24-C25=1.3971       
C24-H53=1.0799       C25-C22=1.3772       C25-C24=1.3971       C25-H54=1.0802       C26-C23=1.4890       C26-H55=1.0851       
C26-H56=1.0909       C26-H57=1.0894       O27-H59=0.9586       O27-H61=0.9717       H28-N1=1.0167        H29-O16=0.9646       
H30-C3=1.0776        H31-C4=1.0800        H32-C6=1.0813        H33-C7=1.0820        H34-C8=1.0916        H35-C8=1.0917        
H36-C9=1.0967        H37-N63=1.0076       H38-N72=1.0154       H39-C10=1.1007       H40-C11=1.0907       H41-C12=1.0913       
H42-C13=1.0909       H43-C13=1.0914       H44-C14=1.0927       H45-C14=1.0911       H46-C15=1.0878       H47-C15=1.0874       
H48-C15=1.0888       H49-N17=1.0058       H50-O60=0.9591       H51-C21=1.0804       H52-C22=1.0795       H53-C24=1.0799       
H54-C25=1.0802       H55-C26=1.0851       H56-C26=1.0909       H57-C26=1.0894       H58-C11=1.0878       H59-O27=0.9586       
O60-H50=0.9591       O60-H62=0.9699       H61-O27=0.9717       H62-O60=0.9699       N63-C9=1.4533        N63-H37=1.0076       
N63-C67=1.3471       C64-C9=1.5445        C64-O65=1.2136       C64-N72=1.3414       O65-C64=1.2136       C66-C67=1.5097       
C66-H69=1.0877       C66-H70=1.0882       C66-H71=1.0859       C67-N63=1.3471       C67-C66=1.5097       C67-O68=1.2194       
O68-C67=1.2194       H69-C66=1.0877       H70-C66=1.0882       H71-C66=1.0859       N72-H38=1.0154       N72-C64=1.3414       
N72-C73=1.4419       C73-N72=1.4419       C73-H74=1.0911       C73-H75=1.0918       C73-H76=1.0890       H74-C73=1.0911       
H75-C73=1.0918       H76-C73=1.0890       
 C  H  Rav=1.0878 sigma=0.0054  Rmin=1.0776  Rmax=1.1007    31
 C  C  Rav=1.4482 sigma=0.0662  Rmin=1.3702  Rmax=1.5445    25
 N  H  Rav=1.0114 sigma=0.0048  Rmin=1.0058  Rmax=1.0167     4
 N  C  Rav=1.3981 sigma=0.0435  Rmin=1.3414  Rmax=1.4533     8
 O  H  Rav=0.9648 sigma=0.0054  Rmin=0.9586  Rmax=0.9717     5
 O  C  Rav=1.2881 sigma=0.1012  Rmin=1.2136  Rmax=1.4312     3
 
 selected bond angles (degree)
 --------------------
C10-N1-C2=118.46               H28-N1-C2=109.78               H28-N1-C10=109.26              C3-C2-N1=119.81                
C7-C2-N1=121.58                C7-C2-C3=118.54                C4-C3-C2=120.52                H30-C3-C2=119.46               
H30-C3-C4=120.01               C5-C4-C3=121.07                H31-C4-C3=119.30               H31-C4-C5=119.63               
C6-C5-C4=118.28                C8-C5-C4=120.47                C8-C5-C6=121.21                C7-C6-C5=120.92                
H32-C6-C5=119.67               H32-C6-C7=119.41               C6-C7-C2=120.59                H33-C7-C2=119.77               
H33-C7-C6=119.63               C9-C8-C5=110.80                H34-C8-C5=110.81               H34-C8-C9=108.59               
H35-C8-C5=110.74               H35-C8-C9=108.27               H35-C8-H34=107.52              H36-C9-C8=111.00               
N63-C9-C8=109.97               N63-C9-H36=106.67              C64-C9-C8=111.41               C64-C9-H36=107.80              
C64-C9-N63=109.85              C11-C10-N1=113.00              O16-C10-N1=111.49              O16-C10-C11=107.29             
H39-C10-N1=106.56              H39-C10-C11=109.53             H39-C10-O16=108.91             
 
 selected dihedral angles (degree)
 ---------------------------------
C3-C2-N1-C10= 83.72           C3-C2-N1-H28=210.14           C7-C2-N1-C10=260.83           C7-C2-N1-H28= 27.25           
C4-C3-C2-N1=179.54            C4-C3-C2-C7=  2.35            H30-C3-C2-N1=  0.69           H30-C3-C2-C7=183.50           
C5-C4-C3-C2=359.97            C5-C4-C3-H30=178.82           H31-C4-C3-C2=180.28           H31-C4-C3-H30=359.12          
C6-C5-C4-C3=358.17            C6-C5-C4-H31=177.86           C8-C5-C4-C3=176.00            C8-C5-C4-H31=355.70           
C7-C6-C5-C4=  1.36            C7-C6-C5-C8=183.54            H32-C6-C5-C4=181.35           H32-C6-C5-C8=  3.53           
C6-C7-C2-N1=180.04            C6-C7-C2-C3=357.18            H33-C7-C2-N1=  0.72           H33-C7-C2-C3=177.86           
C2-C7-C6-C5=  0.98            C2-C7-C6-H32=180.99           H33-C7-C6-C5=180.30           H33-C7-C6-H32=  0.32          
C9-C8-C5-C4=300.42            C9-C8-C5-C6=118.19            H34-C8-C5-C4=179.80           H34-C8-C5-C6=357.58           
H35-C8-C5-C4= 60.57           H35-C8-C5-C6=238.35           H36-C9-C8-C5= 72.01           H36-C9-C8-H34=193.93          
H36-C9-C8-H35=310.39          N63-C9-C8-C5=314.21           N63-C9-C8-H34= 76.13          N63-C9-C8-H35=192.59          
C64-C9-C8-C5=192.16           C64-C9-C8-H34=314.08          C64-C9-C8-H35= 70.54          C11-C10-N1-C2=309.11          
C11-C10-N1-H28=182.44         O16-C10-N1-C2= 70.06          O16-C10-N1-H28=303.39         H39-C10-N1-C2=188.77          
H39-C10-N1-H28= 62.10         
 
 CMA Distance (Angstroems)
 ---------------------------
R(CMA):  4.2648
           -------------------------------------------------
          |                Final Singlepoint                |
           -------------------------------------------------

          ...................................................
          :                      SETUP                      :
          :.................................................:
          :  # basis functions                 184          :
          :  # atomic orbitals                 184          :
          :  # shells                          112          :
          :  # electrons                       198          :
          :  max. iterations                   250          :
          :  Hamiltonian                  GFN2-xTB          :
          :  restarted?                      false          :
          :  GBSA solvation                  false          :
          :  PC potential                    false          :
          :  electronic temp.          500.0000000     K    :
          :  accuracy                    1.0000000          :
          :  -> integral cutoff          0.2500000E+02      :
          :  -> integral neglect         0.1000000E-07      :
          :  -> SCF convergence          0.1000000E-05 Eh   :
          :  -> wf. convergence          0.1000000E-03 e    :
          :  Broyden damping             0.4000000          :
          :  net charge                          0          :
          :  unpaired electrons                  0          :
          ...................................................

 iter      E             dE          RMSdq      gap      omega  full diag
   1   -111.8267849 -0.111827E+03  0.498E-05    3.39       0.0  T
   2   -111.8267849 -0.363798E-10  0.336E-05    3.39     341.5  T
   3   -111.8267849 -0.377725E-10  0.192E-05    3.39     599.0  T

   *** convergence criteria satisfied after 3 iterations ***

         #    Occupation            Energy/Eh            Energy/eV
      -------------------------------------------------------------
         1        2.0000           -0.7132036             -19.4073
       ...           ...                  ...                  ...
        93        2.0000           -0.4053571             -11.0303
        94        2.0000           -0.4035032             -10.9799
        95        2.0000           -0.3983180             -10.8388
        96        2.0000           -0.3856264             -10.4934
        97        2.0000           -0.3768951             -10.2558
        98        2.0000           -0.3750327             -10.2052
        99        2.0000           -0.3556061              -9.6765 (HOMO)
       100                         -0.2309327              -6.2840 (LUMO)
       101                         -0.2287042              -6.2234
       102                         -0.2255064              -6.1363
       103                         -0.2176750              -5.9232
       104                         -0.2069694              -5.6319
       ...                                ...                  ...
       184                          0.7221634              19.6511
      -------------------------------------------------------------
                  HL-Gap            0.1246734 Eh            3.3925 eV
             Fermi-level           -0.2932694 Eh           -7.9803 eV

 SCC (total)                   0 d,  0 h,  0 min,  0.080 sec
 SCC setup                      ...        0 min,  0.000 sec (  0.000%)
 Dispersion                     ...        0 min,  0.002 sec (  2.500%)
 classical contributions        ...        0 min,  0.000 sec (  0.000%)
 integral evaluation            ...        0 min,  0.012 sec ( 15.000%)
 iterations                     ...        0 min,  0.016 sec ( 20.000%)
 molecular gradient             ...        0 min,  0.050 sec ( 62.500%)
 printout                       ...        0 min,  0.000 sec (  0.000%)

         :::::::::::::::::::::::::::::::::::::::::::::::::::::
         ::                     SUMMARY                     ::
         :::::::::::::::::::::::::::::::::::::::::::::::::::::
         :: total energy            -110.294705077374 Eh    ::
         :: gradient norm              0.000188821863 Eh/a0 ::
         :: HOMO-LUMO gap              3.392535202468 eV    ::
         ::.................................................::
         :: SCC energy              -111.824188139593 Eh    ::
         :: -> isotropic ES            0.184381454197 Eh    ::
         :: -> anisotropic ES          0.006939607667 Eh    ::
         :: -> anisotropic XC          0.040757843191 Eh    ::
         :: -> dispersion             -0.082225625469 Eh    ::
         :: repulsion energy           1.529483062218 Eh    ::
         :: add. restraining           0.000000000000 Eh    ::
         :: total charge              -0.000000000000 e     ::
         :::::::::::::::::::::::::::::::::::::::::::::::::::::

           -------------------------------------------------
          |                Property Printout                |
           -------------------------------------------------

    * Orbital Energies and Occupations

         #    Occupation            Energy/Eh            Energy/eV
      -------------------------------------------------------------
         1        2.0000           -0.7132036             -19.4073
       ...           ...                  ...                  ...
        87        2.0000           -0.4170675             -11.3490
        88        2.0000           -0.4149999             -11.2927
        89        2.0000           -0.4136926             -11.2571
        90        2.0000           -0.4118337             -11.2066
        91        2.0000           -0.4086932             -11.1211
        92        2.0000           -0.4058470             -11.0437
        93        2.0000           -0.4053571             -11.0303
        94        2.0000           -0.4035032             -10.9799
        95        2.0000           -0.3983180             -10.8388
        96        2.0000           -0.3856264             -10.4934
        97        2.0000           -0.3768951             -10.2558
        98        2.0000           -0.3750327             -10.2052
        99        2.0000           -0.3556061              -9.6765 (HOMO)
       100                         -0.2309327              -6.2840 (LUMO)
       101                         -0.2287042              -6.2234
       102                         -0.2255064              -6.1363
       103                         -0.2176750              -5.9232
       104                         -0.2069694              -5.6319
       105                         -0.1929067              -5.2493
       106                         -0.1540360              -4.1915
       107                         -0.1046049              -2.8464
       108                         -0.0670311              -1.8240
       109                          0.0009248               0.0252
       110                          0.0017883               0.0487
       ...                                ...                  ...
       184                          0.7221634              19.6511
      -------------------------------------------------------------
                  HL-Gap            0.1246734 Eh            3.3925 eV
             Fermi-level           -0.2932694 Eh           -7.9803 eV

     #   Z          covCN         q      C6AA      α(0)
     1   7 N        2.685    -0.262    26.785     7.686
     2   6 C        2.906     0.074    26.341     8.416
     3   6 C        2.923    -0.046    29.147     8.853
     4   6 C        2.925    -0.038    28.953     8.824
     5   6 C        2.970     0.004    27.928     8.668
     6   6 C        2.924    -0.043    29.080     8.843
     7   6 C        2.922    -0.052    29.287     8.875
     8   6 C        3.811    -0.071    21.845     6.653
     9   6 C        3.797     0.019    20.253     6.408
    10   6 C        3.663     0.184    17.910     6.071
    11   6 C        3.808    -0.068    21.789     6.645
    12   6 C        3.855    -0.029    21.046     6.525
    13   6 C        3.805    -0.064    21.731     6.636
    14   6 C        3.801    -0.062    21.688     6.631
    15   6 C        3.752    -0.103    22.531     6.769
    16   8 O        1.654    -0.473    22.314     6.377
    17   7 N        2.784    -0.120    23.617     7.218
    18   6 C        3.070     0.041    27.000     8.520
    19   6 C        3.112    -0.025    28.475     8.742
    20   6 C        3.057    -0.050    29.188     8.860
    21   6 C        2.909    -0.055    29.368     8.886
    22   6 C        2.912    -0.049    29.224     8.864
    23   6 C        3.061     0.040    27.045     8.528
    24   6 C        2.924    -0.039    28.981     8.828
    25   6 C        2.919    -0.045    29.115     8.848
    26   6 C        3.754    -0.112    22.693     6.793
    27   8 O        1.610    -0.597    25.112     6.763
    28   1 H        0.860     0.146     1.431     1.874
    29   1 H        0.805     0.292     0.744     1.355
    30   1 H        0.926     0.043     2.410     2.427
    31   1 H        0.926     0.036     2.496     2.471
    32   1 H        0.925     0.031     2.572     2.508
    33   1 H        0.925     0.025     2.654     2.547
    34   1 H        0.924     0.065     2.141     2.288
    35   1 H        0.924     0.059     2.207     2.323
    36   1 H        0.924     0.063     2.169     2.303
    37   1 H        0.860     0.178     1.224     1.733
    38   1 H        0.860     0.206     1.077     1.626
    39   1 H        0.923     0.025     2.656     2.549
    40   1 H        0.924     0.049     2.326     2.385
    41   1 H        0.924     0.063     2.163     2.300
    42   1 H        0.924     0.040     2.448     2.447
    43   1 H        0.924     0.030     2.587     2.515
    44   1 H        0.924     0.021     2.713     2.576
    45   1 H        0.924     0.058     2.219     2.329
    46   1 H        0.925     0.030     2.588     2.516
    47   1 H        0.925     0.035     2.513     2.479
    48   1 H        0.925     0.030     2.582     2.513
    49   1 H        0.860     0.156     1.364     1.829
    50   1 H        0.805     0.274     0.805     1.410
    51   1 H        0.926     0.019     2.746     2.591
    52   1 H        0.926     0.040     2.445     2.445
    53   1 H        0.926     0.024     2.678     2.559
    54   1 H        0.926     0.024     2.667     2.554
    55   1 H        0.925     0.053     2.284     2.363
    56   1 H        0.924     0.051     2.310     2.377
    57   1 H        0.925     0.041     2.440     2.443
    58   1 H        0.925     0.047     2.356     2.400
    59   1 H        0.805     0.283     0.776     1.383
    60   8 O        1.610    -0.600    25.196     6.775
    61   1 H        0.804     0.314     0.681     1.297
    62   1 H        0.804     0.304     0.709     1.323
    63   7 N        2.692    -0.183    24.974     7.422
    64   6 C        2.753     0.264    22.555     7.777
    65   8 O        0.858    -0.436    22.416     6.348
    66   6 C        3.757    -0.143    23.309     6.883
    67   6 C        2.749     0.277    22.305     7.733
    68   8 O        0.859    -0.455    22.807     6.403
    69   1 H        0.925     0.055     2.259     2.350
    70   1 H        0.925     0.060     2.196     2.317
    71   1 H        0.925     0.079     1.987     2.204
    72   7 N        2.686    -0.176    24.803     7.397
    73   6 C        3.690    -0.043    21.530     6.640
    74   1 H        0.924     0.053     2.286     2.364
    75   1 H        0.924     0.050     2.320     2.382
    76   1 H        0.925     0.082     1.955     2.187

 Mol. C6AA /au·bohr⁶  :      55558.800225
 Mol. C8AA /au·bohr⁸  :    1265582.679600
 Mol. α(0) /au        :        361.952850


Wiberg/Mayer (AO) data.
largest (>0.10) Wiberg bond orders for each atom

 ---------------------------------------------------------------------------
     #   Z sym  total        # sym  WBO       # sym  WBO       # sym  WBO
 ---------------------------------------------------------------------------
     1   7 N    3.157 --     2 C    1.049    10 C    0.995    28 H    0.946
     2   6 C    3.974 --     7 C    1.394     3 C    1.376     1 N    1.049
                             5 C    0.100
     3   6 C    3.991 --     4 C    1.465     2 C    1.376    30 H    0.966
                             6 C    0.106
     4   6 C    3.991 --     3 C    1.465     5 C    1.397    31 H    0.968
                             7 C    0.107
     5   6 C    3.987 --     6 C    1.416     4 C    1.397     8 C    1.010
                             2 C    0.100
     6   6 C    3.990 --     7 C    1.443     5 C    1.416    32 H    0.968
                             3 C    0.106
     7   6 C    3.990 --     6 C    1.443     2 C    1.394    33 H    0.968
                             4 C    0.107
     8   6 C    3.991 --     5 C    1.010     9 C    0.984    34 H    0.970
                            35 H    0.961
     9   6 C    3.964 --     8 C    0.984    63 N    0.975    36 H    0.951
                            64 C    0.915
    10   6 C    3.939 --     1 N    0.995    11 C    0.993    39 H    0.956
                            16 O    0.944
    11   6 C    3.991 --    10 C    0.993    12 C    0.980    40 H    0.969
                            58 H    0.968
    12   6 C    3.991 --    20 C    1.005    13 C    0.985    11 C    0.980
                            41 H    0.954
    13   6 C    3.995 --    14 C    1.008    12 C    0.985    42 H    0.977
                            43 H    0.975
    14   6 C    3.995 --    15 C    1.019    13 C    1.008    44 H    0.975
                            45 H    0.972
    15   6 C    3.996 --    14 C    1.019    47 H    0.988    48 H    0.988
                            46 H    0.987
    16   8 O    1.977 --    10 C    0.944    29 H    0.897
    17   7 N    3.527 --    18 C    1.174    23 C    1.172    49 H    0.946
    18   6 C    3.958 --    21 C    1.343    19 C    1.243    17 N    1.174
    19   6 C    3.983 --    22 C    1.331    18 C    1.243    20 C    1.202
    20   6 C    3.971 --    23 C    1.552    19 C    1.202    12 C    1.005
    21   6 C    3.988 --    24 C    1.487    18 C    1.343    51 H    0.969
                            22 C    0.111
    22   6 C    3.989 --    25 C    1.501    19 C    1.331    52 H    0.963
                            21 C    0.111
    23   6 C    3.950 --    20 C    1.552    17 N    1.172    26 C    1.029
    24   6 C    3.988 --    21 C    1.487    25 C    1.374    53 H    0.972
    25   6 C    3.990 --    22 C    1.501    24 C    1.374    54 H    0.972
    26   6 C    3.995 --    23 C    1.029    57 H    0.979    55 H    0.976
                            56 H    0.967
    27   8 O    1.855 --    59 H    0.918    61 H    0.859
    28   1 H    0.978 --     1 N    0.946
    29   1 H    0.914 --    16 O    0.897
    30   1 H    0.998 --     3 C    0.966
    31   1 H    0.998 --     4 C    0.968
    32   1 H    0.999 --     6 C    0.968
    33   1 H    0.999 --     7 C    0.968
    34   1 H    0.995 --     8 C    0.970
    35   1 H    0.995 --     8 C    0.961
    36   1 H    0.996 --     9 C    0.951
    37   1 H    0.968 --    63 N    0.936
    38   1 H    0.958 --    72 N    0.907
    39   1 H    0.999 --    10 C    0.956
    40   1 H    0.997 --    11 C    0.969
    41   1 H    0.996 --    12 C    0.954
    42   1 H    0.998 --    13 C    0.977
    43   1 H    0.999 --    13 C    0.975
    44   1 H    1.000 --    14 C    0.975
    45   1 H    0.997 --    14 C    0.972
    46   1 H    0.999 --    15 C    0.987
    47   1 H    0.999 --    15 C    0.988
    48   1 H    0.999 --    15 C    0.988
    49   1 H    0.975 --    17 N    0.946
    50   1 H    0.925 --    60 O    0.922
    51   1 H    0.999 --    21 C    0.969
    52   1 H    0.998 --    22 C    0.963
    53   1 H    0.999 --    24 C    0.972
    54   1 H    0.999 --    25 C    0.972
    55   1 H    0.996 --    26 C    0.976
    56   1 H    0.993 --    26 C    0.967
    57   1 H    0.997 --    26 C    0.979
    58   1 H    0.998 --    11 C    0.968
    59   1 H    0.920 --    27 O    0.918
    60   8 O    1.824 --    50 H    0.922    62 H    0.871
    61   1 H    0.902 --    27 O    0.859
    62   1 H    0.908 --    60 O    0.871
    63   7 N    3.448 --    67 C    1.266     9 C    0.975    37 H    0.936
                            68 O    0.191
    64   6 C    3.956 --    65 O    1.678    72 N    1.292     9 C    0.915
    65   8 O    2.010 --    64 C    1.678    72 N    0.212
    66   6 C    3.992 --    67 C    0.984    71 H    0.981    69 H    0.973
                            70 H    0.967
    67   6 C    3.949 --    68 O    1.650    63 N    1.266    66 C    0.984
    68   8 O    1.993 --    67 C    1.650    63 N    0.191
    69   1 H    0.997 --    66 C    0.973
    70   1 H    0.996 --    66 C    0.967
    71   1 H    0.993 --    66 C    0.981
    72   7 N    3.467 --    64 C    1.292    73 C    1.006    38 H    0.907
                            65 O    0.212
    73   6 C    3.965 --    72 N    1.006    74 H    0.977    76 H    0.977
                            75 H    0.976
    74   1 H    0.997 --    73 C    0.977
    75   1 H    0.997 --    73 C    0.976
    76   1 H    0.993 --    73 C    0.977
 ---------------------------------------------------------------------------

Topologies differ in total number of bonds
Writing topology from bond orders to xtbtopo.mol

molecular dipole:
                 x           y           z       tot (Debye)
 q only:       -0.036      -0.351       0.854
   full:       -0.463      -0.736       1.005       3.378
molecular quadrupole (traceless):
                xx          xy          yy          xz          yz          zz
 q only:      -15.548      20.546      -8.320      -5.611      15.354      23.868
  q+dip:      -21.878      24.597     -13.848      -8.613      28.041      35.726
   full:      -23.798      23.969     -11.627      -8.789      24.083      35.424

           -------------------------------------------------
          |                Geometry Summary                 |
           -------------------------------------------------

      molecular mass/u    :      500.6313367
   center of mass at/Å    :        1.5919975       2.3704357      -0.0382353
  moments of inertia/u·Å² :        0.2559286E+04   0.1056650E+05   0.1119454E+05
rotational constants/cm⁻¹ :        0.6586851E-02   0.1595385E-02   0.1505880E-02

 * 72 selected distances

     #   Z          #   Z                                           value/Å
     1   7 N        2   6 C                                       1.4162981
     2   6 C        3   6 C                                       1.3923211
     3   6 C        4   6 C                                       1.3793626
     4   6 C        5   6 C                                       1.3909298
     5   6 C        6   6 C                                       1.3877282
     2   6 C        7   6 C                                       1.3907661
     6   6 C        7   6 C                                       1.3834911
     8   6 C        9   6 C                                       1.5306889
     1   7 N       10   6 C                                       1.4459625
    10   6 C       11   6 C                                       1.5235325
    11   6 C       12   6 C                                       1.5377645 (max)
    12   6 C       13   6 C                                       1.5375267
    13   6 C       14   6 C                                       1.5280566
    14   6 C       15   6 C                                       1.5234675
    10   6 C       16   8 O                                       1.4311726
    17   7 N       18   6 C                                       1.3634213
    18   6 C       19   6 C                                       1.4156187
    19   6 C       20   6 C                                       1.4318593
    18   6 C       21   6 C                                       1.3878493
    19   6 C       22   6 C                                       1.3960749
    17   7 N       23   6 C                                       1.3751687
    20   6 C       23   6 C                                       1.3702377
    21   6 C       24   6 C                                       1.3785287
    22   6 C       25   6 C                                       1.3771643
    24   6 C       25   6 C                                       1.3971018
    23   6 C       26   6 C                                       1.4889653
     1   7 N       28   1 H                                       1.0167084
    16   8 O       29   1 H                                       0.9646391
     3   6 C       30   1 H                                       1.0775530
     4   6 C       31   1 H                                       1.0799792
     6   6 C       32   1 H                                       1.0813309
     7   6 C       33   1 H                                       1.0819934
     8   6 C       34   1 H                                       1.0915917
     8   6 C       35   1 H                                       1.0917120
     9   6 C       36   1 H                                       1.0967433
    10   6 C       39   1 H                                       1.1007492
    11   6 C       40   1 H                                       1.0906924
    12   6 C       41   1 H                                       1.0912534
    13   6 C       42   1 H                                       1.0909302
    13   6 C       43   1 H                                       1.0913753
    14   6 C       44   1 H                                       1.0926881
    14   6 C       45   1 H                                       1.0910832
    15   6 C       46   1 H                                       1.0878464
    15   6 C       47   1 H                                       1.0873943
    15   6 C       48   1 H                                       1.0887636
    17   7 N       49   1 H                                       1.0058029
    21   6 C       51   1 H                                       1.0803966
    22   6 C       52   1 H                                       1.0794802
    24   6 C       53   1 H                                       1.0799299
    25   6 C       54   1 H                                       1.0802178
    26   6 C       55   1 H                                       1.0850672
    26   6 C       56   1 H                                       1.0909070
    26   6 C       57   1 H                                       1.0893917
    11   6 C       58   1 H                                       1.0878278
    27   8 O       59   1 H                                       0.9586369 (min)
    50   1 H       60   8 O                                       0.9590732
    27   8 O       61   1 H                                       0.9716768
    60   8 O       62   1 H                                       0.9698765
     9   6 C       63   7 N                                       1.4532927
    37   1 H       63   7 N                                       1.0075631
    64   6 C       65   8 O                                       1.2136443
    63   7 N       67   6 C                                       1.3470522
    67   6 C       68   8 O                                       1.2193774
    66   6 C       69   1 H                                       1.0876833
    66   6 C       70   1 H                                       1.0882340
    66   6 C       71   1 H                                       1.0858826
    38   1 H       72   7 N                                       1.0154204
    64   6 C       72   7 N                                       1.3414363
    72   7 N       73   6 C                                       1.4418813
    73   6 C       74   1 H                                       1.0911300
    73   6 C       75   1 H                                       1.0917761
    73   6 C       76   1 H                                       1.0889917

 * 6 distinct bonds (by element types)

   Z      Z             #   av. dist./Å        max./Å        min./Å
   1 H    6 C          31     1.0877611     1.1007492     1.0775530
   6 C    6 C          21     1.4356684     1.5377645     1.3702377
   1 H    7 N           4     1.0113737     1.0167084     1.0058029
   6 C    7 N           8     1.3980641     1.4532927     1.3414363
   1 H    8 O           5     0.9647805     0.9716768     0.9586369
   6 C    8 O           3     1.2880648     1.4311726     1.2136443


optimized geometry written to: xtbopt.xyz


           -------------------------------------------------
          | TOTAL ENERGY             -110.294705077374 Eh   |
          | GRADIENT NORM               0.000188821863 Eh/α |
          | HOMO-LUMO GAP               3.392535202468 eV   |
           -------------------------------------------------

------------------------------------------------------------------------
 * finished run on 2026/08/20 at 19:02:41.352     
------------------------------------------------------------------------
 total:
 * wall-time:     0 d,  0 h,  0 min, 21.878 sec
 *  cpu-time:     0 d,  0 h,  0 min, 21.438 sec
 * ratio c/w:     0.980 speedup
 SCF:
 * wall-time:     0 d,  0 h,  0 min,  0.173 sec
 *  cpu-time:     0 d,  0 h,  0 min,  0.156 sec
 * ratio c/w:     0.903 speedup
 ANC optimizer:
 * wall-time:     0 d,  0 h,  0 min, 21.655 sec
 *  cpu-time:     0 d,  0 h,  0 min, 21.266 sec
 * ratio c/w:     0.982 speedup



normal termination of xtb
