      -----------------------------------------------------------      
     |                   =====================                   |     
     |                           x T B                           |     
     |                   =====================                   |     
     |                         S. Grimme                         |     
     |          Mulliken Center for Theoretical Chemistry        |     
     |                    University of Bonn                     |     
      -----------------------------------------------------------      

   * xtb version 6.7.1pre (5071a88) compiled by 'Marcel@Raven' on 2024-07-23

   xtb is free software: you can redistribute it and/or modify it under
   the terms of the GNU Lesser General Public License as published by
   the Free Software Foundation, either version 3 of the License, or
   (at your option) any later version.
   
   xtb is distributed in the hope that it will be useful,
   but WITHOUT ANY WARRANTY; without even the implied warranty of
   MERCHANTABILITY or FITNESS FOR A PARTICULAR PURPOSE.  See the
   GNU Lesser General Public License for more details.
   
   Cite this work as:
   * C. Bannwarth, E. Caldeweyher, S. Ehlert, A. Hansen, P. Pracht,
     J. Seibert, S. Spicher, S. Grimme, WIREs Comput. Mol. Sci., 2020, 11,
     e01493. DOI: 10.1002/wcms.1493
   
   for GFN2-xTB:
   * C. Bannwarth, S. Ehlert and S. Grimme., J. Chem. Theory Comput., 2019,
     15, 1652-1671. DOI: 10.1021/acs.jctc.8b01176
   for GFN1-xTB:
   * S. Grimme, C. Bannwarth, P. Shushkov, J. Chem. Theory Comput., 2017,
     13, 1989-2009. DOI: 10.1021/acs.jctc.7b00118
   for GFN0-xTB:
   * P. Pracht, E. Caldeweyher, S. Ehlert, S. Grimme, ChemRxiv, 2019, preprint.
     DOI: 10.26434/chemrxiv.8326202.v1
   for GFN-FF:
   * S. Spicher and S. Grimme, Angew. Chem. Int. Ed., 2020, 59, 15665-15673.
     DOI: 10.1002/anie.202004239
   
   for ALPB and GBSA implicit solvation:
   * S. Ehlert, M. Stahn, S. Spicher, S. Grimme, J. Chem. Theory Comput.,
     2021, 17, 4250-4261. DOI: 10.1021/acs.jctc.1c00471
   
   for ddCOSMO and CPCM-X implicit solvation:
   * M. Stahn, S. Ehlert, S. Grimme, J. Phys. Chem. A,
     2023, XX, XXXX-XXXX. DOI: 10.1021/acs.jpca.3c04382
   
   for DFT-D4:
   * E. Caldeweyher, C. Bannwarth and S. Grimme, J. Chem. Phys., 2017,
     147, 034112. DOI: 10.1063/1.4993215
   * E. Caldeweyher, S. Ehlert, A. Hansen, H. Neugebauer, S. Spicher,
     C. Bannwarth and S. Grimme, J. Chem. Phys., 2019, 150, 154122.
     DOI: 10.1063/1.5090222
   * E. Caldeweyher, J.-M. Mewes, S. Ehlert and S. Grimme, Phys. Chem. Chem. Phys.
     2020, 22, 8499-8512. DOI: 10.1039/D0CP00502A
   
   for sTDA-xTB:
   * S. Grimme and C. Bannwarth, J. Chem. Phys., 2016, 145, 054103.
     DOI: 10.1063/1.4959605
   
   in the mass-spec context:
   * V. Asgeirsson, C. Bauer and S. Grimme, Chem. Sci., 2017, 8, 4879.
     DOI: 10.1039/c7sc00601b
   * J. Koopman and S. Grimme, ACS Omega 2019, 4, 12, 15120-15133.
     DOI: 10.1021/acsomega.9b02011
   
   for metadynamics refer to:
   * S. Grimme, J. Chem. Theory Comput., 2019, 155, 2847-2862
     DOI: 10.1021/acs.jctc.9b00143
   
   for SPH calculations refer to:
   * S. Spicher and S. Grimme, J. Chem. Theory Comput., 2021, 17, 1701-1714
     DOI: 10.1021/acs.jctc.0c01306
   
   for ONIOM refer to:
   * C. Plett, A. Katbashev, S. Ehlert, S. Grimme, M. Bursch,
     Phys. Chem. Chem. Phys., 2023, 25, 17860-17868. DOI: 10.1039/D3CP02178E
   
   for DIPRO refer to:
   * J. Kohn, N. Gildemeister, S. Grimme, D. Fazzi, A. Hansen,
     J. Chem. Phys., 2023, just accepted.
   
   for PTB refer to:
   * S. Grimme, M. Mueller, A. Hansen, J. Chem. Phys., 2023, 158, 124111.
     DOI: 10.1063/5.0137838
   
   with help from (in alphabetical order)
   P. Atkinson, C. Bannwarth, F. Bohle, G. Brandenburg, E. Caldeweyher
   M. Checinski, S. Dohm, S. Ehlert, S. Ehrlich, I. Gerasimov, C. Hölzer
   A. Katbashev, J. Kohn, J. Koopman, C. Lavigne, S. Lehtola, F. März, M. Müller,
   F. Musil, H. Neugebauer, J. Pisarek, C. Plett, P. Pracht, F. Pultar,
   J. Seibert, P. Shushkov, S. Spicher, M. Stahn, M. Steiner, T. Strunk,
   J. Stückrath, T. Rose, and J. Unsleber
   
 * started run on 2026/08/20 at 19:02:41.603     
   ID    Z sym.   atoms
    1    7 N      1, 17, 63, 72
    2    6 C      2-15, 18-26, 64, 66, 67, 73
    3    8 O      16, 27, 60, 65, 68
    4    1 H      28-59, 61, 62, 69-71, 74-76

           -------------------------------------------------
          |                Calculation Setup                |
           -------------------------------------------------

          program call               : C:\Users\Nayanika\Downloads\xtb-6.7.1pre-windows-x86_64\xtb-6.7.1\bin\xtb.exe D:\PhD_Thesis\LmrR_EVB\charges\fast_lmrr_5QM\xtb_preparation\TS2_1a_to_PS2_2\TS2_1a_to_PS2_2_PS_xtbopt.xyz --gfn 2 --chrg 0 --uhf 0 --hess --etemp 0
          coordinate file            : D:\PhD_Thesis\LmrR_EVB\charges\fast_lmrr_5QM\xtb_preparation\TS2_1a_to_PS2_2\TS2_1a_to_PS2_2_PS_xtbopt.xyz
          omp threads                :                     1


molecular fragmentation (1/2 indicates fragments):
111111111111111111111111112111111111111111111111121111111122221111111111
1111
# atoms in fragment 1/2:    70     6
 fragment masses (1/2) :      464.60       36.03
CMA distance (Bohr)    :   9.630
constraining FC (au)   :  0.0500

           -------------------------------------------------
          |                 G F N 2 - x T B                 |
           -------------------------------------------------

        Reference                      10.1021/acs.jctc.8b01176
      * Hamiltonian:
        H0-scaling (s, p, d)           1.850000    2.230000    2.230000
        zeta-weighting                 0.500000
      * Dispersion:
        s8                             2.700000
        a1                             0.520000
        a2                             5.000000
        s9                             5.000000
      * Repulsion:
        kExp                           1.500000    1.000000
        rExp                           1.000000
      * Coulomb:
        alpha                          2.000000
        third order                    shell-resolved
        anisotropic                    true
        a3                             3.000000
        a5                             4.000000
        cn-shift                       1.200000
        cn-exp                         4.000000
        max-rad                        5.000000

q/qsh data taken from xtbrestart
CAMM data taken from xtbrestart

          ...................................................
          :                      SETUP                      :
          :.................................................:
          :  # basis functions                 184          :
          :  # atomic orbitals                 184          :
          :  # shells                          112          :
          :  # electrons                       198          :
          :  max. iterations                   250          :
          :  Hamiltonian                  GFN2-xTB          :
          :  restarted?                       true          :
          :  GBSA solvation                  false          :
          :  PC potential                    false          :
          :  electronic temp.            0.0000000     K    :
          :  accuracy                    1.0000000          :
          :  -> integral cutoff          0.2500000E+02      :
          :  -> integral neglect         0.1000000E-07      :
          :  -> SCF convergence          0.1000000E-05 Eh   :
          :  -> wf. convergence          0.1000000E-03 e    :
          :  Broyden damping             0.4000000          :
          :  net charge                          0          :
          :  unpaired electrons                  0          :
          ...................................................

 iter      E             dE          RMSdq      gap      omega  full diag
   1   -111.8267849 -0.111827E+03  0.883E-07    3.39       0.0  T
   2   -111.8267849 -0.184741E-12  0.599E-07    3.39   19153.8  T
   3   -111.8267849  0.142109E-12  0.356E-07    3.39   32221.4  T

   *** convergence criteria satisfied after 3 iterations ***

         #    Occupation            Energy/Eh            Energy/eV
      -------------------------------------------------------------
         1        2.0000           -0.7132036             -19.4073
       ...           ...                  ...                  ...
        93        2.0000           -0.4053571             -11.0303
        94        2.0000           -0.4035031             -10.9799
        95        2.0000           -0.3983179             -10.8388
        96        2.0000           -0.3856264             -10.4934
        97        2.0000           -0.3768951             -10.2558
        98        2.0000           -0.3750327             -10.2052
        99        2.0000           -0.3556061              -9.6765 (HOMO)
       100                         -0.2309327              -6.2840 (LUMO)
       101                         -0.2287042              -6.2234
       102                         -0.2255065              -6.1363
       103                         -0.2176750              -5.9232
       104                         -0.2069694              -5.6319
       ...                                ...                  ...
       184                          0.7221635              19.6511
      -------------------------------------------------------------
                  HL-Gap            0.1246734 Eh            3.3925 eV
             Fermi-level            0.0000000 Eh            0.0000 eV

 SCC (total)                   0 d,  0 h,  0 min,  0.097 sec
 SCC setup                      ...        0 min,  0.000 sec (  0.000%)
 Dispersion                     ...        0 min,  0.000 sec (  0.000%)
 classical contributions        ...        0 min,  0.000 sec (  0.000%)
 integral evaluation            ...        0 min,  0.014 sec ( 14.433%)
 iterations                     ...        0 min,  0.027 sec ( 27.835%)
 molecular gradient             ...        0 min,  0.056 sec ( 57.732%)
 printout                       ...        0 min,  0.000 sec (  0.000%)

         :::::::::::::::::::::::::::::::::::::::::::::::::::::
         ::                     SUMMARY                     ::
         :::::::::::::::::::::::::::::::::::::::::::::::::::::
         :: total energy            -110.294705077379 Eh    ::
         :: gradient norm              0.000188736440 Eh/a0 ::
         :: HOMO-LUMO gap              3.392535077147 eV    ::
         ::.................................................::
         :: SCC energy              -111.824188139597 Eh    ::
         :: -> isotropic ES            0.184381406818 Eh    ::
         :: -> anisotropic ES          0.006939586918 Eh    ::
         :: -> anisotropic XC          0.040757843039 Eh    ::
         :: -> dispersion             -0.082225623993 Eh    ::
         :: repulsion energy           1.529483062218 Eh    ::
         :: add. restraining           0.000000000000 Eh    ::
         :: total charge               0.000000000000 e     ::
         :::::::::::::::::::::::::::::::::::::::::::::::::::::

           ------------------------------------------------- 
          |                Numerical Hessian                |
           ------------------------------------------------- 
step length          :   0.00500
SCC accuracy         :   0.30000
Hessian scale factor :   1.00000
frozen atoms in %    :   0.00000    0
RMS gradient         :   0.00019
estimated CPU  time      0.75 min
estimated wall time      0.75 min

writing file <hessian>.

 projected vibrational frequencies (cm⁻¹)
eigval :       -0.00    -0.00     0.00     0.00     0.00     0.00
eigval :        4.44     9.14    18.58    21.88    24.70    27.41
eigval :       35.02    38.61    41.13    48.07    51.53    54.08
eigval :       62.48    64.63    67.96    70.19    72.00    85.28
eigval :       88.83    98.20   109.08   122.59   124.64   125.80
eigval :      141.42   143.86   151.52   165.35   166.76   172.35
eigval :      187.20   188.84   194.69   221.70   236.90   237.35
eigval :      239.53   251.63   270.22   286.60   288.69   291.77
eigval :      304.56   311.31   322.40   347.91   360.83   379.57
eigval :      385.21   397.39   411.17   415.35   422.22   443.69
eigval :      445.95   452.05   463.25   471.15   481.50   489.07
eigval :      495.69   526.74   531.51   542.61   552.85   580.17
eigval :      594.46   601.99   613.58   625.26   630.53   639.96
eigval :      646.21   656.76   688.69   696.05   704.15   724.86
eigval :      752.45   762.88   774.44   787.37   812.13   815.62
eigval :      859.63   864.67   869.51   870.68   871.84   879.66
eigval :      893.31   902.67   912.18   921.38   924.51   926.92
eigval :      934.52   953.04   978.22   991.27   993.73   997.55
eigval :     1005.42  1006.24  1021.64  1028.62  1032.14  1037.84
eigval :     1068.75  1082.09  1086.32  1095.89  1104.86  1110.90
eigval :     1117.60  1121.72  1126.15  1130.88  1140.27  1142.37
eigval :     1164.39  1164.85  1168.86  1177.54  1195.23  1202.09
eigval :     1211.37  1214.55  1217.63  1226.02  1229.66  1238.37
eigval :     1255.19  1258.89  1266.92  1274.22  1277.82  1282.53
eigval :     1288.96  1296.94  1309.86  1317.07  1319.96  1325.87
eigval :     1331.11  1344.23  1344.74  1367.09  1370.30  1373.82
eigval :     1390.62  1393.21  1401.82  1412.70  1415.57  1420.51
eigval :     1432.17  1435.67  1450.48  1456.26  1457.55  1462.54
eigval :     1465.32  1474.45  1475.15  1480.89  1484.68  1492.66
eigval :     1495.36  1496.05  1497.42  1507.55  1509.21  1538.65
eigval :     1566.33  1578.62  1580.56  1595.59  1609.68  1629.06
eigval :     1717.03  1759.80  2873.32  2917.20  2963.56  2971.59
eigval :     2974.87  2981.71  2987.29  2990.29  2990.90  2992.21
eigval :     2995.39  2997.97  3000.59  3014.73  3021.75  3023.12
eigval :     3023.81  3029.17  3030.38  3032.17  3039.92  3056.98
eigval :     3066.23  3068.67  3069.66  3071.71  3076.64  3083.23
eigval :     3088.91  3098.35  3112.83  3319.56  3345.57  3401.25
eigval :     3448.86  3459.34  3482.28  3532.67  3653.44  3660.66
           -------------------------------------------------
          |                Property Printout                |
           -------------------------------------------------

    * Orbital Energies and Occupations

         #    Occupation            Energy/Eh            Energy/eV
      -------------------------------------------------------------
         1        2.0000           -0.7132036             -19.4073
       ...           ...                  ...                  ...
        87        2.0000           -0.4170675             -11.3490
        88        2.0000           -0.4149999             -11.2927
        89        2.0000           -0.4136926             -11.2571
        90        2.0000           -0.4118337             -11.2066
        91        2.0000           -0.4086932             -11.1211
        92        2.0000           -0.4058469             -11.0437
        93        2.0000           -0.4053571             -11.0303
        94        2.0000           -0.4035031             -10.9799
        95        2.0000           -0.3983179             -10.8388
        96        2.0000           -0.3856264             -10.4934
        97        2.0000           -0.3768951             -10.2558
        98        2.0000           -0.3750327             -10.2052
        99        2.0000           -0.3556061              -9.6765 (HOMO)
       100                         -0.2309327              -6.2840 (LUMO)
       101                         -0.2287042              -6.2234
       102                         -0.2255065              -6.1363
       103                         -0.2176750              -5.9232
       104                         -0.2069694              -5.6319
       105                         -0.1929067              -5.2493
       106                         -0.1540360              -4.1915
       107                         -0.1046049              -2.8464
       108                         -0.0670311              -1.8240
       109                          0.0009248               0.0252
       110                          0.0017882               0.0487
       ...                                ...                  ...
       184                          0.7221635              19.6511
      -------------------------------------------------------------
                  HL-Gap            0.1246734 Eh            3.3925 eV
             Fermi-level            0.0000000 Eh            0.0000 eV

     #   Z          covCN         q      C6AA      α(0)
     1   7 N        2.685    -0.262    26.785     7.686
     2   6 C        2.906     0.074    26.341     8.416
     3   6 C        2.923    -0.046    29.147     8.853
     4   6 C        2.925    -0.038    28.953     8.824
     5   6 C        2.970     0.004    27.928     8.668
     6   6 C        2.924    -0.043    29.080     8.843
     7   6 C        2.922    -0.052    29.287     8.875
     8   6 C        3.811    -0.071    21.845     6.653
     9   6 C        3.797     0.019    20.253     6.408
    10   6 C        3.663     0.184    17.910     6.071
    11   6 C        3.808    -0.068    21.789     6.645
    12   6 C        3.855    -0.029    21.046     6.525
    13   6 C        3.805    -0.064    21.731     6.636
    14   6 C        3.801    -0.062    21.688     6.631
    15   6 C        3.752    -0.103    22.531     6.769
    16   8 O        1.654    -0.473    22.314     6.377
    17   7 N        2.784    -0.120    23.617     7.218
    18   6 C        3.070     0.041    27.000     8.520
    19   6 C        3.112    -0.025    28.475     8.742
    20   6 C        3.057    -0.050    29.188     8.860
    21   6 C        2.909    -0.055    29.368     8.886
    22   6 C        2.912    -0.049    29.224     8.864
    23   6 C        3.061     0.040    27.045     8.528
    24   6 C        2.924    -0.039    28.981     8.828
    25   6 C        2.919    -0.045    29.115     8.848
    26   6 C        3.754    -0.112    22.693     6.793
    27   8 O        1.610    -0.597    25.112     6.763
    28   1 H        0.860     0.146     1.431     1.874
    29   1 H        0.805     0.292     0.744     1.355
    30   1 H        0.926     0.043     2.410     2.427
    31   1 H        0.926     0.036     2.496     2.471
    32   1 H        0.925     0.031     2.572     2.508
    33   1 H        0.925     0.025     2.654     2.547
    34   1 H        0.924     0.065     2.141     2.288
    35   1 H        0.924     0.059     2.207     2.323
    36   1 H        0.924     0.063     2.169     2.303
    37   1 H        0.860     0.178     1.224     1.733
    38   1 H        0.860     0.206     1.077     1.626
    39   1 H        0.923     0.025     2.656     2.549
    40   1 H        0.924     0.049     2.326     2.385
    41   1 H        0.924     0.063     2.163     2.300
    42   1 H        0.924     0.040     2.448     2.447
    43   1 H        0.924     0.030     2.587     2.515
    44   1 H        0.924     0.021     2.713     2.576
    45   1 H        0.924     0.058     2.219     2.329
    46   1 H        0.925     0.030     2.588     2.516
    47   1 H        0.925     0.035     2.513     2.479
    48   1 H        0.925     0.030     2.582     2.513
    49   1 H        0.860     0.156     1.364     1.829
    50   1 H        0.805     0.274     0.805     1.410
    51   1 H        0.926     0.019     2.746     2.591
    52   1 H        0.926     0.040     2.445     2.445
    53   1 H        0.926     0.024     2.678     2.559
    54   1 H        0.926     0.024     2.667     2.554
    55   1 H        0.925     0.053     2.284     2.363
    56   1 H        0.924     0.051     2.310     2.377
    57   1 H        0.925     0.041     2.440     2.443
    58   1 H        0.925     0.047     2.356     2.400
    59   1 H        0.805     0.283     0.776     1.383
    60   8 O        1.610    -0.600    25.196     6.775
    61   1 H        0.804     0.314     0.681     1.297
    62   1 H        0.804     0.304     0.709     1.323
    63   7 N        2.692    -0.183    24.974     7.422
    64   6 C        2.753     0.264    22.555     7.777
    65   8 O        0.858    -0.436    22.416     6.348
    66   6 C        3.757    -0.143    23.309     6.883
    67   6 C        2.749     0.277    22.305     7.733
    68   8 O        0.859    -0.455    22.807     6.403
    69   1 H        0.925     0.055     2.259     2.350
    70   1 H        0.925     0.060     2.196     2.317
    71   1 H        0.925     0.079     1.987     2.204
    72   7 N        2.686    -0.176    24.803     7.397
    73   6 C        3.690    -0.043    21.530     6.640
    74   1 H        0.924     0.053     2.286     2.364
    75   1 H        0.924     0.050     2.320     2.382
    76   1 H        0.925     0.082     1.955     2.187

 Mol. C6AA /au·bohr⁶  :      55558.800452
 Mol. C8AA /au·bohr⁸  :    1265582.682867
 Mol. α(0) /au        :        361.952851


Wiberg/Mayer (AO) data.
largest (>0.10) Wiberg bond orders for each atom

 ---------------------------------------------------------------------------
     #   Z sym  total        # sym  WBO       # sym  WBO       # sym  WBO
 ---------------------------------------------------------------------------
     1   7 N    3.157 --     2 C    1.049    10 C    0.995    28 H    0.946
     2   6 C    3.974 --     7 C    1.394     3 C    1.376     1 N    1.049
                             5 C    0.100
     3   6 C    3.991 --     4 C    1.465     2 C    1.376    30 H    0.966
                             6 C    0.106
     4   6 C    3.991 --     3 C    1.465     5 C    1.397    31 H    0.968
                             7 C    0.107
     5   6 C    3.987 --     6 C    1.416     4 C    1.397     8 C    1.010
                             2 C    0.100
     6   6 C    3.990 --     7 C    1.443     5 C    1.416    32 H    0.968
                             3 C    0.106
     7   6 C    3.990 --     6 C    1.443     2 C    1.394    33 H    0.968
                             4 C    0.107
     8   6 C    3.991 --     5 C    1.010     9 C    0.984    34 H    0.970
                            35 H    0.961
     9   6 C    3.964 --     8 C    0.984    63 N    0.975    36 H    0.951
                            64 C    0.915
    10   6 C    3.939 --     1 N    0.995    11 C    0.993    39 H    0.956
                            16 O    0.944
    11   6 C    3.991 --    10 C    0.993    12 C    0.980    40 H    0.969
                            58 H    0.968
    12   6 C    3.991 --    20 C    1.005    13 C    0.985    11 C    0.980
                            41 H    0.954
    13   6 C    3.995 --    14 C    1.008    12 C    0.985    42 H    0.977
                            43 H    0.975
    14   6 C    3.995 --    15 C    1.019    13 C    1.008    44 H    0.975
                            45 H    0.972
    15   6 C    3.996 --    14 C    1.019    47 H    0.988    48 H    0.988
                            46 H    0.987
    16   8 O    1.977 --    10 C    0.944    29 H    0.897
    17   7 N    3.527 --    18 C    1.174    23 C    1.172    49 H    0.946
    18   6 C    3.958 --    21 C    1.343    19 C    1.243    17 N    1.174
    19   6 C    3.983 --    22 C    1.331    18 C    1.243    20 C    1.202
    20   6 C    3.971 --    23 C    1.552    19 C    1.202    12 C    1.005
    21   6 C    3.988 --    24 C    1.487    18 C    1.343    51 H    0.969
                            22 C    0.111
    22   6 C    3.989 --    25 C    1.501    19 C    1.331    52 H    0.963
                            21 C    0.111
    23   6 C    3.950 --    20 C    1.552    17 N    1.172    26 C    1.029
    24   6 C    3.988 --    21 C    1.487    25 C    1.374    53 H    0.972
    25   6 C    3.990 --    22 C    1.501    24 C    1.374    54 H    0.972
    26   6 C    3.995 --    23 C    1.029    57 H    0.979    55 H    0.976
                            56 H    0.967
    27   8 O    1.855 --    59 H    0.918    61 H    0.859
    28   1 H    0.978 --     1 N    0.946
    29   1 H    0.914 --    16 O    0.897
    30   1 H    0.998 --     3 C    0.966
    31   1 H    0.998 --     4 C    0.968
    32   1 H    0.999 --     6 C    0.968
    33   1 H    0.999 --     7 C    0.968
    34   1 H    0.995 --     8 C    0.970
    35   1 H    0.995 --     8 C    0.961
    36   1 H    0.996 --     9 C    0.951
    37   1 H    0.968 --    63 N    0.936
    38   1 H    0.958 --    72 N    0.907
    39   1 H    0.999 --    10 C    0.956
    40   1 H    0.997 --    11 C    0.969
    41   1 H    0.996 --    12 C    0.954
    42   1 H    0.998 --    13 C    0.977
    43   1 H    0.999 --    13 C    0.975
    44   1 H    1.000 --    14 C    0.975
    45   1 H    0.997 --    14 C    0.972
    46   1 H    0.999 --    15 C    0.987
    47   1 H    0.999 --    15 C    0.988
    48   1 H    0.999 --    15 C    0.988
    49   1 H    0.975 --    17 N    0.946
    50   1 H    0.925 --    60 O    0.922
    51   1 H    0.999 --    21 C    0.969
    52   1 H    0.998 --    22 C    0.963
    53   1 H    0.999 --    24 C    0.972
    54   1 H    0.999 --    25 C    0.972
    55   1 H    0.996 --    26 C    0.976
    56   1 H    0.993 --    26 C    0.967
    57   1 H    0.997 --    26 C    0.979
    58   1 H    0.998 --    11 C    0.968
    59   1 H    0.920 --    27 O    0.918
    60   8 O    1.824 --    50 H    0.922    62 H    0.871
    61   1 H    0.902 --    27 O    0.859
    62   1 H    0.908 --    60 O    0.871
    63   7 N    3.448 --    67 C    1.266     9 C    0.975    37 H    0.936
                            68 O    0.191
    64   6 C    3.956 --    65 O    1.678    72 N    1.292     9 C    0.915
    65   8 O    2.010 --    64 C    1.678    72 N    0.212
    66   6 C    3.992 --    67 C    0.984    71 H    0.981    69 H    0.973
                            70 H    0.967
    67   6 C    3.949 --    68 O    1.650    63 N    1.266    66 C    0.984
    68   8 O    1.993 --    67 C    1.650    63 N    0.191
    69   1 H    0.997 --    66 C    0.973
    70   1 H    0.996 --    66 C    0.967
    71   1 H    0.993 --    66 C    0.981
    72   7 N    3.467 --    64 C    1.292    73 C    1.006    38 H    0.907
                            65 O    0.212
    73   6 C    3.965 --    72 N    1.006    74 H    0.977    76 H    0.977
                            75 H    0.976
    74   1 H    0.997 --    73 C    0.977
    75   1 H    0.997 --    73 C    0.976
    76   1 H    0.993 --    73 C    0.977
 ---------------------------------------------------------------------------

Topologies differ in total number of bonds
Writing topology from bond orders to xtbtopo.mol

molecular dipole:
                 x           y           z       tot (Debye)
 q only:       -0.036      -0.351       0.854
   full:       -0.463      -0.736       1.005       3.378
molecular quadrupole (traceless):
                xx          xy          yy          xz          yz          zz
 q only:      -15.548      20.546      -8.320      -5.611      15.354      23.868
  q+dip:      -21.878      24.597     -13.848      -8.612      28.041      35.726
   full:      -23.798      23.969     -11.627      -8.788      24.083      35.424

           -------------------------------------------------
          |               Frequency Printout                |
           -------------------------------------------------
 projected vibrational frequencies (cm⁻¹)
eigval :       -0.00    -0.00     0.00     0.00     0.00     0.00
eigval :        4.44     9.14    18.58    21.88    24.70    27.41
eigval :       35.02    38.61    41.13    48.07    51.53    54.08
eigval :       62.48    64.63    67.96    70.19    72.00    85.28
eigval :       88.83    98.20   109.08   122.59   124.64   125.80
eigval :      141.42   143.86   151.52   165.35   166.76   172.35
eigval :      187.20   188.84   194.69   221.70   236.90   237.35
eigval :      239.53   251.63   270.22   286.60   288.69   291.77
eigval :      304.56   311.31   322.40   347.91   360.83   379.57
eigval :      385.21   397.39   411.17   415.35   422.22   443.69
eigval :      445.95   452.05   463.25   471.15   481.50   489.07
eigval :      495.69   526.74   531.51   542.61   552.85   580.17
eigval :      594.46   601.99   613.58   625.26   630.53   639.96
eigval :      646.21   656.76   688.69   696.05   704.15   724.86
eigval :      752.45   762.88   774.44   787.37   812.13   815.62
eigval :      859.63   864.67   869.51   870.68   871.84   879.66
eigval :      893.31   902.67   912.18   921.38   924.51   926.92
eigval :      934.52   953.04   978.22   991.27   993.73   997.55
eigval :     1005.42  1006.24  1021.64  1028.62  1032.14  1037.84
eigval :     1068.75  1082.09  1086.32  1095.89  1104.86  1110.90
eigval :     1117.60  1121.72  1126.15  1130.88  1140.27  1142.37
eigval :     1164.39  1164.85  1168.86  1177.54  1195.23  1202.09
eigval :     1211.37  1214.55  1217.63  1226.02  1229.66  1238.37
eigval :     1255.19  1258.89  1266.92  1274.22  1277.82  1282.53
eigval :     1288.96  1296.94  1309.86  1317.07  1319.96  1325.87
eigval :     1331.11  1344.23  1344.74  1367.09  1370.30  1373.82
eigval :     1390.62  1393.21  1401.82  1412.70  1415.57  1420.51
eigval :     1432.17  1435.67  1450.48  1456.26  1457.55  1462.54
eigval :     1465.32  1474.45  1475.15  1480.89  1484.68  1492.66
eigval :     1495.36  1496.05  1497.42  1507.55  1509.21  1538.65
eigval :     1566.33  1578.62  1580.56  1595.59  1609.68  1629.06
eigval :     1717.03  1759.80  2873.32  2917.20  2963.56  2971.59
eigval :     2974.87  2981.71  2987.29  2990.29  2990.90  2992.21
eigval :     2995.39  2997.97  3000.59  3014.73  3021.75  3023.12
eigval :     3023.81  3029.17  3030.38  3032.17  3039.92  3056.98
eigval :     3066.23  3068.67  3069.66  3071.71  3076.64  3083.23
eigval :     3088.91  3098.35  3112.83  3319.56  3345.57  3401.25
eigval :     3448.86  3459.34  3482.28  3532.67  3653.44  3660.66
 reduced masses (amu)
   1: 11.90   2: 12.09   3: 11.69   4: 11.84   5: 12.00   6: 12.13   7: 11.43   8: 11.73
   9: 12.34  10: 11.24  11: 10.91  12: 12.01  13: 11.92  14: 11.40  15: 12.04  16: 11.09
  17: 13.10  18:  7.61  19: 12.58  20: 11.54  21: 11.96  22:  7.52  23: 11.54  24:  6.46
  25:  8.23  26: 10.85  27:  5.57  28: 10.25  29:  9.05  30:  3.15  31: 10.08  32: 11.72
  33: 10.87  34: 10.61  35:  8.13  36:  7.08  37: 11.39  38:  7.76  39:  5.57  40: 11.15
  41:  5.87  42: 11.02  43: 10.05  44:  8.75  45:  8.71  46:  4.89  47:  8.09  48: 11.89
  49:  8.55  50:  9.93  51: 11.94  52: 10.23  53:  9.26  54:  7.23  55:  8.22  56:  7.51
  57:  9.67  58:  9.34  59:  9.30  60:  7.18  61:  4.74  62:  4.99  63:  9.47  64:  9.14
  65:  6.65  66: 10.98  67: 10.57  68:  4.49  69: 10.13  70:  7.42  71:  7.61  72:  8.20
  73: 10.99  74: 10.70  75: 10.89  76:  9.68  77:  3.14  78: 10.31  79:  8.73  80: 10.71
  81:  6.09  82: 10.49  83: 11.55  84: 11.04  85:  9.64  86: 10.51  87:  3.52  88:  2.53
  89:  5.75  90:  6.71  91:  9.38  92: 11.04  93:  6.40  94:  3.51  95:  7.00  96:  9.20
  97:  4.07  98:  3.80  99:  2.87 100:  9.09 101:  2.90 102:  4.10 103:  8.90 104:  6.66
 105: 10.65 106:  6.01 107:  5.21 108:  7.53 109:  5.48 110:  9.51 111:  6.35 112:  9.09
 113:  4.39 114:  8.50 115:  6.28 116:  7.03 117:  9.24 118:  6.92 119:  3.74 120:  8.44
 121:  7.85 122:  7.70 123:  7.40 124:  6.91 125:  5.81 126:  4.97 127:  4.72 128:  5.35
 129:  4.83 130:  2.58 131:  2.50 132:  4.96 133:  5.34 134:  5.85 135:  4.61 136:  5.93
 137:  4.53 138:  4.35 139:  4.33 140:  4.08 141:  3.35 142:  7.19 143:  4.28 144:  5.57
 145:  2.46 146:  4.73 147:  6.48 148:  9.39 149:  5.15 150:  5.09 151:  6.47 152:  6.73
 153:  6.48 154:  9.04 155:  6.91 156:  3.65 157:  6.92 158:  2.63 159:  4.98 160:  7.58
 161:  3.33 162:  9.87 163:  8.00 164:  8.53 165: 11.04 166:  1.69 167:  1.98 168:  1.57
 169:  1.60 170:  2.08 171:  1.74 172:  1.95 173:  2.54 174:  2.07 175:  1.94 176: 10.33
 177:  9.59 178:  1.55 179:  1.58 180:  2.10 181:  2.11 182: 11.44 183: 11.49 184: 11.70
 185: 11.54 186: 11.67 187: 13.15 188: 13.19 189:  1.72 190:  1.75 191:  1.79 192:  1.92
 193:  1.83 194:  1.92 195:  1.81 196:  1.47 197:  1.75 198:  1.68 199:  1.69 200:  1.56
 201:  1.70 202:  1.62 203:  1.80 204:  1.81 205:  1.81 206:  1.57 207:  1.79 208:  1.73
 209:  1.51 210:  1.78 211:  1.69 212:  1.75 213:  1.78 214:  1.87 215:  1.79 216:  1.81
 217:  1.87 218:  1.88 219:  1.85 220:  1.88 221:  1.81 222:  1.86 223:  1.87 224:  1.85
 225:  1.86 226:  1.87 227:  1.84 228:  1.83
 IR intensities (km·mol⁻¹)
   1:  0.01   2:  0.02   3:  0.08   4:  0.01   5:  0.07   6:  0.03   7:  0.72   8:  0.33
   9:  0.74  10:  0.09  11:  0.79  12:  0.35  13:  4.76  14:  0.20  15:  0.77  16:  0.88
  17:  2.32  18:  0.88  19:  4.02  20:  2.32  21:  3.84  22:  8.69  23:  0.86  24:  1.59
  25:  2.42  26: 12.48  27:  1.49  28:  1.23  29:  2.22  30:  1.49  31:  1.25  32:  3.49
  33:  8.67  34:  6.68  35: 53.36  36: 39.90  37:  8.99  38: 42.86  39: 63.89  40: 48.76
  41:  1.19  42:  6.37  43:  3.52  44:  8.91  45: 13.23  46:147.02  47: 55.32  48:  2.65
  49:  2.21  50:  1.40  51: 11.08  52:  4.41  53:  4.88  54: 10.07  55: 27.03  56: 29.31
  57: 24.21  58:  0.85  59:  6.16  60: 57.86  61: 85.03  62: 95.67  63:  9.13  64:  6.61
  65: 99.89  66:  0.57  67:  1.84  68: 91.39  69: 11.83  70: 74.31  71: 15.15  72:  3.93
  73:  6.50  74: 23.85  75: 10.79  76: 11.23  77:251.05  78: 10.25  79: 57.37  80:  9.45
  81: 38.46  82:  6.53  83:  0.68  84:  2.12  85:  4.21  86: 40.46  87: 29.02  88: 21.47
  89: 29.92  90: 58.66  91: 16.42  92:  0.37  93:  1.57  94:  0.69  95: 11.96  96: 13.68
  97:  6.23  98:  1.10  99:  0.24 100:  0.65 101:  0.70 102:  0.41 103:  0.89 104: 17.11
 105: 18.51 106: 10.49 107:  1.86 108: 12.94 109: 29.96 110: 29.80 111: 13.32 112: 43.18
 113:  8.62 114: 29.63 115:  0.56 116: 23.58 117:  7.56 118: 60.59 119:  0.35 120:  1.95
 121:  4.03 122: 34.58 123: 10.40 124: 17.61 125:  1.82 126:  1.51 127:  3.63 128:  2.49
 129: 12.54 130:  5.52 131: 14.05 132:  2.40 133:  7.64 134: 32.47 135:  8.93 136: 16.54
 137:  7.49 138: 83.54 139: 40.56 140: 32.46 141:  1.45 142: 29.45 143:  4.88 144: 50.52
 145:  0.24 146:  1.96 147: 26.43 148: 37.72 149:  5.34 150:  0.98 151:  4.12 152: 30.10
 153: 26.95 154: 13.55 155:  2.18 156: 19.46 157: 16.22 158:  2.67 159: 10.17 160: 13.37
 161:  2.94 162:246.55 163: 31.34 164:206.85 165: 58.41 166:  5.21 167:  2.26 168:  9.97
 169: 14.25 170:  0.35 171:  4.09 172:  3.23 173: 27.79 174:  1.40 175:  1.72 176:  9.81
 177: 82.46 178:  2.20 179:  1.63 180:130.18 181:160.01 182:  5.31 183:  0.34 184:  6.98
 185: 15.31 186: 17.07 187:300.08 188:575.32 189: 52.49 190: 13.01 191: 27.87 192: 27.92
 193: 31.60 194: 17.23 195: 11.85 196: 52.91 197: 36.08 198: 36.68 199: 29.50 200: 11.96
 201:  3.14 202: 37.68 203: 13.26 204: 28.01 205: 47.58 206: 14.37 207: 48.82 208:  7.01
 209: 41.67 210: 24.85 211: 13.04 212:  2.50 213: 18.24 214: 55.48 215: 34.64 216: 20.05
 217: 90.56 218: 28.01 219: 25.34 220:130.92 221:  5.36 222:464.45 223:207.93 224: 13.83
 225:  7.99 226: 12.23 227:  8.11 228: 10.91
 Raman intensities (Ä⁴*amu⁻¹)
   1:  0.00   2:  0.00   3:  0.00   4:  0.00   5:  0.00   6:  0.00   7:  0.00   8:  0.00
   9:  0.00  10:  0.00  11:  0.00  12:  0.00  13:  0.00  14:  0.00  15:  0.00  16:  0.00
  17:  0.00  18:  0.00  19:  0.00  20:  0.00  21:  0.00  22:  0.00  23:  0.00  24:  0.00
  25:  0.00  26:  0.00  27:  0.00  28:  0.00  29:  0.00  30:  0.00  31:  0.00  32:  0.00
  33:  0.00  34:  0.00  35:  0.00  36:  0.00  37:  0.00  38:  0.00  39:  0.00  40:  0.00
  41:  0.00  42:  0.00  43:  0.00  44:  0.00  45:  0.00  46:  0.00  47:  0.00  48:  0.00
  49:  0.00  50:  0.00  51:  0.00  52:  0.00  53:  0.00  54:  0.00  55:  0.00  56:  0.00
  57:  0.00  58:  0.00  59:  0.00  60:  0.00  61:  0.00  62:  0.00  63:  0.00  64:  0.00
  65:  0.00  66:  0.00  67:  0.00  68:  0.00  69:  0.00  70:  0.00  71:  0.00  72:  0.00
  73:  0.00  74:  0.00  75:  0.00  76:  0.00  77:  0.00  78:  0.00  79:  0.00  80:  0.00
  81:  0.00  82:  0.00  83:  0.00  84:  0.00  85:  0.00  86:  0.00  87:  0.00  88:  0.00
  89:  0.00  90:  0.00  91:  0.00  92:  0.00  93:  0.00  94:  0.00  95:  0.00  96:  0.00
  97:  0.00  98:  0.00  99:  0.00 100:  0.00 101:  0.00 102:  0.00 103:  0.00 104:  0.00
 105:  0.00 106:  0.00 107:  0.00 108:  0.00 109:  0.00 110:  0.00 111:  0.00 112:  0.00
 113:  0.00 114:  0.00 115:  0.00 116:  0.00 117:  0.00 118:  0.00 119:  0.00 120:  0.00
 121:  0.00 122:  0.00 123:  0.00 124:  0.00 125:  0.00 126:  0.00 127:  0.00 128:  0.00
 129:  0.00 130:  0.00 131:  0.00 132:  0.00 133:  0.00 134:  0.00 135:  0.00 136:  0.00
 137:  0.00 138:  0.00 139:  0.00 140:  0.00 141:  0.00 142:  0.00 143:  0.00 144:  0.00
 145:  0.00 146:  0.00 147:  0.00 148:  0.00 149:  0.00 150:  0.00 151:  0.00 152:  0.00
 153:  0.00 154:  0.00 155:  0.00 156:  0.00 157:  0.00 158:  0.00 159:  0.00 160:  0.00
 161:  0.00 162:  0.00 163:  0.00 164:  0.00 165:  0.00 166:  0.00 167:  0.00 168:  0.00
 169:  0.00 170:  0.00 171:  0.00 172:  0.00 173:  0.00 174:  0.00 175:  0.00 176:  0.00
 177:  0.00 178:  0.00 179:  0.00 180:  0.00 181:  0.00 182:  0.00 183:  0.00 184:  0.00
 185:  0.00 186:  0.00 187:  0.00 188:  0.00 189:  0.00 190:  0.00 191:  0.00 192:  0.00
 193:  0.00 194:  0.00 195:  0.00 196:  0.00 197:  0.00 198:  0.00 199:  0.00 200:  0.00
 201:  0.00 202:  0.00 203:  0.00 204:  0.00 205:  0.00 206:  0.00 207:  0.00 208:  0.00
 209:  0.00 210:  0.00 211:  0.00 212:  0.00 213:  0.00 214:  0.00 215:  0.00 216:  0.00
 217:  0.00 218:  0.00 219:  0.00 220:  0.00 221:  0.00 222:  0.00 223:  0.00 224:  0.00
 225:  0.00 226:  0.00 227:  0.00 228:  0.00
 output can be read by thermo (or use thermo option).
 writing <g98.out> molden fake output.
 recommended (thermochemical) frequency scaling factor: 1.0
           -------------------------------------------------
          |             Thermodynamic Functions             |
           -------------------------------------------------

Refinement of some symmetry elements was terminated before convergence was reached.
Some symmetry elements may remain unidentified.
Molecule has no symmetry elements
It seems to be the C1 point group
c1  symmetry found (for desy threshold:  0.10E+00) used in thermo

          ...................................................
          :                      SETUP                      :
          :.................................................:
          :  # frequencies                         222      :
          :  # imaginary freq.                       0      :
          :  linear?                             false      :
          :  only rotor calc.                    false      :
          :  symmetry                               c1      :
          :  rotational number                       1      :
          :  scaling factor                  1.0000000      :
          :  rotor cutoff                   50.0000000 cm⁻¹ :
          :  imag. cutoff                  -20.0000000 cm⁻¹ :
          :.................................................:

    mode    ω/cm⁻¹     T·S(HO)/kcal·mol⁻¹    T·S(FR)/kcal·mol⁻¹   T·S(vib)
   ------------------------------------------------------------------------
       1      4.44    -2.86889 (  0.01%)    -1.77342 ( 99.99%)    -1.77349
       2      9.14    -2.44174 (  0.11%)    -1.55990 ( 99.89%)    -1.56088
       3     18.58    -2.02167 (  1.87%)    -1.34982 ( 98.13%)    -1.36238
       4     21.88    -1.92473 (  3.54%)    -1.30131 ( 96.46%)    -1.32338
       5     24.70    -1.85309 (  5.62%)    -1.26546 ( 94.38%)    -1.29848
       6     27.41    -1.79149 (  8.28%)    -1.23463 ( 91.72%)    -1.28074
       7     35.02    -1.64649 ( 19.40%)    -1.16199 ( 80.60%)    -1.25600
       8     38.61    -1.58890 ( 26.23%)    -1.13312 ( 73.77%)    -1.25267
       9     41.13    -1.55157 ( 31.40%)    -1.11440 ( 68.60%)    -1.25169
      10     48.07    -1.45954 ( 46.07%)    -1.06821 ( 53.93%)    -1.24849
      11     51.53    -1.41851 ( 53.01%)    -1.04760 ( 46.99%)    -1.24423
      12     54.08    -1.39007 ( 57.78%)    -1.03330 ( 42.22%)    -1.23944
      13     62.48    -1.30510 ( 70.91%)    -0.99054 ( 29.09%)    -1.21361
      14     64.63    -1.28522 ( 73.62%)    -0.98052 ( 26.38%)    -1.20485
      15     67.96    -1.25565 ( 77.34%)    -0.96561 ( 22.66%)    -1.18994
      16     70.19    -1.23675 ( 79.52%)    -0.95607 ( 20.48%)    -1.17927
      17     72.00    -1.22183 ( 81.13%)    -0.94854 ( 18.87%)    -1.17025
      18     85.28    -1.12272 ( 89.43%)    -0.89839 ( 10.57%)    -1.09901
      19     88.83    -1.09890 ( 90.88%)    -0.88630 (  9.12%)    -1.07950
      20     98.20    -1.04047 ( 93.70%)    -0.85659 (  6.30%)    -1.02889
      21    109.08    -0.97950 ( 95.77%)    -0.82546 (  4.23%)    -0.97298
      22    122.59    -0.91207 ( 97.31%)    -0.79087 (  2.69%)    -0.90881
      23    124.64    -0.90255 ( 97.48%)    -0.78596 (  2.52%)    -0.89961
      24    125.80    -0.89723 ( 97.56%)    -0.78322 (  2.44%)    -0.89446
      25    141.42    -0.83022 ( 98.46%)    -0.74854 (  1.54%)    -0.82896
      26    143.86    -0.82049 ( 98.56%)    -0.74348 (  1.44%)    -0.81938
      27    151.52    -0.79099 ( 98.83%)    -0.72810 (  1.17%)    -0.79025
      28    165.35    -0.74169 ( 99.17%)    -0.70222 (  0.83%)    -0.74136
      29    166.76    -0.73694 ( 99.20%)    -0.69972 (  0.80%)    -0.73664
      30    172.35    -0.71846 ( 99.30%)    -0.68995 (  0.70%)    -0.71826
      31    187.20    -0.67244 ( 99.49%)    -0.66546 (  0.51%)    -0.67240
      32    188.84    -0.66762 ( 99.51%)    -0.66288 (  0.49%)    -0.66760
      33    194.69    -0.65076 ( 99.57%)    -0.65383 (  0.43%)    -0.65077
      34    221.70    -0.57995 ( 99.74%)    -0.61535 (  0.26%)    -0.58004
      35    236.90    -0.54443 ( 99.80%)    -0.59571 (  0.20%)    -0.54453
      36    237.35    -0.54342 ( 99.80%)    -0.59514 (  0.20%)    -0.54352
      37    239.53    -0.53857 ( 99.81%)    -0.59244 (  0.19%)    -0.53867
      38    251.63    -0.51257 ( 99.84%)    -0.57784 (  0.16%)    -0.51267
      39    270.22    -0.47550 ( 99.88%)    -0.55673 (  0.12%)    -0.47559
      40    286.60    -0.44543 ( 99.91%)    -0.53929 (  0.09%)    -0.44552
      41    288.69    -0.44175 ( 99.91%)    -0.53714 (  0.09%)    -0.44184
      42    291.77    -0.43639 ( 99.91%)    -0.53399 (  0.09%)    -0.43648
   ------------------------------------------------------------------------

   temp. (K)  partition function   enthalpy   heat capacity  entropy
                                   cal/mol     cal/K/mol   cal/K/mol   J/K/mol
 298.15  VIB  0.260E+23            25200.464    138.780    166.010
         ROT  0.420E+08              888.752      2.981     37.865
         INT  0.109E+31            26089.217    141.760    203.875
         TR   0.108E+29             1481.254      4.968     44.499
         TOT                       27570.4706   146.7286   248.3739  1039.1963

       T/K    H(0)-H(T)+PV         H(T)/Eh          T*S/Eh         G(T)/Eh
   ------------------------------------------------------------------------
    298.15    0.439363E-01    0.671383E+00    0.118010E+00    0.553372E+00
   ------------------------------------------------------------------------

         :::::::::::::::::::::::::::::::::::::::::::::::::::::
         ::                  THERMODYNAMIC                  ::
         :::::::::::::::::::::::::::::::::::::::::::::::::::::
         :: total free energy        -109.741332626821 Eh   ::
         ::.................................................::
         :: total energy             -110.294705077379 Eh   ::
         :: zero point energy           0.627446553719 Eh   ::
         :: G(RRHO) w/o ZPVE           -0.074074103162 Eh   ::
         :: G(RRHO) contrib.            0.553372450558 Eh   ::
         :::::::::::::::::::::::::::::::::::::::::::::::::::::

           -------------------------------------------------
          | TOTAL ENERGY             -110.294705077379 Eh   |
          | TOTAL ENTHALPY           -109.623322182049 Eh   |
          | TOTAL FREE ENERGY        -109.741332626821 Eh   |
          | GRADIENT NORM               0.000188744728 Eh/α |
          | HOMO-LUMO GAP               3.392535023141 eV   |
           -------------------------------------------------

------------------------------------------------------------------------
 * finished run on 2026/08/20 at 19:03:25.985     
------------------------------------------------------------------------
 total:
 * wall-time:     0 d,  0 h,  0 min, 44.382 sec
 *  cpu-time:     0 d,  0 h,  0 min, 43.188 sec
 * ratio c/w:     0.973 speedup
 SCF:
 * wall-time:     0 d,  0 h,  0 min,  0.098 sec
 *  cpu-time:     0 d,  0 h,  0 min,  0.109 sec
 * ratio c/w:     1.116 speedup
 analytical hessian:
 * wall-time:     0 d,  0 h,  0 min, 44.198 sec
 *  cpu-time:     0 d,  0 h,  0 min, 43.000 sec
 * ratio c/w:     0.973 speedup



================ STDERR ================

normal termination of xtb
