76
 xtb: 6.7.1pre (5071a88)
N            0.21172103538564        0.51832420232767       -0.57655516185933
C            1.53721681738962        0.20955523857645       -0.33107688342830
C            2.25530633948668        0.72448188159556        0.74969829810535
C            3.59906671968830        0.44606924718574        0.88843185223104
C            4.25839881737111       -0.38382411652338       -0.00912956688817
C            3.51051663470084       -0.99824579226940       -1.00681105701429
C            2.17207021706221       -0.71128890305273       -1.16804790215801
C            5.75530120122534       -0.46659399707650       -0.01830839303232
C            6.26919302434002        0.68404483483471       -0.90546178698059
C           -0.43999037745959        1.70722771519905       -0.30790396968087
C            0.07055370944456        2.87053533679755        0.09766070526734
C           -0.80849186515149        4.05691083248337        0.39637225133563
C           -0.02257435910250        5.37676484430444        0.40622025256035
C            0.52140866014200        5.75048247432336       -0.97086374777709
C            1.20662531788107        7.11135997631076       -0.94645316080763
O            0.37887076943050        0.26193784682034       -3.60539116293987
N           -2.04145330245191        3.48247967015818        3.84911043532847
C           -3.23458111275506        3.72965862803332        3.23200830452011
C           -2.95560656328188        3.97406145902716        1.86359646703610
C           -1.53736038953090        3.86123374268646        1.69921439097948
C           -4.52653684270672        3.77519214976697        3.73789989832059
C           -4.01260397133255        4.26115915298322        0.99674047273025
C           -1.02144065045853        3.55984390125347        2.93176389621455
C           -5.54762093269590        4.06721758039865        2.85802690926729
C           -5.29198416413175        4.30537555535308        1.50456509429603
C            0.37401605854484        3.31999877315107        3.38733736350628
O            1.56545003968483        2.59810714120752       -2.82622124863846
H           -0.18369663445361       -0.03350044459653       -1.30282449740333
H           -0.13139131920447        0.44973111884124       -4.36317621151977
H            1.77554616392350        1.34442803564177        1.48958549495410
H            4.17418432697362        0.90183824924415        1.70178103383043
H            3.99619042215213       -1.70119555943855       -1.67035702043039
H            1.61548836099922       -1.17339433205699       -1.95021493382494
H            6.12303347450416       -1.40797958078443       -0.43048148962542
H            6.19556265298733       -0.33331322238930        0.97128934722464
H            5.88643320230575        1.64127631254563       -0.53011312689853
H            6.02915794463447       -0.27427693131547       -2.75914196269502
H            7.58973212029314        2.47880315164039       -2.03276252048075
H           -1.49989463960760        1.62493739136655       -0.45835902155867
H            1.13769616374601        2.98958268992761        0.27119494700985
H           -1.55833162970237        4.12316638073295       -0.38635546612729
H           -0.67493046983800        6.16850182569182        0.76110324038764
H            0.80370807567591        5.29721917798020        1.14581048233997
H            1.27176368106206        4.98779351034741       -1.27055656578541
H           -0.25920181235125        5.76132733297529       -1.67656154408279
H            1.62716424168016        7.35775197527170       -1.89358369314644
H            0.53312257824925        7.87409918562769       -0.60695508556249
H            2.06269449174709        7.09558030626851       -0.20400169483022
H           -1.96446052100185        3.25194572127686        4.81552151259755
H           -2.55367309820150        6.18960586430332        2.22610708250095
H           -4.75930423253154        3.60016436051090        4.75195176614805
H           -3.81480203796918        4.48012127615321       -0.06884166436484
H           -6.58162097034757        4.15456636545624        3.17294389806865
H           -6.11099729261614        4.57960821479097        0.81017331607952
H            1.05752508204624        3.50041557186730        2.61107803034402
H            0.57746033718337        3.90247557925385        4.26279805466725
H            0.45963023969292        2.23547412687935        3.69076373427504
H            2.48634923885647        2.50664905010756       -2.54922162197914
H            1.06939308170492        2.84096311703257       -2.02087945249032
O           -2.71169482549468        7.12081437675164        2.38567127430005
H            0.82423042932673        1.07246863556567       -3.32336062402880
H           -3.65320206636957        7.24480129538865        2.43414891287457
N            5.75927335336752        0.55983241955033       -2.25747822175783
C            7.80162095864978        0.73476721268245       -0.95633267568478
O            8.51475996598914       -0.11056371875257       -0.45485043848589
C            4.11024918315416        0.77138191486689       -4.00908459399693
C            4.67019814109863        1.23348633365713       -2.68933212269183
O            4.20027155828438        2.17512289235124       -2.06948835282861
H            3.21565515951351        0.15438358476545       -3.79911351855753
H            4.81081126861401        0.18084322534382       -4.57804857595602
H            3.76701261697859        1.62269101836135       -4.58694717299641
N            8.25964616282350        1.80628605876491       -1.63031420867346
C            9.66414755004737        2.06779185208576       -1.83097919644573
H            9.94417190040853        3.03420981342224       -1.41125600723334
H            9.89282858175171        2.11419866659871       -2.93254841966728
H           10.21441306847548        1.27619893335881       -1.39545880420151
