76
 energy: -110.271408327955 gnorm: 0.000210118649 xtb: 6.7.1pre (5071a88)
N           -0.22413042682754        0.31758563330721       -0.11516907192244
C            1.15561691505882        0.23141135145594        0.20000722335039
C            1.83304391520337        1.34170147980457        0.69471958409947
C            3.21007134200085        1.32228130995485        0.77188706977674
C            3.92638304984969        0.19339183741178        0.39639486347065
C            3.23035580897135       -0.96473606608785        0.07582749712762
C            1.85367587862651       -0.95055238235599       -0.01987658257749
C            5.38893799936709        0.29407823772044        0.09199944217487
C            5.49356318521241        0.82188425433997       -1.36934010669497
C           -0.52383629304271        1.18872112911014       -1.26726317490041
C           -0.12794465365359        2.61504898669368       -1.01851741735718
C           -0.86975840229719        3.50794278016151       -0.38360913105791
C           -0.45626529226997        4.92170132420150       -0.14795435740307
C           -1.50913589570722        5.90963209633686       -0.65552857004020
C           -1.09497207440358        7.34933917247664       -0.38401633706627
O            0.06293665454798        0.70079623765616       -2.44895350327522
N           -0.79781441109982        3.14765139894900        3.36839242021503
C           -1.38076848887501        4.37108144727684        3.23245796793624
C           -0.44287484792897        5.34716808369004        3.65998194658693
C            0.72225382424044        4.63333887475394        4.05309012887111
C           -2.64499000237058        4.72509935399408        2.77977650735929
C           -0.79599354306162        6.69576322531527        3.62367156267848
C            0.46831963592190        3.30370526423030        3.86377476516843
C           -2.96572811368804        6.06569989875853        2.75559647573110
C           -2.05149590280099        7.03768929781216        3.17196454077287
C            1.31954417710580        2.11752951154448        4.14813520996844
O           -1.81793109869064        0.76781917101097        2.13789465644395
H           -0.56262511536734       -0.61818451622891       -0.33502044273991
H           -0.02939503720352       -1.07934146992802       -2.52595532558882
H            1.28784628195667        2.23569807094288        0.94869370484772
H            3.73532967065913        2.21368869971602        1.08371962013196
H            3.77261633574270       -1.86817797379980       -0.16420291047732
H            1.32320068975109       -1.83306326727793       -0.34757023877594
H            5.87742986165795       -0.67984346258745        0.14986569133020
H            5.89739152027886        0.98936715439506        0.76108830093001
H            5.04233405145686        1.81783442311793       -1.42505135110915
H            5.35191911216422       -0.80642549134084       -2.63403487945051
H            7.19195864617735        2.61616739936044       -0.82675118645978
H           -1.60910667901210        1.11646301346471       -1.42190257191274
H            0.84110650009758        2.88254332022632       -1.41855703712107
H           -1.83917898872610        3.23401862422201        0.01156232976867
H           -0.32802269157500        5.07971404429299        0.92643364665985
H            0.50002273858681        5.11484263372147       -0.63791855702631
H           -1.65489589787918        5.76176936646068       -1.72827569411609
H           -2.45718217356116        5.70782974982179       -0.15351922403691
H           -1.84938124565494        8.04039855151391       -0.75295783026004
H           -0.97505790763920        7.50733134326923        0.68538083995627
H           -0.15133426937732        7.57606736743482       -0.87591593565157
H           -1.21019979844277        2.26248653842676        3.09815398754740
H            1.62927963926434        5.06001938421136        4.43448694200600
H           -3.35162369864493        3.97114861277979        2.46404225975087
H           -0.09642244339458        7.45374031105196        3.94629073937417
H           -3.94179109624481        6.37664209812912        2.41142753599499
H           -2.34474526080673        8.07766934909697        3.13964250134716
H            2.34796857855988        2.42422706797928        4.31787951918263
H            0.96109121923453        1.60138805636619        5.03960156046592
H            1.29014574667361        1.41251587707158        3.31877637760611
H           -2.69931289526542        0.59807437636502        1.80279002506484
H           -1.20417094587148        0.67192122074674        1.38216514668660
O           -0.03146210206512       -2.05420006754406       -2.46425018879836
H            1.02698633914999        0.90773884569118       -2.43552125031673
H           -0.50209114925475       -2.36840020710054       -3.23733364877727
N            4.78955439853370       -0.04179546719105       -2.28323722702119
C            6.96431684659466        0.83159344936140       -1.78758626754284
O            7.44418490111198       -0.07679969892200       -2.43543067037774
C            2.99831765898569       -0.95711403514541       -3.60029950854506
C            3.52123653261287        0.12655259507868       -2.69260904390895
O            2.83192824952370        1.08054956948318       -2.35528897431121
H            3.79465924331129       -1.58050906717965       -3.99424902560900
H            2.44597921232740       -0.50259418249944       -4.41952076430478
H            2.30103915413427       -1.57574106281601       -3.03522701107163
N            7.66323674037727        1.89046759620488       -1.34263873795346
C            9.07567960409934        2.05396722930674       -1.59228458428220
H            9.62838844669035        2.10707538795927       -0.65296777739251
H            9.26286583123239        2.95969301316247       -2.17118556013033
H            9.40892270442799        1.18721271951051       -2.16008091326510
