      -----------------------------------------------------------      
     |                   =====================                   |     
     |                           x T B                           |     
     |                   =====================                   |     
     |                         S. Grimme                         |     
     |          Mulliken Center for Theoretical Chemistry        |     
     |                    University of Bonn                     |     
      -----------------------------------------------------------      

   * xtb version 6.7.1pre (5071a88) compiled by 'Marcel@Raven' on 2024-07-23

   xtb is free software: you can redistribute it and/or modify it under
   the terms of the GNU Lesser General Public License as published by
   the Free Software Foundation, either version 3 of the License, or
   (at your option) any later version.
   
   xtb is distributed in the hope that it will be useful,
   but WITHOUT ANY WARRANTY; without even the implied warranty of
   MERCHANTABILITY or FITNESS FOR A PARTICULAR PURPOSE.  See the
   GNU Lesser General Public License for more details.
   
   Cite this work as:
   * C. Bannwarth, E. Caldeweyher, S. Ehlert, A. Hansen, P. Pracht,
     J. Seibert, S. Spicher, S. Grimme, WIREs Comput. Mol. Sci., 2020, 11,
     e01493. DOI: 10.1002/wcms.1493
   
   for GFN2-xTB:
   * C. Bannwarth, S. Ehlert and S. Grimme., J. Chem. Theory Comput., 2019,
     15, 1652-1671. DOI: 10.1021/acs.jctc.8b01176
   for GFN1-xTB:
   * S. Grimme, C. Bannwarth, P. Shushkov, J. Chem. Theory Comput., 2017,
     13, 1989-2009. DOI: 10.1021/acs.jctc.7b00118
   for GFN0-xTB:
   * P. Pracht, E. Caldeweyher, S. Ehlert, S. Grimme, ChemRxiv, 2019, preprint.
     DOI: 10.26434/chemrxiv.8326202.v1
   for GFN-FF:
   * S. Spicher and S. Grimme, Angew. Chem. Int. Ed., 2020, 59, 15665-15673.
     DOI: 10.1002/anie.202004239
   
   for ALPB and GBSA implicit solvation:
   * S. Ehlert, M. Stahn, S. Spicher, S. Grimme, J. Chem. Theory Comput.,
     2021, 17, 4250-4261. DOI: 10.1021/acs.jctc.1c00471
   
   for ddCOSMO and CPCM-X implicit solvation:
   * M. Stahn, S. Ehlert, S. Grimme, J. Phys. Chem. A,
     2023, XX, XXXX-XXXX. DOI: 10.1021/acs.jpca.3c04382
   
   for DFT-D4:
   * E. Caldeweyher, C. Bannwarth and S. Grimme, J. Chem. Phys., 2017,
     147, 034112. DOI: 10.1063/1.4993215
   * E. Caldeweyher, S. Ehlert, A. Hansen, H. Neugebauer, S. Spicher,
     C. Bannwarth and S. Grimme, J. Chem. Phys., 2019, 150, 154122.
     DOI: 10.1063/1.5090222
   * E. Caldeweyher, J.-M. Mewes, S. Ehlert and S. Grimme, Phys. Chem. Chem. Phys.
     2020, 22, 8499-8512. DOI: 10.1039/D0CP00502A
   
   for sTDA-xTB:
   * S. Grimme and C. Bannwarth, J. Chem. Phys., 2016, 145, 054103.
     DOI: 10.1063/1.4959605
   
   in the mass-spec context:
   * V. Asgeirsson, C. Bauer and S. Grimme, Chem. Sci., 2017, 8, 4879.
     DOI: 10.1039/c7sc00601b
   * J. Koopman and S. Grimme, ACS Omega 2019, 4, 12, 15120-15133.
     DOI: 10.1021/acsomega.9b02011
   
   for metadynamics refer to:
   * S. Grimme, J. Chem. Theory Comput., 2019, 155, 2847-2862
     DOI: 10.1021/acs.jctc.9b00143
   
   for SPH calculations refer to:
   * S. Spicher and S. Grimme, J. Chem. Theory Comput., 2021, 17, 1701-1714
     DOI: 10.1021/acs.jctc.0c01306
   
   for ONIOM refer to:
   * C. Plett, A. Katbashev, S. Ehlert, S. Grimme, M. Bursch,
     Phys. Chem. Chem. Phys., 2023, 25, 17860-17868. DOI: 10.1039/D3CP02178E
   
   for DIPRO refer to:
   * J. Kohn, N. Gildemeister, S. Grimme, D. Fazzi, A. Hansen,
     J. Chem. Phys., 2023, just accepted.
   
   for PTB refer to:
   * S. Grimme, M. Mueller, A. Hansen, J. Chem. Phys., 2023, 158, 124111.
     DOI: 10.1063/5.0137838
   
   with help from (in alphabetical order)
   P. Atkinson, C. Bannwarth, F. Bohle, G. Brandenburg, E. Caldeweyher
   M. Checinski, S. Dohm, S. Ehlert, S. Ehrlich, I. Gerasimov, C. Hölzer
   A. Katbashev, J. Kohn, J. Koopman, C. Lavigne, S. Lehtola, F. März, M. Müller,
   F. Musil, H. Neugebauer, J. Pisarek, C. Plett, P. Pracht, F. Pultar,
   J. Seibert, P. Shushkov, S. Spicher, M. Stahn, M. Steiner, T. Strunk,
   J. Stückrath, T. Rose, and J. Unsleber
   
 * started run on 2026/08/20 at 18:23:56.465     
   ID    Z sym.   atoms
    1    7 N      1, 17, 63, 72
    2    6 C      2-15, 18-26, 64, 66, 67, 73
    3    8 O      16, 27, 60, 65, 68
    4    1 H      28-59, 61, 62, 69-71, 74-76

           -------------------------------------------------
          |                Calculation Setup                |
           -------------------------------------------------

          program call               : C:\Users\Nayanika\Downloads\xtb-6.7.1pre-windows-x86_64\xtb-6.7.1\bin\xtb.exe D:\PhD_Thesis\LmrR_EVB\charges\fast_lmrr_5QM\xtb_preparation\RS2_1_to_TS2_1a\RS2_1_to_TS2_1a_RS_xtbopt.xyz --gfn 2 --chrg 0 --uhf 0 --etemp 0
          coordinate file            : D:\PhD_Thesis\LmrR_EVB\charges\fast_lmrr_5QM\xtb_preparation\RS2_1_to_TS2_1a\RS2_1_to_TS2_1a_RS_xtbopt.xyz
          omp threads                :                     1


molecular fragmentation (1/2 indicates fragments):
111111111111111122222222222121111111111111111111222222222222121111111111
1111
# atoms in fragment 1/2:    51    25
 fragment masses (1/2) :      333.43      167.21
CMA distance (Bohr)    :  10.638
constraining FC (au)   :  0.0500

           -------------------------------------------------
          |                 G F N 2 - x T B                 |
           -------------------------------------------------

        Reference                      10.1021/acs.jctc.8b01176
      * Hamiltonian:
        H0-scaling (s, p, d)           1.850000    2.230000    2.230000
        zeta-weighting                 0.500000
      * Dispersion:
        s8                             2.700000
        a1                             0.520000
        a2                             5.000000
        s9                             5.000000
      * Repulsion:
        kExp                           1.500000    1.000000
        rExp                           1.000000
      * Coulomb:
        alpha                          2.000000
        third order                    shell-resolved
        anisotropic                    true
        a3                             3.000000
        a5                             4.000000
        cn-shift                       1.200000
        cn-exp                         4.000000
        max-rad                        5.000000

q/qsh data taken from xtbrestart
CAMM data taken from xtbrestart

          ...................................................
          :                      SETUP                      :
          :.................................................:
          :  # basis functions                 184          :
          :  # atomic orbitals                 184          :
          :  # shells                          112          :
          :  # electrons                       198          :
          :  max. iterations                   250          :
          :  Hamiltonian                  GFN2-xTB          :
          :  restarted?                       true          :
          :  GBSA solvation                  false          :
          :  PC potential                    false          :
          :  electronic temp.            0.0000000     K    :
          :  accuracy                    1.0000000          :
          :  -> integral cutoff          0.2500000E+02      :
          :  -> integral neglect         0.1000000E-07      :
          :  -> SCF convergence          0.1000000E-05 Eh   :
          :  -> wf. convergence          0.1000000E-03 e    :
          :  Broyden damping             0.4000000          :
          :  net charge                          0          :
          :  unpaired electrons                  0          :
          ...................................................

 iter      E             dE          RMSdq      gap      omega  full diag
   1   -111.8342479 -0.111834E+03  0.487E-06    3.00       0.0  T
   2   -111.8342479 -0.440536E-12  0.358E-06    3.00    3205.4  T
   3   -111.8342479 -0.440536E-12  0.159E-06    3.00    7235.8  T

   *** convergence criteria satisfied after 3 iterations ***

         #    Occupation            Energy/Eh            Energy/eV
      -------------------------------------------------------------
         1        2.0000           -0.7187222             -19.5574
       ...           ...                  ...                  ...
        93        2.0000           -0.3995381             -10.8720
        94        2.0000           -0.3965316             -10.7902
        95        2.0000           -0.3962395             -10.7822
        96        2.0000           -0.3893296             -10.5942
        97        2.0000           -0.3700460             -10.0695
        98        2.0000           -0.3571883              -9.7196
        99        2.0000           -0.3419923              -9.3061 (HOMO)
       100                         -0.2318383              -6.3086 (LUMO)
       101                         -0.2219963              -6.0408
       102                         -0.2152024              -5.8560
       103                         -0.2129060              -5.7935
       104                         -0.2090938              -5.6897
       ...                                ...                  ...
       184                          0.7484148              20.3654
      -------------------------------------------------------------
                  HL-Gap            0.1101540 Eh            2.9974 eV
             Fermi-level            0.0000000 Eh            0.0000 eV

 SCC (total)                   0 d,  0 h,  0 min,  0.094 sec
 SCC setup                      ...        0 min,  0.000 sec (  0.000%)
 Dispersion                     ...        0 min,  0.001 sec (  1.064%)
 classical contributions        ...        0 min,  0.001 sec (  1.064%)
 integral evaluation            ...        0 min,  0.014 sec ( 14.894%)
 iterations                     ...        0 min,  0.020 sec ( 21.277%)
 molecular gradient             ...        0 min,  0.049 sec ( 52.128%)
 printout                       ...        0 min,  0.009 sec (  9.575%)

         :::::::::::::::::::::::::::::::::::::::::::::::::::::
         ::                     SUMMARY                     ::
         :::::::::::::::::::::::::::::::::::::::::::::::::::::
         :: total energy            -110.271408327962 Eh    ::
         :: gradient norm              0.000210236274 Eh/a0 ::
         :: HOMO-LUMO gap              2.997443311235 eV    ::
         ::.................................................::
         :: SCC energy              -111.831469672194 Eh    ::
         :: -> isotropic ES            0.186452805845 Eh    ::
         :: -> anisotropic ES         -0.003443281518 Eh    ::
         :: -> anisotropic XC          0.043669642016 Eh    ::
         :: -> dispersion             -0.087863174095 Eh    ::
         :: repulsion energy           1.560061344231 Eh    ::
         :: add. restraining           0.000000000000 Eh    ::
         :: total charge               0.000000000000 e     ::
         :::::::::::::::::::::::::::::::::::::::::::::::::::::

           -------------------------------------------------
          |                Property Printout                |
           -------------------------------------------------

    * Orbital Energies and Occupations

         #    Occupation            Energy/Eh            Energy/eV
      -------------------------------------------------------------
         1        2.0000           -0.7187222             -19.5574
       ...           ...                  ...                  ...
        87        2.0000           -0.4208874             -11.4529
        88        2.0000           -0.4160251             -11.3206
        89        2.0000           -0.4117511             -11.2043
        90        2.0000           -0.4090348             -11.1304
        91        2.0000           -0.4066371             -11.0652
        92        2.0000           -0.4053225             -11.0294
        93        2.0000           -0.3995381             -10.8720
        94        2.0000           -0.3965316             -10.7902
        95        2.0000           -0.3962395             -10.7822
        96        2.0000           -0.3893296             -10.5942
        97        2.0000           -0.3700460             -10.0695
        98        2.0000           -0.3571883              -9.7196
        99        2.0000           -0.3419923              -9.3061 (HOMO)
       100                         -0.2318383              -6.3086 (LUMO)
       101                         -0.2219963              -6.0408
       102                         -0.2152024              -5.8560
       103                         -0.2129060              -5.7935
       104                         -0.2090938              -5.6897
       105                         -0.2016420              -5.4870
       106                         -0.1766931              -4.8081
       107                         -0.1331423              -3.6230
       108                         -0.0980840              -2.6690
       109                         -0.0497481              -1.3537
       110                         -0.0257411              -0.7004
       ...                                ...                  ...
       184                          0.7484148              20.3654
      -------------------------------------------------------------
                  HL-Gap            0.1101540 Eh            2.9974 eV
             Fermi-level            0.0000000 Eh            0.0000 eV

     #   Z          covCN         q      C6AA      α(0)
     1   7 N        2.684    -0.280    27.226     7.750
     2   6 C        2.916     0.075    26.316     8.412
     3   6 C        2.922    -0.047    29.165     8.856
     4   6 C        2.926    -0.034    28.835     8.806
     5   6 C        2.978     0.005    27.916     8.667
     6   6 C        2.926    -0.039    28.969     8.827
     7   6 C        2.922    -0.055    29.365     8.886
     8   6 C        3.810    -0.065    21.730     6.635
     9   6 C        3.798     0.021    20.226     6.404
    10   6 C        3.672     0.184    17.877     6.060
    11   6 C        2.890    -0.071    29.774     8.946
    12   6 C        2.891    -0.033    28.822     8.802
    13   6 C        3.808    -0.063    21.699     6.631
    14   6 C        3.802    -0.051    21.486     6.599
    15   6 C        3.752    -0.104    22.556     6.773
    16   8 O        1.653    -0.485    22.569     6.413
    17   7 N        2.783    -0.129    23.792     7.244
    18   6 C        3.091     0.043    26.925     8.505
    19   6 C        3.108    -0.017    28.292     8.715
    20   6 C        3.015    -0.093    30.324     9.033
    21   6 C        2.908    -0.054    29.335     8.881
    22   6 C        2.911    -0.042    29.052     8.838
    23   6 C        3.074     0.050    26.811     8.490
    24   6 C        2.924    -0.041    29.006     8.832
    25   6 C        2.919    -0.045    29.114     8.848
    26   6 C        3.754    -0.115    22.766     6.804
    27   8 O        1.609    -0.594    25.048     6.755
    28   1 H        0.860     0.174     1.252     1.753
    29   1 H        0.803     0.312     0.688     1.303
    30   1 H        0.926     0.051     2.308     2.376
    31   1 H        0.926     0.029     2.601     2.522
    32   1 H        0.926     0.029     2.599     2.521
    33   1 H        0.926     0.052     2.300     2.372
    34   1 H        0.924     0.049     2.334     2.389
    35   1 H        0.924     0.040     2.455     2.450
    36   1 H        0.924     0.064     2.155     2.296
    37   1 H        0.860     0.198     1.114     1.653
    38   1 H        0.860     0.171     1.264     1.761
    39   1 H        0.923     0.035     2.521     2.483
    40   1 H        0.925     0.058     2.227     2.334
    41   1 H        0.925     0.037     2.486     2.466
    42   1 H        0.924     0.056     2.248     2.345
    43   1 H        0.924     0.038     2.480     2.463
    44   1 H        0.924     0.029     2.606     2.524
    45   1 H        0.924     0.035     2.514     2.479
    46   1 H        0.925     0.033     2.544     2.494
    47   1 H        0.925     0.042     2.428     2.437
    48   1 H        0.925     0.032     2.557     2.500
    49   1 H        0.860     0.200     1.104     1.646
    50   1 H        0.926     0.016     2.801     2.617
    51   1 H        0.926     0.016     2.790     2.612
    52   1 H        0.926     0.017     2.776     2.606
    53   1 H        0.926     0.016     2.787     2.611
    54   1 H        0.926     0.015     2.803     2.618
    55   1 H        0.925     0.044     2.399     2.422
    56   1 H        0.924     0.048     2.343     2.394
    57   1 H        0.925     0.052     2.301     2.372
    58   1 H        0.806     0.274     0.805     1.409
    59   1 H        0.803     0.302     0.716     1.329
    60   8 O        1.609    -0.612    25.471     6.812
    61   1 H        0.802     0.336     0.624     1.241
    62   1 H        0.806     0.268     0.825     1.427
    63   7 N        2.695    -0.168    24.629     7.371
    64   6 C        2.759     0.265    22.536     7.774
    65   8 O        0.858    -0.434    22.372     6.342
    66   6 C        3.757    -0.154    23.535     6.917
    67   6 C        2.748     0.282    22.226     7.720
    68   8 O        0.858    -0.475    23.228     6.462
    69   1 H        0.925     0.049     2.328     2.386
    70   1 H        0.925     0.073     2.051     2.240
    71   1 H        0.925     0.097     1.817     2.108
    72   7 N        2.685    -0.165    24.581     7.363
    73   6 C        3.690    -0.047    21.610     6.653
    74   1 H        0.924     0.055     2.254     2.348
    75   1 H        0.924     0.056     2.249     2.345
    76   1 H        0.925     0.091     1.870     2.139

 Mol. C6AA /au·bohr⁶  :      56335.407791
 Mol. C8AA /au·bohr⁸  :    1285480.199515
 Mol. α(0) /au        :        366.612848


Wiberg/Mayer (AO) data.
largest (>0.10) Wiberg bond orders for each atom

 ---------------------------------------------------------------------------
     #   Z sym  total        # sym  WBO       # sym  WBO       # sym  WBO
 ---------------------------------------------------------------------------
     1   7 N    3.203 --     2 C    1.051    10 C    0.950    28 H    0.938
     2   6 C    3.972 --     7 C    1.387     3 C    1.375     1 N    1.051
     3   6 C    3.990 --     4 C    1.459     2 C    1.375    30 H    0.961
                             6 C    0.103
     4   6 C    3.991 --     3 C    1.459     5 C    1.401    31 H    0.969
                             7 C    0.104
     5   6 C    3.985 --     6 C    1.402     4 C    1.401     8 C    1.012
     6   6 C    3.990 --     7 C    1.452     5 C    1.402    32 H    0.969
                             3 C    0.103
     7   6 C    3.989 --     6 C    1.452     2 C    1.387    33 H    0.963
                             4 C    0.104
     8   6 C    3.992 --     5 C    1.012    34 H    0.974    35 H    0.972
                             9 C    0.937
     9   6 C    3.973 --    63 N    1.000    36 H    0.954    64 C    0.939
                             8 C    0.937
    10   6 C    3.947 --    11 C    0.997    16 O    0.989    39 H    0.955
                             1 N    0.950
    11   6 C    3.984 --    12 C    1.921    10 C    0.997    40 H    0.957
    12   6 C    3.989 --    11 C    1.921    13 C    1.031    41 H    0.963
    13   6 C    3.996 --    12 C    1.031    14 C    0.992    43 H    0.975
                            42 H    0.950
    14   6 C    3.996 --    15 C    1.019    13 C    0.992    44 H    0.980
                            45 H    0.977
    15   6 C    3.996 --    14 C    1.019    48 H    0.988    46 H    0.987
                            47 H    0.984
    16   8 O    1.997 --    10 C    0.989    61 H    0.821
    17   7 N    3.547 --    23 C    1.200    18 C    1.189    49 H    0.900
    18   6 C    3.962 --    21 C    1.340    19 C    1.233    17 N    1.189
    19   6 C    3.985 --    22 C    1.331    20 C    1.233    18 C    1.233
    20   6 C    3.969 --    23 C    1.565    19 C    1.233    50 H    0.974
    21   6 C    3.989 --    24 C    1.488    18 C    1.340    51 H    0.969
                            22 C    0.109
    22   6 C    3.989 --    25 C    1.499    19 C    1.331    52 H    0.970
                            21 C    0.109
    23   6 C    3.959 --    20 C    1.565    17 N    1.200    26 C    1.030
    24   6 C    3.989 --    21 C    1.488    25 C    1.371    53 H    0.973
    25   6 C    3.991 --    22 C    1.499    24 C    1.371    54 H    0.972
    26   6 C    3.995 --    23 C    1.030    55 H    0.984    57 H    0.971
                            56 H    0.968
    27   8 O    1.853 --    58 H    0.921    59 H    0.849
    28   1 H    0.969 --     1 N    0.938
    29   1 H    0.903 --    60 O    0.849
    30   1 H    0.997 --     3 C    0.961
    31   1 H    0.999 --     4 C    0.969
    32   1 H    0.999 --     6 C    0.969
    33   1 H    0.997 --     7 C    0.963
    34   1 H    0.997 --     8 C    0.974
    35   1 H    0.998 --     8 C    0.972
    36   1 H    0.996 --     9 C    0.954
    37   1 H    0.960 --    63 N    0.920
    38   1 H    0.971 --    72 N    0.943
    39   1 H    0.998 --    10 C    0.955
    40   1 H    0.997 --    11 C    0.957
    41   1 H    0.999 --    12 C    0.963
    42   1 H    0.997 --    13 C    0.950
    43   1 H    0.999 --    13 C    0.975
    44   1 H    0.999 --    14 C    0.980
    45   1 H    0.999 --    14 C    0.977
    46   1 H    0.998 --    15 C    0.987
    47   1 H    0.998 --    15 C    0.984
    48   1 H    0.999 --    15 C    0.988
    49   1 H    0.959 --    17 N    0.900
    50   1 H    0.999 --    20 C    0.974
    51   1 H    0.999 --    21 C    0.969
    52   1 H    0.999 --    22 C    0.970
    53   1 H    0.999 --    24 C    0.973
    54   1 H    0.999 --    25 C    0.972
    55   1 H    0.997 --    26 C    0.984
    56   1 H    0.994 --    26 C    0.968
    57   1 H    0.995 --    26 C    0.971
    58   1 H    0.925 --    27 O    0.921
    59   1 H    0.909 --    27 O    0.849
    60   8 O    1.817 --    62 H    0.926    29 H    0.849
    61   1 H    0.887 --    16 O    0.821
    62   1 H    0.928 --    60 O    0.926
    63   7 N    3.465 --    67 C    1.279     9 C    1.000    37 H    0.920
                            68 O    0.183
    64   6 C    3.953 --    65 O    1.675    72 N    1.271     9 C    0.939
    65   8 O    2.010 --    64 C    1.675    72 N    0.201
    66   6 C    3.991 --    67 C    0.992    69 H    0.984    70 H    0.971
                            71 H    0.950
    67   6 C    3.945 --    68 O    1.621    63 N    1.279    66 C    0.992
    68   8 O    1.982 --    67 C    1.621    63 N    0.183
    69   1 H    0.998 --    66 C    0.984
    70   1 H    0.994 --    66 C    0.971
    71   1 H    0.991 --    66 C    0.950
    72   7 N    3.454 --    64 C    1.271    73 C    1.002    38 H    0.943
                            65 O    0.201
    73   6 C    3.959 --    72 N    1.002    74 H    0.977    75 H    0.977
                            76 H    0.975
    74   1 H    0.997 --    73 C    0.977
    75   1 H    0.997 --    73 C    0.977
    76   1 H    0.992 --    73 C    0.975
 ---------------------------------------------------------------------------

Topologies differ in total number of bonds
Writing topology from bond orders to xtbtopo.mol

molecular dipole:
                 x           y           z       tot (Debye)
 q only:        1.501      -0.255      -0.434
   full:        1.504      -0.454      -0.954       4.672
molecular quadrupole (traceless):
                xx          xy          yy          xz          yz          zz
 q only:       35.642      26.782     -19.676       9.569     -11.498     -15.966
  q+dip:       40.474      31.071     -17.641      13.006     -10.765     -22.833
   full:       38.366      31.341     -20.756      12.231     -13.102     -17.610


           -------------------------------------------------
          | TOTAL ENERGY             -110.271408327962 Eh   |
          | GRADIENT NORM               0.000210236274 Eh/α |
          | HOMO-LUMO GAP               2.997443311235 eV   |
           -------------------------------------------------

------------------------------------------------------------------------
 * finished run on 2026/08/20 at 18:23:56.616     
------------------------------------------------------------------------
 total:
 * wall-time:     0 d,  0 h,  0 min,  0.149 sec
 *  cpu-time:     0 d,  0 h,  0 min,  0.125 sec
 * ratio c/w:     0.839 speedup
 SCF:
 * wall-time:     0 d,  0 h,  0 min,  0.095 sec
 *  cpu-time:     0 d,  0 h,  0 min,  0.094 sec
 * ratio c/w:     0.987 speedup



================ STDERR ================

normal termination of xtb
