      -----------------------------------------------------------      
     |                   =====================                   |     
     |                           x T B                           |     
     |                   =====================                   |     
     |                         S. Grimme                         |     
     |          Mulliken Center for Theoretical Chemistry        |     
     |                    University of Bonn                     |     
      -----------------------------------------------------------      

   * xtb version 6.7.1pre (5071a88) compiled by 'Marcel@Raven' on 2024-07-23

   xtb is free software: you can redistribute it and/or modify it under
   the terms of the GNU Lesser General Public License as published by
   the Free Software Foundation, either version 3 of the License, or
   (at your option) any later version.
   
   xtb is distributed in the hope that it will be useful,
   but WITHOUT ANY WARRANTY; without even the implied warranty of
   MERCHANTABILITY or FITNESS FOR A PARTICULAR PURPOSE.  See the
   GNU Lesser General Public License for more details.
   
   Cite this work as:
   * C. Bannwarth, E. Caldeweyher, S. Ehlert, A. Hansen, P. Pracht,
     J. Seibert, S. Spicher, S. Grimme, WIREs Comput. Mol. Sci., 2020, 11,
     e01493. DOI: 10.1002/wcms.1493
   
   for GFN2-xTB:
   * C. Bannwarth, S. Ehlert and S. Grimme., J. Chem. Theory Comput., 2019,
     15, 1652-1671. DOI: 10.1021/acs.jctc.8b01176
   for GFN1-xTB:
   * S. Grimme, C. Bannwarth, P. Shushkov, J. Chem. Theory Comput., 2017,
     13, 1989-2009. DOI: 10.1021/acs.jctc.7b00118
   for GFN0-xTB:
   * P. Pracht, E. Caldeweyher, S. Ehlert, S. Grimme, ChemRxiv, 2019, preprint.
     DOI: 10.26434/chemrxiv.8326202.v1
   for GFN-FF:
   * S. Spicher and S. Grimme, Angew. Chem. Int. Ed., 2020, 59, 15665-15673.
     DOI: 10.1002/anie.202004239
   
   for ALPB and GBSA implicit solvation:
   * S. Ehlert, M. Stahn, S. Spicher, S. Grimme, J. Chem. Theory Comput.,
     2021, 17, 4250-4261. DOI: 10.1021/acs.jctc.1c00471
   
   for ddCOSMO and CPCM-X implicit solvation:
   * M. Stahn, S. Ehlert, S. Grimme, J. Phys. Chem. A,
     2023, XX, XXXX-XXXX. DOI: 10.1021/acs.jpca.3c04382
   
   for DFT-D4:
   * E. Caldeweyher, C. Bannwarth and S. Grimme, J. Chem. Phys., 2017,
     147, 034112. DOI: 10.1063/1.4993215
   * E. Caldeweyher, S. Ehlert, A. Hansen, H. Neugebauer, S. Spicher,
     C. Bannwarth and S. Grimme, J. Chem. Phys., 2019, 150, 154122.
     DOI: 10.1063/1.5090222
   * E. Caldeweyher, J.-M. Mewes, S. Ehlert and S. Grimme, Phys. Chem. Chem. Phys.
     2020, 22, 8499-8512. DOI: 10.1039/D0CP00502A
   
   for sTDA-xTB:
   * S. Grimme and C. Bannwarth, J. Chem. Phys., 2016, 145, 054103.
     DOI: 10.1063/1.4959605
   
   in the mass-spec context:
   * V. Asgeirsson, C. Bauer and S. Grimme, Chem. Sci., 2017, 8, 4879.
     DOI: 10.1039/c7sc00601b
   * J. Koopman and S. Grimme, ACS Omega 2019, 4, 12, 15120-15133.
     DOI: 10.1021/acsomega.9b02011
   
   for metadynamics refer to:
   * S. Grimme, J. Chem. Theory Comput., 2019, 155, 2847-2862
     DOI: 10.1021/acs.jctc.9b00143
   
   for SPH calculations refer to:
   * S. Spicher and S. Grimme, J. Chem. Theory Comput., 2021, 17, 1701-1714
     DOI: 10.1021/acs.jctc.0c01306
   
   for ONIOM refer to:
   * C. Plett, A. Katbashev, S. Ehlert, S. Grimme, M. Bursch,
     Phys. Chem. Chem. Phys., 2023, 25, 17860-17868. DOI: 10.1039/D3CP02178E
   
   for DIPRO refer to:
   * J. Kohn, N. Gildemeister, S. Grimme, D. Fazzi, A. Hansen,
     J. Chem. Phys., 2023, just accepted.
   
   for PTB refer to:
   * S. Grimme, M. Mueller, A. Hansen, J. Chem. Phys., 2023, 158, 124111.
     DOI: 10.1063/5.0137838
   
   with help from (in alphabetical order)
   P. Atkinson, C. Bannwarth, F. Bohle, G. Brandenburg, E. Caldeweyher
   M. Checinski, S. Dohm, S. Ehlert, S. Ehrlich, I. Gerasimov, C. Hölzer
   A. Katbashev, J. Kohn, J. Koopman, C. Lavigne, S. Lehtola, F. März, M. Müller,
   F. Musil, H. Neugebauer, J. Pisarek, C. Plett, P. Pracht, F. Pultar,
   J. Seibert, P. Shushkov, S. Spicher, M. Stahn, M. Steiner, T. Strunk,
   J. Stückrath, T. Rose, and J. Unsleber
   
 * started run on 2026/08/31 at 13:15:26.767     
   ID    Z sym.   atoms
    1    7 N      1, 17, 63, 72
    2    6 C      2-15, 18-26, 64, 66, 67, 73
    3    8 O      16, 27, 60, 65, 68
    4    1 H      28-59, 61, 62, 69-71, 74-76

           -------------------------------------------------
          |                Calculation Setup                |
           -------------------------------------------------

          program call               : C:\Users\Nayanika\Downloads\xtb-6.7.1pre-windows-x86_64\xtb-6.7.1\bin\xtb.exe D:\PhD_Thesis\LmrR_EVB\charges\fast_lmrr_5QM\xtb_preparation\RS2_1_to_TS2_1a\RS2_1_to_TS2_1a_PS.xyz --gfn 2 --opt normal --chrg 0 --uhf 0 --etemp 500
          coordinate file            : D:\PhD_Thesis\LmrR_EVB\charges\fast_lmrr_5QM\xtb_preparation\RS2_1_to_TS2_1a\RS2_1_to_TS2_1a_PS.xyz
          omp threads                :                     1


molecular fragmentation (1/2 indicates fragments):
111111111111111211111111112121111111111111111111111111111222221111111111
1111
# atoms in fragment 1/2:    68     8
 fragment masses (1/2) :      447.59       53.04
CMA distance (Bohr)    :   6.152
constraining FC (au)   :  0.0500

           -------------------------------------------------
          |                 G F N 2 - x T B                 |
           -------------------------------------------------

        Reference                      10.1021/acs.jctc.8b01176
      * Hamiltonian:
        H0-scaling (s, p, d)           1.850000    2.230000    2.230000
        zeta-weighting                 0.500000
      * Dispersion:
        s8                             2.700000
        a1                             0.520000
        a2                             5.000000
        s9                             5.000000
      * Repulsion:
        kExp                           1.500000    1.000000
        rExp                           1.000000
      * Coulomb:
        alpha                          2.000000
        third order                    shell-resolved
        anisotropic                    true
        a3                             3.000000
        a5                             4.000000
        cn-shift                       1.200000
        cn-exp                         4.000000
        max-rad                        5.000000

q/qsh data taken from xtbrestart
CAMM data taken from xtbrestart

          ...................................................
          :                      SETUP                      :
          :.................................................:
          :  # basis functions                 184          :
          :  # atomic orbitals                 184          :
          :  # shells                          112          :
          :  # electrons                       198          :
          :  max. iterations                   250          :
          :  Hamiltonian                  GFN2-xTB          :
          :  restarted?                       true          :
          :  GBSA solvation                  false          :
          :  PC potential                    false          :
          :  electronic temp.          500.0000000     K    :
          :  accuracy                    1.0000000          :
          :  -> integral cutoff          0.2500000E+02      :
          :  -> integral neglect         0.1000000E-07      :
          :  -> SCF convergence          0.1000000E-05 Eh   :
          :  -> wf. convergence          0.1000000E-03 e    :
          :  Broyden damping             0.4000000          :
          :  net charge                          0          :
          :  unpaired electrons                  0          :
          ...................................................

 iter      E             dE          RMSdq      gap      omega  full diag
   1   -111.3132648 -0.111313E+03  0.326E+00    2.71       0.0  T
   2   -107.2606828  0.405258E+01  0.534E+00    0.22       1.0  T
   3   -111.3167446 -0.405606E+01  0.206E+00    2.18       1.0  T
   4   -111.3072623  0.948230E-02  0.142E+00    1.88       1.0  T
   5   -111.3354060 -0.281438E-01  0.121E+00    1.69       1.0  T
   6   -111.3474135 -0.120075E-01  0.109E+00    1.53       1.0  T
   7   -111.3572565 -0.984298E-02  0.977E-01    1.41       1.0  T
   8   -111.3606125 -0.335597E-02  0.932E-01    1.35       1.0  T
   9   -111.4433530 -0.827405E-01  0.238E-01    0.15       1.0  T
  10   -111.3923292  0.510238E-01  0.659E-01    0.08       1.0  T
  11   -110.1059828  0.128635E+01  0.301E+00    0.00       1.0  T
  12   -111.3934217 -0.128744E+01  0.567E-01    0.36       1.0  T
  13   -111.1237245  0.269697E+00  0.152E+00    0.00       1.0  T
  14   -111.2933655 -0.169641E+00  0.107E+00    0.04       1.0  T
  15   -110.5667759  0.726590E+00  0.249E+00    0.00       1.0  T
  16   -110.5612786  0.549727E-02  0.250E+00    0.00       1.0  T
  17   -110.5703211 -0.904252E-02  0.248E+00    0.00       1.0  T
  18   -111.3880921 -0.817771E+00  0.595E-01    0.40       1.0  T
  19   -111.3788509  0.924114E-02  0.653E-01    0.60       1.0  T
  20   -111.3759765  0.287440E-02  0.688E-01    0.84       1.0  T
  21   -111.3772426 -0.126608E-02  0.670E-01    0.69       1.0  T
  22   -111.0845353  0.292707E+00  0.157E+00    0.00       1.0  T
  23   -111.3875850 -0.303050E+00  0.601E-01    0.39       1.0  T
  24   -110.5723239  0.815261E+00  0.246E+00    0.00       1.0  T
  25   -110.9072820 -0.334958E+00  0.191E+00    0.00       1.0  T
  26   -110.5799365  0.327345E+00  0.244E+00    0.01       1.0  T
  27   -110.5793617  0.574881E-03  0.244E+00    0.01       1.0  T
  28   -111.2331729 -0.653811E+00  0.121E+00    0.02       1.0  T
  29   -110.5698404  0.663332E+00  0.246E+00    0.00       1.0  T
  30   -110.5754231 -0.558269E-02  0.245E+00    0.00       1.0  T
  31   -111.4127817 -0.837359E+00  0.449E-01    0.26       1.0  T
  32   -110.5884673  0.824314E+00  0.241E+00    0.01       1.0  T
  33   -111.3715735 -0.783106E+00  0.756E-01    1.16       1.0  T
  34   -111.4050086 -0.334350E-01  0.529E-01    0.08       1.0  T
  35   -111.3755412  0.294674E-01  0.697E-01    0.76       1.0  T
  36   -111.3739134  0.162781E-02  0.719E-01    0.79       1.0  T
  37   -111.3756593 -0.174590E-02  0.695E-01    0.71       1.0  T
  38   -111.3753840  0.275304E-03  0.698E-01    0.73       1.0  T
  39   -111.3741235  0.126049E-02  0.712E-01    0.86       1.0  T
  40   -111.3736130  0.510486E-03  0.715E-01    0.87       1.0  T
  41   -111.3747761 -0.116307E-02  0.698E-01    0.74       1.0  T
  42   -111.3765572 -0.178116E-02  0.679E-01    0.59       1.0  T
  43   -111.3785632 -0.200594E-02  0.664E-01    0.51       1.0  T
  44   -111.3857833 -0.722015E-02  0.621E-01    0.39       1.0  T
  45   -111.4104604 -0.246771E-01  0.473E-01    0.27       1.0  T
  46   -111.4029546  0.750581E-02  0.522E-01    0.29       1.0  T
  47   -111.3792275  0.237270E-01  0.657E-01    0.07       1.0  T
  48   -111.3774705  0.175703E-02  0.679E-01    0.55       1.0  T
  49   -111.1157089  0.261762E+00  0.147E+00    0.00       1.0  T
  50   -111.3808418 -0.265133E+00  0.662E-01    0.46       1.0  T
  51   -111.4262350 -0.453932E-01  0.351E-01    0.22       1.0  T
  52   -111.4021603  0.240747E-01  0.526E-01    0.30       1.0  T
  53   -111.4285221 -0.263618E-01  0.337E-01    0.10       1.0  T
  54   -111.3778985  0.506236E-01  0.673E-01    0.54       1.0  T
  55   -110.9723316  0.405567E+00  0.176E+00    0.00       1.0  T
  56   -111.4102980 -0.437966E+00  0.486E-01    0.27       1.0  T
  57   -111.3789512  0.313468E-01  0.663E-01    0.51       1.0  T
  58   -111.4129350 -0.339838E-01  0.462E-01    0.09       1.0  T
  59   -111.3762251  0.367098E-01  0.688E-01    0.63       1.0  T
  60   -111.3865619 -0.103368E-01  0.619E-01    0.07       1.0  T
  61   -111.3760387  0.105233E-01  0.690E-01    0.64       1.0  T
  62   -111.4044671 -0.284284E-01  0.517E-01    0.08       1.0  T
  63   -111.3763815  0.280856E-01  0.686E-01    0.61       1.0  T
  64   -111.3806016 -0.422004E-02  0.649E-01    0.07       1.0  T
  65   -111.3763554  0.424618E-02  0.687E-01    0.62       1.0  T
  66   -111.4022963 -0.259408E-01  0.530E-01    0.08       1.0  T
  67   -111.3766813  0.256149E-01  0.683E-01    0.60       1.0  T
  68   -111.3794493 -0.276795E-02  0.654E-01    0.07       1.0  T
  69   -111.3767006  0.274871E-02  0.684E-01    0.59       1.0  T
  70   -111.3998374 -0.231369E-01  0.545E-01    0.08       1.0  T
  71   -111.3769965  0.228409E-01  0.681E-01    0.58       1.0  T
  72   -111.3795613 -0.256475E-02  0.654E-01    0.07       1.0  T
  73   -111.3770601  0.250119E-02  0.680E-01    0.57       1.0  T
  74   -111.3974969 -0.204369E-01  0.558E-01    0.08       1.0  T
  75   -111.3773289  0.201681E-01  0.678E-01    0.56       1.0  T
  76   -111.3804152 -0.308631E-02  0.649E-01    0.07       1.0  T
  77   -111.3774339  0.298130E-02  0.677E-01    0.56       1.0  T
  78   -111.3953234 -0.178895E-01  0.570E-01    0.07       1.0  T
  79   -111.3776814  0.176420E-01  0.675E-01    0.55       1.0  T
  80   -111.3816113 -0.392989E-02  0.643E-01    0.07       1.0  T
  81   -111.3778228  0.378849E-02  0.674E-01    0.54       1.0  T
  82   -111.3934131 -0.155904E-01  0.581E-01    0.07       1.0  T
  83   -111.3780563  0.153569E-01  0.672E-01    0.53       1.0  T
  84   -111.3828811 -0.482487E-02  0.637E-01    0.07       1.0  T
  85   -111.3782279  0.465325E-02  0.671E-01    0.53       1.0  T
  86   -111.3918451 -0.136172E-01  0.590E-01    0.07       1.0  T
  87   -111.3784545  0.133906E-01  0.669E-01    0.52       1.0  T
  88   -111.3840715 -0.561699E-02  0.630E-01    0.07       1.0  T
  89   -111.3786503  0.542123E-02  0.668E-01    0.51       1.0  T
  90   -111.3906502 -0.119999E-01  0.596E-01    0.07       1.0  T
  91   -111.3788762  0.117740E-01  0.666E-01    0.51       1.0  T
  92   -111.3851176 -0.624138E-02  0.625E-01    0.07       1.0  T
  93   -111.3790910  0.602659E-02  0.665E-01    0.50       1.0  T
  94   -111.3898145 -0.107236E-01  0.600E-01    0.07       1.0  T
  95   -111.3793206  0.104939E-01  0.663E-01    0.49       1.0  T
  96   -111.3860107 -0.669008E-02  0.620E-01    0.07       1.0  T
  97   -111.3795506  0.646012E-02  0.662E-01    0.49       1.0  T
  98   -111.3892958 -0.974526E-02  0.603E-01    0.07       1.0  T
  99   -111.3797870  0.950886E-02  0.660E-01    0.48       1.0  T
 100   -111.3867717 -0.698473E-02  0.616E-01    0.07       1.0  T
 101   -111.3800295  0.674224E-02  0.658E-01    0.48       1.0  T
 102   -111.3890400 -0.901058E-02  0.604E-01    0.07       1.0  T
 103   -111.3802744  0.876562E-02  0.657E-01    0.47       1.0  T
 104   -111.3874323 -0.715783E-02  0.613E-01    0.07       1.0  T
 105   -111.3805278  0.690450E-02  0.655E-01    0.47       1.0  T
 106   -111.3889933 -0.846553E-02  0.604E-01    0.07       1.0  T
 107   -111.3807822  0.821107E-02  0.654E-01    0.46       1.0  T
 108   -111.3880243 -0.724208E-02  0.610E-01    0.07       1.0  T
 109   -111.3810454  0.697889E-02  0.652E-01    0.46       1.0  T
 110   -111.3891083 -0.806290E-02  0.604E-01    0.07       1.0  T
 111   -111.3813097  0.779859E-02  0.650E-01    0.45       1.0  T
 112   -111.3885751 -0.726540E-02  0.607E-01    0.07       1.0  T
 113   -111.3815822  0.699291E-02  0.649E-01    0.45       1.0  T
 114   -111.3893467 -0.776452E-02  0.602E-01    0.07       1.0  T
 115   -111.3818564  0.749034E-02  0.647E-01    0.44       1.0  T
 116   -111.3891058 -0.724944E-02  0.604E-01    0.07       1.0  T
 117   -111.3821379  0.696795E-02  0.645E-01    0.44       1.0  T
 118   -111.3896790 -0.754112E-02  0.601E-01    0.07       1.0  T
 119   -111.3824218  0.725725E-02  0.644E-01    0.44       1.0  T
 120   -111.3896317 -0.720994E-02  0.601E-01    0.07       1.0  T
 121   -111.3827121  0.691961E-02  0.642E-01    0.43       1.0  T
 122   -111.3900832 -0.737107E-02  0.598E-01    0.07       1.0  T
 123   -111.3830054  0.707776E-02  0.640E-01    0.43       1.0  T
 124   -111.3901631 -0.715769E-02  0.598E-01    0.07       1.0  T
 125   -111.3833045  0.685864E-02  0.638E-01    0.42       1.0  T
 126   -111.3905432 -0.723878E-02  0.596E-01    0.07       1.0  T
 127   -111.3836070  0.693628E-02  0.637E-01    0.42       1.0  T
 128   -111.3907067 -0.709974E-02  0.595E-01    0.07       1.0  T
 129   -111.3839146  0.679208E-02  0.635E-01    0.42       1.0  T
 130   -111.3910478 -0.713320E-02  0.593E-01    0.07       1.0  T
 131   -111.3842261  0.682176E-02  0.633E-01    0.41       1.0  T
 132   -111.3912665 -0.704047E-02  0.592E-01    0.07       1.0  T
 133   -111.3845423  0.672428E-02  0.631E-01    0.41       1.0  T
 134   -111.3915888 -0.704658E-02  0.590E-01    0.07       1.0  T
 135   -111.3848624  0.672643E-02  0.629E-01    0.41       1.0  T
 136   -111.3918448 -0.698240E-02  0.589E-01    0.07       1.0  T
 137   -111.3851870  0.665777E-02  0.627E-01    0.40       1.0  T
 138   -111.3921606 -0.697354E-02  0.587E-01    0.07       1.0  T
 139   -111.3855157  0.664487E-02  0.626E-01    0.40       1.0  T
 140   -111.3924425 -0.692681E-02  0.585E-01    0.07       1.0  T
 141   -111.3858487  0.659385E-02  0.624E-01    0.40       1.0  T
 142   -111.3927590 -0.691033E-02  0.584E-01    0.07       1.0  T
 143   -111.3861857  0.657330E-02  0.622E-01    0.39       1.0  T
 144   -111.3930599 -0.687424E-02  0.582E-01    0.07       1.0  T
 145   -111.3865269  0.653304E-02  0.620E-01    0.39       1.0  T
 146   -111.3933812 -0.685432E-02  0.580E-01    0.07       1.0  T
 147   -111.3868722  0.650905E-02  0.618E-01    0.39       1.0  T
 148   -111.3936970 -0.682476E-02  0.578E-01    0.07       1.0  T
 149   -111.3872216  0.647539E-02  0.616E-01    0.38       1.0  T
 150   -111.3940252 -0.680367E-02  0.577E-01    0.07       1.0  T
 151   -111.3875750  0.645024E-02  0.614E-01    0.38       1.0  T
 152   -111.3943532 -0.677816E-02  0.575E-01    0.07       1.0  T
 153   -111.3879325  0.642068E-02  0.612E-01    0.38       1.0  T
 154   -111.3946895 -0.675704E-02  0.573E-01    0.07       1.0  T
 155   -111.3882940  0.639553E-02  0.610E-01    0.37       1.0  T
 156   -111.3950281 -0.673412E-02  0.571E-01    0.07       1.0  T
 157   -111.3886595  0.636858E-02  0.608E-01    0.37       1.0  T
 158   -111.3953730 -0.671347E-02  0.569E-01    0.07       1.0  T
 159   -111.3890291  0.634390E-02  0.605E-01    0.37       1.0  T
 160   -111.3957213 -0.669224E-02  0.567E-01    0.08       1.0  T
 161   -111.3894027  0.631866E-02  0.603E-01    0.37       1.0  T
 162   -111.3960749 -0.667222E-02  0.565E-01    0.08       1.0  T
 163   -111.3897803  0.629461E-02  0.601E-01    0.36       1.0  T
 164   -111.3964324 -0.665214E-02  0.563E-01    0.08       1.0  T
 165   -111.3901619  0.627051E-02  0.599E-01    0.36       1.0  T
 166   -111.3967946 -0.663272E-02  0.561E-01    0.08       1.0  T
 167   -111.3905476  0.624706E-02  0.597E-01    0.36       1.0  T
 168   -111.3971610 -0.661344E-02  0.559E-01    0.08       1.0  T
 169   -111.3909373  0.622374E-02  0.595E-01    0.35       1.0  T
 170   -111.3975318 -0.659454E-02  0.557E-01    0.08       1.0  T
 171   -111.3913310  0.620078E-02  0.592E-01    0.35       1.0  T
 172   -111.3979068 -0.657579E-02  0.554E-01    0.08       1.0  T
 173   -111.3917289  0.617797E-02  0.590E-01    0.35       1.0  T
 174   -111.3982861 -0.655728E-02  0.552E-01    0.08       1.0  T
 175   -111.3921308  0.615536E-02  0.588E-01    0.35       1.0  T
 176   -111.3986697 -0.653890E-02  0.550E-01    0.08       1.0  T
 177   -111.3925368  0.613286E-02  0.585E-01    0.34       1.0  T
 178   -111.3990575 -0.652064E-02  0.548E-01    0.08       1.0  T
 179   -111.3929470  0.611046E-02  0.583E-01    0.34       1.0  T
 180   -111.3994495 -0.650246E-02  0.545E-01    0.08       1.0  T
 181   -111.3933614  0.608811E-02  0.581E-01    0.34       1.0  T
 182   -111.3998457 -0.648434E-02  0.543E-01    0.08       1.0  T
 183   -111.3937799  0.606577E-02  0.578E-01    0.34       1.0  T
 184   -111.4002462 -0.646624E-02  0.541E-01    0.08       1.0  T
 185   -111.3942027  0.604342E-02  0.576E-01    0.34       1.0  T
 186   -111.4006509 -0.644813E-02  0.538E-01    0.08       1.0  T
 187   -111.3946298  0.602102E-02  0.573E-01    0.33       1.0  T
 188   -111.4010598 -0.642998E-02  0.536E-01    0.08       1.0  T
 189   -111.3950613  0.599854E-02  0.571E-01    0.33       1.0  T
 190   -111.4014731 -0.641177E-02  0.533E-01    0.08       1.0  T
 191   -111.3954971  0.597595E-02  0.568E-01    0.33       1.0  T
 192   -111.4018906 -0.639347E-02  0.531E-01    0.08       1.0  T
 193   -111.3959374  0.595322E-02  0.566E-01    0.33       1.0  T
 194   -111.4023124 -0.637506E-02  0.528E-01    0.08       1.0  T
 195   -111.3963821  0.593032E-02  0.563E-01    0.32       1.0  T
 196   -111.4027386 -0.635651E-02  0.526E-01    0.08       1.0  T
 197   -111.3968314  0.590722E-02  0.560E-01    0.32       1.0  T
 198   -111.4031692 -0.633779E-02  0.523E-01    0.08       1.0  T
 199   -111.3972853  0.588389E-02  0.558E-01    0.32       1.0  T
 200   -111.4036042 -0.631889E-02  0.520E-01    0.08       1.0  T
 201   -111.3977439  0.586031E-02  0.555E-01    0.32       1.0  T
 202   -111.4040436 -0.629976E-02  0.518E-01    0.08       1.0  T
 203   -111.3982072  0.583643E-02  0.552E-01    0.31       1.0  T
 204   -111.4044876 -0.628040E-02  0.515E-01    0.08       1.0  T
 205   -111.3986754  0.581225E-02  0.550E-01    0.31       1.0  T
 206   -111.4049361 -0.626077E-02  0.512E-01    0.08       1.0  T
 207   -111.3991484  0.578772E-02  0.547E-01    0.31       1.0  T
 208   -111.4053893 -0.624086E-02  0.509E-01    0.08       1.0  T
 209   -111.3996264  0.576282E-02  0.544E-01    0.31       1.0  T
 210   -111.4058471 -0.622062E-02  0.506E-01    0.08       1.0  T
 211   -111.4001096  0.573751E-02  0.541E-01    0.31       1.0  T
 212   -111.4063096 -0.620004E-02  0.503E-01    0.08       1.0  T
 213   -111.4005978  0.571177E-02  0.538E-01    0.30       1.0  T
 214   -111.4067769 -0.617910E-02  0.500E-01    0.08       1.0  T
 215   -111.4010913  0.568557E-02  0.535E-01    0.30       1.0  T
 216   -111.4072491 -0.615775E-02  0.497E-01    0.08       1.0  T
 217   -111.4015902  0.565887E-02  0.532E-01    0.30       1.0  T
 218   -111.4077262 -0.613598E-02  0.494E-01    0.08       1.0  T
 219   -111.4020946  0.563164E-02  0.529E-01    0.30       1.0  T
 220   -111.4082083 -0.611375E-02  0.491E-01    0.08       1.0  T
 221   -111.4026045  0.560384E-02  0.526E-01    0.30       1.0  T
 222   -111.4086955 -0.609103E-02  0.488E-01    0.08       1.0  T
 223   -111.4031201  0.557545E-02  0.522E-01    0.29       1.0  T
 224   -111.4091879 -0.606780E-02  0.485E-01    0.08       1.0  T
 225   -111.4036414  0.554642E-02  0.519E-01    0.29       1.0  T
 226   -111.4096854 -0.604401E-02  0.481E-01    0.08       1.0  T
 227   -111.4041687  0.551671E-02  0.516E-01    0.29       1.0  T
 228   -111.4101884 -0.601964E-02  0.478E-01    0.08       1.0  T
 229   -111.4047021  0.548630E-02  0.513E-01    0.29       1.0  T
 230   -111.4106967 -0.599464E-02  0.475E-01    0.08       1.0  T
 231   -111.4052416  0.545513E-02  0.509E-01    0.29       1.0  T
 232   -111.4112106 -0.596898E-02  0.471E-01    0.09       1.0  T
 233   -111.4057874  0.542316E-02  0.506E-01    0.28       1.0  T
 234   -111.4117300 -0.594263E-02  0.468E-01    0.09       1.0  T
 235   -111.4063397  0.539036E-02  0.502E-01    0.28       1.0  T
 236   -111.4122552 -0.591553E-02  0.464E-01    0.09       1.0  T
 237   -111.4068985  0.535666E-02  0.499E-01    0.28       1.0  T
 238   -111.4127862 -0.588765E-02  0.460E-01    0.09       1.0  T
 239   -111.4074641  0.532204E-02  0.495E-01    0.28       1.0  T
 240   -111.4133231 -0.585893E-02  0.456E-01    0.09       1.0  T
 241   -111.4080367  0.528642E-02  0.491E-01    0.28       1.0  T
 242   -111.4138660 -0.582934E-02  0.453E-01    0.09       1.0  T
 243   -111.4086162  0.524976E-02  0.487E-01    0.27       1.0  T
 244   -111.4144150 -0.579881E-02  0.449E-01    0.09       1.0  T
 245   -111.4092030  0.521201E-02  0.483E-01    0.27       1.0  T
 246   -111.4149703 -0.576730E-02  0.445E-01    0.09       1.0  T
 247   -111.4097972  0.517310E-02  0.479E-01    0.27       1.0  T
 248   -111.4155320 -0.573474E-02  0.441E-01    0.09       1.0  T
 249   -111.4103990  0.513296E-02  0.475E-01    0.27       1.0  T
 250   -111.4161001 -0.570108E-02  0.437E-01    0.09       1.0  T

   *** convergence criteria cannot be satisfied within 250 iterations ***

         #    Occupation            Energy/Eh            Energy/eV
      -------------------------------------------------------------
         1        2.0000           -0.7228385             -19.6694
       ...           ...                  ...                  ...
        93        2.0000           -0.3786957             -10.3048
        94        2.0000           -0.3731937             -10.1551
        95        2.0000           -0.3566290              -9.7044
        96        2.0000           -0.3485226              -9.4838
        97        2.0000           -0.3160455              -8.6000
        98        1.6500           -0.2817725              -7.6674
        99        1.6306           -0.2816687              -7.6646 (HOMO)
       100        0.7194           -0.2784044              -7.5758 (LUMO)
       101                         -0.2395714              -6.5191
       102                         -0.2281831              -6.2092
       103                         -0.2240476              -6.0966
       104                         -0.2029977              -5.5238
       ...                                ...                  ...
       184                          0.6754384              18.3796
      -------------------------------------------------------------
                  HL-Gap            0.0032643 Eh            0.0888 eV
             Fermi-level           -0.2793175 Eh           -7.6006 eV

 SCC (total)                   0 d,  0 h,  0 min,  3.859 sec
 SCC setup                      ...        0 min,  0.002 sec (  0.052%)
 Dispersion                     ...        0 min,  0.002 sec (  0.052%)
 classical contributions        ...        0 min,  0.000 sec (  0.000%)
 integral evaluation            ...        0 min,  0.029 sec (  0.751%)
 iterations                     ...        0 min,  3.725 sec ( 96.528%)
 molecular gradient             ...        0 min,  0.100 sec (  2.591%)
 printout                       ...        0 min,  0.001 sec (  0.026%)

########################################################################
[ERROR] Program stopped due to fatal error
-3- Single point calculation terminated
-2- xtb_calculator_singlepoint: Electronic structure method terminated
-1- scf: Self consistent charge iterator did not converge
########################################################################


abnormal termination of xtb
