76
 energy: -110.268052782968 gnorm: 0.000248457327 xtb: 6.7.1pre (5071a88)
N           -0.23094756602429        0.52880001081453        0.08694384136936
C            1.12493609290893        0.19981085100638        0.06025411292165
C            1.93675276818203        0.36825118538946        1.18075591641325
C            3.27940876644137        0.06295877547778        1.11686808727116
C            3.84264312103871       -0.41906991229989       -0.05746635820534
C            3.00978523760135       -0.66690021948789       -1.14145735894872
C            1.66076859472714       -0.38080313853267       -1.08617653607082
C            5.33161951339345       -0.49891635991655       -0.20404266498479
C            5.82686167270766        0.91323382696729       -0.56778280441806
C           -0.65363238278374        1.69053482882828        0.38025613760375
C            0.12549382975936        2.91105856977920        0.66223177218076
C           -0.57133687992069        4.22620993617857        0.23120556181298
C            0.28076315905050        5.15113256821159       -0.62297518025095
C            0.33242484921317        4.70119304249136       -2.08075654626570
C            1.20470246102915        5.63052004392998       -2.91540483869564
O           -1.57781011022657       -0.16406890884786       -2.27668811735421
N           -0.79371276091773        2.69322226648603        3.06042189113284
C           -2.06705552256531        3.20741420447053        3.00142228509798
C           -2.09305197654924        4.40846040781621        2.27645746500728
C           -0.72904975716492        4.65077873551097        1.70559487918301
C           -3.21873961051630        2.71672074240281        3.59302042485223
C           -3.25656724823899        5.12804791610111        2.15034935729253
C            0.07557674146464        3.41043218289295        2.16146410290515
C           -4.38906442954825        3.44959322866431        3.45597538518657
C           -4.41438280051412        4.63985912316767        2.74971357721472
C            1.44051943992228        3.65525520263097        2.77594418145591
O           -0.79543896883830       -0.35011497263109        2.96188508561005
H           -1.15610041137217       -0.09722478519859       -1.39904809641768
H           -0.35034430382131        0.89900507067847       -3.15821909014395
H            1.50221257234337        0.74197719895838        2.09486745491981
H            3.90639434947281        0.23149947242007        1.98054794941055
H            3.42333131671795       -1.07774102258443       -2.05179564812923
H            1.03502906141770       -0.54894677747156       -1.94716760063954
H            5.62174641593258       -1.19464594941630       -0.99299500187313
H            5.81783144171899       -0.80812135664871        0.72080076168881
H            5.54438360127476        1.61185434384259        0.23052057011677
H            5.27823260170957        0.82574080881009       -2.58797170180768
H            7.12813010341769        2.91638893937524       -1.22850648337854
H           -1.73675566291645        1.79691772345185        0.41287445788586
H            1.14932067684483        2.80506229310577        0.29753563132473
H           -1.53428030577211        4.05993782685609       -0.26104716664949
H           -0.13761275482983        6.16054366288374       -0.57103878643056
H            1.29542991832257        5.18780256347753       -0.22167289806291
H            0.72349199188443        3.68432309374834       -2.13295421584275
H           -0.68077778473675        4.69055771984256       -2.49088343820015
H            1.25572582878996        5.28857127767450       -3.94682800609140
H            0.80240275679537        6.64190781288826       -2.90910815380674
H            2.21347732882385        5.66527870290220       -2.50943640899423
H           -0.65385494378795        1.71084056722360        3.24406364792014
H           -0.31863337239778        5.62954000999395        1.95355883735291
H           -3.20078612386747        1.78743967824003        4.14140947437314
H           -3.27495142927441        6.05131108258645        1.58929212708995
H           -5.29803397739876        3.08119241967405        3.90975515005883
H           -5.33805469768904        5.19145249993721        2.65792771370207
H            2.07659602068561        4.20195952169249        2.08550707584263
H            1.32362787260548        4.23328750861930        3.69045202038918
H            1.92856057649122        2.71580990282380        3.02222585265850
H           -0.74182960652256       -1.23459698041292        3.32787053050908
H           -0.75761179124865       -0.43506217486605        2.00276935734617
O            0.30539813803844        1.52117766188195       -3.51361766362107
H           -2.51237703998910        0.00589719275016       -2.14819962535848
H           -0.12571012644503        1.98202369618861       -4.23460073317898
N            5.17810642659511        1.40295690143418       -1.76721761294165
C            7.34975139562311        0.95090612000469       -0.74787483362996
O            8.06799797979115       -0.01015249466653       -0.57865358075461
C            3.45031336049755        2.49305799856382       -3.04409509013735
C            4.15578839707789        2.30083905891330       -1.72800616451837
O            3.88108001411556        2.92143902621553       -0.72064434744947
H            4.03612329229253        2.11843310260078       -3.87853297259483
H            3.23736971922417        3.54842531629335       -3.18801824844790
H            2.49487844447988        1.96824917901322       -3.01549436115014
N            7.79428988121317        2.16733669371157       -1.12173351792896
C            9.18711213536116        2.45425393410336       -1.35846074061936
H            9.54587872140647        3.22397384215090       -0.67284048536215
H            9.34436040676169        2.78884340882933       -2.38561825220748
H            9.74187535020018        1.53286256938767       -1.18871134540647
