      -----------------------------------------------------------      
     |                   =====================                   |     
     |                           x T B                           |     
     |                   =====================                   |     
     |                         S. Grimme                         |     
     |          Mulliken Center for Theoretical Chemistry        |     
     |                    University of Bonn                     |     
      -----------------------------------------------------------      

   * xtb version 6.7.1pre (5071a88) compiled by 'Marcel@Raven' on 2024-07-23

   xtb is free software: you can redistribute it and/or modify it under
   the terms of the GNU Lesser General Public License as published by
   the Free Software Foundation, either version 3 of the License, or
   (at your option) any later version.
   
   xtb is distributed in the hope that it will be useful,
   but WITHOUT ANY WARRANTY; without even the implied warranty of
   MERCHANTABILITY or FITNESS FOR A PARTICULAR PURPOSE.  See the
   GNU Lesser General Public License for more details.
   
   Cite this work as:
   * C. Bannwarth, E. Caldeweyher, S. Ehlert, A. Hansen, P. Pracht,
     J. Seibert, S. Spicher, S. Grimme, WIREs Comput. Mol. Sci., 2020, 11,
     e01493. DOI: 10.1002/wcms.1493
   
   for GFN2-xTB:
   * C. Bannwarth, S. Ehlert and S. Grimme., J. Chem. Theory Comput., 2019,
     15, 1652-1671. DOI: 10.1021/acs.jctc.8b01176
   for GFN1-xTB:
   * S. Grimme, C. Bannwarth, P. Shushkov, J. Chem. Theory Comput., 2017,
     13, 1989-2009. DOI: 10.1021/acs.jctc.7b00118
   for GFN0-xTB:
   * P. Pracht, E. Caldeweyher, S. Ehlert, S. Grimme, ChemRxiv, 2019, preprint.
     DOI: 10.26434/chemrxiv.8326202.v1
   for GFN-FF:
   * S. Spicher and S. Grimme, Angew. Chem. Int. Ed., 2020, 59, 15665-15673.
     DOI: 10.1002/anie.202004239
   
   for ALPB and GBSA implicit solvation:
   * S. Ehlert, M. Stahn, S. Spicher, S. Grimme, J. Chem. Theory Comput.,
     2021, 17, 4250-4261. DOI: 10.1021/acs.jctc.1c00471
   
   for ddCOSMO and CPCM-X implicit solvation:
   * M. Stahn, S. Ehlert, S. Grimme, J. Phys. Chem. A,
     2023, XX, XXXX-XXXX. DOI: 10.1021/acs.jpca.3c04382
   
   for DFT-D4:
   * E. Caldeweyher, C. Bannwarth and S. Grimme, J. Chem. Phys., 2017,
     147, 034112. DOI: 10.1063/1.4993215
   * E. Caldeweyher, S. Ehlert, A. Hansen, H. Neugebauer, S. Spicher,
     C. Bannwarth and S. Grimme, J. Chem. Phys., 2019, 150, 154122.
     DOI: 10.1063/1.5090222
   * E. Caldeweyher, J.-M. Mewes, S. Ehlert and S. Grimme, Phys. Chem. Chem. Phys.
     2020, 22, 8499-8512. DOI: 10.1039/D0CP00502A
   
   for sTDA-xTB:
   * S. Grimme and C. Bannwarth, J. Chem. Phys., 2016, 145, 054103.
     DOI: 10.1063/1.4959605
   
   in the mass-spec context:
   * V. Asgeirsson, C. Bauer and S. Grimme, Chem. Sci., 2017, 8, 4879.
     DOI: 10.1039/c7sc00601b
   * J. Koopman and S. Grimme, ACS Omega 2019, 4, 12, 15120-15133.
     DOI: 10.1021/acsomega.9b02011
   
   for metadynamics refer to:
   * S. Grimme, J. Chem. Theory Comput., 2019, 155, 2847-2862
     DOI: 10.1021/acs.jctc.9b00143
   
   for SPH calculations refer to:
   * S. Spicher and S. Grimme, J. Chem. Theory Comput., 2021, 17, 1701-1714
     DOI: 10.1021/acs.jctc.0c01306
   
   for ONIOM refer to:
   * C. Plett, A. Katbashev, S. Ehlert, S. Grimme, M. Bursch,
     Phys. Chem. Chem. Phys., 2023, 25, 17860-17868. DOI: 10.1039/D3CP02178E
   
   for DIPRO refer to:
   * J. Kohn, N. Gildemeister, S. Grimme, D. Fazzi, A. Hansen,
     J. Chem. Phys., 2023, just accepted.
   
   for PTB refer to:
   * S. Grimme, M. Mueller, A. Hansen, J. Chem. Phys., 2023, 158, 124111.
     DOI: 10.1063/5.0137838
   
   with help from (in alphabetical order)
   P. Atkinson, C. Bannwarth, F. Bohle, G. Brandenburg, E. Caldeweyher
   M. Checinski, S. Dohm, S. Ehlert, S. Ehrlich, I. Gerasimov, C. Hölzer
   A. Katbashev, J. Kohn, J. Koopman, C. Lavigne, S. Lehtola, F. März, M. Müller,
   F. Musil, H. Neugebauer, J. Pisarek, C. Plett, P. Pracht, F. Pultar,
   J. Seibert, P. Shushkov, S. Spicher, M. Stahn, M. Steiner, T. Strunk,
   J. Stückrath, T. Rose, and J. Unsleber
   
 * started run on 2026/08/20 at 18:56:33.155     
   ID    Z sym.   atoms
    1    7 N      1, 17, 63, 72
    2    6 C      2-15, 18-26, 64, 66, 67, 73
    3    8 O      16, 27, 60, 65, 68
    4    1 H      28-59, 61, 62, 69-71, 74-76

           -------------------------------------------------
          |                Calculation Setup                |
           -------------------------------------------------

          program call               : C:\Users\Nayanika\Downloads\xtb-6.7.1pre-windows-x86_64\xtb-6.7.1\bin\xtb.exe D:\PhD_Thesis\LmrR_EVB\charges\fast_lmrr_5QM\xtb_preparation\RS2_1_to_TS2_1a\RS2_1_to_TS2_1a_TS_xtbopt.xyz --gfn 2 --chrg 0 --uhf 0 --hess --etemp 0
          coordinate file            : D:\PhD_Thesis\LmrR_EVB\charges\fast_lmrr_5QM\xtb_preparation\RS2_1_to_TS2_1a\RS2_1_to_TS2_1a_TS_xtbopt.xyz
          omp threads                :                     1


molecular fragmentation (1/2 indicates fragments):
111111111111111211111111112221111111111111111111111111111222221111111111
1111
# atoms in fragment 1/2:    67     9
 fragment masses (1/2) :      446.59       54.05
CMA distance (Bohr)    :   6.560
constraining FC (au)   :  0.0500

           -------------------------------------------------
          |                 G F N 2 - x T B                 |
           -------------------------------------------------

        Reference                      10.1021/acs.jctc.8b01176
      * Hamiltonian:
        H0-scaling (s, p, d)           1.850000    2.230000    2.230000
        zeta-weighting                 0.500000
      * Dispersion:
        s8                             2.700000
        a1                             0.520000
        a2                             5.000000
        s9                             5.000000
      * Repulsion:
        kExp                           1.500000    1.000000
        rExp                           1.000000
      * Coulomb:
        alpha                          2.000000
        third order                    shell-resolved
        anisotropic                    true
        a3                             3.000000
        a5                             4.000000
        cn-shift                       1.200000
        cn-exp                         4.000000
        max-rad                        5.000000

q/qsh data taken from xtbrestart
CAMM data taken from xtbrestart

          ...................................................
          :                      SETUP                      :
          :.................................................:
          :  # basis functions                 184          :
          :  # atomic orbitals                 184          :
          :  # shells                          112          :
          :  # electrons                       198          :
          :  max. iterations                   250          :
          :  Hamiltonian                  GFN2-xTB          :
          :  restarted?                       true          :
          :  GBSA solvation                  false          :
          :  PC potential                    false          :
          :  electronic temp.            0.0000000     K    :
          :  accuracy                    1.0000000          :
          :  -> integral cutoff          0.2500000E+02      :
          :  -> integral neglect         0.1000000E-07      :
          :  -> SCF convergence          0.1000000E-05 Eh   :
          :  -> wf. convergence          0.1000000E-03 e    :
          :  Broyden damping             0.4000000          :
          :  net charge                          0          :
          :  unpaired electrons                  0          :
          ...................................................

 iter      E             dE          RMSdq      gap      omega  full diag
   1   -111.7980344 -0.111798E+03  0.447E-07    2.08       0.0  T
   2   -111.7980344 -0.270006E-12  0.283E-07    2.08   40527.2  T
   3   -111.7980344  0.156319E-12  0.176E-07    2.08   65322.4  T

   *** convergence criteria satisfied after 3 iterations ***

         #    Occupation            Energy/Eh            Energy/eV
      -------------------------------------------------------------
         1        2.0000           -0.7032611             -19.1367
       ...           ...                  ...                  ...
        93        2.0000           -0.4023452             -10.9484
        94        2.0000           -0.3993301             -10.8663
        95        2.0000           -0.3972299             -10.8092
        96        2.0000           -0.3879516             -10.5567
        97        2.0000           -0.3831337             -10.4256
        98        2.0000           -0.3683498             -10.0233
        99        2.0000           -0.3373974              -9.1811 (HOMO)
       100                         -0.2608300              -7.0975 (LUMO)
       101                         -0.2191275              -5.9628
       102                         -0.2135817              -5.8119
       103                         -0.2095259              -5.7015
       104                         -0.2052858              -5.5861
       ...                                ...                  ...
       184                          0.7073560              19.2481
      -------------------------------------------------------------
                  HL-Gap            0.0765674 Eh            2.0835 eV
             Fermi-level            0.0000000 Eh            0.0000 eV

 SCC (total)                   0 d,  0 h,  0 min,  0.100 sec
 SCC setup                      ...        0 min,  0.000 sec (  0.000%)
 Dispersion                     ...        0 min,  0.002 sec (  2.000%)
 classical contributions        ...        0 min,  0.001 sec (  1.000%)
 integral evaluation            ...        0 min,  0.017 sec ( 17.000%)
 iterations                     ...        0 min,  0.019 sec ( 19.000%)
 molecular gradient             ...        0 min,  0.060 sec ( 60.000%)
 printout                       ...        0 min,  0.001 sec (  1.000%)

         :::::::::::::::::::::::::::::::::::::::::::::::::::::
         ::                     SUMMARY                     ::
         :::::::::::::::::::::::::::::::::::::::::::::::::::::
         :: total energy            -110.268052782987 Eh    ::
         :: gradient norm              0.000248478728 Eh/a0 ::
         :: HOMO-LUMO gap              2.083505159012 eV    ::
         ::.................................................::
         :: SCC energy              -111.794610541417 Eh    ::
         :: -> isotropic ES            0.190565580407 Eh    ::
         :: -> anisotropic ES          0.001339355554 Eh    ::
         :: -> anisotropic XC          0.046681359231 Eh    ::
         :: -> dispersion             -0.087780001473 Eh    ::
         :: repulsion energy           1.526557758430 Eh    ::
         :: add. restraining           0.000000000000 Eh    ::
         :: total charge               0.000000000000 e     ::
         :::::::::::::::::::::::::::::::::::::::::::::::::::::

           ------------------------------------------------- 
          |                Numerical Hessian                |
           ------------------------------------------------- 
step length          :   0.00500
SCC accuracy         :   0.30000
Hessian scale factor :   1.00000
frozen atoms in %    :   0.00000    0
RMS gradient         :   0.00025
estimated CPU  time      0.96 min
estimated wall time      1.01 min

writing file <hessian>.

 projected vibrational frequencies (cm⁻¹)
eigval :       -0.00    -0.00    -0.00     0.00     0.00     0.00
eigval :        6.40    15.94    19.09    20.62    26.07    35.96
eigval :       38.86    42.78    44.44    54.74    55.99    57.64
eigval :       60.77    67.82    71.24    76.81    79.80    88.96
eigval :       90.93    96.70   108.37   113.90   117.57   125.01
eigval :      127.42   132.07   138.17   149.21   151.86   156.99
eigval :      161.48   174.52   184.07   187.79   189.11   218.53
eigval :      225.12   240.64   248.56   253.80   271.24   280.45
eigval :      288.27   289.50   306.47   311.91   324.33   328.40
eigval :      339.68   361.41   375.99   383.64   398.37   418.87
eigval :      423.82   427.43   431.08   455.98   467.75   484.84
eigval :      503.24   505.21   515.80   530.57   540.85   545.53
eigval :      547.33   578.02   585.16   594.83   599.95   609.23
eigval :      632.17   633.85   646.96   655.07   680.18   693.57
eigval :      707.76   721.74   772.25   772.94   785.07   814.89
eigval :      853.69   856.38   861.23   866.02   866.98   871.70
eigval :      891.79   894.76   900.79   913.12   918.23   921.89
eigval :      924.12   925.91   932.06   946.41   972.86   978.42
eigval :      997.36  1001.26  1003.77  1018.37  1025.33  1048.69
eigval :     1066.30  1073.82  1074.47  1086.36  1100.20  1105.34
eigval :     1107.40  1109.13  1114.96  1126.23  1127.04  1133.19
eigval :     1142.39  1147.78  1156.65  1163.72  1177.31  1187.13
eigval :     1190.65  1191.82  1192.15  1204.67  1208.87  1210.45
eigval :     1213.02  1226.68  1231.63  1252.64  1254.00  1258.29
eigval :     1266.63  1273.59  1277.10  1279.97  1287.31  1297.68
eigval :     1305.76  1321.54  1330.28  1340.85  1363.52  1370.70
eigval :     1380.82  1382.51  1393.42  1403.30  1406.57  1412.97
eigval :     1415.96  1426.81  1451.63  1462.53  1466.43  1468.41
eigval :     1475.61  1477.93  1478.25  1482.89  1483.03  1486.18
eigval :     1489.42  1498.57  1506.80  1512.36  1532.17  1533.87
eigval :     1560.70  1572.26  1598.39  1603.68  1616.21  1678.56
eigval :     1730.03  1758.18  2918.30  2931.43  2952.03  2964.23
eigval :     2970.27  2971.16  2971.45  2982.68  2987.29  2987.84
eigval :     2992.64  3004.29  3009.48  3014.87  3024.76  3029.56
eigval :     3030.14  3033.09  3035.03  3042.53  3043.32  3052.25
eigval :     3062.44  3069.42  3069.97  3073.51  3075.99  3087.38
eigval :     3094.42  3102.93  3121.54  3281.15  3417.59  3444.53
eigval :     3450.42  3453.42  3557.91  3655.25  3659.22  3669.83
           -------------------------------------------------
          |                Property Printout                |
           -------------------------------------------------

    * Orbital Energies and Occupations

         #    Occupation            Energy/Eh            Energy/eV
      -------------------------------------------------------------
         1        2.0000           -0.7032611             -19.1367
       ...           ...                  ...                  ...
        87        2.0000           -0.4187168             -11.3939
        88        2.0000           -0.4169342             -11.3454
        89        2.0000           -0.4090618             -11.1311
        90        2.0000           -0.4074881             -11.0883
        91        2.0000           -0.4070149             -11.0754
        92        2.0000           -0.4038783             -10.9901
        93        2.0000           -0.4023452             -10.9484
        94        2.0000           -0.3993301             -10.8663
        95        2.0000           -0.3972299             -10.8092
        96        2.0000           -0.3879516             -10.5567
        97        2.0000           -0.3831337             -10.4256
        98        2.0000           -0.3683498             -10.0233
        99        2.0000           -0.3373974              -9.1811 (HOMO)
       100                         -0.2608300              -7.0975 (LUMO)
       101                         -0.2191275              -5.9628
       102                         -0.2135817              -5.8119
       103                         -0.2095259              -5.7015
       104                         -0.2052858              -5.5861
       105                         -0.2036440              -5.5414
       106                         -0.1922598              -5.2317
       107                         -0.0904147              -2.4603
       108                         -0.0751840              -2.0459
       109                         -0.0030013              -0.0817
       110                          0.0110296               0.3001
       ...                                ...                  ...
       184                          0.7073560              19.2481
      -------------------------------------------------------------
                  HL-Gap            0.0765674 Eh            2.0835 eV
             Fermi-level            0.0000000 Eh            0.0000 eV

     #   Z          covCN         q      C6AA      α(0)
     1   7 N        1.831    -0.258    27.559     7.779
     2   6 C        2.937     0.076    26.297     8.410
     3   6 C        2.921    -0.048    29.191     8.860
     4   6 C        2.925    -0.035    28.879     8.813
     5   6 C        2.976     0.007    27.863     8.659
     6   6 C        2.926    -0.040    28.983     8.829
     7   6 C        2.922    -0.051    29.255     8.870
     8   6 C        3.811    -0.066    21.763     6.640
     9   6 C        3.802     0.018    20.275     6.411
    10   6 C        2.850     0.087    26.068     8.368
    11   6 C        3.987    -0.050    21.401     6.572
    12   6 C        4.001    -0.018    20.823     6.483
    13   6 C        3.804    -0.061    21.676     6.628
    14   6 C        3.801    -0.058    21.613     6.619
    15   6 C        3.752    -0.102    22.499     6.764
    16   8 O        1.609    -0.596    25.101     6.762
    17   7 N        2.718    -0.204    25.425     7.489
    18   6 C        2.984     0.068    26.473     8.440
    19   6 C        3.020    -0.022    28.522     8.760
    20   6 C        4.027    -0.034    21.096     6.525
    21   6 C        2.914    -0.065    29.617     8.924
    22   6 C        2.915    -0.041    29.010     8.832
    23   6 C        4.043     0.084    19.110     6.210
    24   6 C        2.923    -0.035    28.872     8.812
    25   6 C        2.921    -0.051    29.255     8.870
    26   6 C        3.754    -0.115    22.755     6.802
    27   8 O        1.610    -0.579    24.690     6.706
    28   1 H        0.804     0.309     0.695     1.310
    29   1 H        0.804     0.311     0.690     1.305
    30   1 H        0.926     0.042     2.426     2.436
    31   1 H        0.926     0.033     2.549     2.497
    32   1 H        0.926     0.028     2.609     2.526
    33   1 H        0.926     0.060     2.203     2.321
    34   1 H        0.924     0.050     2.315     2.380
    35   1 H        0.925     0.060     2.199     2.319
    36   1 H        0.924     0.078     2.000     2.212
    37   1 H        0.860     0.171     1.269     1.765
    38   1 H        0.860     0.175     1.244     1.747
    39   1 H        0.925     0.038     2.476     2.461
    40   1 H        0.924     0.063     2.163     2.300
    41   1 H        0.924     0.029     2.607     2.525
    42   1 H        0.924     0.033     2.548     2.496
    43   1 H        0.924     0.043     2.413     2.429
    44   1 H        0.924     0.054     2.276     2.359
    45   1 H        0.924     0.024     2.670     2.555
    46   1 H        0.925     0.031     2.577     2.511
    47   1 H        0.925     0.030     2.580     2.512
    48   1 H        0.925     0.035     2.515     2.480
    49   1 H        0.860     0.176     1.234     1.740
    50   1 H        0.925     0.036     2.506     2.476
    51   1 H        0.926     0.028     2.621     2.532
    52   1 H        0.926     0.022     2.699     2.569
    53   1 H        0.926     0.023     2.687     2.563
    54   1 H        0.926     0.021     2.723     2.580
    55   1 H        0.925     0.054     2.274     2.358
    56   1 H        0.925     0.049     2.329     2.387
    57   1 H        0.925     0.047     2.352     2.398
    58   1 H        0.805     0.283     0.774     1.382
    59   1 H        0.805     0.294     0.740     1.351
    60   8 O        1.610    -0.602    25.236     6.780
    61   1 H        0.806     0.279     0.788     1.394
    62   1 H        0.806     0.271     0.815     1.418
    63   7 N        2.691    -0.199    25.331     7.475
    64   6 C        2.753     0.263    22.560     7.778
    65   8 O        0.858    -0.426    22.207     6.318
    66   6 C        3.757    -0.154    23.540     6.918
    67   6 C        2.749     0.281    22.239     7.722
    68   8 O        0.859    -0.450    22.710     6.389
    69   1 H        0.925     0.041     2.431     2.438
    70   1 H        0.925     0.075     2.033     2.230
    71   1 H        0.924     0.104     1.748     2.068
    72   7 N        2.687    -0.169    24.653     7.374
    73   6 C        3.689    -0.045    21.577     6.648
    74   1 H        0.924     0.053     2.288     2.365
    75   1 H        0.924     0.051     2.312     2.378
    76   1 H        0.925     0.088     1.896     2.153

 Mol. C6AA /au·bohr⁶  :      55182.713522
 Mol. C8AA /au·bohr⁸  :    1256783.297061
 Mol. α(0) /au        :        359.462679


Wiberg/Mayer (AO) data.
largest (>0.10) Wiberg bond orders for each atom

 ---------------------------------------------------------------------------
     #   Z sym  total        # sym  WBO       # sym  WBO       # sym  WBO
 ---------------------------------------------------------------------------
     1   7 N    3.164 --    10 C    1.788     2 C    1.087
     2   6 C    3.975 --     7 C    1.364     3 C    1.355     1 N    1.087
     3   6 C    3.989 --     4 C    1.461     2 C    1.355    30 H    0.962
                             6 C    0.102
     4   6 C    3.991 --     3 C    1.461     5 C    1.401    31 H    0.968
                             7 C    0.106
     5   6 C    3.985 --     6 C    1.403     4 C    1.401     8 C    1.013
     6   6 C    3.990 --     7 C    1.457     5 C    1.403    32 H    0.968
                             3 C    0.102
     7   6 C    3.988 --     6 C    1.457     2 C    1.364    33 H    0.963
                             4 C    0.106
     8   6 C    3.992 --     5 C    1.013    34 H    0.972    35 H    0.967
                             9 C    0.965
     9   6 C    3.966 --    63 N    0.984     8 C    0.965    36 H    0.943
                            64 C    0.929
    10   6 C    3.962 --     1 N    1.788    11 C    1.052    39 H    0.954
    11   6 C    3.989 --    10 C    1.052    12 C    0.959    40 H    0.956
                            23 C    0.890
    12   6 C    3.988 --    13 C    1.003    41 H    0.968    20 C    0.965
                            11 C    0.959
    13   6 C    3.995 --    14 C    1.006    12 C    1.003    43 H    0.974
                            42 H    0.972
    14   6 C    3.995 --    15 C    1.019    13 C    1.006    45 H    0.979
                            44 H    0.973
    15   6 C    3.997 --    14 C    1.019    47 H    0.988    46 H    0.987
                            48 H    0.986
    16   8 O    1.852 --    61 H    0.918    28 H    0.853
    17   7 N    3.333 --    18 C    1.150    23 C    1.006    49 H    0.925
    18   6 C    3.972 --    21 C    1.371    19 C    1.294    17 N    1.150
    19   6 C    3.983 --    22 C    1.467    18 C    1.294    20 C    1.003
                            24 C    0.102
    20   6 C    3.989 --    19 C    1.003    12 C    0.965    23 C    0.964
                            50 H    0.963
    21   6 C    3.986 --    24 C    1.432    18 C    1.371    51 H    0.969
    22   6 C    3.991 --    19 C    1.467    25 C    1.398    52 H    0.970
    23   6 C    3.967 --    17 N    1.006    26 C    1.003    20 C    0.964
                            11 C    0.890
    24   6 C    3.991 --    25 C    1.450    21 C    1.432    53 H    0.972
                            19 C    0.102
    25   6 C    3.988 --    24 C    1.450    22 C    1.398    54 H    0.972
    26   6 C    3.993 --    23 C    1.003    55 H    0.982    56 H    0.980
                            57 H    0.977
    27   8 O    1.843 --    58 H    0.916    59 H    0.897
    28   1 H    0.905 --    16 O    0.853
    29   1 H    0.903 --    60 O    0.864
    30   1 H    0.998 --     3 C    0.962
    31   1 H    0.999 --     4 C    0.968
    32   1 H    0.998 --     6 C    0.968
    33   1 H    0.996 --     7 C    0.963
    34   1 H    0.997 --     8 C    0.972
    35   1 H    0.995 --     8 C    0.967
    36   1 H    0.994 --     9 C    0.943
    37   1 H    0.971 --    63 N    0.939
    38   1 H    0.969 --    72 N    0.941
    39   1 H    0.998 --    10 C    0.954
    40   1 H    0.996 --    11 C    0.956
    41   1 H    0.999 --    12 C    0.968
    42   1 H    0.997 --    13 C    0.972
    43   1 H    0.998 --    13 C    0.974
    44   1 H    0.997 --    14 C    0.973
    45   1 H    0.999 --    14 C    0.979
    46   1 H    0.999 --    15 C    0.987
    47   1 H    0.999 --    15 C    0.988
    48   1 H    0.999 --    15 C    0.986
    49   1 H    0.968 --    17 N    0.925
    50   1 H    0.998 --    20 C    0.963
    51   1 H    0.999 --    21 C    0.969
    52   1 H    0.999 --    22 C    0.970
    53   1 H    0.999 --    24 C    0.972
    54   1 H    0.999 --    25 C    0.972
    55   1 H    0.997 --    26 C    0.982
    56   1 H    0.995 --    26 C    0.980
    57   1 H    0.997 --    26 C    0.977
    58   1 H    0.920 --    27 O    0.916
    59   1 H    0.914 --    27 O    0.897
    60   8 O    1.824 --    62 H    0.925    29 H    0.864
    61   1 H    0.922 --    16 O    0.918
    62   1 H    0.926 --    60 O    0.925
    63   7 N    3.410 --    67 C    1.219     9 C    0.984    37 H    0.939
                            68 O    0.182
    64   6 C    3.953 --    65 O    1.692    72 N    1.262     9 C    0.929
    65   8 O    2.016 --    64 C    1.692    72 N    0.205
    66   6 C    3.989 --    67 C    0.993    69 H    0.983    70 H    0.969
                            71 H    0.944
    67   6 C    3.945 --    68 O    1.685    63 N    1.219    66 C    0.993
    68   8 O    1.993 --    67 C    1.685    63 N    0.182
    69   1 H    0.998 --    66 C    0.983
    70   1 H    0.994 --    66 C    0.969
    71   1 H    0.989 --    66 C    0.944
    72   7 N    3.450 --    64 C    1.262    73 C    1.005    38 H    0.941
                            65 O    0.205
    73   6 C    3.962 --    72 N    1.005    75 H    0.977    74 H    0.977
                            76 H    0.975
    74   1 H    0.997 --    73 C    0.977
    75   1 H    0.997 --    73 C    0.977
    76   1 H    0.992 --    73 C    0.975
 ---------------------------------------------------------------------------

Topologies differ in total number of bonds
Writing topology from bond orders to xtbtopo.mol

molecular dipole:
                 x           y           z       tot (Debye)
 q only:        0.276       0.252      -0.862
   full:       -0.108       0.247      -1.190       3.101
molecular quadrupole (traceless):
                xx          xy          yy          xz          yz          zz
 q only:       -0.079      26.796      -1.306      -5.106     -14.547       1.384
  q+dip:       -2.658      27.570      -0.002      -5.630     -19.918       2.660
   full:       -4.846      29.196       0.569      -5.614     -20.670       4.276

           -------------------------------------------------
          |               Frequency Printout                |
           -------------------------------------------------
 projected vibrational frequencies (cm⁻¹)
eigval :       -0.00    -0.00    -0.00     0.00     0.00     0.00
eigval :        6.40    15.94    19.09    20.62    26.07    35.96
eigval :       38.86    42.78    44.44    54.74    55.99    57.64
eigval :       60.77    67.82    71.24    76.81    79.80    88.96
eigval :       90.93    96.70   108.37   113.90   117.57   125.01
eigval :      127.42   132.07   138.17   149.21   151.86   156.99
eigval :      161.48   174.52   184.07   187.79   189.11   218.53
eigval :      225.12   240.64   248.56   253.80   271.24   280.45
eigval :      288.27   289.50   306.47   311.91   324.33   328.40
eigval :      339.68   361.41   375.99   383.64   398.37   418.87
eigval :      423.82   427.43   431.08   455.98   467.75   484.84
eigval :      503.24   505.21   515.80   530.57   540.85   545.53
eigval :      547.33   578.02   585.16   594.83   599.95   609.23
eigval :      632.17   633.85   646.96   655.07   680.18   693.57
eigval :      707.76   721.74   772.25   772.94   785.07   814.89
eigval :      853.69   856.38   861.23   866.02   866.98   871.70
eigval :      891.79   894.76   900.79   913.12   918.23   921.89
eigval :      924.12   925.91   932.06   946.41   972.86   978.42
eigval :      997.36  1001.26  1003.77  1018.37  1025.33  1048.69
eigval :     1066.30  1073.82  1074.47  1086.36  1100.20  1105.34
eigval :     1107.40  1109.13  1114.96  1126.23  1127.04  1133.19
eigval :     1142.39  1147.78  1156.65  1163.72  1177.31  1187.13
eigval :     1190.65  1191.82  1192.15  1204.67  1208.87  1210.45
eigval :     1213.02  1226.68  1231.63  1252.64  1254.00  1258.29
eigval :     1266.63  1273.59  1277.10  1279.97  1287.31  1297.68
eigval :     1305.76  1321.54  1330.28  1340.85  1363.52  1370.70
eigval :     1380.82  1382.51  1393.42  1403.30  1406.57  1412.97
eigval :     1415.96  1426.81  1451.63  1462.53  1466.43  1468.41
eigval :     1475.61  1477.93  1478.25  1482.89  1483.03  1486.18
eigval :     1489.42  1498.57  1506.80  1512.36  1532.17  1533.87
eigval :     1560.70  1572.26  1598.39  1603.68  1616.21  1678.56
eigval :     1730.03  1758.18  2918.30  2931.43  2952.03  2964.23
eigval :     2970.27  2971.16  2971.45  2982.68  2987.29  2987.84
eigval :     2992.64  3004.29  3009.48  3014.87  3024.76  3029.56
eigval :     3030.14  3033.09  3035.03  3042.53  3043.32  3052.25
eigval :     3062.44  3069.42  3069.97  3073.51  3075.99  3087.38
eigval :     3094.42  3102.93  3121.54  3281.15  3417.59  3444.53
eigval :     3450.42  3453.42  3557.91  3655.25  3659.22  3669.83
 reduced masses (amu)
   1: 12.11   2: 11.67   3: 12.10   4: 12.17   5: 11.53   6: 11.86   7: 11.38   8: 11.75
   9: 11.72  10: 12.57  11: 12.07  12: 12.72  13: 11.92  14: 13.29  15: 11.48  16: 13.40
  17: 11.39  18: 11.35  19:  9.70  20: 10.02  21:  9.42  22:  9.13  23:  6.97  24: 10.04
  25: 11.01  26: 11.04  27:  9.43  28: 13.07  29:  7.55  30: 11.13  31:  5.55  32:  6.28
  33:  9.69  34:  8.34  35:  4.59  36:  7.55  37:  8.66  38:  1.94  39: 10.63  40: 11.10
  41:  9.55  42:  2.38  43: 12.49  44:  9.37  45: 11.07  46:  3.02  47:  9.34  48: 10.37
  49: 11.33  50: 10.37  51:  5.25  52:  7.83  53:  7.46  54:  4.68  55:  9.39  56:  9.99
  57:  9.53  58:  9.16  59:  9.57  60:  9.41  61:  3.39  62: 10.07  63:  8.86  64:  9.28
  65: 10.83  66:  6.68  67:  3.65  68:  7.32  69:  8.02  70:  9.26  71:  8.49  72:  8.60
  73:  7.80  74:  9.96  75:  8.50  76: 10.40  77: 10.28  78:  9.87  79:  9.78  80:  2.83
  81: 10.56  82: 10.33  83: 10.79  84: 11.12  85: 10.41  86: 11.16  87: 10.11  88:  3.71
  89:  2.85  90:  5.57  91:  7.60  92: 10.54  93:  3.51  94: 10.12  95:  3.94  96:  9.31
  97:  5.24  98:  6.71  99:  3.86 100:  2.89 101:  3.05 102:  6.01 103:  5.22 104:  9.33
 105:  6.46 106:  6.02 107:  5.71 108: 10.03 109:  5.42 110:  6.21 111:  6.57 112:  8.54
 113:  7.53 114:  8.37 115:  7.12 116:  6.11 117:  7.28 118:  8.37 119:  8.14 120:  4.81
 121:  7.11 122:  6.06 123:  7.95 124:  6.81 125:  8.53 126:  6.40 127:  4.11 128:  6.11
 129:  5.52 130:  5.00 131:  2.55 132:  4.81 133:  5.29 134:  4.44 135:  3.91 136:  5.17
 137:  6.08 138:  5.71 139:  5.53 140:  6.01 141:  5.18 142:  6.34 143:  7.28 144:  4.27
 145:  6.99 146:  6.89 147:  3.54 148:  4.49 149:  4.51 150:  4.33 151:  5.65 152:  9.71
 153: 10.97 154:  5.14 155:  4.97 156:  5.41 157:  3.97 158:  9.12 159:  2.63 160:  3.33
 161:  7.75 162:  3.28 163:  9.83 164:  8.98 165:  1.62 166:  1.56 167:  9.69 168:  1.86
 169:  2.28 170: 10.77 171:  1.73 172:  1.99 173:  2.17 174:  9.13 175:  1.92 176:  1.88
 177:  1.55 178:  1.60 179:  2.17 180:  2.10 181:  2.17 182: 11.50 183: 11.55 184: 11.55
 185: 11.71 186: 12.67 187: 13.27 188: 13.26 189:  1.74 190:  1.76 191:  1.83 192:  1.74
 193:  1.75 194:  1.79 195:  1.95 196:  1.79 197:  1.70 198:  1.44 199:  1.86 200:  1.68
 201:  1.63 202:  1.76 203:  1.93 204:  1.94 205:  1.80 206:  1.27 207:  1.73 208:  1.66
 209:  1.74 210:  1.61 211:  1.75 212:  1.81 213:  1.75 214:  1.82 215:  1.81 216:  1.86
 217:  1.89 218:  1.85 219:  1.85 220:  1.89 221:  1.86 222:  1.85 223:  1.84 224:  1.84
 225:  1.84 226:  1.85 227:  1.84 228:  1.84
 IR intensities (km·mol⁻¹)
   1:  0.01   2:  0.06   3:  0.01   4:  0.08   5:  0.08   6:  0.03   7:  0.31   8:  0.12
   9:  0.19  10:  8.43  11:  0.40  12:  2.84  13:  2.36  14:  9.66  15:  1.37  16:  0.39
  17:  9.33  18:  2.54  19:  6.88  20: 20.62  21:  7.92  22: 18.47  23: 54.19  24: 17.51
  25: 19.50  26:  2.27  27: 19.24  28:  0.94  29:  6.20  30:  7.19  31:  3.88  32:  2.71
  33:  4.45  34: 47.88  35: 36.50  36:  4.29  37: 13.05  38:  9.07  39:  5.49  40:  4.33
  41:  2.77  42: 88.75  43: 42.13  44:  1.86  45:  3.88  46:  0.03  47:  0.74  48:  0.68
  49:  7.68  50:  1.82  51: 71.95  52: 24.04  53: 57.36  54:100.77  55: 20.20  56:  6.54
  57:  2.03  58:  9.18  59:  1.51  60: 21.68  61:143.87  62: 32.29  63: 23.36  64: 18.31
  65: 19.66  66: 60.16  67: 28.55  68: 30.15  69: 17.17  70:  3.21  71: 76.14  72: 61.59
  73: 88.32  74: 27.31  75:  5.76  76: 21.81  77: 21.29  78: 47.56  79: 39.23  80:318.49
  81:  3.78  82:  2.73  83: 24.94  84:  7.00  85: 11.54  86:  2.43  87: 37.61  88: 17.92
  89: 11.37  90: 37.83  91: 14.91  92:  1.83  93:  0.51  94:  3.86  95:  2.36  96:  5.98
  97:  5.53  98:  6.41  99:  0.29 100:  1.64 101:  0.02 102:  0.62 103:  0.86 104:  5.72
 105:  2.98 106:  4.60 107: 14.37 108: 12.41 109:  8.32 110:  6.59 111: 22.91 112:  3.08
 113: 13.40 114:  1.37 115:  7.85 116:  1.55 117: 40.54 118:125.39 119: 29.50 120:  2.70
 121: 30.24 122: 14.04 123: 11.91 124:  1.98 125: 27.38 126: 12.99 127:  3.09 128:  1.47
 129:  0.38 130:  5.47 131:  0.85 132: 17.29 133: 19.41 134:  1.51 135: 13.32 136:  8.61
 137: 46.23 138: 40.61 139:  6.57 140: 17.15 141:111.33 142: 14.62 143: 31.39 144:  3.19
 145: 29.29 146:  4.99 147:  1.91 148:  0.48 149:  0.96 150:  5.42 151:  2.15 152:148.31
 153:  0.78 154:  3.86 155: 17.60 156:  8.74 157: 48.98 158: 79.39 159:  1.41 160:  4.02
 161:175.69 162:  3.02 163:  4.26 164:201.22 165:  5.71 166: 11.35 167: 23.12 168: 10.54
 169:  1.89 170:173.02 171:  3.83 172:  9.04 173: 12.39 174: 41.89 175:  1.83 176:  0.25
 177:  1.18 178:  1.57 179: 98.14 180:148.44 181:149.30 182:  2.88 183: 14.66 184: 13.02
 185:123.57 186:218.88 187:414.41 188:486.24 189:  8.77 190: 23.23 191: 26.73 192: 38.56
 193:  4.32 194: 34.23 195: 29.23 196: 28.59 197: 67.52 198: 43.82 199: 21.20 200:  3.97
 201: 18.97 202: 12.45 203: 66.19 204: 48.79 205: 39.38 206: 36.93 207:  3.91 208: 19.91
 209: 19.18 210: 16.02 211:  3.27 212: 48.50 213:  2.71 214: 44.87 215: 25.64 216: 97.99
 217: 52.15 218: 17.39 219:  8.87 220:535.25 221:333.79 222: 70.45 223:  5.12 224:  6.86
 225: 71.46 226: 11.52 227:  9.25 228:  4.39
 Raman intensities (Ä⁴*amu⁻¹)
   1:  0.00   2:  0.00   3:  0.00   4:  0.00   5:  0.00   6:  0.00   7:  0.00   8:  0.00
   9:  0.00  10:  0.00  11:  0.00  12:  0.00  13:  0.00  14:  0.00  15:  0.00  16:  0.00
  17:  0.00  18:  0.00  19:  0.00  20:  0.00  21:  0.00  22:  0.00  23:  0.00  24:  0.00
  25:  0.00  26:  0.00  27:  0.00  28:  0.00  29:  0.00  30:  0.00  31:  0.00  32:  0.00
  33:  0.00  34:  0.00  35:  0.00  36:  0.00  37:  0.00  38:  0.00  39:  0.00  40:  0.00
  41:  0.00  42:  0.00  43:  0.00  44:  0.00  45:  0.00  46:  0.00  47:  0.00  48:  0.00
  49:  0.00  50:  0.00  51:  0.00  52:  0.00  53:  0.00  54:  0.00  55:  0.00  56:  0.00
  57:  0.00  58:  0.00  59:  0.00  60:  0.00  61:  0.00  62:  0.00  63:  0.00  64:  0.00
  65:  0.00  66:  0.00  67:  0.00  68:  0.00  69:  0.00  70:  0.00  71:  0.00  72:  0.00
  73:  0.00  74:  0.00  75:  0.00  76:  0.00  77:  0.00  78:  0.00  79:  0.00  80:  0.00
  81:  0.00  82:  0.00  83:  0.00  84:  0.00  85:  0.00  86:  0.00  87:  0.00  88:  0.00
  89:  0.00  90:  0.00  91:  0.00  92:  0.00  93:  0.00  94:  0.00  95:  0.00  96:  0.00
  97:  0.00  98:  0.00  99:  0.00 100:  0.00 101:  0.00 102:  0.00 103:  0.00 104:  0.00
 105:  0.00 106:  0.00 107:  0.00 108:  0.00 109:  0.00 110:  0.00 111:  0.00 112:  0.00
 113:  0.00 114:  0.00 115:  0.00 116:  0.00 117:  0.00 118:  0.00 119:  0.00 120:  0.00
 121:  0.00 122:  0.00 123:  0.00 124:  0.00 125:  0.00 126:  0.00 127:  0.00 128:  0.00
 129:  0.00 130:  0.00 131:  0.00 132:  0.00 133:  0.00 134:  0.00 135:  0.00 136:  0.00
 137:  0.00 138:  0.00 139:  0.00 140:  0.00 141:  0.00 142:  0.00 143:  0.00 144:  0.00
 145:  0.00 146:  0.00 147:  0.00 148:  0.00 149:  0.00 150:  0.00 151:  0.00 152:  0.00
 153:  0.00 154:  0.00 155:  0.00 156:  0.00 157:  0.00 158:  0.00 159:  0.00 160:  0.00
 161:  0.00 162:  0.00 163:  0.00 164:  0.00 165:  0.00 166:  0.00 167:  0.00 168:  0.00
 169:  0.00 170:  0.00 171:  0.00 172:  0.00 173:  0.00 174:  0.00 175:  0.00 176:  0.00
 177:  0.00 178:  0.00 179:  0.00 180:  0.00 181:  0.00 182:  0.00 183:  0.00 184:  0.00
 185:  0.00 186:  0.00 187:  0.00 188:  0.00 189:  0.00 190:  0.00 191:  0.00 192:  0.00
 193:  0.00 194:  0.00 195:  0.00 196:  0.00 197:  0.00 198:  0.00 199:  0.00 200:  0.00
 201:  0.00 202:  0.00 203:  0.00 204:  0.00 205:  0.00 206:  0.00 207:  0.00 208:  0.00
 209:  0.00 210:  0.00 211:  0.00 212:  0.00 213:  0.00 214:  0.00 215:  0.00 216:  0.00
 217:  0.00 218:  0.00 219:  0.00 220:  0.00 221:  0.00 222:  0.00 223:  0.00 224:  0.00
 225:  0.00 226:  0.00 227:  0.00 228:  0.00
 output can be read by thermo (or use thermo option).
 writing <g98.out> molden fake output.
 recommended (thermochemical) frequency scaling factor: 1.0
           -------------------------------------------------
          |             Thermodynamic Functions             |
           -------------------------------------------------

Refinement of some symmetry elements was terminated before convergence was reached.
Some symmetry elements may remain unidentified.
Molecule has no symmetry elements
It seems to be the C1 point group
c1  symmetry found (for desy threshold:  0.10E+00) used in thermo

          ...................................................
          :                      SETUP                      :
          :.................................................:
          :  # frequencies                         222      :
          :  # imaginary freq.                       0      :
          :  linear?                             false      :
          :  only rotor calc.                    false      :
          :  symmetry                               c1      :
          :  rotational number                       1      :
          :  scaling factor                  1.0000000      :
          :  rotor cutoff                   50.0000000 cm⁻¹ :
          :  imag. cutoff                  -20.0000000 cm⁻¹ :
          :.................................................:

    mode    ω/cm⁻¹     T·S(HO)/kcal·mol⁻¹    T·S(FR)/kcal·mol⁻¹   T·S(vib)
   ------------------------------------------------------------------------
       1      6.40    -2.65281 (  0.03%)    -1.66539 ( 99.97%)    -1.66566
       2     15.94    -2.11217 (  1.02%)    -1.39508 ( 98.98%)    -1.40242
       3     19.09    -2.00542 (  2.08%)    -1.34169 ( 97.92%)    -1.35551
       4     20.62    -1.96002 (  2.81%)    -1.31897 ( 97.19%)    -1.33698
       5     26.07    -1.82114 (  6.88%)    -1.24946 ( 93.12%)    -1.28880
       6     35.96    -1.63085 ( 21.11%)    -1.15415 ( 78.89%)    -1.25480
       7     38.86    -1.58512 ( 26.73%)    -1.13122 ( 73.27%)    -1.25254
       8     42.78    -1.52835 ( 34.89%)    -1.10275 ( 65.11%)    -1.25123
       9     44.44    -1.50579 ( 38.43%)    -1.09143 ( 61.57%)    -1.25068
      10     54.74    -1.38294 ( 58.96%)    -1.02971 ( 41.04%)    -1.23796
      11     55.99    -1.36960 ( 61.13%)    -1.02300 ( 38.87%)    -1.23488
      12     57.64    -1.35254 ( 63.85%)    -1.01442 ( 36.15%)    -1.23030
      13     60.77    -1.32145 ( 68.57%)    -0.99877 ( 31.43%)    -1.22002
      14     67.82    -1.25688 ( 77.20%)    -0.96623 ( 22.80%)    -1.19060
      15     71.24    -1.22802 ( 80.47%)    -0.95166 ( 19.53%)    -1.17405
      16     76.81    -1.18391 ( 84.78%)    -0.92937 ( 15.22%)    -1.14516
      17     79.80    -1.16151 ( 86.65%)    -0.91804 ( 13.35%)    -1.12900
      18     88.96    -1.09803 ( 90.93%)    -0.88586 (  9.07%)    -1.07878
      19     90.93    -1.08523 ( 91.62%)    -0.87936 (  8.38%)    -1.06799
      20     96.70    -1.04943 ( 93.33%)    -0.86115 (  6.67%)    -1.03687
      21    108.37    -0.98326 ( 95.67%)    -0.82739 (  4.33%)    -0.97650
      22    113.90    -0.95447 ( 96.42%)    -0.81264 (  3.58%)    -0.94939
      23    117.57    -0.93619 ( 96.83%)    -0.80326 (  3.17%)    -0.93198
      24    125.01    -0.90084 ( 97.50%)    -0.78508 (  2.50%)    -0.89795
      25    127.42    -0.88987 ( 97.68%)    -0.77942 (  2.32%)    -0.88731
      26    132.07    -0.86929 ( 97.99%)    -0.76880 (  2.01%)    -0.86727
      27    138.17    -0.84347 ( 98.31%)    -0.75542 (  1.69%)    -0.84199
      28    149.21    -0.79972 ( 98.75%)    -0.73265 (  1.25%)    -0.79889
      29    151.86    -0.78974 ( 98.84%)    -0.72744 (  1.16%)    -0.78902
      30    156.99    -0.77095 ( 98.98%)    -0.71761 (  1.02%)    -0.77041
      31    161.48    -0.75504 ( 99.09%)    -0.70925 (  0.91%)    -0.75463
      32    174.52    -0.71147 ( 99.33%)    -0.68625 (  0.67%)    -0.71130
      33    184.07    -0.68180 ( 99.46%)    -0.67046 (  0.54%)    -0.68174
      34    187.79    -0.67069 ( 99.50%)    -0.66452 (  0.50%)    -0.67066
      35    189.11    -0.66683 ( 99.51%)    -0.66246 (  0.49%)    -0.66681
      36    218.53    -0.58772 ( 99.73%)    -0.61962 (  0.27%)    -0.58781
      37    225.12    -0.57171 ( 99.76%)    -0.61082 (  0.24%)    -0.57181
      38    240.64    -0.53611 ( 99.81%)    -0.59106 (  0.19%)    -0.53621
      39    248.56    -0.51901 ( 99.84%)    -0.58147 (  0.16%)    -0.51911
      40    253.80    -0.50805 ( 99.85%)    -0.57529 (  0.15%)    -0.50816
      41    271.24    -0.47356 ( 99.88%)    -0.55561 (  0.12%)    -0.47365
      42    280.45    -0.45644 ( 99.90%)    -0.54571 (  0.10%)    -0.45653
      43    288.27    -0.44248 ( 99.91%)    -0.53757 (  0.09%)    -0.44257
      44    289.50    -0.44033 ( 99.91%)    -0.53630 (  0.09%)    -0.44041
   ------------------------------------------------------------------------

   temp. (K)  partition function   enthalpy   heat capacity  entropy
                                   cal/mol     cal/K/mol   cal/K/mol   J/K/mol
 298.15  VIB  0.223E+23            26017.789    143.040    171.035
         ROT  0.353E+08              888.752      2.981     37.517
         INT  0.786E+30            26906.542    146.021    208.551
         TR   0.108E+29             1481.254      4.968     44.499
         TOT                       28387.7956   150.9887   253.0504  1058.7630

       T/K    H(0)-H(T)+PV         H(T)/Eh          T*S/Eh         G(T)/Eh
   ------------------------------------------------------------------------
    298.15    0.452388E-01    0.668044E+00    0.120232E+00    0.547811E+00
   ------------------------------------------------------------------------

         :::::::::::::::::::::::::::::::::::::::::::::::::::::
         ::                  THERMODYNAMIC                  ::
         :::::::::::::::::::::::::::::::::::::::::::::::::::::
         :: total free energy        -109.720241531197 Eh   ::
         ::.................................................::
         :: total energy             -110.268052782987 Eh   ::
         :: zero point energy           0.622804846725 Eh   ::
         :: G(RRHO) w/o ZPVE           -0.074993594935 Eh   ::
         :: G(RRHO) contrib.            0.547811251790 Eh   ::
         :::::::::::::::::::::::::::::::::::::::::::::::::::::

           -------------------------------------------------
          | TOTAL ENERGY             -110.268052782987 Eh   |
          | TOTAL ENTHALPY           -109.600009104399 Eh   |
          | TOTAL FREE ENERGY        -109.720241531197 Eh   |
          | GRADIENT NORM               0.000248481187 Eh/α |
          | HOMO-LUMO GAP               2.083505117503 eV   |
           -------------------------------------------------

------------------------------------------------------------------------
 * finished run on 2026/08/20 at 18:58:25.887     
------------------------------------------------------------------------
 total:
 * wall-time:     0 d,  0 h,  1 min, 52.727 sec
 *  cpu-time:     0 d,  0 h,  1 min, 46.422 sec
 * ratio c/w:     0.944 speedup
 SCF:
 * wall-time:     0 d,  0 h,  0 min,  0.100 sec
 *  cpu-time:     0 d,  0 h,  0 min,  0.109 sec
 * ratio c/w:     1.094 speedup
 analytical hessian:
 * wall-time:     0 d,  0 h,  1 min, 52.402 sec
 *  cpu-time:     0 d,  0 h,  1 min, 46.156 sec
 * ratio c/w:     0.944 speedup



================ STDERR ================

normal termination of xtb
