 Entering Gaussian System
 *********************************************
 Gaussian 98:
 frequency output generated by the xtb code
 *********************************************
                         Standard orientation:
 --------------------------------------------------------------------
  Center     Atomic     Atomic              Coordinates (Angstroms)
  Number     Number      Type              X           Y           Z
 --------------------------------------------------------------------
    1          7             0        0.361259    0.088204    1.055649
    2          6             0        1.710802   -0.127091    0.678835
    3          6             0        2.730809    0.496731    1.391850
    4          6             0        4.051083    0.295321    1.046848
    5          6             0        4.396127   -0.532441   -0.016260
    6          6             0        3.379290   -1.182169   -0.701587
    7          6             0        2.053500   -0.991842   -0.354628
    8          6             0        5.832489   -0.675906   -0.433697
    9          6             0        6.403418    0.670799   -0.883753
   10          6             0       -0.321758    1.243916    0.517976
   11          6             0        0.485398    2.527700    0.664118
   12          6             0       -0.372161    3.782781    0.434125
   13          6             0        0.517736    5.005627    0.157360
   14          6             0        0.901256    5.106018   -1.318343
   15          6             0        1.919295    6.212810   -1.562614
   16          8             0       -0.613980    1.080836   -0.873518
   17          7             0       -2.195128    4.491631    3.580915
   18          6             0       -3.235463    4.041251    2.823394
   19          6             0       -2.715348    3.712071    1.548596
   20          6             0       -1.311988    3.993896    1.583703
   21          6             0       -4.579185    3.887243    3.134541
   22          6             0       -3.581174    3.213750    0.573403
   23          6             0       -1.036015    4.461929    2.841676
   24          6             0       -5.409458    3.395392    2.150133
   25          6             0       -4.913752    3.063368    0.886802
   26          6             0        0.232632    4.930462    3.464689
   27          8             0       -1.981765    2.691971   -2.706918
   28          1             0       -0.187954   -0.745451    0.862750
   29          1             0       -1.220884    0.338908   -0.981375
   30          1             0        2.481183    1.125987    2.230533
   31          1             0        4.827774    0.784252    1.616222
   32          1             0        3.624141   -1.848224   -1.517589
   33          1             0        1.277171   -1.512088   -0.899691
   34          1             0        5.929426   -1.387553   -1.255645
   35          1             0        6.440633   -1.044892    0.394333
   36          1             0        6.521854    1.350948   -0.031609
   37          1             0        4.858587    0.715170   -2.320176
   38          1             0        7.932353    2.525114   -1.439779
   39          1             0       -1.268396    1.336899    1.071934
   40          1             0        1.305607    2.497209   -0.054295
   41          1             0       -0.984339    3.621718   -0.454875
   42          1             0       -0.022455    5.911008    0.438012
   43          1             0        1.423186    4.953696    0.764479
   44          1             0        1.318381    4.153669   -1.654585
   45          1             0        0.001550    5.308730   -1.901419
   46          1             0        2.155383    6.289195   -2.621859
   47          1             0        1.522110    7.170257   -1.233864
   48          1             0        2.840695    6.018270   -1.016052
   49          1             0       -2.259190    4.810001    4.532861
   50          1             0       -2.902337    5.422708   -1.208372
   51          1             0       -4.957609    4.144930    4.113155
   52          1             0       -3.220686    2.947284   -0.408639
   53          1             0       -6.461354    3.263147    2.355787
   54          1             0       -5.596267    2.681359    0.141710
   55          1             0        1.090696    4.441433    3.014940
   56          1             0        0.351036    6.007038    3.333743
   57          1             0        0.228924    4.717139    4.532943
   58          1             0        0.898685    2.553218    1.669891
   59          1             0       -1.486538    2.774582   -3.523514
   60          8             0       -2.450049    5.403461   -2.053945
   61          1             0       -1.404304    2.233205   -2.074192
   62          1             0       -2.417296    4.470924   -2.319025
   63          7             0        5.484947    1.315009   -1.807396
   64          6             0        7.786202    0.500693   -1.550580
   65          8             0        8.226380   -0.576393   -1.895693
   66          6             0        4.259813    3.122685   -2.807383
   67          6             0        5.383192    2.653889   -1.914418
   68          8             0        6.150906    3.408084   -1.341004
   69          1             0        3.331156    2.622680   -2.542224
   70          1             0        4.497606    2.893099   -3.844344
   71          1             0        4.139576    4.196754   -2.702492
   72          7             0        8.420758    1.673280   -1.698622
   73          6             0        9.708125    1.787459   -2.338004
   74          1             0       10.421424    2.270609   -1.668448
   75          1             0        9.634083    2.370027   -3.258391
   76          1             0       10.054207    0.781980   -2.572852
 --------------------------------------------------------------------
     1 basis functions        1 primitive gaussians
     1 alpha electrons        1 beta electrons
 
 Harmonic frequencies (cm**-1), IR intensities (km*mol⁻¹),
 Raman scattering activities (A**4/amu), Raman depolarization ratios,
 reduced masses (AMU), force constants (mDyne/A) and normal coordinates:
                      1                      2                      3
                        a                      a                      a 
 Frequencies --     4.0991                 9.8658                18.6639
 Red. masses --    11.4138                11.7598                12.4443
 Frc consts  --     0.0000                 0.0000                 0.0000
 IR Inten    --     0.6654                 0.3031                 0.6255
 Raman Activ --     0.0000                 0.0000                 0.0000
 Depolar     --     0.0000                 0.0000                 0.0000
 Atom AN      X      Y      Z        X      Y      Z        X      Y      Z
   1   7     0.07   0.07   0.09    -0.01   0.03  -0.04     0.02  -0.05   0.17
   2   6     0.06   0.06   0.07    -0.02   0.03  -0.06     0.00  -0.03   0.08
   3   6     0.08   0.13  -0.03    -0.01   0.05  -0.08     0.03  -0.05   0.06
   4   6     0.07   0.11  -0.05    -0.01   0.04  -0.09     0.02  -0.03  -0.01
   5   6     0.04   0.02   0.01    -0.02   0.02  -0.08    -0.03   0.02  -0.07
   6   6     0.02  -0.06   0.11    -0.03   0.01  -0.06    -0.06   0.05  -0.05
   7   6     0.03  -0.04   0.14    -0.02   0.02  -0.05    -0.04   0.02   0.02
   8   6     0.03  -0.02  -0.02    -0.02  -0.02  -0.07    -0.05   0.03  -0.13
   9   6     0.06  -0.04  -0.05     0.07  -0.03   0.02    -0.03   0.04  -0.06
  10   6     0.05   0.05   0.08    -0.04   0.01  -0.03    -0.02  -0.07   0.15
  11   6     0.00   0.08   0.12    -0.05   0.02  -0.07     0.01  -0.07   0.04
  12   6    -0.03   0.05   0.07    -0.07   0.01  -0.05     0.02  -0.07   0.03
  13   6    -0.05   0.08   0.10    -0.10   0.02  -0.10     0.03  -0.07   0.04
  14   6     0.01   0.07   0.12    -0.13  -0.00  -0.11     0.05  -0.07   0.05
  15   6    -0.01   0.10   0.15    -0.17   0.02  -0.15     0.03  -0.05   0.06
  16   8     0.11   0.07   0.08    -0.08  -0.01  -0.03    -0.14  -0.15   0.21
  17   7    -0.20   0.02  -0.01     0.04   0.03   0.01    -0.01  -0.03   0.01
  18   6    -0.14  -0.03  -0.05     0.02  -0.00   0.05    -0.02   0.06  -0.02
  19   6    -0.07  -0.02  -0.03    -0.03  -0.01   0.04    -0.01   0.04  -0.02
  20   6    -0.08   0.03   0.03    -0.03   0.01  -0.02     0.01  -0.05   0.02
  21   6    -0.14  -0.07  -0.11     0.03  -0.02   0.11    -0.03   0.14  -0.06
  22   6    -0.01  -0.06  -0.06    -0.06  -0.03   0.08    -0.02   0.11  -0.04
  23   6    -0.15   0.05   0.04     0.01   0.03  -0.04     0.01  -0.09   0.04
  24   6    -0.09  -0.11  -0.14     0.00  -0.04   0.15    -0.04   0.22  -0.09
  25   6    -0.02  -0.10  -0.11    -0.05  -0.05   0.13    -0.03   0.20  -0.08
  26   6    -0.19   0.10   0.09     0.03   0.06  -0.09     0.02  -0.17   0.08
  27   8     0.15   0.01   0.00    -0.23  -0.07   0.03    -0.06  -0.29   0.05
  28   1     0.02   0.02   0.03    -0.00   0.00  -0.01     0.01  -0.02   0.06
  29   1     0.04   0.01   0.01    -0.02  -0.01  -0.00    -0.05  -0.03   0.08
  30   1     0.03   0.06  -0.02    -0.00   0.02  -0.03     0.02  -0.03   0.03
  31   1     0.02   0.05  -0.04    -0.00   0.02  -0.03     0.01  -0.02  -0.01
  32   1     0.00  -0.04   0.05    -0.01  -0.00  -0.01    -0.03   0.03  -0.03
  33   1     0.01  -0.03   0.06    -0.01   0.00  -0.01    -0.02   0.01   0.01
  34   1    -0.00  -0.01  -0.00    -0.01   0.01  -0.03    -0.03   0.02  -0.05
  35   1     0.01  -0.01  -0.01    -0.02  -0.03  -0.02    -0.01  -0.01  -0.05
  36   1     0.04  -0.01  -0.02     0.03  -0.03   0.02    -0.00  -0.00  -0.01
  37   1    -0.01   0.01   0.01     0.02   0.05   0.01    -0.01   0.04  -0.02
  38   1     0.03  -0.03  -0.04     0.06  -0.03   0.04     0.01   0.01   0.02
  39   1     0.01   0.01   0.02    -0.01   0.00  -0.00     0.01  -0.01   0.06
  40   1     0.01   0.03   0.05    -0.02   0.01  -0.03    -0.01  -0.03  -0.00
  41   1     0.01   0.01   0.01    -0.03  -0.00  -0.01     0.01  -0.02   0.01
  42   1    -0.03   0.02   0.02    -0.03   0.00  -0.03     0.01  -0.02   0.01
  43   1    -0.02   0.03   0.04    -0.02   0.01  -0.03     0.01  -0.02   0.01
  44   1     0.01   0.02   0.04    -0.03   0.00  -0.03     0.02  -0.02   0.02
  45   1     0.01   0.01   0.02    -0.04  -0.01  -0.03     0.02  -0.03   0.01
  46   1     0.01   0.03   0.05    -0.05  -0.00  -0.04     0.01  -0.01   0.02
  47   1    -0.01   0.03   0.04    -0.06   0.01  -0.05     0.00  -0.02   0.02
  48   1    -0.01   0.03   0.06    -0.05   0.02  -0.04     0.01  -0.01   0.02
  49   1    -0.07   0.01  -0.00     0.02   0.01   0.00    -0.00  -0.01   0.00
  50   1    -0.00  -0.01  -0.00    -0.04  -0.01   0.00     0.04  -0.00  -0.10
  51   1    -0.06  -0.02  -0.04     0.02  -0.00   0.03    -0.01   0.04  -0.02
  52   1     0.01  -0.02  -0.01    -0.03  -0.01   0.02    -0.00   0.03  -0.01
  53   1    -0.03  -0.04  -0.05     0.00  -0.01   0.06    -0.02   0.08  -0.03
  54   1     0.01  -0.04  -0.04    -0.02  -0.02   0.05    -0.01   0.08  -0.03
  55   1    -0.05   0.03   0.04     0.01   0.01  -0.03     0.00  -0.03   0.00
  56   1    -0.06   0.03   0.02     0.01   0.01  -0.04     0.01  -0.04   0.06
  57   1    -0.07   0.04   0.03     0.02   0.03  -0.02     0.01  -0.09   0.02
  58   1    -0.02   0.03   0.04    -0.01   0.01  -0.02     0.02  -0.01   0.00
  59   1     0.05   0.01   0.01    -0.07  -0.02  -0.00    -0.02  -0.12   0.00
  60   8     0.03  -0.01   0.01    -0.19  -0.06  -0.00     0.23  -0.17  -0.34
  61   1     0.03   0.01   0.01    -0.05  -0.01   0.00    -0.02  -0.06   0.03
  62   1     0.02  -0.00  -0.00    -0.05  -0.02   0.00     0.04  -0.05  -0.05
  63   7     0.03   0.00   0.01     0.12   0.09   0.06    -0.02   0.12  -0.02
  64   6     0.01  -0.10  -0.14     0.05  -0.09   0.01    -0.03   0.05  -0.08
  65   8    -0.08  -0.14  -0.21    -0.03  -0.11  -0.07    -0.08   0.07  -0.18
  66   6     0.04   0.06   0.11     0.24   0.23   0.15     0.08   0.19   0.02
  67   6     0.08   0.01   0.03     0.21   0.10   0.12     0.04   0.12   0.03
  68   8     0.17  -0.04  -0.02     0.31   0.01   0.19     0.06   0.08   0.08
  69   1     0.01   0.02   0.05     0.06   0.10   0.05     0.02   0.06  -0.01
  70   1    -0.01   0.02   0.03     0.06   0.06   0.04     0.03   0.07   0.00
  71   1     0.02   0.02   0.04     0.10   0.07   0.05     0.03   0.05   0.02
  72   7     0.05  -0.14  -0.20     0.15  -0.13   0.09     0.00   0.04   0.00
  73   6     0.01  -0.19  -0.26     0.15  -0.18   0.09     0.00   0.04   0.00
  74   1     0.02  -0.06  -0.09     0.05  -0.08   0.03     0.01  -0.01   0.01
  75   1    -0.01  -0.05  -0.07     0.06  -0.03   0.04     0.00   0.03   0.01
  76   1    -0.01  -0.06  -0.08     0.02  -0.05   0.01    -0.01   0.01  -0.02
                      4                      5                      6
                        a                      a                      a 
 Frequencies --    21.9901                25.1730                27.6439
 Red. masses --    11.2698                11.0134                12.1281
 Frc consts  --     0.0000                 0.0000                 0.0000
 IR Inten    --     0.1620                 0.7576                 0.5377
 Raman Activ --     0.0000                 0.0000                 0.0000
 Depolar     --     0.0000                 0.0000                 0.0000
 Atom AN      X      Y      Z        X      Y      Z        X      Y      Z
   1   7    -0.00  -0.06   0.02     0.06  -0.06  -0.12    -0.03   0.12   0.03
   2   6    -0.01  -0.02  -0.02     0.07  -0.02  -0.06    -0.03   0.11   0.03
   3   6    -0.00  -0.00  -0.04     0.04   0.06  -0.07    -0.03   0.09   0.04
   4   6    -0.01   0.02  -0.08     0.05   0.07  -0.01    -0.03   0.08   0.05
   5   6    -0.02   0.04  -0.10     0.11   0.01   0.05    -0.03   0.08   0.05
   6   6    -0.03   0.04  -0.08     0.15  -0.07   0.07    -0.03   0.10   0.03
   7   6    -0.02   0.01  -0.05     0.13  -0.08   0.01    -0.03   0.11   0.02
   8   6    -0.02   0.03  -0.11     0.13   0.02   0.11    -0.03   0.05   0.07
   9   6     0.01   0.03  -0.08     0.10   0.01   0.03    -0.01   0.02   0.00
  10   6    -0.04  -0.04   0.09     0.04  -0.05  -0.09    -0.04   0.09  -0.00
  11   6    -0.05  -0.04   0.13    -0.03  -0.03   0.01    -0.02   0.08  -0.09
  12   6    -0.04  -0.04   0.08    -0.06  -0.05   0.03    -0.03   0.09  -0.03
  13   6    -0.02  -0.06   0.06    -0.10  -0.03   0.01    -0.04   0.11   0.03
  14   6     0.05  -0.14   0.07    -0.12  -0.02   0.01     0.00   0.15   0.04
  15   6     0.10  -0.20   0.06    -0.13  -0.02  -0.01     0.00   0.17   0.10
  16   8    -0.08   0.01   0.11     0.13   0.01  -0.13    -0.11   0.03   0.02
  17   7    -0.12   0.12   0.01    -0.03  -0.07   0.06     0.04  -0.21   0.08
  18   6    -0.09   0.07   0.01    -0.06   0.05   0.02     0.02  -0.16   0.06
  19   6    -0.06   0.00   0.03    -0.08   0.06   0.02    -0.00  -0.02   0.02
  20   6    -0.06   0.01   0.05    -0.05  -0.06   0.04    -0.01   0.01   0.00
  21   6    -0.10   0.09  -0.02    -0.08   0.17  -0.00     0.04  -0.23   0.09
  22   6    -0.04  -0.05   0.04    -0.11   0.16  -0.01    -0.02   0.05  -0.01
  23   6    -0.09   0.08   0.03    -0.03  -0.13   0.06     0.01  -0.10   0.04
  24   6    -0.08   0.03  -0.01    -0.11   0.29  -0.03     0.02  -0.16   0.07
  25   6    -0.05  -0.03   0.02    -0.13   0.28  -0.04    -0.01  -0.02   0.02
  26   6    -0.11   0.11   0.03    -0.00  -0.25   0.10     0.02  -0.13   0.05
  27   8     0.02   0.04   0.05    -0.21   0.02   0.11    -0.16  -0.06  -0.00
  28   1     0.00  -0.02  -0.00     0.02  -0.02  -0.04    -0.01   0.03   0.01
  29   1    -0.02   0.00   0.02     0.06  -0.01  -0.05    -0.04   0.01   0.02
  30   1     0.00  -0.01  -0.01    -0.00   0.03  -0.03    -0.01   0.02   0.01
  31   1    -0.00   0.01  -0.03     0.01   0.04  -0.01    -0.01   0.02   0.02
  32   1    -0.01   0.01  -0.03     0.06  -0.03   0.04    -0.01   0.03   0.01
  33   1    -0.01   0.00  -0.01     0.05  -0.04   0.01    -0.01   0.04   0.00
  34   1    -0.01   0.01  -0.03     0.05  -0.01   0.04    -0.01   0.00   0.03
  35   1    -0.01   0.00  -0.03     0.03   0.03   0.04    -0.01   0.03   0.03
  36   1    -0.02   0.01  -0.03     0.03   0.02  -0.00    -0.01   0.02  -0.01
  37   1     0.03  -0.00  -0.06     0.02  -0.02   0.02     0.00  -0.02  -0.00
  38   1     0.02   0.00   0.00     0.01   0.00  -0.04     0.01  -0.01  -0.03
  39   1    -0.01  -0.02   0.03     0.00  -0.03  -0.04    -0.01   0.04   0.01
  40   1    -0.00  -0.01   0.05     0.00   0.01   0.01    -0.02   0.02  -0.05
  41   1    -0.01  -0.02   0.02    -0.02  -0.02   0.01    -0.01   0.04  -0.01
  42   1    -0.01  -0.01  -0.00    -0.03  -0.01   0.01    -0.02   0.03   0.01
  43   1    -0.01  -0.01   0.03    -0.02  -0.00  -0.00    -0.01   0.03   0.01
  44   1     0.01  -0.05   0.04    -0.04  -0.01  -0.00     0.01   0.05   0.01
  45   1     0.02  -0.04   0.01    -0.04  -0.01   0.01     0.01   0.05   0.01
  46   1     0.04  -0.07   0.02    -0.04  -0.00  -0.00     0.01   0.06   0.03
  47   1     0.04  -0.05   0.01    -0.04  -0.01  -0.00    -0.00   0.04   0.04
  48   1     0.02  -0.07   0.02    -0.03  -0.01  -0.01    -0.00   0.04   0.03
  49   1    -0.04   0.05  -0.00    -0.00  -0.03   0.02     0.02  -0.08   0.03
  50   1     0.00  -0.02   0.06    -0.02   0.03   0.02     0.02   0.05  -0.10
  51   1    -0.04   0.04  -0.01    -0.02   0.05   0.00     0.02  -0.10   0.04
  52   1    -0.01  -0.03   0.02    -0.03   0.04  -0.00    -0.01   0.05  -0.01
  53   1    -0.02   0.01  -0.01    -0.04   0.11  -0.02     0.01  -0.06   0.03
  54   1    -0.01  -0.02   0.01    -0.04   0.11  -0.02    -0.01   0.01   0.00
  55   1    -0.03   0.00   0.04    -0.00  -0.02  -0.03     0.01  -0.02   0.00
  56   1    -0.02   0.02  -0.03    -0.02  -0.06   0.12     0.00  -0.03   0.03
  57   1    -0.05   0.07   0.02     0.03  -0.17   0.01     0.01  -0.06   0.01
  58   1    -0.03  -0.01   0.05    -0.02  -0.02   0.01     0.02   0.03  -0.04
  59   1     0.02   0.03   0.02    -0.08   0.00   0.01    -0.06  -0.06  -0.02
  60   8    -0.02   0.00   0.22    -0.13   0.06   0.05     0.16   0.05  -0.36
  61   1    -0.00   0.01   0.01    -0.03   0.01   0.01    -0.03  -0.00   0.00
  62   1    -0.01   0.01   0.04    -0.04   0.01   0.02     0.02   0.00  -0.06
  63   7     0.09   0.00  -0.19     0.08  -0.05   0.02     0.03  -0.04  -0.07
  64   6     0.07   0.01   0.04     0.09  -0.00   0.02     0.02  -0.04   0.07
  65   8     0.11   0.00   0.12     0.13  -0.02   0.10     0.03  -0.09   0.21
  66   6     0.19  -0.02  -0.35    -0.02  -0.12   0.01     0.06  -0.08  -0.20
  67   6     0.11   0.00  -0.24     0.04  -0.05  -0.03     0.05  -0.04  -0.17
  68   8     0.10   0.02  -0.25     0.05  -0.02  -0.11     0.07  -0.01  -0.26
  69   1     0.04   0.01  -0.11     0.00  -0.03   0.03     0.02  -0.02  -0.06
  70   1     0.07  -0.03  -0.09    -0.02  -0.06   0.00     0.02  -0.04  -0.06
  71   1     0.07  -0.00  -0.13    -0.00  -0.03  -0.02     0.02  -0.02  -0.07
  72   7     0.10   0.00   0.09     0.07   0.00  -0.09     0.03  -0.07  -0.01
  73   6     0.15  -0.02   0.21     0.05  -0.01  -0.11     0.06  -0.13   0.04
  74   1     0.03  -0.00   0.08     0.01   0.01  -0.05     0.01  -0.02   0.01
  75   1     0.07  -0.01   0.05     0.00  -0.02  -0.04     0.03  -0.06  -0.01
  76   1     0.05  -0.01   0.08     0.02  -0.01  -0.01     0.02  -0.05   0.04
                      7                      8                      9
                        a                      a                      a 
 Frequencies --    35.4553                38.6812                41.2573
 Red. masses --    12.4122                11.7996                11.4737
 Frc consts  --     0.0000                 0.0000                 0.0000
 IR Inten    --     5.0393                 0.2544                 0.4629
 Raman Activ --     0.0000                 0.0000                 0.0000
 Depolar     --     0.0000                 0.0000                 0.0000
 Atom AN      X      Y      Z        X      Y      Z        X      Y      Z
   1   7     0.01   0.00  -0.10     0.06   0.05  -0.01    -0.06  -0.08  -0.17
   2   6     0.01  -0.01  -0.06     0.04   0.00  -0.04    -0.04  -0.03  -0.09
   3   6     0.00   0.02  -0.08     0.08   0.05  -0.14    -0.09   0.02  -0.06
   4   6     0.01   0.00  -0.06     0.06  -0.00  -0.18    -0.06   0.06   0.00
   5   6     0.02  -0.04  -0.02     0.00  -0.10  -0.13     0.01   0.04   0.04
   6   6     0.03  -0.07   0.00    -0.04  -0.15  -0.02     0.06  -0.02   0.02
   7   6     0.02  -0.06  -0.02    -0.02  -0.11   0.03     0.04  -0.05  -0.05
   8   6     0.02  -0.03  -0.01    -0.01  -0.13  -0.18     0.03   0.07   0.11
   9   6     0.01  -0.02  -0.00    -0.01  -0.11  -0.11     0.02   0.06   0.07
  10   6     0.03   0.02  -0.08     0.07   0.06   0.00    -0.06  -0.05  -0.10
  11   6     0.00   0.02   0.03     0.02   0.08   0.08    -0.10  -0.04   0.05
  12   6     0.02   0.03   0.01    -0.02   0.05   0.07    -0.09  -0.03   0.04
  13   6     0.04   0.02   0.05    -0.06   0.08   0.04    -0.06  -0.06   0.02
  14   6     0.15  -0.00   0.08    -0.09   0.08   0.04     0.05  -0.16   0.04
  15   6     0.18  -0.02   0.15    -0.17   0.14   0.00     0.14  -0.23   0.06
  16   8     0.13   0.09  -0.12     0.16   0.11  -0.02     0.04   0.06  -0.15
  17   7    -0.04   0.09  -0.04    -0.02   0.06   0.07     0.00   0.06   0.07
  18   6    -0.02   0.03  -0.02    -0.02   0.04   0.07    -0.02   0.03   0.11
  19   6    -0.00   0.00  -0.01    -0.01   0.03   0.07    -0.06   0.01   0.10
  20   6    -0.01   0.04  -0.01    -0.02   0.04   0.07    -0.06   0.00   0.05
  21   6    -0.01   0.00  -0.02    -0.02   0.04   0.07    -0.01   0.04   0.16
  22   6     0.01  -0.05   0.00    -0.01   0.03   0.08    -0.09  -0.00   0.13
  23   6    -0.03   0.09  -0.03    -0.02   0.05   0.07    -0.02   0.04   0.03
  24   6     0.00  -0.06  -0.00    -0.01   0.03   0.07    -0.04   0.02   0.19
  25   6     0.01  -0.08   0.01    -0.01   0.02   0.07    -0.08  -0.00   0.18
  26   6    -0.04   0.15  -0.05    -0.03   0.07   0.07     0.00   0.06  -0.03
  27   8    -0.62  -0.20   0.20     0.15  -0.10  -0.16     0.22   0.02  -0.30
  28   1    -0.00   0.00  -0.03     0.01   0.02   0.01    -0.01  -0.02  -0.07
  29   1     0.06  -0.00  -0.05     0.06   0.02  -0.02     0.02   0.01  -0.07
  30   1    -0.00   0.02  -0.03     0.04   0.04  -0.06    -0.04   0.01  -0.02
  31   1    -0.00   0.01  -0.02     0.03   0.01  -0.07    -0.03   0.03   0.01
  32   1     0.01  -0.03   0.01    -0.02  -0.07   0.01     0.04  -0.01   0.01
  33   1     0.01  -0.03   0.00    -0.01  -0.04   0.03     0.02  -0.03  -0.02
  34   1     0.01  -0.01  -0.01    -0.02  -0.02  -0.07     0.03   0.01   0.04
  35   1     0.01  -0.01  -0.00     0.00  -0.06  -0.07     0.00   0.03   0.04
  36   1    -0.00  -0.01   0.00    -0.02  -0.04  -0.02     0.02   0.02   0.01
  37   1     0.01  -0.01  -0.01     0.03  -0.03  -0.06    -0.01   0.01   0.04
  38   1    -0.01   0.00   0.01    -0.02  -0.01   0.03     0.01   0.01  -0.02
  39   1    -0.00  -0.01  -0.04     0.01   0.00  -0.01    -0.03  -0.03  -0.04
  40   1     0.02   0.02   0.03     0.02   0.04   0.03    -0.01   0.00   0.04
  41   1     0.01   0.01  -0.00    -0.01   0.01   0.02    -0.03  -0.01   0.01
  42   1     0.01   0.01   0.00    -0.03   0.02   0.01    -0.02  -0.01  -0.02
  43   1    -0.00   0.01   0.03    -0.01   0.03   0.01    -0.03  -0.01   0.03
  44   1     0.04  -0.00   0.03    -0.01   0.03   0.01     0.01  -0.06   0.03
  45   1     0.06   0.00   0.00    -0.03   0.00   0.01     0.03  -0.04  -0.01
  46   1     0.07  -0.01   0.05    -0.05   0.04  -0.00     0.06  -0.08   0.02
  47   1     0.05  -0.00   0.04    -0.06   0.03  -0.00     0.05  -0.06  -0.00
  48   1     0.04  -0.01   0.06    -0.04   0.06  -0.00     0.03  -0.08   0.04
  49   1    -0.01   0.03  -0.01    -0.01   0.02   0.02     0.01   0.02   0.02
  50   1     0.08   0.05   0.00    -0.04  -0.03  -0.09     0.02  -0.00  -0.10
  51   1    -0.01   0.01  -0.01    -0.01   0.01   0.02     0.01   0.02   0.05
  52   1     0.00  -0.02   0.00    -0.00   0.01   0.02    -0.03  -0.00   0.04
  53   1     0.00  -0.02  -0.00    -0.00   0.01   0.02    -0.01   0.00   0.07
  54   1     0.01  -0.03   0.00    -0.00   0.00   0.02    -0.03  -0.00   0.06
  55   1    -0.01  -0.03   0.06    -0.00   0.04   0.00    -0.01  -0.07   0.06
  56   1     0.03   0.03  -0.11    -0.03   0.03   0.05     0.05  -0.00  -0.12
  57   1    -0.05   0.15   0.01     0.01  -0.01   0.02    -0.03   0.13   0.01
  58   1    -0.02  -0.00   0.02    -0.01   0.02   0.03    -0.06  -0.03   0.03
  59   1    -0.25  -0.11  -0.01     0.06  -0.02  -0.03     0.09   0.02  -0.05
  60   8     0.26  -0.02  -0.01    -0.04  -0.14  -0.32     0.20  -0.04  -0.32
  61   1    -0.08  -0.01   0.02     0.04   0.00  -0.02     0.04   0.02  -0.05
  62   1    -0.01  -0.01   0.02     0.01  -0.04  -0.06     0.05  -0.01  -0.08
  63   7     0.00  -0.03   0.00     0.03  -0.11  -0.15    -0.00   0.05   0.10
  64   6     0.01   0.01  -0.01     0.05  -0.02  -0.00    -0.01   0.03   0.01
  65   8     0.04   0.03  -0.02     0.16   0.02   0.00    -0.05   0.01   0.02
  66   6    -0.05  -0.03   0.05    -0.07  -0.09  -0.00     0.01   0.03   0.05
  67   6    -0.04  -0.02   0.04    -0.08  -0.10   0.00     0.03   0.05   0.04
  68   8    -0.08  -0.02   0.09    -0.19  -0.11   0.14     0.07   0.06  -0.02
  69   1    -0.01  -0.02   0.00    -0.01  -0.05  -0.02     0.00   0.02   0.03
  70   1    -0.01   0.01   0.01    -0.01   0.01  -0.00    -0.01  -0.01   0.01
  71   1    -0.03  -0.01   0.03    -0.04  -0.03   0.03     0.01   0.01  -0.00
  72   7    -0.02   0.03   0.00     0.00   0.02   0.11    -0.00   0.02  -0.07
  73   6    -0.02   0.07   0.00     0.07   0.12   0.26    -0.05  -0.02  -0.17
  74   1    -0.01   0.02   0.00    -0.01   0.03   0.11     0.00  -0.00  -0.07
  75   1    -0.01   0.02   0.00     0.04   0.05   0.08    -0.03  -0.02  -0.05
  76   1     0.00   0.02  -0.00     0.04   0.04   0.07    -0.02  -0.01  -0.04
                     10                     11                     12
                        a                      a                      a 
 Frequencies --    48.2218                51.7287                55.8300
 Red. masses --    11.3126                13.0781                 7.8045
 Frc consts  --     0.0000                 0.0000                 0.0000
 IR Inten    --     1.3230                 1.9598                 0.5367
 Raman Activ --     0.0000                 0.0000                 0.0000
 Depolar     --     0.0000                 0.0000                 0.0000
 Atom AN      X      Y      Z        X      Y      Z        X      Y      Z
   1   7    -0.01   0.03   0.05    -0.05   0.02  -0.00    -0.00  -0.00   0.01
   2   6    -0.01  -0.01   0.08    -0.04  -0.03   0.06     0.00  -0.01   0.02
   3   6    -0.01   0.18  -0.09    -0.05  -0.10   0.14    -0.01   0.08  -0.04
   4   6    -0.01   0.18  -0.11    -0.04  -0.08   0.15    -0.00   0.08  -0.04
   5   6    -0.02  -0.01   0.04    -0.03   0.00   0.08     0.01   0.00   0.03
   6   6    -0.01  -0.23   0.24    -0.02   0.06   0.02     0.02  -0.09   0.11
   7   6    -0.00  -0.23   0.26    -0.03   0.04   0.00     0.02  -0.10   0.10
   8   6    -0.03   0.01  -0.01    -0.04   0.04   0.08     0.01   0.01   0.02
   9   6    -0.04   0.01  -0.01    -0.07   0.05   0.04    -0.00   0.01  -0.00
  10   6    -0.00   0.00  -0.01     0.07   0.01  -0.15    -0.03  -0.04  -0.04
  11   6    -0.03   0.02  -0.03     0.04   0.01   0.05    -0.02  -0.03  -0.16
  12   6    -0.03   0.01  -0.06     0.04   0.01   0.04    -0.03  -0.03  -0.09
  13   6    -0.03  -0.00  -0.09     0.02   0.02   0.04    -0.05   0.01   0.03
  14   6     0.03  -0.09  -0.09    -0.01   0.04   0.04     0.10   0.13   0.08
  15   6     0.12  -0.17  -0.10    -0.05   0.07   0.02    -0.03   0.29   0.27
  16   8     0.05  -0.06  -0.02     0.45   0.04  -0.26    -0.11  -0.15  -0.02
  17   7     0.04  -0.12   0.01     0.00   0.02   0.02     0.07  -0.02  -0.05
  18   6     0.02  -0.08   0.01     0.01   0.02   0.01     0.03   0.02  -0.02
  19   6    -0.02   0.00  -0.03     0.02   0.01   0.02    -0.02  -0.03  -0.03
  20   6    -0.01   0.01  -0.04     0.02   0.00   0.03    -0.01  -0.07  -0.07
  21   6     0.03  -0.12   0.04     0.00   0.03  -0.01     0.02   0.10   0.01
  22   6    -0.04   0.06  -0.03     0.04  -0.01   0.02    -0.07  -0.00   0.00
  23   6     0.02  -0.06  -0.03     0.01   0.01   0.04     0.04  -0.06  -0.08
  24   6     0.01  -0.07   0.04     0.01   0.03  -0.01    -0.03   0.14   0.04
  25   6    -0.03   0.03  -0.00     0.03   0.01  -0.00    -0.07   0.08   0.04
  26   6     0.02  -0.08  -0.03     0.01  -0.01   0.06     0.09  -0.08  -0.16
  27   8     0.04   0.18   0.16    -0.01  -0.15  -0.04     0.10  -0.07  -0.09
  28   1    -0.00   0.00   0.03    -0.02   0.01  -0.00     0.00  -0.01   0.02
  29   1     0.02  -0.02  -0.01     0.16  -0.02  -0.11    -0.04  -0.03   0.02
  30   1     0.00   0.09  -0.06    -0.02  -0.05   0.05    -0.00   0.04  -0.02
  31   1    -0.01   0.10  -0.07    -0.01  -0.04   0.06    -0.00   0.05  -0.03
  32   1    -0.00  -0.11   0.11    -0.00   0.03  -0.01     0.01  -0.05   0.05
  33   1     0.00  -0.11   0.12    -0.01   0.03  -0.02     0.01  -0.05   0.05
  34   1    -0.01   0.00  -0.01    -0.00   0.01   0.03     0.00  -0.00   0.01
  35   1     0.00  -0.00  -0.01    -0.00   0.02   0.02     0.00   0.01   0.01
  36   1    -0.01   0.00  -0.00    -0.01   0.02   0.01    -0.00   0.01  -0.00
  37   1    -0.00   0.01  -0.02    -0.03   0.01   0.02     0.00  -0.01  -0.01
  38   1     0.01   0.00   0.06     0.02  -0.00   0.06     0.00   0.00   0.01
  39   1    -0.01   0.00  -0.01    -0.02   0.00  -0.11    -0.00  -0.00  -0.00
  40   1    -0.00   0.00  -0.00     0.03   0.02   0.04    -0.03  -0.01  -0.07
  41   1    -0.01  -0.00  -0.01     0.01   0.00   0.01    -0.01   0.01  -0.03
  42   1    -0.01   0.00  -0.05     0.01   0.00   0.02    -0.03  -0.01   0.00
  43   1    -0.01   0.01  -0.02     0.01   0.01   0.01    -0.03   0.01   0.04
  44   1    -0.01  -0.04  -0.01     0.00   0.02   0.01     0.08   0.06   0.02
  45   1     0.02  -0.01  -0.04    -0.01   0.01   0.02     0.04   0.01  -0.00
  46   1     0.04  -0.07  -0.03    -0.02   0.02   0.00     0.03   0.11   0.09
  47   1     0.05  -0.04  -0.04    -0.02   0.02   0.01    -0.06   0.06   0.08
  48   1     0.03  -0.06  -0.02    -0.01   0.03  -0.00    -0.02   0.11   0.10
  49   1     0.02  -0.05   0.01    -0.00   0.01   0.01     0.03   0.00  -0.02
  50   1     0.05   0.08   0.01    -0.04  -0.05   0.00    -0.03  -0.08   0.05
  51   1     0.02  -0.05   0.02    -0.00   0.01  -0.00     0.02   0.04   0.01
  52   1    -0.02   0.04  -0.02     0.01  -0.01   0.01    -0.03  -0.02   0.00
  53   1     0.00  -0.03   0.02     0.00   0.01  -0.01    -0.01   0.06   0.02
  54   1    -0.01   0.02  -0.00     0.01  -0.00  -0.00    -0.03   0.03   0.02
  55   1     0.01   0.00  -0.04     0.00   0.03  -0.01    -0.00  -0.24   0.14
  56   1    -0.01  -0.02   0.03    -0.02   0.00   0.06     0.17  -0.07  -0.31
  57   1     0.02  -0.06  -0.02     0.01  -0.04   0.01    -0.08   0.24   0.00
  58   1    -0.01   0.01  -0.01    -0.02  -0.02   0.03     0.02  -0.00  -0.06
  59   1    -0.01   0.03   0.03    -0.03  -0.02  -0.02     0.06   0.00  -0.00
  60   8     0.10   0.27  -0.02    -0.12  -0.20   0.02    -0.06  -0.16   0.22
  61   1     0.00   0.01   0.02     0.04  -0.00  -0.02     0.00  -0.03  -0.01
  62   1     0.02   0.06   0.01    -0.02  -0.05   0.00    -0.00  -0.03   0.02
  63   7    -0.06   0.02  -0.00    -0.11   0.03   0.06    -0.01  -0.01  -0.01
  64   6    -0.06   0.04  -0.05    -0.11   0.02  -0.03    -0.01   0.01  -0.01
  65   8    -0.15   0.08  -0.28    -0.29   0.04  -0.29    -0.03   0.01  -0.05
  66   6     0.07   0.04  -0.11     0.09   0.03  -0.17     0.03  -0.01  -0.07
  67   6    -0.01   0.02  -0.02     0.03   0.03  -0.10    -0.00  -0.01  -0.03
  68   8    -0.04   0.00   0.03     0.10   0.03  -0.20    -0.01  -0.01  -0.03
  69   1     0.01   0.01  -0.06     0.01   0.03  -0.05     0.02  -0.07  -0.10
  70   1     0.05   0.01  -0.03     0.04  -0.01  -0.04     0.07   0.09  -0.03
  71   1     0.02   0.01  -0.03     0.04   0.01  -0.07    -0.06  -0.02   0.05
  72   7     0.01   0.03   0.17     0.03  -0.03   0.19     0.01   0.00   0.03
  73   6     0.01   0.06   0.15     0.01  -0.06   0.13     0.02   0.00   0.04
  74   1     0.01  -0.02   0.06     0.02  -0.06   0.04     0.01  -0.01   0.02
  75   1     0.01   0.06   0.07     0.00   0.01   0.06     0.01   0.01   0.02
  76   1    -0.01   0.02   0.00    -0.03  -0.02  -0.00     0.00   0.00   0.01
                     13                     14                     15
                        a                      a                      a 
 Frequencies --    61.8460                64.0207                68.3945
 Red. masses --    12.6257                10.9034                11.4919
 Frc consts  --     0.0000                 0.0000                 0.0000
 IR Inten    --     4.5974                 2.3840                 3.1994
 Raman Activ --     0.0000                 0.0000                 0.0000
 Depolar     --     0.0000                 0.0000                 0.0000
 Atom AN      X      Y      Z        X      Y      Z        X      Y      Z
   1   7    -0.07   0.04   0.10    -0.06  -0.04  -0.16     0.03   0.11   0.05
   2   6    -0.08  -0.04   0.08    -0.05  -0.02  -0.09     0.03   0.09   0.01
   3   6    -0.06   0.04  -0.03    -0.08   0.11  -0.14     0.05   0.06   0.01
   4   6    -0.07   0.07  -0.11    -0.07   0.13  -0.09     0.04   0.02   0.00
   5   6    -0.12   0.02  -0.08    -0.00   0.01   0.02     0.01   0.03  -0.01
   6   6    -0.14  -0.09   0.05     0.04  -0.15   0.11    -0.02   0.08  -0.03
   7   6    -0.13  -0.12   0.13     0.02  -0.16   0.05    -0.01   0.11  -0.01
   8   6    -0.14   0.03  -0.17     0.01   0.04   0.07     0.00  -0.02  -0.01
   9   6    -0.08   0.04  -0.05    -0.00   0.03   0.04     0.02  -0.03  -0.02
  10   6     0.02   0.00  -0.08    -0.07   0.04   0.03     0.01   0.06  -0.00
  11   6     0.01   0.00  -0.00    -0.00  -0.00   0.01     0.00   0.07  -0.04
  12   6     0.02   0.01  -0.02     0.06   0.04   0.03    -0.01   0.07  -0.02
  13   6     0.03   0.00  -0.01     0.13   0.00   0.05     0.00   0.06   0.01
  14   6     0.04  -0.00  -0.01     0.02   0.08   0.03     0.11   0.01   0.03
  15   6     0.07  -0.03  -0.01     0.10   0.01   0.03     0.40  -0.25   0.12
  16   8     0.31  -0.06  -0.15    -0.31   0.16   0.08     0.02   0.01   0.01
  17   7     0.04  -0.05   0.00     0.02   0.02   0.02     0.01  -0.09   0.02
  18   6     0.03  -0.02  -0.00     0.04   0.02  -0.01     0.01  -0.04   0.01
  19   6     0.02   0.01  -0.01     0.06   0.03   0.00    -0.01   0.03  -0.02
  20   6     0.02   0.00  -0.02     0.06   0.04   0.02    -0.01   0.03  -0.01
  21   6     0.03  -0.02   0.00     0.03   0.00  -0.03     0.01  -0.06   0.01
  22   6     0.02   0.02  -0.02     0.09  -0.00  -0.01    -0.02   0.08  -0.03
  23   6     0.03  -0.03  -0.00     0.04   0.02   0.04     0.00  -0.04   0.01
  24   6     0.02   0.01  -0.01     0.06  -0.02  -0.05    -0.00   0.01  -0.01
  25   6     0.02   0.02  -0.01     0.09  -0.03  -0.03    -0.01   0.07  -0.03
  26   6     0.04  -0.06   0.01     0.02  -0.02   0.11     0.01  -0.06   0.01
  27   8     0.07  -0.10   0.03    -0.12  -0.14  -0.35    -0.02  -0.05   0.00
  28   1    -0.03   0.01   0.05    -0.02  -0.00  -0.07     0.01   0.02   0.03
  29   1     0.11  -0.04  -0.06    -0.11   0.06   0.03     0.01   0.00   0.01
  30   1    -0.01   0.03  -0.02    -0.03   0.06  -0.06     0.02   0.02   0.01
  31   1    -0.02   0.04  -0.06    -0.03   0.07  -0.04     0.02  -0.00   0.00
  32   1    -0.05  -0.04   0.03     0.03  -0.08   0.06    -0.01   0.03  -0.01
  33   1    -0.04  -0.06   0.07     0.02  -0.08   0.03    -0.01   0.04  -0.01
  34   1    -0.06   0.03  -0.07     0.01   0.00   0.03    -0.01  -0.01  -0.00
  35   1    -0.04  -0.02  -0.07    -0.00   0.02   0.03    -0.00  -0.01  -0.00
  36   1    -0.03  -0.00  -0.00     0.01   0.01   0.01     0.00  -0.01  -0.01
  37   1    -0.02   0.05  -0.02    -0.02   0.00   0.03     0.02  -0.01  -0.02
  38   1    -0.04   0.01  -0.09     0.01   0.01   0.01     0.00  -0.01   0.01
  39   1    -0.02   0.01  -0.07     0.00   0.01   0.05     0.00   0.02  -0.00
  40   1     0.02   0.01   0.01    -0.01  -0.01  -0.00    -0.01   0.02  -0.02
  41   1     0.01   0.00  -0.01     0.02   0.03   0.00    -0.00   0.03  -0.01
  42   1     0.01   0.00  -0.00     0.07   0.01   0.05    -0.01   0.02  -0.02
  43   1     0.01  -0.00  -0.00     0.05  -0.03  -0.01    -0.01   0.02   0.02
  44   1     0.00  -0.00  -0.00    -0.03   0.02  -0.02    -0.03  -0.03   0.01
  45   1     0.01   0.01  -0.00    -0.00   0.06   0.03     0.05   0.06  -0.01
  46   1     0.02  -0.01  -0.00     0.00   0.02   0.00     0.13  -0.07   0.04
  47   1     0.03  -0.01  -0.00     0.06   0.01   0.04     0.19  -0.05   0.05
  48   1     0.02  -0.02  -0.00     0.04  -0.04  -0.02     0.10  -0.15   0.04
  49   1     0.01  -0.02   0.00     0.00   0.00   0.00     0.01  -0.04   0.01
  50   1     0.00  -0.04   0.04    -0.04  -0.11   0.03    -0.18  -0.05  -0.05
  51   1     0.01  -0.01   0.00     0.00   0.00  -0.01     0.00  -0.03   0.01
  52   1     0.00   0.01  -0.01     0.03  -0.01   0.00    -0.01   0.03  -0.01
  53   1     0.01   0.00  -0.00     0.02  -0.01  -0.02    -0.00   0.00  -0.00
  54   1     0.00   0.01  -0.00     0.03  -0.02  -0.01    -0.01   0.03  -0.01
  55   1     0.01   0.01  -0.03     0.02   0.14  -0.09    -0.00  -0.07   0.05
  56   1    -0.00  -0.01   0.04    -0.08   0.03   0.21     0.04  -0.03  -0.06
  57   1     0.03  -0.06  -0.01     0.07  -0.19  -0.00    -0.03   0.05   0.02
  58   1    -0.02  -0.01   0.01     0.00  -0.00  -0.00     0.01   0.02  -0.02
  59   1     0.01  -0.01   0.00     0.00  -0.02  -0.07    -0.00  -0.01   0.00
  60   8    -0.00  -0.13   0.14    -0.03  -0.30   0.19    -0.60  -0.11  -0.12
  61   1     0.03  -0.02  -0.00    -0.04   0.00  -0.06    -0.00  -0.01   0.00
  62   1     0.00  -0.03   0.03    -0.02  -0.06  -0.01    -0.08  -0.03  -0.02
  63   7    -0.02   0.13  -0.07    -0.02   0.02   0.06     0.03  -0.03  -0.03
  64   6    -0.02  -0.00   0.08    -0.02   0.03   0.01     0.02  -0.02  -0.02
  65   8     0.13  -0.07   0.49    -0.06   0.03  -0.04     0.02  -0.01  -0.06
  66   6     0.02   0.20   0.03    -0.02  -0.01   0.01    -0.02  -0.04   0.03
  67   6     0.01   0.13  -0.00     0.01   0.02  -0.01    -0.02  -0.03   0.04
  68   8     0.05   0.10   0.02     0.05   0.03  -0.08    -0.09  -0.03   0.14
  69   1    -0.00   0.09   0.03    -0.02   0.05   0.07    -0.02   0.04   0.06
  70   1    -0.02   0.04   0.01    -0.05  -0.08   0.01    -0.04  -0.08   0.02
  71   1     0.03   0.06   0.00     0.04   0.01  -0.06     0.04  -0.00  -0.05
  72   7    -0.13   0.01  -0.22     0.01   0.02   0.05     0.01  -0.01   0.00
  73   6    -0.06  -0.05  -0.08    -0.00   0.00   0.02     0.01   0.02  -0.00
  74   1    -0.04   0.04  -0.03     0.01  -0.00   0.00     0.00  -0.00   0.00
  75   1     0.00  -0.07  -0.06    -0.00   0.00   0.01     0.00   0.02   0.01
  76   1     0.01  -0.02   0.05    -0.01   0.00   0.00     0.00   0.01  -0.01
                     16                     17                     18
                        a                      a                      a 
 Frequencies --    69.8658                71.6377                85.0489
 Red. masses --     6.9579                12.1779                 6.7089
 Frc consts  --     0.0000                 0.0000                 0.0000
 IR Inten    --     9.1363                 0.3323                 1.9128
 Raman Activ --     0.0000                 0.0000                 0.0000
 Depolar     --     0.0000                 0.0000                 0.0000
 Atom AN      X      Y      Z        X      Y      Z        X      Y      Z
   1   7     0.01  -0.04   0.02    -0.04  -0.14  -0.07    -0.00  -0.02  -0.03
   2   6     0.01  -0.05   0.01    -0.03  -0.13  -0.01    -0.00   0.00  -0.02
   3   6     0.01  -0.03  -0.01    -0.06  -0.08  -0.03    -0.02   0.03  -0.02
   4   6     0.01  -0.01  -0.04    -0.05  -0.03  -0.02    -0.01   0.05  -0.01
   5   6     0.00  -0.01  -0.03    -0.01  -0.06   0.02     0.01   0.05  -0.01
   6   6    -0.00  -0.04  -0.00     0.02  -0.16   0.07     0.02   0.03  -0.01
   7   6     0.00  -0.06   0.02     0.01  -0.19   0.05     0.02   0.01  -0.01
   8   6    -0.01   0.01  -0.07    -0.00   0.01   0.02     0.01   0.07  -0.00
   9   6    -0.02   0.03  -0.04    -0.02   0.03   0.05    -0.01   0.06  -0.06
  10   6     0.00  -0.05   0.00    -0.01  -0.07   0.02     0.00   0.00   0.02
  11   6     0.00  -0.05  -0.03     0.03  -0.10   0.05     0.01  -0.01   0.06
  12   6     0.01  -0.04  -0.01     0.08  -0.06   0.06     0.02  -0.01   0.02
  13   6     0.03  -0.04   0.04     0.13  -0.08   0.10     0.02  -0.02  -0.02
  14   6    -0.07   0.09   0.02     0.02   0.04   0.08     0.13  -0.16  -0.00
  15   6    -0.00   0.03   0.06    -0.07   0.12   0.08     0.03  -0.08  -0.06
  16   8     0.00  -0.09   0.01    -0.07   0.00   0.03    -0.00   0.06   0.01
  17   7     0.01   0.04  -0.03     0.01   0.10  -0.02     0.01  -0.02   0.02
  18   6     0.01   0.01  -0.02     0.03   0.04  -0.02     0.01  -0.01   0.00
  19   6     0.01  -0.03  -0.01     0.07  -0.03   0.01     0.02   0.01   0.00
  20   6     0.01  -0.04  -0.01     0.07  -0.02   0.04     0.02   0.01   0.02
  21   6     0.01   0.04  -0.02     0.02   0.05  -0.06     0.01  -0.03  -0.01
  22   6     0.01  -0.04   0.00     0.11  -0.08   0.00     0.04   0.02  -0.02
  23   6     0.01   0.01  -0.03     0.03   0.05   0.02     0.01  -0.01   0.03
  24   6     0.00   0.02  -0.01     0.06  -0.02  -0.07     0.02  -0.02  -0.03
  25   6     0.00  -0.02   0.00     0.11  -0.07  -0.03     0.04   0.01  -0.03
  26   6     0.02   0.04  -0.06     0.01   0.09   0.03     0.01  -0.01   0.04
  27   8     0.04   0.05   0.11    -0.07   0.14   0.15    -0.04   0.01  -0.02
  28   1     0.00  -0.01   0.01    -0.02  -0.03  -0.04    -0.00  -0.00  -0.02
  29   1    -0.00  -0.02   0.01    -0.03   0.01   0.00    -0.00   0.02  -0.00
  30   1     0.01  -0.01  -0.00    -0.02  -0.02  -0.01    -0.01   0.01  -0.01
  31   1     0.00   0.00  -0.02    -0.02   0.01  -0.01    -0.01   0.02  -0.01
  32   1    -0.00  -0.02   0.00     0.02  -0.06   0.03     0.01   0.01  -0.00
  33   1    -0.00  -0.02   0.01     0.01  -0.08   0.02     0.01  -0.00  -0.00
  34   1    -0.00   0.01  -0.03     0.01   0.01  -0.00     0.01   0.01   0.01
  35   1     0.00  -0.00  -0.03     0.00  -0.00   0.00     0.00   0.03   0.00
  36   1     0.00   0.00  -0.01    -0.00   0.00   0.02     0.01   0.02  -0.02
  37   1    -0.07   0.02   0.06    -0.00   0.01   0.01    -0.06   0.01   0.04
  38   1     0.00   0.00  -0.01    -0.01   0.01  -0.01     0.02  -0.00  -0.04
  39   1     0.00  -0.01   0.00     0.00  -0.02   0.02     0.00  -0.00   0.01
  40   1    -0.00  -0.01  -0.01     0.01  -0.03   0.02     0.01  -0.00   0.03
  41   1     0.00  -0.00  -0.00     0.02  -0.00   0.01     0.01  -0.01   0.01
  42   1     0.02  -0.01   0.05     0.06  -0.02   0.06    -0.01  -0.00  -0.04
  43   1     0.02  -0.04  -0.01     0.05  -0.05   0.01    -0.01   0.02   0.02
  44   1    -0.05   0.03  -0.03     0.01   0.02  -0.00     0.07  -0.04   0.04
  45   1    -0.03   0.06   0.03    -0.01   0.01   0.04     0.04  -0.09  -0.03
  46   1    -0.02   0.04   0.02    -0.04   0.06   0.02     0.04  -0.06  -0.01
  47   1     0.03   0.01   0.06    -0.03   0.02   0.05    -0.04  -0.02  -0.07
  48   1     0.01  -0.03  -0.01    -0.01   0.04   0.00    -0.00   0.04   0.03
  49   1     0.00   0.02  -0.01    -0.01   0.04  -0.01    -0.00  -0.01   0.01
  50   1    -0.01   0.04  -0.03    -0.12   0.08  -0.11    -0.03  -0.00  -0.01
  51   1     0.00   0.02  -0.01    -0.00   0.03  -0.03     0.00  -0.02  -0.00
  52   1     0.00  -0.02   0.00     0.04  -0.03   0.01     0.01   0.01  -0.00
  53   1     0.00   0.01  -0.00     0.02  -0.00  -0.03     0.01  -0.01  -0.01
  54   1     0.00  -0.01   0.00     0.04  -0.03  -0.01     0.01   0.01  -0.01
  55   1    -0.00  -0.06   0.04     0.01   0.01   0.03     0.00  -0.00   0.01
  56   1     0.05  -0.01  -0.11     0.01   0.02  -0.02     0.00  -0.00   0.02
  57   1    -0.03   0.10   0.00    -0.01   0.06   0.01    -0.00  -0.01   0.01
  58   1     0.01  -0.01  -0.01     0.00  -0.03   0.02    -0.01  -0.00   0.02
  59   1    -0.00   0.00   0.02    -0.04   0.01   0.02    -0.02   0.00  -0.01
  60   8    -0.00   0.10  -0.11    -0.41   0.21  -0.39    -0.13   0.00  -0.03
  61   1     0.00  -0.01   0.02    -0.01   0.03   0.03    -0.00   0.01  -0.01
  62   1     0.01   0.02  -0.01    -0.05   0.04  -0.04    -0.02   0.00  -0.01
  63   7    -0.05   0.04  -0.01    -0.02   0.05   0.06    -0.07   0.05  -0.02
  64   6    -0.00   0.02  -0.02    -0.02   0.03   0.04    -0.01   0.00  -0.04
  65   8    -0.01   0.01  -0.01    -0.00   0.02   0.11    -0.05  -0.03   0.02
  66   6    -0.29   0.00   0.27     0.15   0.06  -0.12    -0.30   0.05   0.25
  67   6    -0.03   0.04  -0.05     0.06   0.04  -0.02    -0.10   0.04  -0.01
  68   8     0.16   0.05  -0.33     0.08   0.05  -0.03     0.07   0.05  -0.27
  69   1    -0.12   0.22   0.38     0.05  -0.03  -0.11    -0.00  -0.25  -0.13
  70   1    -0.33  -0.28   0.08     0.11   0.08  -0.03     0.03   0.36   0.02
  71   1     0.11   0.04  -0.14     0.00   0.01   0.01    -0.31  -0.04   0.35
  72   7     0.05   0.00   0.06    -0.05   0.04  -0.04     0.06  -0.04  -0.03
  73   6     0.11  -0.03   0.20    -0.08   0.03  -0.11     0.18  -0.15   0.20
  74   1     0.01  -0.00   0.08    -0.02   0.02  -0.05     0.02  -0.04   0.09
  75   1     0.06  -0.02   0.05    -0.04  -0.01  -0.04     0.11  -0.06   0.04
  76   1     0.04  -0.01   0.08    -0.02   0.01  -0.02     0.05  -0.05   0.09
                     19                     20                     21
                        a                      a                      a 
 Frequencies --    88.8214                98.5444               109.6334
 Red. masses --     7.7196                10.9339                 5.5851
 Frc consts  --     0.0000                 0.0000                 0.0000
 IR Inten    --     1.7996                12.0437                 1.5052
 Raman Activ --     0.0000                 0.0000                 0.0000
 Depolar     --     0.0000                 0.0000                 0.0000
 Atom AN      X      Y      Z        X      Y      Z        X      Y      Z
   1   7     0.00   0.02  -0.02     0.05   0.08   0.04    -0.02  -0.02  -0.00
   2   6    -0.01  -0.02  -0.01     0.03   0.00   0.00    -0.01   0.00  -0.01
   3   6     0.00  -0.03  -0.01     0.07  -0.08   0.00    -0.02   0.02  -0.01
   4   6    -0.00  -0.06  -0.00     0.06  -0.17  -0.00    -0.02   0.03  -0.01
   5   6    -0.01  -0.06  -0.00     0.00  -0.17  -0.03    -0.01   0.03  -0.01
   6   6    -0.02  -0.07   0.01    -0.05  -0.09  -0.03    -0.00   0.03  -0.01
   7   6    -0.02  -0.04   0.01    -0.03  -0.02  -0.01    -0.01   0.02  -0.01
   8   6    -0.01  -0.05  -0.02    -0.01  -0.17  -0.08    -0.01   0.02   0.01
   9   6    -0.02  -0.02   0.04    -0.01  -0.11   0.08     0.00   0.01  -0.01
  10   6     0.04   0.09   0.09     0.03   0.05   0.02    -0.01  -0.01   0.02
  11   6     0.07   0.06   0.15     0.00   0.07  -0.06    -0.01  -0.01   0.04
  12   6     0.05   0.04   0.08    -0.05   0.04  -0.06    -0.01  -0.03  -0.04
  13   6    -0.01   0.06  -0.02    -0.10   0.08  -0.06    -0.06  -0.00  -0.08
  14   6     0.04  -0.16  -0.03     0.07   0.03  -0.02     0.43  -0.27   0.04
  15   6    -0.16  -0.03  -0.26     0.12   0.00   0.08    -0.06   0.20   0.09
  16   8    -0.01   0.24   0.10    -0.03  -0.00   0.04    -0.00   0.02   0.01
  17   7    -0.00  -0.18   0.10    -0.01   0.02  -0.03     0.02   0.06  -0.05
  18   6     0.02  -0.11   0.03    -0.02   0.01  -0.00     0.01   0.05  -0.03
  19   6     0.04   0.03   0.00    -0.06   0.02  -0.02    -0.01   0.03  -0.03
  20   6     0.03   0.04   0.06    -0.05   0.02  -0.05    -0.01   0.01  -0.05
  21   6     0.01  -0.15  -0.02    -0.01  -0.00   0.05     0.02   0.03   0.01
  22   6     0.07   0.15  -0.08    -0.09   0.02   0.01    -0.03  -0.02   0.01
  23   6     0.01  -0.06   0.10    -0.03   0.02  -0.06     0.01   0.01  -0.05
  24   6     0.03  -0.00  -0.11    -0.04  -0.01   0.08     0.01  -0.04   0.06
  25   6     0.05   0.15  -0.14    -0.08   0.00   0.06    -0.01  -0.07   0.06
  26   6     0.00   0.00   0.07    -0.03   0.00  -0.05     0.02  -0.09   0.01
  27   8    -0.09  -0.01  -0.14     0.02  -0.01  -0.00    -0.00   0.03   0.01
  28   1    -0.01   0.02  -0.02     0.01   0.02   0.03    -0.00  -0.00  -0.01
  29   1    -0.01   0.07   0.02    -0.01   0.00   0.02    -0.00   0.01  -0.00
  30   1     0.00  -0.01  -0.00     0.03  -0.02   0.00    -0.01   0.00  -0.00
  31   1     0.00  -0.02  -0.00     0.03  -0.07   0.00    -0.01   0.01  -0.00
  32   1    -0.01  -0.02   0.00    -0.03  -0.03  -0.01     0.00   0.01  -0.00
  33   1    -0.01  -0.01   0.00    -0.02   0.01  -0.00    -0.00   0.00  -0.01
  34   1    -0.01  -0.00  -0.02    -0.01  -0.02  -0.05     0.00   0.00   0.01
  35   1    -0.00  -0.03  -0.01     0.00  -0.08  -0.04    -0.01   0.01   0.01
  36   1    -0.01  -0.02   0.02     0.00  -0.06   0.05    -0.00   0.01  -0.00
  37   1    -0.02   0.01   0.03    -0.06  -0.00   0.10     0.01  -0.00  -0.01
  38   1    -0.02   0.01   0.01    -0.06   0.01   0.02     0.01  -0.00   0.00
  39   1     0.02   0.02   0.04     0.01   0.02   0.01    -0.00  -0.00   0.00
  40   1     0.03   0.02   0.06    -0.01   0.02  -0.03     0.01  -0.01   0.03
  41   1     0.02  -0.01   0.02    -0.01   0.00  -0.02     0.00  -0.02  -0.01
  42   1    -0.03   0.02  -0.06    -0.05   0.02  -0.05    -0.08  -0.00  -0.14
  43   1    -0.01   0.06   0.02    -0.05   0.05   0.01    -0.07   0.08   0.07
  44   1     0.06  -0.05   0.05     0.03   0.00   0.01     0.30  -0.04   0.13
  45   1     0.00  -0.12  -0.03     0.04   0.01  -0.04     0.16  -0.26  -0.10
  46   1    -0.04  -0.07  -0.08     0.08  -0.01   0.03     0.10  -0.01   0.05
  47   1    -0.10  -0.01  -0.15     0.03   0.00   0.00    -0.21   0.03  -0.12
  48   1    -0.04   0.08  -0.05     0.01  -0.00   0.06    -0.06   0.26   0.16
  49   1    -0.01  -0.07   0.03     0.01   0.00  -0.01     0.01   0.01  -0.01
  50   1     0.01  -0.02   0.02    -0.01  -0.01   0.00    -0.00   0.01   0.01
  51   1    -0.01  -0.08  -0.00     0.01  -0.00   0.02     0.01   0.01   0.00
  52   1     0.03   0.07  -0.03    -0.04   0.01  -0.00    -0.01  -0.01   0.00
  53   1     0.01  -0.00  -0.05    -0.01  -0.01   0.04     0.01  -0.02   0.03
  54   1     0.02   0.08  -0.06    -0.03  -0.00   0.02    -0.00  -0.04   0.03
  55   1    -0.01  -0.21   0.21    -0.00   0.09  -0.09     0.01   0.07  -0.09
  56   1     0.13  -0.05  -0.25    -0.07   0.02   0.09    -0.04  -0.00   0.14
  57   1    -0.11   0.27   0.07     0.04  -0.11  -0.04     0.05  -0.17  -0.02
  58   1     0.00   0.02   0.05     0.01   0.03  -0.02    -0.02   0.00   0.02
  59   1    -0.03  -0.00  -0.04     0.01  -0.01   0.00    -0.01  -0.01  -0.01
  60   8    -0.02  -0.05   0.07    -0.03  -0.01   0.02    -0.13   0.04  -0.04
  61   1    -0.01   0.03  -0.02    -0.00  -0.01   0.00     0.00   0.00  -0.00
  62   1    -0.02  -0.01  -0.00     0.00   0.00   0.00    -0.02   0.01  -0.00
  63   7    -0.03   0.00   0.07    -0.05  -0.04   0.18     0.02  -0.00  -0.03
  64   6    -0.02   0.01   0.03     0.00   0.02   0.05     0.00  -0.00  -0.00
  65   8     0.01   0.03   0.03     0.09   0.07   0.00    -0.01  -0.00  -0.01
  66   6     0.05   0.01  -0.01     0.05  -0.01   0.10    -0.02  -0.03  -0.01
  67   6     0.05   0.00  -0.01     0.13  -0.05  -0.03    -0.02  -0.00   0.00
  68   8     0.10   0.00  -0.07     0.39  -0.05  -0.34    -0.07   0.00   0.06
  69   1    -0.01   0.07   0.06     0.04  -0.07  -0.02    -0.04   0.12   0.13
  70   1    -0.03  -0.09   0.01     0.04   0.09   0.01    -0.10  -0.18   0.02
  71   1     0.08   0.02  -0.07    -0.04  -0.02   0.11     0.10   0.02  -0.14
  72   7    -0.06   0.03   0.04    -0.10   0.08   0.13     0.01  -0.01  -0.00
  73   6    -0.09   0.08  -0.04    -0.20   0.28  -0.05     0.01  -0.02  -0.01
  74   1    -0.03   0.04  -0.03    -0.07   0.15  -0.06     0.01  -0.02   0.00
  75   1    -0.05   0.02  -0.01    -0.13   0.05  -0.03     0.00   0.01   0.00
  76   1    -0.01   0.03  -0.01    -0.00   0.10   0.00    -0.01  -0.00  -0.01
                     22                     23                     24
                        a                      a                      a 
 Frequencies --   122.7573               124.3227               125.6561
 Red. masses --     9.9625                 9.8427                 2.6532
 Frc consts  --     0.0000                 0.0000                 0.0000
 IR Inten    --     0.8132                 2.9131                 1.2318
 Raman Activ --     0.0000                 0.0000                 0.0000
 Depolar     --     0.0000                 0.0000                 0.0000
 Atom AN      X      Y      Z        X      Y      Z        X      Y      Z
   1   7     0.05   0.10   0.02     0.08  -0.04  -0.02     0.03  -0.02  -0.01
   2   6     0.04   0.04   0.05     0.08  -0.11   0.05     0.03  -0.04   0.02
   3   6     0.06  -0.01   0.06     0.09  -0.20   0.13     0.03  -0.06   0.04
   4   6     0.06  -0.05   0.06     0.09  -0.22   0.14     0.03  -0.06   0.05
   5   6     0.02  -0.04   0.04     0.09  -0.12   0.07     0.04  -0.03   0.03
   6   6     0.00  -0.03   0.06     0.09  -0.12   0.06     0.04  -0.03   0.02
   7   6     0.01   0.00   0.07     0.09  -0.12   0.06     0.04  -0.04   0.02
   8   6    -0.00  -0.02  -0.04     0.06   0.01  -0.04     0.03   0.01  -0.01
   9   6    -0.05   0.00  -0.03    -0.05   0.05  -0.06    -0.02   0.03  -0.04
  10   6     0.07   0.09   0.00     0.09   0.01   0.07     0.03  -0.00   0.02
  11   6     0.10   0.08  -0.07     0.07   0.02   0.07     0.02   0.00   0.03
  12   6    -0.01   0.01   0.00     0.00  -0.03  -0.03     0.00  -0.01  -0.01
  13   6    -0.16   0.11  -0.03    -0.07   0.02  -0.04    -0.02   0.00  -0.01
  14   6    -0.08   0.01  -0.02    -0.01   0.06  -0.02     0.00   0.02  -0.00
  15   6     0.03  -0.09  -0.04     0.06   0.03   0.09     0.01   0.02   0.04
  16   8    -0.01   0.12   0.02    -0.01   0.12   0.09    -0.00   0.04   0.03
  17   7    -0.03   0.12  -0.03     0.02  -0.07  -0.03     0.01  -0.03  -0.01
  18   6    -0.03   0.14  -0.04     0.00  -0.08   0.00     0.00  -0.03   0.00
  19   6     0.01  -0.03   0.02    -0.05  -0.03  -0.03    -0.02  -0.01  -0.01
  20   6     0.02  -0.08   0.04    -0.04  -0.02  -0.07    -0.01  -0.01  -0.03
  21   6    -0.05   0.24  -0.10     0.02  -0.08   0.07     0.01  -0.03   0.03
  22   6     0.07  -0.27   0.08    -0.12   0.08  -0.02    -0.04   0.03  -0.01
  23   6     0.01  -0.07   0.04    -0.02   0.00  -0.08    -0.00   0.00  -0.03
  24   6     0.00   0.01  -0.03    -0.05   0.03   0.07    -0.02   0.01   0.02
  25   6     0.07  -0.29   0.08    -0.11   0.12   0.02    -0.04   0.05   0.00
  26   6     0.08  -0.38   0.12    -0.04   0.16  -0.15    -0.02   0.07  -0.06
  27   8    -0.14   0.09  -0.23    -0.11   0.04  -0.24    -0.04   0.01  -0.08
  28   1     0.01   0.03   0.01     0.01  -0.00  -0.02     0.01  -0.00  -0.01
  29   1    -0.02   0.04   0.02    -0.01   0.04   0.02    -0.00   0.01   0.01
  30   1     0.02  -0.00   0.02     0.02  -0.06   0.04     0.01  -0.02   0.01
  31   1     0.02  -0.02   0.02     0.03  -0.08   0.05     0.01  -0.02   0.02
  32   1    -0.01  -0.01   0.02     0.03  -0.02   0.01     0.01  -0.01   0.00
  33   1    -0.00   0.01   0.02     0.02  -0.03   0.01     0.01  -0.01   0.00
  34   1    -0.01   0.00  -0.02     0.01   0.01  -0.02     0.01   0.00  -0.00
  35   1     0.01  -0.01  -0.02     0.05   0.01  -0.03     0.02   0.01  -0.01
  36   1    -0.01  -0.00  -0.01    -0.01   0.01  -0.02    -0.00   0.01  -0.01
  37   1    -0.02   0.01  -0.00    -0.02   0.02  -0.01    -0.00   0.01  -0.02
  38   1    -0.01   0.00  -0.02     0.00   0.01  -0.05     0.00   0.00  -0.03
  39   1     0.03   0.04   0.01     0.04  -0.00   0.04     0.01  -0.00   0.01
  40   1     0.01   0.03  -0.05     0.03   0.01   0.03     0.01   0.00   0.01
  41   1    -0.01  -0.01   0.01     0.02  -0.03  -0.01     0.01  -0.01  -0.01
  42   1    -0.09   0.02  -0.04    -0.04  -0.00  -0.02    -0.01  -0.00  -0.00
  43   1    -0.06   0.08   0.01    -0.02   0.02  -0.01    -0.01   0.00  -0.00
  44   1    -0.04  -0.01   0.01    -0.01   0.02  -0.01     0.00   0.01  -0.00
  45   1    -0.01   0.01  -0.02     0.01   0.03  -0.02     0.00   0.01  -0.01
  46   1     0.02  -0.05  -0.01     0.03   0.03   0.03     0.01   0.01   0.01
  47   1     0.03  -0.01  -0.03     0.03   0.01   0.05     0.01   0.00   0.02
  48   1    -0.00  -0.04   0.00     0.01  -0.02   0.03     0.00  -0.00   0.01
  49   1    -0.01   0.04  -0.01     0.01  -0.02  -0.01     0.01  -0.01  -0.00
  50   1     0.03   0.03   0.01     0.05  -0.00   0.04     0.02  -0.00   0.01
  51   1    -0.03   0.13  -0.05     0.02  -0.04   0.03     0.01  -0.02   0.01
  52   1     0.03  -0.13   0.04    -0.05   0.04  -0.02    -0.02   0.02  -0.01
  53   1    -0.00   0.01  -0.02    -0.01   0.01   0.03    -0.00   0.01   0.01
  54   1     0.04  -0.15   0.04    -0.05   0.07   0.00    -0.02   0.03  -0.00
  55   1    -0.01  -0.21   0.08     0.00   0.12  -0.09     0.00   0.05  -0.04
  56   1     0.13  -0.13   0.00    -0.08   0.06  -0.00    -0.03   0.03  -0.00
  57   1    -0.03  -0.07   0.04     0.04  -0.00  -0.05     0.01   0.00  -0.02
  58   1     0.06   0.03  -0.04     0.01   0.02   0.02     0.00   0.01   0.01
  59   1    -0.05   0.03  -0.06    -0.02   0.02  -0.06    -0.01   0.01  -0.02
  60   8     0.03   0.12  -0.03    -0.04   0.08   0.01    -0.02   0.03   0.00
  61   1    -0.02   0.04  -0.06    -0.03   0.02  -0.05    -0.01   0.01  -0.02
  62   1    -0.02   0.03  -0.02    -0.03   0.03  -0.02    -0.01   0.01  -0.01
  63   7    -0.07   0.02  -0.00    -0.11   0.07  -0.01    -0.04   0.02  -0.03
  64   6    -0.04   0.00  -0.02    -0.05   0.03  -0.06    -0.03   0.01  -0.05
  65   8    -0.02  -0.01   0.04    -0.02  -0.00   0.11    -0.08   0.01  -0.09
  66   6     0.02   0.07  -0.03     0.03   0.13  -0.08     0.02   0.06  -0.04
  67   6    -0.02   0.02  -0.00    -0.05   0.07  -0.01    -0.04   0.03   0.01
  68   8    -0.00  -0.00   0.01    -0.07   0.05   0.04    -0.07   0.00   0.09
  69   1    -0.00   0.04  -0.02    -0.01   0.07  -0.02    -0.01   0.04  -0.01
  70   1     0.01   0.02  -0.01     0.01   0.01  -0.02     0.01  -0.00  -0.01
  71   1     0.02   0.02  -0.01     0.04   0.04  -0.04     0.03   0.02  -0.03
  72   7    -0.06   0.00  -0.07    -0.07   0.02  -0.24     0.04  -0.01   0.04
  73   6     0.01  -0.03   0.06     0.11  -0.12   0.10     0.05  -0.08   0.05
  74   1    -0.02   0.01   0.03     0.05  -0.22   0.14    -0.13   0.44  -0.17
  75   1     0.03  -0.03   0.00     0.14   0.12   0.12    -0.05  -0.47  -0.27
  76   1     0.01  -0.01   0.04    -0.06  -0.04  -0.10     0.24  -0.06   0.49
                     25                     26                     27
                        a                      a                      a 
 Frequencies --   141.6628               143.2964               151.7734
 Red. masses --    10.3872                11.5176                10.8698
 Frc consts  --     0.0000                 0.0000                 0.0000
 IR Inten    --     0.5259                 4.1857                 7.7588
 Raman Activ --     0.0000                 0.0000                 0.0000
 Depolar     --     0.0000                 0.0000                 0.0000
 Atom AN      X      Y      Z        X      Y      Z        X      Y      Z
   1   7    -0.06  -0.06   0.12     0.06  -0.03  -0.13     0.03  -0.02   0.07
   2   6    -0.04  -0.03   0.12     0.04  -0.03  -0.14    -0.01  -0.06  -0.01
   3   6    -0.03  -0.03   0.11     0.03  -0.04  -0.11     0.00  -0.02  -0.07
   4   6    -0.03   0.03   0.05     0.03  -0.08  -0.04    -0.02   0.02  -0.13
   5   6    -0.03   0.07   0.01     0.05  -0.10  -0.02    -0.05   0.01  -0.14
   6   6    -0.04   0.06   0.04     0.07  -0.09  -0.06    -0.06  -0.01  -0.10
   7   6    -0.04   0.01   0.09     0.06  -0.06  -0.12    -0.05  -0.05  -0.03
   8   6    -0.03   0.02  -0.02     0.06  -0.01   0.02    -0.04   0.03  -0.09
   9   6     0.05  -0.03  -0.06    -0.03   0.05   0.07     0.03   0.07   0.13
  10   6    -0.04  -0.06   0.08     0.03   0.04   0.05     0.10   0.05   0.13
  11   6    -0.06  -0.07   0.22     0.00   0.06   0.08     0.12   0.03   0.14
  12   6     0.05  -0.04   0.01     0.01   0.06  -0.01     0.04  -0.05  -0.01
  13   6     0.20  -0.13   0.06     0.04   0.05  -0.01    -0.08   0.04  -0.04
  14   6    -0.01   0.03   0.01    -0.01   0.07  -0.03    -0.05   0.06  -0.03
  15   6    -0.03   0.05  -0.00     0.03   0.03  -0.06     0.03   0.00   0.05
  16   8     0.11   0.04   0.04    -0.04   0.12   0.07     0.11   0.17   0.14
  17   7    -0.01   0.12  -0.10    -0.05   0.14  -0.07     0.05  -0.08  -0.04
  18   6    -0.03   0.13  -0.08    -0.05   0.15  -0.07     0.02  -0.06  -0.02
  19   6    -0.08   0.18  -0.11    -0.08   0.21  -0.10    -0.00  -0.10  -0.02
  20   6    -0.06   0.10  -0.11    -0.06   0.13  -0.08    -0.01  -0.08  -0.05
  21   6     0.02  -0.07   0.05    -0.01  -0.05   0.03     0.02   0.05  -0.01
  22   6    -0.12   0.16  -0.07    -0.09   0.16  -0.06    -0.04  -0.10   0.01
  23   6    -0.02   0.03  -0.09    -0.03   0.05  -0.05     0.02  -0.07  -0.06
  24   6     0.01  -0.20   0.13     0.00  -0.20   0.10    -0.02   0.08   0.01
  25   6    -0.07  -0.05   0.06    -0.04  -0.07   0.05    -0.05  -0.01   0.02
  26   6     0.07  -0.24  -0.06     0.04  -0.26   0.02     0.03  -0.02  -0.13
  27   8    -0.13   0.02  -0.28     0.19  -0.07   0.38    -0.01  -0.01  -0.03
  28   1    -0.01  -0.02   0.03     0.01   0.00  -0.06    -0.01   0.01   0.01
  29   1     0.05  -0.01  -0.02    -0.01   0.03   0.01     0.03   0.04   0.02
  30   1    -0.01  -0.02   0.04    -0.00  -0.01  -0.04     0.01  -0.01  -0.02
  31   1    -0.01   0.01   0.01     0.01  -0.03  -0.00    -0.00   0.01  -0.05
  32   1    -0.02   0.03   0.00     0.03  -0.03  -0.01    -0.02  -0.00  -0.03
  33   1    -0.01  -0.00   0.03     0.02  -0.01  -0.04    -0.02  -0.02   0.00
  34   1    -0.02  -0.00  -0.00     0.04   0.01   0.00    -0.01   0.05  -0.06
  35   1    -0.01   0.00  -0.00     0.02   0.00   0.01    -0.03  -0.04  -0.03
  36   1     0.01   0.00  -0.02     0.00   0.00   0.03    -0.01   0.00   0.05
  37   1     0.03  -0.01  -0.04    -0.02   0.01   0.04     0.05   0.01   0.01
  38   1     0.01  -0.01   0.02     0.01   0.01  -0.02     0.08   0.00   0.08
  39   1    -0.03  -0.03  -0.00     0.02  -0.00   0.03     0.03   0.02   0.04
  40   1     0.02  -0.03   0.11     0.01   0.02   0.04     0.05   0.01   0.06
  41   1     0.04  -0.02  -0.02     0.02   0.01  -0.01     0.03  -0.05  -0.01
  42   1     0.11  -0.02   0.08     0.02   0.02   0.00    -0.05  -0.00  -0.02
  43   1     0.08  -0.10  -0.03     0.01   0.01  -0.01    -0.02   0.04  -0.01
  44   1    -0.02   0.02  -0.04    -0.02   0.02  -0.02    -0.03   0.01  -0.01
  45   1    -0.03   0.03   0.05    -0.01   0.03   0.00    -0.01   0.04  -0.01
  46   1    -0.06   0.06  -0.01    -0.01   0.01  -0.02     0.01   0.02   0.02
  47   1     0.01   0.00   0.06     0.03   0.01  -0.00     0.03   0.00   0.04
  48   1     0.02  -0.01  -0.05     0.02  -0.01  -0.04     0.01  -0.03   0.01
  49   1     0.01   0.00  -0.02    -0.01   0.01  -0.01     0.02  -0.01  -0.01
  50   1     0.11   0.00   0.07    -0.04  -0.03  -0.03     0.14  -0.00   0.07
  51   1     0.02  -0.05   0.03     0.01  -0.04   0.02     0.01   0.03  -0.00
  52   1    -0.05   0.07  -0.03    -0.04   0.06  -0.02    -0.02  -0.04   0.00
  53   1     0.02  -0.12   0.07     0.01  -0.12   0.06    -0.01   0.05   0.00
  54   1    -0.02  -0.03   0.03    -0.01  -0.05   0.03    -0.02   0.00   0.01
  55   1    -0.01  -0.13  -0.00    -0.02  -0.15   0.03     0.01   0.01  -0.05
  56   1     0.10  -0.08  -0.03     0.10  -0.09  -0.01    -0.01  -0.00  -0.03
  57   1    -0.01  -0.06  -0.02    -0.03  -0.06   0.01     0.03  -0.01  -0.04
  58   1    -0.08  -0.02   0.09    -0.02   0.02   0.03     0.01   0.03   0.05
  59   1    -0.02   0.03  -0.06     0.07  -0.02   0.11    -0.02   0.00  -0.01
  60   8    -0.07   0.11   0.00     0.03  -0.19  -0.00    -0.03   0.05  -0.04
  61   1    -0.03   0.02  -0.07     0.04  -0.01   0.11     0.02   0.02  -0.01
  62   1    -0.05   0.04  -0.03     0.03  -0.06   0.03    -0.02   0.01  -0.01
  63   7     0.13  -0.04  -0.14    -0.11   0.06   0.16     0.12   0.10   0.07
  64   6     0.08  -0.03  -0.02    -0.06   0.04   0.02     0.03   0.03   0.18
  65   8     0.12  -0.00  -0.08    -0.11   0.02   0.07    -0.11   0.02   0.06
  66   6    -0.02  -0.01   0.07     0.01  -0.00  -0.08    -0.11  -0.17  -0.03
  67   6     0.05  -0.04  -0.03    -0.05   0.05   0.03    -0.03   0.08   0.01
  68   8     0.05  -0.06   0.00    -0.07   0.09  -0.00    -0.15   0.24  -0.05
  69   1     0.01  -0.03   0.02    -0.00   0.01  -0.04    -0.00  -0.11  -0.01
  70   1    -0.02   0.03   0.01     0.03  -0.02  -0.01    -0.01  -0.04  -0.01
  71   1    -0.02  -0.01   0.06     0.00   0.00  -0.05    -0.10  -0.06  -0.02
  72   7     0.07  -0.00   0.05    -0.04   0.01  -0.07     0.21  -0.04   0.34
  73   6     0.00   0.11  -0.05     0.03  -0.13   0.04    -0.04  -0.18  -0.21
  74   1     0.01   0.04  -0.03     0.00  -0.04   0.02     0.08  -0.08  -0.15
  75   1    -0.03   0.04  -0.01     0.05  -0.05  -0.00    -0.10  -0.05  -0.05
  76   1     0.02   0.04  -0.04    -0.01  -0.05   0.04    -0.08  -0.06  -0.10
                     28                     29                     30
                        a                      a                      a 
 Frequencies --   165.2018               167.1144               172.9337
 Red. masses --    11.2241                 8.9303                 5.6255
 Frc consts  --     0.0000                 0.0000                 0.0000
 IR Inten    --     3.7440                39.9639                54.7422
 Raman Activ --     0.0000                 0.0000                 0.0000
 Depolar     --     0.0000                 0.0000                 0.0000
 Atom AN      X      Y      Z        X      Y      Z        X      Y      Z
   1   7    -0.05  -0.05  -0.05    -0.11  -0.03  -0.09     0.08   0.04   0.10
   2   6    -0.05   0.03  -0.05    -0.08  -0.13   0.05     0.06   0.09   0.02
   3   6    -0.10   0.11  -0.06    -0.10  -0.19   0.14     0.09   0.11  -0.05
   4   6    -0.08   0.16  -0.02    -0.08  -0.11   0.15     0.07   0.06  -0.08
   5   6    -0.04   0.10   0.04    -0.02   0.02   0.07     0.01  -0.01  -0.05
   6   6     0.00   0.10  -0.02     0.00  -0.06   0.10    -0.02   0.05  -0.05
   7   6    -0.01   0.07  -0.07    -0.02  -0.15   0.09    -0.00   0.10  -0.01
   8   6    -0.02   0.02   0.14    -0.02   0.09  -0.00    -0.00  -0.06  -0.05
   9   6    -0.03  -0.05  -0.04     0.02   0.04  -0.12    -0.00  -0.02   0.07
  10   6     0.04   0.07   0.12     0.00   0.07  -0.01     0.02  -0.03   0.04
  11   6     0.09   0.01   0.24     0.04   0.06  -0.03    -0.00  -0.03   0.07
  12   6     0.08  -0.05  -0.00    -0.00   0.04  -0.02     0.04  -0.03   0.01
  13   6     0.04  -0.01   0.01    -0.09   0.10  -0.04     0.15  -0.09   0.07
  14   6    -0.02   0.03  -0.00    -0.01   0.04  -0.03     0.05  -0.05   0.05
  15   6     0.01   0.01   0.01     0.04  -0.00  -0.03    -0.04   0.01  -0.05
  16   8     0.07   0.32   0.11    -0.06   0.17  -0.01     0.08  -0.03   0.03
  17   7     0.07  -0.15  -0.06    -0.00  -0.01  -0.01     0.01  -0.04  -0.03
  18   6     0.04  -0.11  -0.04    -0.00  -0.00  -0.01    -0.00  -0.03  -0.02
  19   6    -0.01  -0.16  -0.04    -0.01  -0.01  -0.01    -0.02  -0.04  -0.03
  20   6    -0.02  -0.10  -0.09    -0.01  -0.00  -0.02    -0.02  -0.03  -0.05
  21   6     0.02   0.09  -0.02    -0.00   0.01  -0.00     0.00   0.02   0.01
  22   6    -0.06  -0.19   0.02    -0.02  -0.02   0.00    -0.06  -0.05   0.01
  23   6     0.03  -0.11  -0.10    -0.01  -0.01  -0.02    -0.01  -0.03  -0.05
  24   6    -0.05   0.15   0.01    -0.01   0.01   0.01    -0.04   0.03   0.03
  25   6    -0.08  -0.04   0.04    -0.02  -0.01   0.01    -0.06  -0.01   0.03
  26   6     0.06  -0.05  -0.21     0.00  -0.02  -0.02     0.00  -0.02  -0.09
  27   8     0.06   0.02   0.19     0.01   0.08   0.16    -0.14   0.08  -0.17
  28   1    -0.02   0.00  -0.06    -0.05   0.01  -0.05     0.03  -0.00   0.05
  29   1     0.01   0.09  -0.01    -0.03   0.05  -0.00     0.05  -0.03  -0.00
  30   1    -0.04   0.03  -0.02    -0.04  -0.07   0.05     0.04   0.04  -0.02
  31   1    -0.03   0.06  -0.01    -0.03  -0.03   0.06     0.03   0.01  -0.04
  32   1     0.02   0.03   0.00     0.01  -0.01   0.03    -0.02   0.01  -0.02
  33   1     0.00   0.02  -0.03     0.01  -0.05   0.02    -0.01   0.04   0.01
  34   1     0.01  -0.04   0.08    -0.01   0.01   0.01    -0.01   0.00  -0.03
  35   1    -0.02   0.05   0.07     0.01   0.05  -0.00    -0.00  -0.05  -0.02
  36   1     0.00   0.01  -0.03    -0.02   0.04  -0.05     0.01  -0.03   0.04
  37   1    -0.03  -0.02  -0.00     0.05  -0.00  -0.09    -0.02   0.01   0.05
  38   1    -0.06  -0.01  -0.03     0.04  -0.00   0.03    -0.01   0.00  -0.01
  39   1     0.01   0.02   0.03     0.01   0.03   0.01    -0.00  -0.02   0.00
  40   1     0.07  -0.01   0.11     0.01   0.01  -0.01     0.01  -0.01   0.04
  41   1     0.05  -0.04  -0.02    -0.00   0.01  -0.00     0.02   0.01  -0.01
  42   1     0.01  -0.01   0.02    -0.06   0.02  -0.04     0.07  -0.02   0.04
  43   1     0.02  -0.00  -0.01    -0.04   0.06   0.01     0.05  -0.06   0.00
  44   1    -0.02   0.01  -0.01    -0.01   0.00   0.01     0.02  -0.01   0.00
  45   1    -0.01   0.02   0.01     0.00   0.01  -0.02    -0.01  -0.02   0.04
  46   1    -0.01   0.02  -0.00     0.03  -0.03  -0.00    -0.05   0.01  -0.02
  47   1     0.02   0.00   0.03     0.01   0.01  -0.04    -0.02  -0.01   0.00
  48   1     0.01  -0.02  -0.02    -0.00   0.00   0.02     0.01   0.02  -0.04
  49   1     0.02  -0.02  -0.02     0.00  -0.00  -0.00     0.00  -0.01  -0.01
  50   1     0.08  -0.01   0.02    -0.43   0.03  -0.24    -0.64   0.11  -0.34
  51   1     0.02   0.06  -0.01     0.00   0.01  -0.00     0.01   0.01   0.00
  52   1    -0.03  -0.08   0.01    -0.00  -0.01   0.00    -0.02  -0.02   0.00
  53   1    -0.02   0.09   0.00    -0.00   0.00   0.00    -0.01   0.02   0.01
  54   1    -0.03  -0.01   0.02    -0.01  -0.01   0.01    -0.02  -0.00   0.02
  55   1     0.01   0.01  -0.09    -0.00  -0.00  -0.01    -0.00   0.00  -0.04
  56   1    -0.01  -0.01  -0.05    -0.00  -0.00  -0.00    -0.01  -0.00  -0.02
  57   1     0.05  -0.02  -0.06     0.00  -0.01  -0.01     0.01  -0.02  -0.03
  58   1    -0.03   0.02   0.09     0.02   0.02  -0.01    -0.02  -0.01   0.03
  59   1     0.02   0.04   0.05     0.03   0.06   0.06     0.03   0.11   0.01
  60   8     0.00  -0.10  -0.07     0.14  -0.15   0.05     0.15   0.05   0.11
  61   1     0.04   0.04   0.05    -0.00   0.03   0.05    -0.06   0.02  -0.02
  62   1    -0.01  -0.03   0.01     0.08  -0.05   0.05     0.07   0.00   0.06
  63   7    -0.07  -0.10  -0.04     0.18  -0.02  -0.33    -0.07   0.03   0.19
  64   6    -0.04  -0.04  -0.07     0.09   0.01   0.01    -0.04  -0.01   0.01
  65   8     0.02  -0.04  -0.02     0.10   0.02  -0.04    -0.05  -0.01   0.02
  66   6     0.07   0.08   0.04    -0.06   0.09   0.08     0.02  -0.08  -0.05
  67   6     0.02  -0.08  -0.01     0.03  -0.00  -0.08    -0.02   0.02   0.05
  68   8     0.12  -0.20   0.02    -0.00  -0.06   0.03    -0.03   0.08  -0.02
  69   1     0.00   0.05   0.00    -0.01   0.02   0.04     0.01  -0.03  -0.03
  70   1     0.01   0.04   0.01    -0.06   0.06   0.01     0.03  -0.04  -0.01
  71   1     0.05   0.03   0.03    -0.01   0.02   0.06    -0.01  -0.02  -0.04
  72   7    -0.15   0.00  -0.14     0.17  -0.00   0.14    -0.06  -0.01  -0.04
  73   6    -0.04   0.14   0.12     0.02   0.04  -0.13    -0.01  -0.04   0.05
  74   1    -0.06   0.06   0.08     0.05   0.01  -0.08    -0.01  -0.01   0.02
  75   1     0.02   0.05   0.04    -0.05   0.02  -0.03     0.02  -0.02   0.01
  76   1     0.03   0.05   0.04    -0.00   0.02  -0.07    -0.01  -0.02   0.03
                     31                     32                     33
                        a                      a                      a 
 Frequencies --   186.8327               188.9684               194.1551
 Red. masses --    11.4158                 7.3796                 5.7064
 Frc consts  --     0.0000                 0.0000                 0.0000
 IR Inten    --     7.2982                53.1723                61.3664
 Raman Activ --     0.0000                 0.0000                 0.0000
 Depolar     --     0.0000                 0.0000                 0.0000
 Atom AN      X      Y      Z        X      Y      Z        X      Y      Z
   1   7     0.15   0.01  -0.04    -0.01  -0.11   0.03    -0.03   0.06  -0.04
   2   6     0.14   0.09  -0.08    -0.03  -0.06  -0.03    -0.02   0.02   0.01
   3   6     0.12   0.12  -0.08    -0.07   0.01  -0.05    -0.00  -0.03   0.03
   4   6     0.12   0.04  -0.02    -0.06   0.08  -0.06     0.00  -0.06   0.04
   5   6     0.08  -0.04   0.03    -0.03   0.06  -0.03     0.00  -0.03   0.02
   6   6     0.11   0.00  -0.02     0.00   0.05  -0.06    -0.01  -0.04   0.04
   7   6     0.11   0.08  -0.07    -0.01  -0.01  -0.07    -0.01  -0.02   0.04
   8   6     0.05   0.01   0.02    -0.00   0.03   0.08    -0.00  -0.01  -0.04
   9   6    -0.19   0.05  -0.08     0.00  -0.00   0.02     0.02  -0.00  -0.00
  10   6     0.04  -0.04  -0.01     0.04  -0.04   0.08    -0.01   0.07  -0.05
  11   6     0.00  -0.02   0.00     0.03  -0.03   0.10     0.01   0.04  -0.07
  12   6     0.01  -0.02   0.01    -0.05  -0.10  -0.00     0.06   0.10   0.01
  13   6     0.07  -0.06   0.04    -0.30   0.03  -0.11     0.26   0.00   0.11
  14   6     0.01  -0.03   0.03    -0.16   0.02  -0.07     0.12   0.01   0.06
  15   6    -0.02  -0.01  -0.01    -0.04  -0.04   0.20     0.03   0.04  -0.21
  16   8     0.00  -0.06   0.00     0.09  -0.02   0.08    -0.04   0.04  -0.05
  17   7    -0.01   0.02  -0.01     0.04   0.11  -0.01    -0.04  -0.10   0.00
  18   6    -0.01   0.01  -0.01     0.04   0.07   0.00    -0.04  -0.06  -0.01
  19   6    -0.01   0.00  -0.01     0.04   0.06   0.01    -0.05  -0.06  -0.01
  20   6    -0.00  -0.01  -0.00     0.03  -0.01   0.03    -0.04   0.00  -0.03
  21   6    -0.00  -0.01   0.01     0.05  -0.06  -0.02    -0.05   0.07   0.03
  22   6    -0.02   0.02  -0.00     0.09   0.11  -0.05    -0.11  -0.11   0.06
  23   6    -0.01   0.00  -0.01     0.05   0.03   0.00    -0.05  -0.04  -0.01
  24   6    -0.01  -0.01   0.02     0.10  -0.10  -0.05    -0.10   0.09   0.07
  25   6    -0.02   0.01   0.01     0.10   0.04  -0.08    -0.11  -0.04   0.10
  26   6    -0.01   0.00  -0.00     0.08  -0.00  -0.03    -0.08  -0.01   0.01
  27   8     0.01  -0.03  -0.04     0.11  -0.15  -0.05     0.18  -0.05   0.05
  28   1     0.06  -0.01  -0.01    -0.01  -0.02  -0.01    -0.01   0.02  -0.02
  29   1     0.00  -0.02   0.01    -0.02   0.03   0.02    -0.09   0.07   0.01
  30   1     0.03   0.05  -0.03    -0.03  -0.00  -0.02     0.00  -0.01   0.01
  31   1     0.04   0.00  -0.01    -0.02   0.04  -0.02     0.00  -0.02   0.02
  32   1     0.04  -0.00  -0.00     0.01   0.02  -0.02    -0.01  -0.01   0.01
  33   1     0.03   0.03  -0.02     0.00  -0.01  -0.02    -0.00  -0.00   0.01
  34   1     0.04  -0.02   0.03     0.02  -0.01   0.04    -0.01   0.01  -0.02
  35   1     0.04   0.06   0.01    -0.02   0.03   0.05     0.00  -0.02  -0.02
  36   1    -0.11   0.05  -0.04     0.01   0.01  -0.00     0.01  -0.01   0.00
  37   1    -0.06  -0.02  -0.05    -0.01  -0.01   0.01     0.01   0.01  -0.00
  38   1     0.00   0.00   0.06    -0.02  -0.00  -0.01     0.01   0.00  -0.00
  39   1     0.02  -0.03   0.01     0.01  -0.01   0.02    -0.00   0.03  -0.01
  40   1     0.00  -0.00   0.00     0.02  -0.00   0.04    -0.01   0.01  -0.03
  41   1     0.01   0.00  -0.00    -0.03  -0.07   0.01     0.03   0.06  -0.01
  42   1     0.04  -0.01   0.03    -0.15  -0.02  -0.07     0.13   0.02   0.07
  43   1     0.03  -0.04   0.00    -0.10   0.09  -0.01     0.09  -0.06   0.01
  44   1     0.00  -0.01  -0.00    -0.05   0.00  -0.02     0.03   0.00   0.01
  45   1    -0.00  -0.01   0.02    -0.02   0.03  -0.05     0.01  -0.02   0.05
  46   1    -0.01  -0.01  -0.00     0.03   0.03   0.07    -0.04  -0.03  -0.08
  47   1    -0.01  -0.01  -0.00     0.00  -0.02   0.09     0.01   0.02  -0.08
  48   1    -0.00   0.01  -0.01    -0.04  -0.06   0.08     0.04   0.05  -0.10
  49   1    -0.00   0.00  -0.00     0.01   0.03  -0.00    -0.01  -0.02  -0.00
  50   1    -0.02  -0.01  -0.00    -0.24  -0.04  -0.09    -0.03  -0.13   0.01
  51   1     0.00  -0.01   0.01     0.00  -0.04  -0.00     0.00   0.05   0.01
  52   1    -0.01   0.01  -0.00     0.04   0.06  -0.02    -0.04  -0.05   0.02
  53   1    -0.00  -0.01   0.01     0.03  -0.06  -0.01    -0.03   0.06   0.02
  54   1    -0.01   0.01   0.00     0.03   0.02  -0.03    -0.04  -0.02   0.04
  55   1    -0.00   0.00  -0.00     0.02  -0.00  -0.02    -0.02  -0.00   0.01
  56   1    -0.00   0.00   0.00     0.03  -0.00  -0.00    -0.02  -0.00  -0.00
  57   1    -0.00  -0.00  -0.00     0.04  -0.01  -0.01    -0.03   0.00   0.00
  58   1    -0.00  -0.01   0.00    -0.01   0.01   0.04     0.02   0.00  -0.03
  59   1    -0.02  -0.07  -0.03    -0.20  -0.42  -0.19    -0.26  -0.56  -0.22
  60   8    -0.02   0.06   0.02    -0.00   0.23   0.14    -0.06   0.14   0.06
  61   1     0.00  -0.01  -0.01     0.09   0.01  -0.04     0.12   0.05  -0.01
  62   1     0.01   0.02  -0.01     0.14   0.08  -0.02     0.15   0.07  -0.08
  63   7    -0.16  -0.09  -0.27    -0.02  -0.03   0.02     0.04   0.03   0.00
  64   6    -0.12   0.05   0.14    -0.02  -0.01  -0.01     0.03   0.00  -0.01
  65   8    -0.17   0.02   0.23    -0.02  -0.02  -0.01     0.04   0.01  -0.03
  66   6    -0.02   0.30   0.04     0.03  -0.01   0.00    -0.01  -0.03  -0.00
  67   6    -0.08  -0.06  -0.10     0.00  -0.03   0.01     0.01   0.03   0.00
  68   8     0.03  -0.29   0.02     0.03  -0.06   0.01    -0.02   0.06  -0.00
  69   1    -0.04   0.14   0.01     0.00   0.00  -0.01     0.00  -0.02   0.00
  70   1    -0.05   0.12  -0.01     0.01   0.00   0.00    -0.00  -0.01  -0.00
  71   1     0.07   0.09   0.06     0.01  -0.00   0.00    -0.02  -0.01  -0.01
  72   7     0.02  -0.01   0.35    -0.05  -0.00  -0.05     0.03   0.00  -0.02
  73   6    -0.18  -0.10  -0.10    -0.01   0.03   0.04     0.03  -0.00  -0.01
  74   1     0.03  -0.06  -0.09    -0.02   0.02   0.03     0.01  -0.00  -0.00
  75   1    -0.13  -0.01  -0.01     0.01   0.01   0.01     0.01  -0.00  -0.00
  76   1    -0.11  -0.04  -0.08     0.01   0.01   0.02     0.01  -0.00  -0.00
                     34                     35                     36
                        a                      a                      a 
 Frequencies --   222.5002               237.2086               238.4195
 Red. masses --    11.3329                12.2701                 5.9283
 Frc consts  --     0.0000                 0.0000                 0.0000
 IR Inten    --    45.7144                 7.1174                 0.7480
 Raman Activ --     0.0000                 0.0000                 0.0000
 Depolar     --     0.0000                 0.0000                 0.0000
 Atom AN      X      Y      Z        X      Y      Z        X      Y      Z
   1   7    -0.02  -0.04   0.02     0.05   0.01  -0.15     0.03  -0.03   0.03
   2   6    -0.06  -0.11  -0.06     0.08   0.08  -0.04     0.00  -0.06  -0.00
   3   6    -0.09  -0.08  -0.05     0.05   0.05   0.03    -0.02  -0.01  -0.01
   4   6    -0.08   0.00  -0.04     0.07  -0.01   0.10    -0.03   0.07  -0.05
   5   6    -0.03   0.01  -0.03     0.05  -0.01   0.10    -0.02   0.06  -0.03
   6   6     0.01  -0.02  -0.05     0.08  -0.01   0.07     0.01   0.02  -0.04
   7   6    -0.02  -0.09  -0.08     0.09   0.04   0.00     0.00  -0.03  -0.03
   8   6     0.02   0.05   0.11    -0.02  -0.02  -0.04    -0.01   0.04   0.05
   9   6     0.01   0.03   0.02    -0.00  -0.05  -0.07     0.01   0.01   0.01
  10   6     0.04   0.03   0.05    -0.01   0.00  -0.04     0.11   0.01  -0.01
  11   6     0.04   0.05  -0.03    -0.03  -0.00   0.03     0.18  -0.01  -0.13
  12   6     0.04   0.08  -0.02    -0.02  -0.01   0.01     0.09  -0.03   0.07
  13   6     0.05   0.09  -0.02    -0.01  -0.03   0.00     0.02   0.07   0.25
  14   6     0.06   0.11  -0.03     0.00  -0.05   0.01    -0.15   0.10   0.22
  15   6     0.09   0.07  -0.14    -0.03  -0.02   0.04    -0.01  -0.11  -0.06
  16   8     0.04  -0.05   0.08    -0.07   0.09  -0.04     0.03  -0.06   0.02
  17   7    -0.02  -0.07   0.02     0.01  -0.00   0.01    -0.03   0.17  -0.10
  18   6    -0.02  -0.03  -0.00     0.00   0.00   0.01    -0.00   0.03  -0.05
  19   6    -0.01  -0.00  -0.01    -0.00   0.00   0.01    -0.00  -0.05  -0.03
  20   6     0.00   0.04  -0.02    -0.01   0.00   0.01     0.02  -0.15   0.01
  21   6    -0.02   0.05   0.01    -0.00  -0.00  -0.01     0.03  -0.08   0.03
  22   6    -0.04  -0.04   0.03     0.02  -0.00  -0.00    -0.06   0.06  -0.04
  23   6    -0.02  -0.01   0.02     0.01   0.00  -0.00    -0.00   0.00  -0.04
  24   6    -0.05   0.05   0.04     0.01  -0.00  -0.02     0.00  -0.08   0.05
  25   6    -0.04  -0.03   0.06     0.02  -0.01  -0.02    -0.06   0.09  -0.02
  26   6    -0.08   0.01   0.12     0.03  -0.01  -0.05     0.02  -0.00  -0.09
  27   8     0.05  -0.56  -0.11     0.06  -0.23   0.02    -0.02   0.04  -0.03
  28   1    -0.03   0.01   0.01     0.03  -0.00  -0.07    -0.01   0.00   0.01
  29   1     0.09  -0.08   0.02    -0.00   0.01  -0.02    -0.03   0.01   0.03
  30   1    -0.04  -0.03  -0.01     0.01   0.02   0.00    -0.01  -0.02   0.00
  31   1    -0.03   0.01  -0.01     0.02  -0.01   0.04    -0.01   0.03  -0.02
  32   1     0.01  -0.00  -0.01     0.03  -0.01   0.03     0.01   0.01  -0.01
  33   1     0.01  -0.04  -0.03     0.02   0.02  -0.01     0.00  -0.01  -0.01
  34   1     0.04  -0.01   0.06    -0.04  -0.00  -0.02     0.01  -0.00   0.03
  35   1    -0.01   0.05   0.06     0.03  -0.01  -0.04    -0.02   0.03   0.03
  36   1    -0.00   0.03  -0.01     0.03  -0.02  -0.01     0.01   0.01  -0.00
  37   1    -0.00  -0.02   0.00     0.04   0.06  -0.05     0.01   0.00  -0.00
  38   1     0.01   0.01  -0.01    -0.07  -0.10   0.04    -0.02  -0.02   0.01
  39   1     0.02   0.02   0.02    -0.00  -0.02  -0.00     0.04   0.04   0.01
  40   1     0.00   0.01  -0.02     0.00   0.00   0.02     0.01   0.00  -0.09
  41   1     0.01   0.02  -0.01    -0.01  -0.00   0.00     0.04   0.01   0.01
  42   1     0.02   0.03  -0.00     0.00  -0.01  -0.00     0.01   0.01   0.12
  43   1     0.01   0.02  -0.00    -0.00  -0.01   0.00     0.02   0.00   0.05
  44   1     0.01   0.03  -0.01     0.01  -0.01   0.01    -0.10   0.01   0.06
  45   1     0.02   0.03  -0.01     0.00  -0.02  -0.00    -0.06   0.05   0.09
  46   1     0.04  -0.03  -0.04    -0.05   0.04   0.01     0.25  -0.35   0.01
  47   1     0.03   0.04  -0.09    -0.00  -0.02   0.07    -0.09   0.07  -0.40
  48   1     0.02   0.04  -0.02     0.01  -0.03  -0.03    -0.13   0.14   0.25
  49   1    -0.01  -0.02   0.01     0.00  -0.00   0.00    -0.01   0.05  -0.03
  50   1    -0.05   0.18  -0.00    -0.01   0.06   0.00     0.02  -0.01   0.01
  51   1     0.00   0.03   0.00    -0.01  -0.00  -0.00     0.02  -0.04   0.02
  52   1    -0.02  -0.02   0.01     0.01  -0.00   0.00    -0.03   0.03  -0.02
  53   1    -0.01   0.03   0.01     0.00   0.00  -0.01     0.01  -0.05   0.03
  54   1    -0.01  -0.02   0.02     0.01  -0.00  -0.01    -0.03   0.06  -0.01
  55   1    -0.01  -0.00   0.07     0.00  -0.00  -0.03    -0.00   0.01  -0.05
  56   1    -0.02   0.00   0.02     0.01  -0.00  -0.01    -0.01   0.00  -0.01
  57   1    -0.06   0.02   0.04     0.02  -0.01  -0.01     0.03  -0.02  -0.03
  58   1     0.03   0.03  -0.01    -0.03  -0.01   0.01     0.11  -0.01  -0.06
  59   1     0.25   0.12   0.14     0.09   0.00   0.06    -0.01   0.02  -0.01
  60   8    -0.04   0.41   0.08    -0.02   0.14   0.03    -0.00  -0.03  -0.01
  61   1    -0.08  -0.15   0.05    -0.01  -0.05   0.04    -0.00   0.01  -0.01
  62   1    -0.09   0.09   0.05    -0.03   0.03   0.02    -0.01  -0.01  -0.01
  63   7    -0.00  -0.04  -0.02     0.15   0.16  -0.10     0.03   0.01  -0.01
  64   6     0.01   0.05  -0.00    -0.02  -0.29  -0.02    -0.01  -0.06   0.00
  65   8     0.00   0.05  -0.01    -0.12  -0.39   0.04    -0.06  -0.09   0.01
  66   6     0.01   0.01   0.02    -0.05   0.04  -0.02     0.00  -0.01  -0.01
  67   6     0.01  -0.04  -0.00     0.02   0.17  -0.03     0.01   0.01  -0.00
  68   8     0.03  -0.08   0.02    -0.10   0.33  -0.05    -0.01   0.04  -0.00
  69   1     0.00   0.01   0.01     0.00  -0.01   0.01     0.00  -0.00   0.00
  70   1    -0.00   0.01   0.00    -0.02   0.01  -0.01    -0.00  -0.01  -0.00
  71   1     0.01   0.00   0.01    -0.04   0.01  -0.02    -0.00  -0.00  -0.01
  72   7     0.01   0.04  -0.05    -0.09  -0.27   0.09    -0.04  -0.06  -0.01
  73   6     0.04  -0.01  -0.01    -0.15   0.24   0.08    -0.04   0.07   0.03
  74   1     0.01  -0.01   0.00    -0.09   0.11   0.04    -0.03   0.03   0.02
  75   1     0.02  -0.01  -0.01    -0.10   0.11   0.05    -0.02   0.03   0.02
  76   1     0.00  -0.01   0.01     0.06   0.12  -0.03     0.02   0.03   0.00
                     37                     38                     39
                        a                      a                      a 
 Frequencies --   240.0184               252.1412               270.7244
 Red. masses --     9.1337                 8.2830                 8.7931
 Frc consts  --     0.0000                 0.0000                 0.0000
 IR Inten    --     3.8344                 8.1429                13.6322
 Raman Activ --     0.0000                 0.0000                 0.0000
 Depolar     --     0.0000                 0.0000                 0.0000
 Atom AN      X      Y      Z        X      Y      Z        X      Y      Z
   1   7     0.06  -0.09   0.08    -0.04   0.09  -0.06     0.06   0.02   0.14
   2   6     0.01  -0.14  -0.01    -0.03   0.05   0.02    -0.01  -0.12  -0.06
   3   6    -0.04  -0.04  -0.03    -0.02   0.03   0.03    -0.03  -0.10  -0.07
   4   6    -0.04   0.11  -0.08    -0.02   0.02   0.01    -0.03  -0.05  -0.07
   5   6    -0.03   0.09  -0.05    -0.03   0.01   0.01    -0.01  -0.03  -0.07
   6   6     0.03   0.04  -0.08    -0.05  -0.00   0.04     0.02  -0.05  -0.09
   7   6     0.01  -0.07  -0.06    -0.04   0.03   0.04    -0.00  -0.11  -0.08
   8   6    -0.00   0.07   0.11    -0.04  -0.01  -0.04     0.07   0.08   0.17
   9   6     0.00   0.02   0.01    -0.00  -0.01   0.01     0.01   0.06   0.03
  10   6     0.18  -0.01   0.04     0.06   0.12  -0.07     0.02  -0.01   0.05
  11   6     0.23  -0.00  -0.15     0.18   0.03  -0.18    -0.07   0.09  -0.01
  12   6     0.09  -0.06  -0.04     0.05  -0.05   0.07    -0.05   0.14   0.06
  13   6     0.00   0.01  -0.11    -0.04   0.02   0.21    -0.04   0.18   0.15
  14   6     0.11  -0.01  -0.10     0.03  -0.22   0.23     0.10   0.01   0.17
  15   6     0.05   0.07  -0.07    -0.14  -0.13   0.03     0.03   0.01  -0.13
  16   8     0.10  -0.09   0.08    -0.04   0.14  -0.06     0.04  -0.21   0.08
  17   7    -0.07   0.07  -0.08    -0.03   0.23  -0.10    -0.00  -0.07   0.13
  18   6    -0.02   0.01  -0.07    -0.00   0.02  -0.03    -0.05   0.02   0.09
  19   6     0.02  -0.03  -0.04     0.00  -0.10   0.01    -0.05   0.08   0.07
  20   6     0.06  -0.09  -0.01     0.02  -0.19   0.05    -0.08   0.10   0.04
  21   6     0.02  -0.02   0.06     0.02  -0.11   0.02    -0.08   0.03  -0.04
  22   6    -0.10   0.04   0.01    -0.03   0.04  -0.04     0.05   0.01   0.02
  23   6    -0.02  -0.02   0.00    -0.00   0.01  -0.03    -0.04   0.02   0.04
  24   6    -0.05  -0.03   0.13     0.01  -0.08   0.02    -0.01  -0.01  -0.10
  25   6    -0.09   0.07   0.09    -0.04   0.12  -0.05     0.05  -0.07  -0.06
  26   6    -0.20   0.06   0.31     0.06  -0.03  -0.15     0.15  -0.04  -0.31
  27   8    -0.07   0.21  -0.04     0.05  -0.19   0.03    -0.07   0.17  -0.06
  28   1    -0.01  -0.00   0.02    -0.02   0.03  -0.03    -0.02   0.01   0.11
  29   1    -0.03   0.02   0.05    -0.08   0.08   0.00     0.14  -0.16   0.04
  30   1    -0.03  -0.03  -0.00     0.00   0.00   0.01    -0.02  -0.04  -0.02
  31   1    -0.02   0.05  -0.03    -0.00   0.00   0.00    -0.01  -0.01  -0.02
  32   1     0.02   0.02  -0.03    -0.02  -0.01   0.02     0.01  -0.01  -0.03
  33   1     0.01  -0.03  -0.02    -0.02   0.01   0.01     0.01  -0.04  -0.02
  34   1     0.03  -0.01   0.06    -0.03   0.01  -0.02     0.09  -0.02   0.10
  35   1    -0.03   0.06   0.07    -0.01  -0.02  -0.02    -0.01   0.10   0.11
  36   1     0.01   0.02  -0.01    -0.01  -0.01   0.01     0.00   0.04  -0.01
  37   1     0.01   0.00  -0.01    -0.01  -0.01   0.01     0.02  -0.00  -0.02
  38   1    -0.03  -0.04   0.01     0.02   0.02  -0.01    -0.01  -0.02   0.00
  39   1     0.06   0.04   0.03     0.03   0.07  -0.01     0.00  -0.01   0.01
  40   1     0.02   0.00  -0.10    -0.00   0.02  -0.11    -0.03   0.03  -0.01
  41   1     0.02  -0.03  -0.00     0.02   0.01   0.01    -0.01   0.06   0.01
  42   1    -0.03  -0.01  -0.06    -0.05  -0.00   0.01    -0.04   0.05  -0.00
  43   1    -0.01   0.04  -0.01    -0.03   0.05   0.09    -0.03   0.08   0.07
  44   1     0.06   0.01  -0.02     0.05  -0.06   0.12     0.05  -0.01   0.10
  45   1     0.04  -0.02  -0.04     0.00  -0.13   0.05     0.03  -0.05   0.03
  46   1    -0.12   0.15  -0.04    -0.27   0.12  -0.03    -0.15   0.04  -0.07
  47   1     0.07  -0.02   0.16     0.03  -0.09   0.23     0.06  -0.01   0.06
  48   1     0.09  -0.06  -0.17     0.08  -0.11  -0.22     0.09  -0.03  -0.18
  49   1    -0.03   0.02  -0.02    -0.01   0.07  -0.03     0.01  -0.02   0.04
  50   1    -0.00  -0.03  -0.01     0.02   0.06   0.01     0.02  -0.08   0.01
  51   1     0.04  -0.01   0.03     0.01  -0.05   0.01    -0.06   0.01  -0.02
  52   1    -0.06   0.01  -0.01    -0.01   0.03  -0.02     0.04   0.01   0.02
  53   1    -0.01  -0.02   0.06     0.01  -0.05   0.02    -0.01   0.00  -0.04
  54   1    -0.04   0.03   0.03    -0.02   0.08  -0.03     0.03  -0.04  -0.02
  55   1    -0.01   0.01   0.18    -0.00   0.01  -0.09    -0.01  -0.01  -0.19
  56   1    -0.06   0.01   0.08     0.01  -0.00  -0.01     0.04  -0.01  -0.08
  57   1    -0.15   0.04   0.10     0.06  -0.04  -0.05     0.16  -0.04  -0.09
  58   1     0.13   0.03  -0.07     0.12  -0.00  -0.08    -0.01   0.02  -0.01
  59   1    -0.08   0.04  -0.05     0.06   0.04   0.05     0.01  -0.06  -0.01
  60   8     0.01  -0.12  -0.03    -0.02   0.09   0.01     0.00  -0.05  -0.01
  61   1     0.02   0.04  -0.05     0.01  -0.02   0.02    -0.09  -0.01   0.01
  62   1     0.02  -0.03  -0.00    -0.04   0.02   0.03     0.02   0.00  -0.06
  63   7     0.04   0.01  -0.03    -0.02  -0.03   0.02     0.07   0.01  -0.06
  64   6    -0.03  -0.10   0.00     0.01   0.07   0.00    -0.01  -0.03   0.01
  65   8    -0.11  -0.15   0.03     0.06   0.10  -0.02    -0.11  -0.08   0.02
  66   6    -0.00   0.00   0.01     0.01  -0.02   0.02    -0.01   0.02   0.02
  67   6     0.01   0.01  -0.00     0.00  -0.03   0.01     0.02   0.01  -0.02
  68   8     0.00   0.02   0.00     0.03  -0.06   0.01    -0.00   0.01   0.01
  69   1     0.00  -0.00   0.01     0.00  -0.01   0.00     0.00   0.00   0.01
  70   1    -0.00   0.00   0.00     0.00  -0.01   0.00    -0.01   0.02   0.00
  71   1    -0.01   0.00   0.01     0.00  -0.01   0.00    -0.00   0.01   0.01
  72   7    -0.07  -0.09  -0.00     0.02   0.07  -0.02    -0.01  -0.04  -0.04
  73   6    -0.06   0.11   0.05     0.03  -0.07  -0.02     0.00   0.08   0.02
  74   1    -0.05   0.05   0.03     0.02  -0.03  -0.01    -0.02   0.04   0.02
  75   1    -0.03   0.05   0.02     0.02  -0.03  -0.01    -0.00   0.03   0.01
  76   1     0.03   0.05  -0.00    -0.02  -0.03   0.01     0.03   0.04  -0.00
                     40                     41                     42
                        a                      a                      a 
 Frequencies --   287.0822               289.1122               291.6761
 Red. masses --     5.8639                 7.1588                11.8571
 Frc consts  --     0.0000                 0.0000                 0.0000
 IR Inten    --   121.0143                79.3357                 2.5845
 Raman Activ --     0.0000                 0.0000                 0.0000
 Depolar     --     0.0000                 0.0000                 0.0000
 Atom AN      X      Y      Z        X      Y      Z        X      Y      Z
   1   7     0.01  -0.03   0.01     0.00  -0.04   0.03     0.05   0.05  -0.01
   2   6     0.01  -0.03   0.02    -0.00  -0.02  -0.00     0.04   0.05  -0.02
   3   6     0.01  -0.01   0.01     0.00  -0.01  -0.01     0.05   0.03  -0.02
   4   6     0.00   0.02  -0.02     0.00  -0.01  -0.01     0.04  -0.06   0.00
   5   6    -0.00   0.02  -0.02     0.01  -0.01  -0.01    -0.01  -0.05  -0.01
   6   6     0.00   0.01  -0.02     0.01  -0.00  -0.02    -0.01  -0.05  -0.01
   7   6     0.01  -0.01   0.00     0.01  -0.01  -0.01     0.00  -0.00   0.00
   8   6    -0.00   0.01   0.00     0.02   0.00   0.02    -0.01   0.03   0.02
   9   6    -0.00   0.01   0.01     0.00   0.00  -0.02    -0.03   0.06   0.15
  10   6     0.05   0.01  -0.03    -0.03  -0.04   0.01     0.01   0.01  -0.00
  11   6     0.05   0.01  -0.05    -0.08   0.01   0.08    -0.01   0.01  -0.01
  12   6    -0.00   0.00   0.02    -0.03   0.06   0.01    -0.02  -0.00  -0.01
  13   6     0.01  -0.01   0.04     0.02   0.04  -0.07     0.04  -0.07  -0.04
  14   6    -0.01  -0.04   0.04     0.08   0.10  -0.07    -0.01  -0.03  -0.05
  15   6    -0.03  -0.03   0.03     0.10   0.10  -0.10    -0.02  -0.00   0.05
  16   8     0.06  -0.09  -0.02     0.06  -0.13   0.01     0.00   0.03  -0.00
  17   7     0.04  -0.26   0.12    -0.09   0.25   0.00    -0.01   0.03   0.00
  18   6    -0.04   0.13  -0.02    -0.02  -0.14   0.12    -0.01  -0.02   0.02
  19   6    -0.06   0.24  -0.06     0.01  -0.18   0.14     0.00  -0.03   0.02
  20   6    -0.02   0.04   0.00    -0.04   0.06   0.04    -0.01   0.01   0.01
  21   6    -0.06   0.21  -0.07    -0.03  -0.23   0.08    -0.01  -0.04   0.01
  22   6    -0.03   0.17  -0.05     0.05  -0.18   0.10     0.01  -0.03   0.02
  23   6     0.02  -0.19   0.08    -0.08   0.24  -0.02    -0.01   0.04  -0.00
  24   6     0.01  -0.08   0.01    -0.05   0.09  -0.07    -0.01   0.01  -0.01
  25   6     0.04  -0.19   0.05    -0.03   0.17  -0.08    -0.00   0.02  -0.01
  26   6    -0.00   0.11  -0.10     0.08  -0.15  -0.05     0.01  -0.02   0.00
  27   8     0.05  -0.11   0.02     0.04  -0.07   0.01     0.01  -0.02   0.01
  28   1     0.00   0.00  -0.04     0.01  -0.01  -0.02     0.02   0.01   0.01
  29   1    -0.33   0.26   0.05    -0.25   0.18   0.03    -0.02   0.02  -0.00
  30   1     0.00  -0.01   0.00     0.00  -0.00  -0.01     0.02   0.01  -0.01
  31   1     0.00   0.01  -0.01     0.00  -0.00  -0.00     0.02  -0.03   0.00
  32   1     0.00   0.01  -0.01     0.00   0.00  -0.01    -0.01  -0.02   0.00
  33   1    -0.00   0.00   0.00     0.00   0.00  -0.01    -0.01   0.00   0.01
  34   1     0.00   0.00   0.00     0.01  -0.01   0.01     0.02   0.03  -0.01
  35   1    -0.00   0.00   0.00     0.00   0.01   0.01    -0.01  -0.00   0.00
  36   1    -0.00   0.00   0.00     0.01   0.00  -0.01    -0.08   0.04   0.03
  37   1    -0.01  -0.00   0.01    -0.02   0.00   0.02     0.14  -0.00  -0.11
  38   1    -0.00  -0.00   0.00     0.00  -0.01   0.00    -0.04   0.05   0.00
  39   1     0.02   0.02  -0.00    -0.01  -0.02  -0.00     0.00  -0.00   0.00
  40   1    -0.00   0.02  -0.03    -0.00   0.00   0.05    -0.00   0.01  -0.00
  41   1    -0.00   0.00   0.01    -0.01   0.01   0.01    -0.01  -0.00   0.00
  42   1     0.01   0.00   0.02     0.01   0.02  -0.02     0.04  -0.01   0.01
  43   1     0.01  -0.01   0.01     0.01   0.01  -0.02     0.02  -0.05  -0.03
  44   1    -0.00  -0.01   0.02     0.02   0.03  -0.02    -0.01  -0.00  -0.03
  45   1    -0.01  -0.02   0.01     0.03   0.03  -0.03    -0.01   0.00  -0.01
  46   1    -0.01  -0.01   0.01     0.02   0.02  -0.03     0.03   0.01   0.02
  47   1    -0.01  -0.01   0.01     0.04   0.03  -0.03    -0.02  -0.01   0.01
  48   1    -0.01  -0.01   0.00     0.03   0.03  -0.04    -0.02   0.00   0.04
  49   1     0.02  -0.09   0.04    -0.02   0.07  -0.00    -0.00   0.01   0.00
  50   1     0.01   0.22  -0.00     0.00   0.19  -0.01    -0.00   0.02  -0.00
  51   1    -0.03   0.08  -0.03    -0.02  -0.10   0.03    -0.00  -0.02   0.00
  52   1    -0.00   0.06  -0.01     0.04  -0.07   0.04     0.01  -0.01   0.01
  53   1     0.01  -0.06   0.01    -0.03   0.07  -0.05    -0.00   0.01  -0.01
  54   1     0.03  -0.14   0.04    -0.01   0.12  -0.06    -0.00   0.02  -0.01
  55   1     0.02   0.08  -0.05    -0.04  -0.11  -0.05    -0.01  -0.02  -0.00
  56   1    -0.09   0.04  -0.07     0.13  -0.05   0.03     0.02  -0.01   0.00
  57   1     0.06   0.07  -0.02     0.03  -0.09  -0.02    -0.00  -0.01   0.00
  58   1     0.04   0.00  -0.02    -0.05  -0.01   0.03     0.00   0.01  -0.00
  59   1    -0.22   0.23  -0.11    -0.20   0.19  -0.11    -0.02   0.01  -0.01
  60   8    -0.00  -0.02  -0.01     0.00  -0.02  -0.02     0.00   0.00   0.00
  61   1     0.28   0.03  -0.19     0.24   0.03  -0.18     0.02   0.00  -0.01
  62   1    -0.08  -0.06   0.19    -0.06  -0.05   0.17    -0.01  -0.00   0.02
  63   7     0.01  -0.00  -0.01    -0.04   0.00   0.02     0.43  -0.01  -0.31
  64   6    -0.01   0.00   0.01     0.01  -0.02  -0.01    -0.13   0.11   0.15
  65   8    -0.02  -0.00   0.01     0.01  -0.03   0.01    -0.30   0.14  -0.04
  66   6     0.00  -0.01   0.00    -0.00   0.03  -0.01     0.03  -0.19   0.12
  67   6     0.00  -0.01   0.00    -0.03   0.00   0.01     0.24  -0.01  -0.07
  68   8     0.01  -0.01   0.01    -0.02   0.01  -0.01     0.12   0.03   0.07
  69   1     0.00  -0.00   0.00    -0.01   0.02  -0.01     0.06  -0.12   0.09
  70   1     0.00  -0.00   0.00     0.00   0.01  -0.00    -0.04  -0.04   0.02
  71   1     0.00  -0.00  -0.00     0.01   0.01  -0.00    -0.06  -0.07   0.05
  72   7    -0.01  -0.00  -0.00     0.03  -0.02   0.02    -0.31   0.15  -0.18
  73   6    -0.01   0.00   0.01     0.01   0.02  -0.01    -0.15  -0.13   0.11
  74   1    -0.00   0.00   0.00     0.00   0.01  -0.00    -0.06  -0.05   0.06
  75   1    -0.00   0.00   0.00    -0.01   0.01   0.00     0.05  -0.07   0.00
  76   1    -0.00   0.00   0.00     0.01   0.01  -0.01    -0.08  -0.07   0.09
                     43                     44                     45
                        a                      a                      a 
 Frequencies --   304.0665               311.4435               321.6833
 Red. masses --     8.6075                 9.7901                12.0012
 Frc consts  --     0.0000                 0.0000                 0.0000
 IR Inten    --     2.2165                 1.1903                11.4238
 Raman Activ --     0.0000                 0.0000                 0.0000
 Depolar     --     0.0000                 0.0000                 0.0000
 Atom AN      X      Y      Z        X      Y      Z        X      Y      Z
   1   7     0.03   0.14   0.09     0.01  -0.19  -0.15    -0.01   0.08   0.00
   2   6    -0.02  -0.02  -0.01     0.07  -0.13   0.12     0.02   0.01   0.07
   3   6    -0.00  -0.05  -0.03     0.02  -0.06   0.15     0.08  -0.05   0.04
   4   6    -0.02  -0.06  -0.06     0.04   0.22   0.01     0.05  -0.09  -0.05
   5   6    -0.03  -0.04  -0.07     0.03   0.27  -0.03     0.00   0.02  -0.15
   6   6    -0.05  -0.06  -0.04     0.09   0.18  -0.01    -0.05   0.00  -0.07
   7   6    -0.06  -0.04  -0.01     0.11  -0.06   0.08    -0.01  -0.06   0.11
   8   6     0.04   0.05   0.13    -0.09   0.02  -0.29     0.04   0.13  -0.09
   9   6     0.02   0.04   0.00    -0.01   0.01   0.01     0.03   0.19   0.09
  10   6     0.08   0.12   0.05     0.08  -0.06  -0.03    -0.07   0.02  -0.05
  11   6     0.09   0.09  -0.21     0.07  -0.03  -0.07    -0.10   0.01   0.04
  12   6    -0.06   0.00   0.00     0.01  -0.00   0.05    -0.03   0.03  -0.04
  13   6     0.22  -0.28  -0.17     0.03   0.01  -0.09    -0.03   0.02   0.07
  14   6    -0.03  -0.17  -0.22     0.09   0.09  -0.10    -0.05  -0.05   0.08
  15   6    -0.08  -0.03   0.21     0.11   0.10  -0.09    -0.07  -0.06   0.05
  16   8     0.08   0.21   0.05    -0.04   0.07  -0.03    -0.08   0.06  -0.07
  17   7    -0.08   0.03   0.11    -0.09   0.02   0.13     0.06  -0.03  -0.07
  18   6    -0.08   0.01   0.09    -0.09   0.04   0.09     0.06  -0.04  -0.05
  19   6    -0.04   0.02   0.10    -0.04   0.04   0.11     0.02  -0.01  -0.07
  20   6    -0.02   0.03   0.08    -0.02  -0.01   0.10    -0.00   0.05  -0.07
  21   6    -0.11  -0.03   0.00    -0.13  -0.00  -0.01     0.08  -0.01   0.01
  22   6     0.02   0.01   0.07     0.01   0.05   0.06     0.00  -0.05  -0.04
  23   6    -0.07   0.03   0.08    -0.07  -0.02   0.11     0.04   0.05  -0.08
  24   6    -0.06  -0.02  -0.05    -0.06  -0.05  -0.05     0.04   0.05   0.01
  25   6    -0.00  -0.00  -0.03     0.00  -0.02  -0.02     0.01   0.00   0.01
  26   6     0.05  -0.04  -0.11     0.05  -0.02  -0.15    -0.03   0.01   0.09
  27   8     0.00  -0.02   0.00    -0.01  -0.01   0.00     0.02  -0.03   0.02
  28   1    -0.02   0.04   0.07     0.01  -0.04  -0.12     0.00   0.01   0.03
  29   1     0.05   0.03  -0.01     0.02  -0.00  -0.02    -0.04   0.04  -0.02
  30   1     0.00  -0.02  -0.00    -0.01  -0.04   0.06     0.05  -0.01   0.01
  31   1    -0.00  -0.02  -0.02     0.00   0.09  -0.01     0.03  -0.04  -0.02
  32   1    -0.02  -0.02  -0.01     0.05   0.08  -0.02    -0.04   0.00  -0.03
  33   1    -0.02  -0.01   0.01     0.04  -0.03   0.03    -0.01  -0.03   0.06
  34   1     0.07  -0.02   0.08    -0.14   0.09  -0.17     0.04   0.08  -0.06
  35   1    -0.02   0.07   0.09    -0.00  -0.13  -0.17    -0.01  -0.00  -0.03
  36   1     0.02   0.03  -0.01    -0.01  -0.02   0.03    -0.02   0.06   0.02
  37   1    -0.01  -0.01   0.02    -0.02  -0.02   0.03    -0.01  -0.04   0.04
  38   1     0.02  -0.01  -0.01    -0.01   0.00   0.01     0.06  -0.01  -0.02
  39   1     0.03   0.06   0.02     0.03  -0.02   0.01    -0.02  -0.01  -0.02
  40   1    -0.06   0.03  -0.16    -0.01   0.01  -0.05     0.00   0.00   0.05
  41   1    -0.05   0.01   0.02    -0.01  -0.00   0.02     0.00   0.01  -0.02
  42   1     0.19  -0.03   0.02     0.01   0.00  -0.03    -0.01   0.00   0.02
  43   1     0.11  -0.19  -0.12     0.01   0.01  -0.03    -0.02  -0.00   0.03
  44   1    -0.00  -0.02  -0.13     0.03   0.03  -0.04    -0.02  -0.02   0.03
  45   1    -0.02  -0.01  -0.04     0.03   0.03  -0.04    -0.02  -0.02   0.02
  46   1     0.10   0.04   0.09     0.03   0.02  -0.03    -0.03  -0.02   0.01
  47   1    -0.10  -0.04   0.06     0.03   0.03  -0.03    -0.02  -0.02   0.02
  48   1    -0.08   0.01   0.16     0.03   0.03  -0.02    -0.02  -0.02   0.01
  49   1    -0.02   0.01   0.03    -0.02   0.01   0.04     0.01  -0.01  -0.02
  50   1    -0.01  -0.01  -0.00    -0.00  -0.06   0.00     0.00   0.02   0.00
  51   1    -0.05  -0.02  -0.01    -0.06  -0.00  -0.01     0.04  -0.00   0.01
  52   1     0.02   0.01   0.02     0.02   0.03   0.02    -0.01  -0.02  -0.01
  53   1    -0.02  -0.01  -0.03    -0.02  -0.03  -0.03     0.01   0.03   0.01
  54   1     0.01   0.00  -0.02     0.02  -0.01  -0.02    -0.01   0.00   0.01
  55   1    -0.03  -0.04  -0.08    -0.02  -0.02  -0.10     0.01   0.00   0.06
  56   1     0.04  -0.02  -0.05     0.01  -0.01  -0.06     0.00   0.00   0.05
  57   1     0.07  -0.00  -0.03     0.09   0.00  -0.04    -0.06  -0.01   0.02
  58   1     0.14   0.06  -0.11     0.06  -0.01  -0.04    -0.07  -0.00   0.03
  59   1     0.02  -0.02   0.01     0.08  -0.05   0.05    -0.01   0.01  -0.00
  60   8     0.00   0.01   0.01    -0.00   0.01   0.01     0.00   0.01   0.00
  61   1    -0.01   0.02   0.03    -0.07   0.01   0.07     0.02   0.00  -0.00
  62   1    -0.00   0.01  -0.01     0.01   0.02  -0.06    -0.01  -0.00   0.02
  63   7    -0.05  -0.00   0.03    -0.07  -0.05   0.08    -0.04  -0.06   0.04
  64   6     0.04  -0.01  -0.02    -0.05   0.02   0.02     0.01   0.08   0.04
  65   8    -0.02  -0.05   0.02    -0.14  -0.03   0.07    -0.47  -0.15   0.18
  66   6    -0.01   0.05  -0.02     0.02  -0.13   0.01     0.00  -0.09   0.00
  67   6    -0.04  -0.00  -0.00     0.01  -0.07   0.04    -0.02  -0.09   0.01
  68   8    -0.03  -0.01  -0.01     0.08  -0.16   0.05     0.07  -0.23   0.07
  69   1    -0.01   0.03  -0.01     0.01  -0.05  -0.00     0.00  -0.03  -0.00
  70   1    -0.00   0.01  -0.00     0.02  -0.05   0.01     0.01  -0.03   0.00
  71   1     0.02   0.02  -0.01    -0.02  -0.04  -0.02    -0.01  -0.03  -0.01
  72   7     0.10  -0.04  -0.01    -0.04   0.01   0.01     0.22  -0.03  -0.14
  73   6     0.08   0.09  -0.03    -0.03   0.01   0.02     0.23   0.28  -0.08
  74   1     0.01   0.04  -0.01    -0.01   0.00   0.01     0.02   0.12   0.01
  75   1     0.00   0.04  -0.00    -0.01   0.00   0.00     0.03   0.11  -0.00
  76   1     0.05   0.04  -0.03    -0.01   0.00   0.01     0.15   0.12  -0.05
                     46                     47                     48
                        a                      a                      a 
 Frequencies --   347.9731               362.0874               379.6232
 Red. masses --    10.2599                 9.1571                 7.3516
 Frc consts  --     0.0000                 0.0000                 0.0000
 IR Inten    --     4.4029                 4.7309                 9.7590
 Raman Activ --     0.0000                 0.0000                 0.0000
 Depolar     --     0.0000                 0.0000                 0.0000
 Atom AN      X      Y      Z        X      Y      Z        X      Y      Z
   1   7     0.07  -0.04  -0.00    -0.01   0.02   0.04    -0.02  -0.06  -0.01
   2   6     0.03  -0.18  -0.01    -0.10   0.07  -0.27    -0.02   0.00  -0.02
   3   6    -0.04  -0.13   0.04    -0.18   0.01  -0.11    -0.02   0.23  -0.19
   4   6    -0.01   0.14   0.02    -0.10   0.06   0.15     0.01  -0.21   0.19
   5   6     0.03   0.18   0.00     0.04  -0.08   0.29     0.02   0.01   0.02
   6   6     0.12   0.11  -0.04     0.09  -0.14   0.26     0.00   0.24  -0.16
   7   6     0.09  -0.14  -0.03    -0.02   0.15  -0.29     0.03  -0.21   0.18
   8   6    -0.03   0.01  -0.09    -0.08  -0.05  -0.20     0.00  -0.01  -0.02
   9   6     0.00  -0.04  -0.04    -0.03   0.02  -0.00     0.00  -0.00  -0.00
  10   6     0.07   0.03   0.05     0.01   0.05   0.12    -0.09  -0.04   0.12
  11   6    -0.09   0.15  -0.12     0.05   0.04  -0.02    -0.11  -0.01  -0.12
  12   6    -0.13   0.15  -0.09     0.01   0.01   0.01    -0.12  -0.03  -0.08
  13   6     0.02   0.01   0.11     0.03  -0.01  -0.00    -0.03  -0.05   0.04
  14   6    -0.10  -0.16   0.12    -0.01  -0.02  -0.01     0.05   0.05   0.05
  15   6    -0.16  -0.15   0.15    -0.01  -0.01   0.02     0.05   0.04  -0.08
  16   8     0.05   0.02   0.08     0.12  -0.13   0.17     0.01   0.22   0.13
  17   7     0.09  -0.13  -0.03    -0.01   0.01  -0.00     0.02   0.06  -0.02
  18   6     0.08  -0.10  -0.01    -0.01   0.01  -0.00    -0.00   0.05   0.02
  19   6    -0.01   0.08  -0.09    -0.00   0.00  -0.00    -0.01  -0.03   0.04
  20   6    -0.07   0.30  -0.15     0.00  -0.01   0.01    -0.01  -0.12   0.01
  21   6     0.09  -0.07   0.02    -0.00  -0.00   0.00    -0.00   0.02   0.00
  22   6     0.02  -0.13  -0.02    -0.00   0.00   0.00     0.02   0.03  -0.01
  23   6     0.01   0.24  -0.15    -0.00  -0.02   0.01     0.04  -0.11   0.00
  24   6     0.04   0.16  -0.03    -0.01  -0.01   0.00     0.04  -0.05  -0.00
  25   6     0.02  -0.03   0.01    -0.01   0.01   0.00     0.02   0.03  -0.03
  26   6    -0.00  -0.02   0.08     0.00  -0.00  -0.01    -0.01   0.02   0.01
  27   8     0.01   0.01  -0.01     0.01   0.05  -0.03     0.07   0.01  -0.00
  28   1    -0.02   0.01   0.00    -0.03   0.01   0.03     0.00  -0.02  -0.00
  29   1     0.04  -0.02   0.02     0.15  -0.14   0.05     0.31  -0.18  -0.07
  30   1    -0.05  -0.06   0.02    -0.10  -0.02  -0.03    -0.01   0.13  -0.11
  31   1    -0.02   0.06   0.01    -0.07   0.05   0.07     0.00  -0.13   0.12
  32   1     0.07   0.05  -0.02     0.07  -0.08   0.12    -0.00   0.14  -0.11
  33   1     0.05  -0.06  -0.02     0.03   0.07  -0.15     0.02  -0.15   0.11
  34   1    -0.06   0.02  -0.04    -0.15   0.08  -0.15    -0.01   0.01  -0.01
  35   1     0.00  -0.04  -0.05     0.07  -0.14  -0.18     0.01  -0.01  -0.02
  36   1     0.01  -0.02  -0.00    -0.03  -0.02   0.02    -0.00  -0.00   0.00
  37   1    -0.02   0.01   0.01    -0.01   0.00   0.00     0.00  -0.00  -0.00
  38   1    -0.04  -0.00   0.01     0.05   0.01  -0.01    -0.00  -0.00   0.00
  39   1     0.03  -0.00   0.03     0.01   0.03   0.03    -0.02  -0.04   0.04
  40   1    -0.06   0.05  -0.07    -0.01   0.00  -0.04    -0.09  -0.04  -0.10
  41   1    -0.03   0.07  -0.04     0.00  -0.00   0.00    -0.04   0.01  -0.02
  42   1     0.06   0.03   0.04     0.02   0.00   0.00     0.01  -0.01   0.03
  43   1     0.01  -0.06   0.02     0.01  -0.01  -0.01    -0.02  -0.05   0.02
  44   1    -0.03  -0.05   0.05    -0.00  -0.00  -0.01     0.02   0.02   0.01
  45   1    -0.04  -0.06   0.05    -0.00  -0.01   0.00     0.01   0.01   0.01
  46   1    -0.04  -0.02   0.05     0.00   0.00   0.01    -0.02  -0.02  -0.03
  47   1    -0.06  -0.05   0.06    -0.01  -0.01   0.01     0.03   0.02  -0.04
  48   1    -0.05  -0.04   0.05    -0.01  -0.00   0.01     0.03   0.02  -0.05
  49   1     0.03  -0.04  -0.01    -0.00  -0.00   0.00     0.02   0.01  -0.00
  50   1     0.01   0.04   0.00     0.01   0.07  -0.00     0.03   0.21   0.01
  51   1     0.04  -0.03   0.01     0.00  -0.00   0.00    -0.01   0.00  -0.00
  52   1     0.01  -0.07   0.01     0.00  -0.00   0.00     0.02   0.01   0.00
  53   1     0.00   0.10  -0.02    -0.00  -0.00   0.00     0.01  -0.03   0.00
  54   1    -0.00  -0.02   0.02    -0.00   0.00   0.00     0.00   0.01  -0.01
  55   1    -0.00  -0.03   0.06    -0.00   0.00  -0.00     0.02   0.03   0.02
  56   1     0.07  -0.01   0.08    -0.00  -0.00  -0.01    -0.04   0.01  -0.01
  57   1    -0.07  -0.05   0.01     0.01   0.00  -0.00    -0.01   0.02   0.01
  58   1     0.03   0.08  -0.06     0.05   0.03  -0.02     0.04   0.05  -0.07
  59   1    -0.04   0.01  -0.03    -0.09   0.02  -0.06    -0.14  -0.02  -0.10
  60   8     0.01  -0.01  -0.00    -0.00  -0.03  -0.01    -0.01  -0.05  -0.01
  61   1     0.03   0.00  -0.03     0.04  -0.04  -0.08     0.10  -0.02  -0.09
  62   1    -0.03  -0.01   0.03    -0.00  -0.03   0.08    -0.03  -0.07   0.20
  63   7    -0.04   0.00   0.03     0.01   0.00  -0.03    -0.00  -0.00   0.00
  64   6    -0.03  -0.04  -0.02     0.01   0.06   0.01     0.00  -0.01  -0.00
  65   8     0.12   0.01  -0.03    -0.14  -0.00   0.05     0.01  -0.00  -0.00
  66   6     0.01  -0.03  -0.00    -0.01  -0.05   0.00    -0.00   0.00  -0.00
  67   6    -0.00  -0.00   0.02     0.01  -0.00  -0.00    -0.00  -0.00  -0.00
  68   8     0.02  -0.01   0.00     0.03  -0.05   0.03    -0.00  -0.00  -0.00
  69   1     0.00  -0.01  -0.00     0.01  -0.03   0.01    -0.00   0.00  -0.00
  70   1     0.01  -0.02   0.00    -0.00  -0.02   0.00    -0.00   0.00  -0.00
  71   1    -0.00  -0.01  -0.01    -0.02  -0.02  -0.01     0.00   0.00   0.00
  72   7    -0.11  -0.01   0.08     0.13   0.02  -0.07    -0.01  -0.00   0.00
  73   6    -0.13  -0.09   0.05     0.14   0.10  -0.06    -0.01  -0.00   0.00
  74   1    -0.02  -0.04   0.00     0.03   0.04  -0.01    -0.00  -0.00   0.00
  75   1    -0.03  -0.04   0.01     0.03   0.04  -0.01    -0.00  -0.00   0.00
  76   1    -0.06  -0.04   0.02     0.07   0.04  -0.03    -0.00  -0.00   0.00
                     49                     50                     51
                        a                      a                      a 
 Frequencies --   385.2997               398.2692               411.1137
 Red. masses --     8.3845                 7.4223                 9.5403
 Frc consts  --     0.0000                 0.0000                 0.0000
 IR Inten    --    24.5056                30.6151                23.1042
 Raman Activ --     0.0000                 0.0000                 0.0000
 Depolar     --     0.0000                 0.0000                 0.0000
 Atom AN      X      Y      Z        X      Y      Z        X      Y      Z
   1   7     0.02   0.02  -0.03     0.06   0.20  -0.12     0.07   0.16   0.12
   2   6    -0.03   0.02  -0.11     0.03   0.02  -0.04    -0.00  -0.02  -0.10
   3   6    -0.09   0.27  -0.24     0.02  -0.08   0.07    -0.02  -0.08  -0.04
   4   6    -0.04  -0.20   0.26     0.00   0.02   0.00     0.00  -0.01   0.04
   5   6    -0.02   0.01   0.10    -0.05   0.13  -0.09     0.02   0.05   0.00
   6   6    -0.01   0.21  -0.11    -0.01  -0.00  -0.02     0.06  -0.02   0.02
   7   6    -0.01  -0.22   0.11    -0.00  -0.08   0.04     0.02  -0.07  -0.06
   8   6    -0.06  -0.00  -0.04    -0.04   0.08   0.01     0.01   0.13  -0.02
   9   6    -0.01  -0.00  -0.00    -0.00   0.02  -0.04    -0.11   0.06  -0.27
  10   6     0.13   0.07  -0.06     0.06   0.13  -0.16    -0.05   0.02   0.00
  11   6     0.16   0.06   0.09     0.17   0.04   0.17    -0.12   0.04   0.04
  12   6     0.12   0.04   0.07     0.19   0.04   0.12    -0.09   0.00  -0.06
  13   6     0.05   0.04  -0.03     0.07   0.07  -0.06    -0.00  -0.05   0.00
  14   6    -0.04  -0.06  -0.06    -0.06  -0.06  -0.10     0.02   0.02   0.00
  15   6    -0.05  -0.04   0.08    -0.05  -0.04   0.09     0.02   0.02  -0.03
  16   8     0.06  -0.30  -0.02    -0.31  -0.16  -0.10     0.02   0.04  -0.02
  17   7    -0.03  -0.04   0.02    -0.07  -0.00   0.01     0.02   0.08  -0.04
  18   6    -0.01  -0.04  -0.01    -0.02  -0.00  -0.06     0.03  -0.07   0.05
  19   6     0.02   0.02  -0.02     0.03  -0.00  -0.04     0.02  -0.18   0.07
  20   6     0.02   0.07   0.00     0.05   0.00   0.04    -0.01  -0.11   0.02
  21   6    -0.01  -0.01  -0.01    -0.00  -0.01  -0.00    -0.01   0.13  -0.04
  22   6    -0.02  -0.01   0.01    -0.03  -0.01   0.00    -0.01   0.11  -0.05
  23   6    -0.03   0.07   0.02    -0.03  -0.02   0.06     0.03  -0.06  -0.01
  24   6    -0.04   0.02   0.01    -0.05   0.00   0.03     0.05  -0.10   0.02
  25   6    -0.02  -0.02   0.03    -0.03   0.01   0.04     0.02  -0.01  -0.02
  26   6     0.02  -0.02  -0.02     0.01  -0.01  -0.03    -0.00  -0.00   0.02
  27   8    -0.07   0.01  -0.01     0.08   0.04  -0.02    -0.01  -0.02   0.01
  28   1    -0.01   0.02  -0.04    -0.00   0.05   0.05    -0.01   0.03   0.16
  29   1    -0.24   0.12   0.10     0.23  -0.30   0.06    -0.09   0.09  -0.01
  30   1    -0.05   0.14  -0.13    -0.00  -0.05   0.04    -0.03  -0.04  -0.01
  31   1    -0.02  -0.13   0.15     0.01  -0.01   0.01    -0.01  -0.01   0.03
  32   1     0.01   0.13  -0.08     0.01  -0.01   0.01     0.04  -0.01   0.02
  33   1     0.01  -0.14   0.08    -0.00  -0.05   0.04     0.02  -0.04  -0.02
  34   1    -0.06   0.02  -0.03     0.01   0.00   0.02     0.02  -0.02   0.05
  35   1     0.00  -0.03  -0.04    -0.04   0.04   0.03     0.02   0.12   0.02
  36   1    -0.01  -0.01   0.00     0.01   0.01  -0.02     0.01   0.03  -0.09
  37   1    -0.02   0.00   0.02    -0.01   0.01  -0.00    -0.17   0.09   0.07
  38   1     0.01   0.00  -0.00    -0.02  -0.00   0.00    -0.02  -0.00  -0.01
  39   1     0.04   0.06  -0.01     0.03   0.06  -0.02    -0.02  -0.01  -0.01
  40   1     0.09   0.05   0.08     0.13   0.05   0.15    -0.01   0.00   0.04
  41   1     0.04  -0.01   0.02     0.07  -0.03   0.03    -0.03   0.01  -0.01
  42   1     0.01   0.01  -0.02     0.01   0.02  -0.04     0.03  -0.00   0.02
  43   1     0.03   0.04  -0.03     0.04   0.07  -0.04    -0.00  -0.05  -0.00
  44   1    -0.01  -0.02  -0.02    -0.02  -0.02  -0.03     0.01   0.01  -0.01
  45   1    -0.01  -0.01  -0.01    -0.02  -0.01  -0.03     0.01   0.01   0.00
  46   1     0.02   0.02   0.03     0.03   0.03   0.04    -0.00  -0.00  -0.01
  47   1    -0.03  -0.02   0.04    -0.03  -0.03   0.05     0.01   0.01  -0.02
  48   1    -0.03  -0.02   0.05    -0.04  -0.03   0.06     0.01   0.01  -0.01
  49   1    -0.02  -0.00   0.00    -0.04  -0.01   0.00     0.02   0.02  -0.01
  50   1    -0.02  -0.19  -0.01     0.03   0.25   0.01    -0.01  -0.06  -0.00
  51   1     0.01   0.00  -0.00     0.02  -0.00   0.01    -0.02   0.10  -0.04
  52   1    -0.02  -0.00  -0.00    -0.02  -0.02  -0.00    -0.01   0.10  -0.03
  53   1    -0.01   0.02  -0.00    -0.01  -0.00   0.02     0.02  -0.04   0.01
  54   1    -0.00  -0.01   0.01    -0.01   0.00   0.01    -0.00   0.02  -0.01
  55   1    -0.01  -0.02  -0.02    -0.01  -0.01  -0.03     0.01   0.01   0.02
  56   1     0.03  -0.01  -0.00     0.00  -0.01  -0.03    -0.02   0.00   0.00
  57   1     0.02  -0.01  -0.01     0.03   0.01  -0.01    -0.01   0.00   0.01
  58   1    -0.02  -0.01   0.05    -0.07  -0.07   0.10    -0.07   0.02   0.03
  59   1     0.10   0.03   0.07    -0.11  -0.07  -0.09     0.02   0.03   0.02
  60   8     0.01   0.04   0.01    -0.03  -0.05  -0.02     0.01   0.01   0.01
  61   1    -0.08  -0.01   0.05    -0.00  -0.16  -0.11     0.01   0.03   0.01
  62   1     0.03   0.06  -0.18     0.02  -0.09   0.28    -0.00   0.02  -0.07
  63   7    -0.00   0.00  -0.01    -0.05   0.02   0.02    -0.15   0.14  -0.11
  64   6     0.01   0.01  -0.00    -0.01  -0.02  -0.03    -0.09   0.00  -0.17
  65   8     0.00   0.01  -0.00     0.06  -0.00  -0.01     0.08  -0.01   0.07
  66   6    -0.00  -0.01  -0.00     0.00  -0.06  -0.00     0.01  -0.29  -0.01
  67   6    -0.00  -0.00   0.01     0.00   0.01   0.02     0.05   0.14   0.14
  68   8     0.01  -0.01   0.01     0.05  -0.03   0.03     0.26  -0.05   0.18
  69   1     0.00  -0.01  -0.00     0.01  -0.03   0.00     0.06  -0.18   0.01
  70   1     0.00  -0.01   0.00     0.01  -0.03   0.00     0.07  -0.16   0.03
  71   1    -0.00  -0.00  -0.01    -0.02  -0.02  -0.02    -0.15  -0.09  -0.12
  72   7     0.03  -0.00  -0.02    -0.03  -0.01   0.04    -0.01  -0.01   0.13
  73   6     0.04   0.02  -0.02    -0.05  -0.03   0.02    -0.07  -0.03   0.02
  74   1     0.01   0.01  -0.00    -0.01  -0.01   0.00    -0.00  -0.01  -0.01
  75   1     0.01   0.01  -0.00    -0.02  -0.01   0.00    -0.04  -0.01   0.01
  76   1     0.02   0.01  -0.01    -0.02  -0.01   0.01    -0.03  -0.01  -0.00
                     52                     53                     54
                        a                      a                      a 
 Frequencies --   415.2177               420.2044               442.3953
 Red. masses --     9.3568                 9.2181                 4.6932
 Frc consts  --     0.0000                 0.0000                 0.0000
 IR Inten    --     2.5241                 7.0934               134.6289
 Raman Activ --     0.0000                 0.0000                 0.0000
 Depolar     --     0.0000                 0.0000                 0.0000
 Atom AN      X      Y      Z        X      Y      Z        X      Y      Z
   1   7     0.02   0.09   0.06    -0.07  -0.29  -0.20     0.07   0.02  -0.04
   2   6    -0.02  -0.07  -0.02     0.03   0.12   0.11     0.05   0.03  -0.04
   3   6    -0.02  -0.07  -0.02     0.04   0.16   0.07     0.00   0.00   0.03
   4   6     0.01   0.05   0.00    -0.01  -0.07  -0.03    -0.01   0.00   0.03
   5   6     0.04   0.06   0.00    -0.08  -0.14  -0.01    -0.06   0.05  -0.01
   6   6     0.05   0.05  -0.00    -0.12  -0.08  -0.01    -0.02  -0.02  -0.00
   7   6     0.02  -0.06  -0.02    -0.04   0.16   0.07    -0.01  -0.02  -0.01
   8   6     0.02  -0.04  -0.04    -0.04  -0.01   0.07    -0.07  -0.01   0.03
   9   6     0.09  -0.02   0.14    -0.09  -0.00  -0.11    -0.06  -0.02  -0.07
  10   6    -0.02   0.03  -0.02     0.05  -0.07   0.07     0.05   0.01   0.00
  11   6    -0.05   0.04   0.03     0.11  -0.06  -0.08     0.00   0.03   0.01
  12   6    -0.02   0.04  -0.01     0.08  -0.01   0.05    -0.05  -0.02  -0.04
  13   6     0.02   0.00  -0.01    -0.02   0.05   0.01    -0.01  -0.04   0.01
  14   6    -0.00  -0.02  -0.02    -0.02  -0.01   0.01     0.01   0.01   0.02
  15   6    -0.01  -0.01   0.01    -0.02  -0.02   0.02     0.01   0.01  -0.02
  16   8    -0.03   0.01  -0.03     0.07  -0.05   0.09    -0.00  -0.02   0.01
  17   7    -0.00   0.04  -0.02    -0.02  -0.12   0.05     0.03   0.01   0.00
  18   6     0.07  -0.33   0.10     0.03  -0.23   0.05    -0.00   0.01   0.05
  19   6     0.07  -0.35   0.11     0.03  -0.06   0.00    -0.02  -0.00   0.04
  20   6     0.01  -0.04   0.01     0.00   0.16  -0.03    -0.03  -0.02  -0.02
  21   6    -0.05   0.30  -0.11    -0.03   0.10  -0.05    -0.01   0.01   0.01
  22   6    -0.06   0.30  -0.11    -0.04   0.15  -0.04     0.01   0.01   0.01
  23   6    -0.02   0.16  -0.06    -0.07   0.32  -0.06     0.01  -0.01  -0.03
  24   6     0.03  -0.17   0.06    -0.03  -0.00   0.01     0.02  -0.01  -0.02
  25   6     0.01  -0.09   0.03     0.00  -0.10   0.05     0.01  -0.00  -0.02
  26   6     0.02  -0.02   0.02     0.03  -0.02  -0.00    -0.02  -0.00   0.01
  27   8     0.01  -0.00  -0.01     0.01   0.03  -0.02    -0.01  -0.02   0.02
  28   1    -0.02   0.02   0.09     0.04  -0.06  -0.29     0.02   0.01  -0.02
  29   1    -0.02   0.01   0.00     0.10  -0.08   0.01    -0.00  -0.00   0.02
  30   1    -0.02  -0.03  -0.01     0.06   0.07   0.02    -0.01  -0.01   0.01
  31   1    -0.01   0.03   0.01     0.03  -0.04  -0.03     0.01  -0.02   0.01
  32   1     0.03   0.02  -0.00    -0.07  -0.03  -0.01     0.01  -0.01   0.01
  33   1     0.02  -0.03  -0.01    -0.05   0.08   0.03    -0.01  -0.01   0.01
  34   1    -0.03   0.03  -0.05     0.04  -0.05   0.07    -0.02  -0.03   0.03
  35   1     0.00  -0.08  -0.04    -0.02   0.08   0.06    -0.03   0.02   0.03
  36   1     0.01  -0.01   0.05    -0.02   0.01  -0.04    -0.03  -0.01  -0.02
  37   1     0.09  -0.05  -0.02    -0.06   0.05  -0.00     0.50  -0.02  -0.60
  38   1    -0.01  -0.00   0.01     0.02   0.01  -0.01     0.03   0.00   0.04
  39   1    -0.01   0.00  -0.01     0.02  -0.01   0.03     0.02  -0.00   0.01
  40   1     0.01   0.01   0.04    -0.04  -0.02  -0.10     0.02   0.02   0.02
  41   1    -0.01   0.01  -0.00     0.02  -0.01   0.01    -0.01  -0.01  -0.01
  42   1     0.02   0.01   0.00    -0.04   0.00  -0.02     0.01  -0.01   0.02
  43   1     0.01  -0.01  -0.01    -0.01   0.05   0.01    -0.01  -0.04   0.01
  44   1    -0.00  -0.00  -0.00    -0.01  -0.00   0.01     0.00   0.00   0.00
  45   1    -0.00  -0.00  -0.00    -0.01  -0.01   0.00     0.00   0.01   0.01
  46   1     0.00   0.01   0.01    -0.00  -0.00   0.01    -0.01  -0.01  -0.01
  47   1    -0.01  -0.01   0.01    -0.00  -0.00   0.01     0.01   0.01  -0.01
  48   1    -0.01  -0.00   0.01    -0.01  -0.01   0.01     0.01   0.01  -0.01
  49   1    -0.01   0.05  -0.02    -0.03   0.02  -0.01     0.02   0.01   0.00
  50   1     0.00   0.04   0.00     0.01   0.08   0.00    -0.01  -0.08  -0.00
  51   1    -0.05   0.27  -0.09    -0.02   0.12  -0.04    -0.02   0.00  -0.00
  52   1    -0.06   0.26  -0.09    -0.04   0.11  -0.04     0.02   0.01   0.01
  53   1     0.01  -0.03   0.01    -0.02   0.04  -0.01     0.00  -0.01  -0.01
  54   1    -0.01   0.01  -0.00     0.00  -0.03   0.01     0.01   0.00  -0.01
  55   1    -0.01  -0.04   0.01    -0.04  -0.06  -0.02     0.01   0.01   0.02
  56   1     0.07  -0.01   0.04     0.11  -0.01   0.05    -0.01   0.00   0.01
  57   1    -0.02  -0.04  -0.00    -0.01  -0.06  -0.01    -0.02  -0.00   0.00
  58   1    -0.05   0.01   0.02     0.13  -0.01  -0.06    -0.02   0.02   0.01
  59   1    -0.00  -0.01  -0.00    -0.01  -0.04  -0.02    -0.03   0.07  -0.01
  60   8    -0.01  -0.02   0.01    -0.01  -0.02  -0.00    -0.00   0.02   0.00
  61   1    -0.00  -0.01  -0.00    -0.02  -0.02  -0.00     0.03  -0.04  -0.05
  62   1    -0.01  -0.01   0.03    -0.02  -0.03   0.07     0.06   0.02  -0.05
  63   7     0.08  -0.08   0.07    -0.06   0.07  -0.07    -0.29   0.05   0.26
  64   6     0.04  -0.02   0.09    -0.03   0.04  -0.06    -0.02   0.01  -0.02
  65   8    -0.02  -0.01  -0.05    -0.00   0.02   0.04     0.03   0.01   0.03
  66   6    -0.00   0.16   0.00    -0.00  -0.12  -0.00    -0.04  -0.04   0.03
  67   6    -0.04  -0.09  -0.07     0.04   0.08   0.05     0.17   0.04  -0.19
  68   8    -0.14   0.01  -0.10     0.11   0.02   0.08     0.06  -0.02   0.05
  69   1    -0.03   0.10  -0.01     0.03  -0.08   0.01     0.05  -0.07   0.12
  70   1    -0.03   0.09  -0.02     0.02  -0.07   0.01    -0.13   0.02  -0.02
  71   1     0.08   0.05   0.06    -0.07  -0.04  -0.05    -0.06  -0.02   0.04
  72   7    -0.04  -0.00  -0.04     0.07   0.01   0.01     0.04  -0.01  -0.00
  73   6    -0.01  -0.01   0.01     0.06   0.03  -0.03     0.04   0.02  -0.03
  74   1    -0.01  -0.00   0.01     0.02   0.01  -0.01     0.01   0.01  -0.01
  75   1     0.01  -0.01   0.00     0.00   0.01  -0.01    -0.00   0.01  -0.01
  76   1    -0.00  -0.00   0.01     0.02   0.01  -0.02     0.02   0.01  -0.01
                     55                     56                     57
                        a                      a                      a 
 Frequencies --   443.8967               452.6375               462.4467
 Red. masses --     7.9681                 4.2310                 9.5004
 Frc consts  --     0.0000                 0.0000                 0.0000
 IR Inten    --     2.7192               100.8013                 8.6539
 Raman Activ --     0.0000                 0.0000                 0.0000
 Depolar     --     0.0000                 0.0000                 0.0000
 Atom AN      X      Y      Z        X      Y      Z        X      Y      Z
   1   7    -0.18  -0.01   0.24    -0.14   0.01   0.04     0.06   0.13   0.14
   2   6    -0.14  -0.17   0.12    -0.09  -0.04   0.07    -0.00  -0.06  -0.02
   3   6    -0.02  -0.01  -0.16     0.00  -0.03  -0.05    -0.02   0.02  -0.08
   4   6     0.03   0.02  -0.07     0.02  -0.00  -0.07     0.01   0.03   0.04
   5   6     0.21  -0.13   0.11     0.13  -0.04   0.00    -0.00  -0.03   0.08
   6   6     0.10   0.14   0.01     0.06   0.07   0.00    -0.01   0.04   0.01
   7   6     0.05   0.03   0.00     0.04   0.02   0.04    -0.04  -0.03  -0.04
   8   6     0.19  -0.12  -0.03     0.13  -0.04  -0.03    -0.02  -0.03   0.01
   9   6    -0.03  -0.03  -0.09     0.01   0.00  -0.03    -0.02  -0.02  -0.00
  10   6    -0.13  -0.06  -0.03    -0.13   0.02   0.01     0.09  -0.03  -0.11
  11   6    -0.00  -0.11  -0.04     0.01  -0.05  -0.03     0.20  -0.15  -0.01
  12   6     0.14   0.04   0.12     0.10   0.03   0.09     0.04  -0.27  -0.04
  13   6     0.01   0.11  -0.03     0.02   0.06  -0.02    -0.10  -0.16   0.04
  14   6    -0.04  -0.02  -0.05    -0.02  -0.02  -0.03     0.03   0.08   0.08
  15   6    -0.02  -0.02   0.04    -0.02  -0.02   0.03     0.06   0.05  -0.08
  16   8    -0.01   0.10  -0.10    -0.09   0.09   0.00    -0.17   0.16  -0.15
  17   7    -0.09  -0.04   0.00    -0.08  -0.05   0.01     0.14  -0.28   0.14
  18   6     0.01  -0.04  -0.12     0.00  -0.04  -0.09    -0.05   0.08   0.14
  19   6     0.07   0.02  -0.11     0.05  -0.01  -0.08    -0.08   0.14   0.09
  20   6     0.08   0.06   0.06     0.05   0.03   0.05    -0.04   0.02  -0.09
  21   6     0.04  -0.03  -0.03     0.03   0.01  -0.01    -0.09  -0.04   0.02
  22   6    -0.04  -0.03  -0.02    -0.02   0.00  -0.04     0.02   0.05   0.08
  23   6    -0.04   0.06   0.09    -0.05   0.06   0.06    -0.04   0.30  -0.19
  24   6    -0.05   0.03   0.04    -0.02   0.01   0.05    -0.03   0.00  -0.07
  25   6    -0.04  -0.00   0.06    -0.01   0.01   0.05     0.01  -0.04  -0.04
  26   6     0.04   0.01  -0.02     0.02  -0.00  -0.03    -0.03   0.00   0.02
  27   8     0.01   0.03  -0.05     0.00  -0.13   0.11     0.02  -0.02   0.02
  28   1    -0.07  -0.01   0.18    -0.04  -0.00   0.05    -0.01   0.01   0.24
  29   1    -0.08   0.09  -0.07     0.18  -0.14  -0.04     0.00   0.00  -0.03
  30   1     0.02   0.05  -0.08     0.03   0.01  -0.02    -0.02   0.02  -0.03
  31   1    -0.03   0.07  -0.02    -0.01   0.03  -0.02    -0.01   0.02   0.01
  32   1     0.01   0.09  -0.04    -0.00   0.03  -0.02     0.01   0.03  -0.00
  33   1     0.05   0.02  -0.06     0.03  -0.00  -0.01    -0.00  -0.01  -0.02
  34   1     0.04  -0.04  -0.01     0.04  -0.01  -0.01    -0.02  -0.01   0.00
  35   1     0.10  -0.00  -0.03     0.05   0.00  -0.01     0.01  -0.01  -0.01
  36   1    -0.02  -0.02  -0.02     0.00  -0.00  -0.01    -0.01  -0.01   0.00
  37   1     0.12   0.02  -0.18    -0.01   0.01   0.00    -0.04   0.01   0.03
  38   1     0.00   0.00   0.01    -0.01   0.00   0.00     0.01   0.00  -0.00
  39   1    -0.05  -0.00  -0.04    -0.04   0.02  -0.00     0.03   0.03  -0.02
  40   1    -0.04  -0.05  -0.05    -0.03  -0.04  -0.05     0.07  -0.02   0.01
  41   1     0.03   0.03   0.04     0.02  -0.00   0.03     0.04  -0.13  -0.02
  42   1    -0.04   0.02  -0.04    -0.02   0.01  -0.03    -0.08  -0.08   0.02
  43   1     0.01   0.10  -0.01     0.01   0.06  -0.01    -0.05  -0.02   0.04
  44   1    -0.01  -0.01   0.00    -0.01  -0.01  -0.01     0.01   0.03   0.00
  45   1    -0.01  -0.01  -0.02    -0.00  -0.00  -0.01     0.01   0.03   0.02
  46   1     0.02   0.02   0.02     0.01   0.01   0.01    -0.02  -0.04  -0.04
  47   1    -0.01  -0.01   0.03    -0.02  -0.01   0.02     0.04   0.03  -0.05
  48   1    -0.02  -0.02   0.03    -0.01  -0.01   0.02     0.03   0.03  -0.05
  49   1    -0.06  -0.03   0.00    -0.06   0.02  -0.01     0.02   0.31  -0.09
  50   1     0.02   0.21   0.00    -0.04  -0.39  -0.01     0.01   0.00   0.00
  51   1     0.05  -0.01   0.01     0.04   0.02   0.01    -0.06  -0.04   0.00
  52   1    -0.04  -0.02  -0.01    -0.03  -0.01  -0.02     0.04   0.00   0.04
  53   1    -0.01   0.02   0.02    -0.01   0.00   0.02    -0.01  -0.00  -0.03
  54   1    -0.01  -0.01   0.02    -0.01  -0.00   0.02     0.03  -0.04  -0.02
  55   1    -0.02  -0.02  -0.05    -0.02  -0.02  -0.04    -0.02  -0.04   0.03
  56   1     0.03  -0.00  -0.02     0.03  -0.00  -0.01     0.08  -0.00   0.07
  57   1     0.05   0.00  -0.01     0.04  -0.00  -0.01    -0.08  -0.06  -0.01
  58   1     0.05  -0.06  -0.03     0.06  -0.04  -0.03     0.03  -0.06   0.01
  59   1     0.10  -0.20   0.03    -0.21   0.39  -0.06    -0.01   0.01  -0.00
  60   8     0.00  -0.05   0.00    -0.01   0.10  -0.01    -0.01   0.00  -0.01
  61   1    -0.07   0.14   0.15     0.21  -0.15  -0.26    -0.01  -0.06  -0.02
  62   1    -0.15  -0.05   0.13     0.29   0.10  -0.23     0.08  -0.01   0.05
  63   7    -0.09   0.04   0.02    -0.00   0.01  -0.01     0.02   0.00  -0.03
  64   6    -0.04   0.03  -0.04    -0.01   0.00  -0.02    -0.00   0.01   0.00
  65   8    -0.07  -0.01   0.07    -0.03  -0.02   0.03    -0.01   0.01   0.00
  66   6    -0.01  -0.04   0.01     0.00  -0.01   0.00     0.00  -0.01   0.00
  67   6     0.07   0.05  -0.04     0.00   0.01   0.01    -0.00   0.01   0.01
  68   8     0.04   0.03   0.04     0.01   0.01   0.00     0.00   0.02  -0.00
  69   1     0.02  -0.04   0.04     0.00  -0.01   0.00    -0.00  -0.00  -0.00
  70   1    -0.03  -0.01  -0.00     0.00  -0.01   0.00     0.01  -0.00   0.00
  71   1    -0.04  -0.02  -0.00    -0.00  -0.00  -0.00    -0.00  -0.00  -0.00
  72   7     0.00   0.01   0.03    -0.02   0.01   0.02     0.02   0.01  -0.01
  73   6    -0.01   0.00   0.00    -0.04  -0.01   0.02     0.02   0.01  -0.01
  74   1     0.00  -0.00  -0.01    -0.01  -0.01   0.00     0.01   0.00  -0.00
  75   1    -0.01  -0.00  -0.00    -0.01  -0.01   0.00     0.01   0.00  -0.00
  76   1    -0.01  -0.00  -0.00    -0.02  -0.01   0.01     0.01   0.00  -0.00
                     58                     59                     60
                        a                      a                      a 
 Frequencies --   470.0219               481.2079               489.0437
 Red. masses --     9.1944                 6.5598                10.9870
 Frc consts  --     0.0000                 0.0000                 0.0000
 IR Inten    --     5.7887               101.5279                 0.5446
 Raman Activ --     0.0000                 0.0000                 0.0000
 Depolar     --     0.0000                 0.0000                 0.0000
 Atom AN      X      Y      Z        X      Y      Z        X      Y      Z
   1   7     0.17   0.06   0.06     0.09   0.05   0.08    -0.06   0.00   0.00
   2   6     0.08   0.22  -0.26     0.04   0.00  -0.05    -0.04   0.05  -0.02
   3   6     0.03  -0.01   0.02     0.00   0.03  -0.02    -0.00  -0.02  -0.01
   4   6     0.02  -0.07   0.13     0.01   0.01   0.05     0.00  -0.04  -0.01
   5   6    -0.12   0.21  -0.12    -0.06   0.02   0.03     0.04   0.03  -0.05
   6   6    -0.02  -0.13   0.05    -0.02  -0.01   0.01     0.02  -0.01   0.02
   7   6    -0.02  -0.07  -0.04    -0.03  -0.03  -0.04     0.01   0.02   0.02
   8   6    -0.12   0.19  -0.02    -0.07   0.01   0.02     0.05   0.05  -0.03
   9   6     0.06   0.09   0.06    -0.02  -0.01   0.01     0.04   0.04   0.01
  10   6    -0.14  -0.15   0.08     0.03  -0.08  -0.04    -0.05   0.02   0.02
  11   6    -0.09  -0.18  -0.05     0.09  -0.13  -0.02     0.01  -0.01   0.00
  12   6     0.08  -0.04   0.13     0.05  -0.14   0.02     0.03  -0.00   0.01
  13   6    -0.04   0.03  -0.02    -0.06  -0.06   0.02     0.00   0.01   0.00
  14   6    -0.00   0.03  -0.02     0.01   0.04   0.04    -0.01  -0.00   0.00
  15   6     0.02   0.02  -0.01     0.02   0.02  -0.03    -0.01  -0.01   0.01
  16   8     0.09   0.09   0.02    -0.08   0.12  -0.08     0.03  -0.02   0.02
  17   7    -0.11  -0.16   0.04    -0.08   0.30  -0.10     0.23   0.08   0.00
  18   6     0.01  -0.02  -0.18     0.03  -0.25   0.10     0.07   0.03   0.06
  19   6     0.09   0.02  -0.15    -0.02   0.14  -0.02    -0.03   0.03   0.05
  20   6     0.09   0.05   0.10    -0.01   0.11  -0.05     0.07   0.03   0.04
  21   6     0.07  -0.01  -0.03    -0.01  -0.08   0.05    -0.07  -0.12  -0.28
  22   6    -0.03  -0.03  -0.06     0.01   0.10  -0.01    -0.28   0.00   0.17
  23   6    -0.06   0.15   0.10    -0.02  -0.00   0.00     0.30   0.05   0.02
  24   6    -0.03   0.02   0.07    -0.04   0.20  -0.06    -0.31  -0.09  -0.16
  25   6    -0.02   0.02   0.07     0.06  -0.19   0.08    -0.37  -0.14  -0.15
  26   6     0.06   0.01  -0.02    -0.03   0.00  -0.01     0.34   0.14   0.19
  27   8    -0.01  -0.02  -0.01     0.01  -0.02   0.02    -0.00  -0.00  -0.00
  28   1     0.08  -0.03   0.12     0.02  -0.01   0.15    -0.01   0.00  -0.02
  29   1    -0.01   0.07  -0.09     0.01   0.01  -0.05     0.01  -0.00   0.00
  30   1    -0.02  -0.09   0.06    -0.02  -0.00  -0.00     0.01  -0.02   0.01
  31   1     0.02  -0.12   0.09     0.01  -0.01   0.02    -0.00  -0.02   0.01
  32   1     0.03  -0.11   0.08     0.01  -0.01   0.01    -0.00  -0.02   0.02
  33   1    -0.01  -0.09   0.06    -0.01  -0.01  -0.00     0.01  -0.01   0.01
  34   1    -0.03   0.07  -0.02    -0.03   0.00   0.01     0.02   0.02  -0.02
  35   1    -0.07   0.01   0.00    -0.02  -0.00   0.00     0.01   0.01  -0.01
  36   1     0.03   0.04   0.00    -0.00  -0.00   0.00     0.02   0.02  -0.00
  37   1     0.04  -0.03  -0.00    -0.02   0.00   0.02     0.02  -0.01  -0.01
  38   1    -0.02  -0.01   0.01     0.01   0.00  -0.00    -0.02  -0.01   0.00
  39   1    -0.05  -0.09   0.01     0.01  -0.02  -0.01    -0.02   0.01  -0.00
  40   1    -0.11  -0.09  -0.11     0.01  -0.03  -0.03    -0.01  -0.02  -0.01
  41   1    -0.01   0.00   0.05     0.02  -0.06   0.00     0.00  -0.00   0.01
  42   1    -0.07  -0.01  -0.03    -0.06  -0.04  -0.00    -0.01  -0.00  -0.00
  43   1    -0.01   0.08   0.00    -0.03   0.02   0.02    -0.00   0.01   0.00
  44   1     0.00   0.01  -0.00     0.00   0.01   0.00    -0.00  -0.00   0.00
  45   1     0.00   0.01  -0.01     0.00   0.01   0.01    -0.00  -0.00   0.00
  46   1     0.01   0.00  -0.00    -0.01  -0.02  -0.01    -0.00  -0.00   0.00
  47   1     0.01   0.01  -0.01     0.02   0.02  -0.02    -0.00  -0.00   0.00
  48   1     0.00  -0.00  -0.00     0.01   0.01  -0.02    -0.00  -0.00   0.00
  49   1    -0.12   0.11  -0.05     0.11  -0.61   0.21     0.09  -0.05   0.03
  50   1    -0.01   0.00  -0.00    -0.00  -0.03  -0.00    -0.00  -0.01  -0.00
  51   1     0.07  -0.00   0.01    -0.01   0.01   0.00    -0.05  -0.05  -0.09
  52   1    -0.05  -0.03  -0.03    -0.00   0.06  -0.01    -0.07   0.00   0.05
  53   1    -0.01   0.00   0.03    -0.03   0.14  -0.05    -0.08   0.00   0.02
  54   1    -0.02  -0.00   0.03     0.03  -0.10   0.04    -0.06  -0.05  -0.08
  55   1    -0.03  -0.03  -0.06    -0.01   0.00  -0.01     0.13   0.06   0.09
  56   1     0.06  -0.00  -0.00    -0.02   0.00  -0.01     0.08   0.04   0.06
  57   1     0.07  -0.01  -0.01     0.01   0.01  -0.00     0.06   0.03   0.05
  58   1     0.10  -0.07  -0.06     0.05  -0.05  -0.02     0.01  -0.00  -0.00
  59   1     0.01  -0.01   0.01    -0.01   0.02  -0.00    -0.01   0.01  -0.00
  60   8     0.01   0.00   0.01    -0.01   0.01  -0.00    -0.00   0.01  -0.00
  61   1     0.05   0.15   0.06     0.02  -0.01  -0.01     0.01  -0.00  -0.01
  62   1    -0.06   0.01  -0.03     0.05   0.00   0.00     0.02   0.00   0.00
  63   7    -0.01  -0.01   0.07     0.01  -0.00  -0.01    -0.00   0.00   0.02
  64   6     0.03  -0.06   0.02     0.00   0.00   0.01     0.01  -0.02  -0.01
  65   8     0.09  -0.02  -0.06     0.01   0.01  -0.01     0.02  -0.02  -0.01
  66   6    -0.02   0.02  -0.01    -0.00  -0.00  -0.00    -0.01   0.00  -0.01
  67   6    -0.03  -0.03  -0.02    -0.01   0.00   0.01    -0.01  -0.01  -0.01
  68   8    -0.00  -0.09  -0.00    -0.00   0.00  -0.00     0.00  -0.03   0.00
  69   1    -0.01   0.02  -0.01    -0.00   0.00  -0.00    -0.00   0.00  -0.00
  70   1    -0.01   0.01  -0.01     0.00  -0.00   0.00    -0.00   0.00  -0.00
  71   1     0.01   0.01   0.01    -0.00   0.00  -0.00     0.00   0.00  -0.00
  72   7    -0.05  -0.03   0.00     0.01  -0.00  -0.01    -0.03  -0.01   0.02
  73   6    -0.05  -0.02   0.02     0.02   0.01  -0.01    -0.04  -0.02   0.02
  74   1    -0.02  -0.01   0.01     0.00   0.00  -0.00    -0.01  -0.01   0.00
  75   1    -0.01  -0.01   0.01     0.01   0.00  -0.00    -0.01  -0.01   0.00
  76   1    -0.02  -0.01   0.01     0.01   0.00  -0.00    -0.02  -0.01   0.01
                     61                     62                     63
                        a                      a                      a 
 Frequencies --   495.9089               527.6957               530.8248
 Red. masses --    10.5691                 5.1493                 9.7194
 Frc consts  --     0.0000                 0.0000                 0.0000
 IR Inten    --     2.1724                78.1259                18.9140
 Raman Activ --     0.0000                 0.0000                 0.0000
 Depolar     --     0.0000                 0.0000                 0.0000
 Atom AN      X      Y      Z        X      Y      Z        X      Y      Z
   1   7     0.27  -0.02  -0.01    -0.01  -0.01   0.00    -0.08   0.08  -0.04
   2   6     0.19  -0.19   0.06     0.00  -0.07   0.08    -0.08   0.19  -0.18
   3   6     0.02   0.05   0.08    -0.01   0.04  -0.02    -0.00  -0.15   0.03
   4   6     0.01   0.16   0.06    -0.02  -0.03  -0.01     0.03   0.04  -0.01
   5   6    -0.19  -0.06   0.17     0.00  -0.10   0.05     0.08   0.25  -0.17
   6   6    -0.07   0.02  -0.09    -0.01  -0.03  -0.01     0.05   0.10   0.05
   7   6    -0.04  -0.10  -0.09    -0.01   0.04  -0.02     0.03  -0.08   0.09
   8   6    -0.24  -0.22   0.13     0.01   0.12  -0.02     0.08  -0.30   0.03
   9   6    -0.16  -0.20  -0.02     0.03   0.11   0.05    -0.04  -0.27  -0.15
  10   6     0.10  -0.12  -0.06     0.09   0.04   0.01    -0.09   0.08   0.07
  11   6    -0.12   0.03  -0.01    -0.04   0.08   0.01     0.00  -0.01   0.02
  12   6    -0.07   0.09   0.03    -0.20  -0.06   0.02    -0.03  -0.07   0.03
  13   6     0.01   0.04  -0.01    -0.09  -0.17   0.01    -0.04  -0.08   0.00
  14   6    -0.00  -0.01  -0.01     0.04   0.03   0.05     0.02   0.02   0.02
  15   6    -0.00  -0.00   0.01     0.04   0.05  -0.05     0.02   0.02  -0.02
  16   8    -0.11   0.11  -0.06     0.06   0.03  -0.03     0.13  -0.06   0.05
  17   7    -0.03  -0.02   0.00    -0.09  -0.02   0.01    -0.01  -0.00   0.00
  18   6     0.04   0.01  -0.13     0.04  -0.03  -0.15     0.01  -0.02  -0.01
  19   6     0.06  -0.07  -0.08     0.04  -0.02  -0.12    -0.01   0.03  -0.03
  20   6     0.05   0.03   0.10     0.01   0.03   0.12    -0.00  -0.01   0.02
  21   6     0.05   0.01  -0.10     0.10  -0.00  -0.03     0.03  -0.03   0.01
  22   6    -0.08  -0.05  -0.02    -0.03  -0.05  -0.10    -0.01   0.01  -0.03
  23   6     0.06  -0.00   0.13    -0.00   0.05   0.15    -0.00   0.02   0.01
  24   6    -0.06  -0.06   0.03     0.03   0.03   0.04     0.01   0.05  -0.01
  25   6    -0.11   0.03  -0.01    -0.01  -0.00   0.02     0.01  -0.04   0.01
  26   6     0.15   0.04   0.05     0.11   0.03   0.03     0.01   0.01   0.00
  27   8     0.01  -0.04   0.02    -0.04   0.05  -0.04    -0.03   0.03  -0.03
  28   1     0.06  -0.02   0.12    -0.01   0.01  -0.03    -0.01   0.02  -0.07
  29   1     0.03  -0.01  -0.04    -0.12   0.11   0.04    -0.07   0.06   0.03
  30   1    -0.05   0.04  -0.02     0.00   0.05  -0.03    -0.00  -0.15   0.09
  31   1     0.02   0.08  -0.04    -0.00   0.03  -0.03    -0.01  -0.07   0.09
  32   1     0.03   0.06  -0.06    -0.01   0.02  -0.03     0.02  -0.06   0.09
  33   1    -0.04   0.03  -0.04    -0.01   0.05  -0.04     0.04  -0.14   0.09
  34   1    -0.09  -0.11   0.08     0.00   0.07  -0.04     0.03  -0.18   0.09
  35   1    -0.07  -0.02   0.06     0.02  -0.00  -0.04    -0.02   0.00   0.08
  36   1    -0.07  -0.07   0.01     0.02   0.05  -0.00    -0.05  -0.11  -0.01
  37   1    -0.08   0.04   0.02     0.02  -0.01   0.01    -0.04   0.03  -0.03
  38   1     0.07   0.02  -0.01    -0.01  -0.01   0.01     0.01   0.04  -0.03
  39   1     0.04  -0.09   0.01     0.02   0.01  -0.01    -0.04   0.03  -0.00
  40   1    -0.01   0.03   0.02    -0.02   0.06  -0.00    -0.04  -0.02  -0.03
  41   1    -0.05   0.05   0.02    -0.09  -0.04   0.03    -0.01  -0.04   0.01
  42   1     0.02   0.02  -0.00     0.02  -0.03   0.04    -0.01  -0.03   0.01
  43   1     0.01  -0.00  -0.01    -0.03  -0.12   0.01    -0.02  -0.03   0.01
  44   1     0.00  -0.00   0.00     0.01   0.02  -0.01     0.01   0.01  -0.01
  45   1     0.00  -0.00  -0.01     0.02   0.02   0.00     0.01   0.01   0.00
  46   1     0.00   0.01   0.00    -0.02  -0.02  -0.03    -0.01  -0.01  -0.01
  47   1    -0.00  -0.00   0.01     0.02   0.02  -0.04     0.01   0.01  -0.02
  48   1    -0.00  -0.00   0.00     0.03   0.03  -0.04     0.01   0.01  -0.02
  49   1    -0.07   0.04  -0.02    -0.09  -0.02   0.00    -0.01   0.01  -0.00
  50   1    -0.00  -0.03  -0.00     0.07   0.02   0.04     0.03   0.02   0.01
  51   1     0.04   0.01  -0.02     0.07   0.01   0.00     0.01  -0.01   0.00
  52   1    -0.05  -0.03  -0.01    -0.05  -0.02  -0.04    -0.01   0.01  -0.01
  53   1    -0.01  -0.03   0.04     0.01   0.02   0.02     0.00   0.03  -0.00
  54   1    -0.04   0.02  -0.01    -0.02   0.00   0.02    -0.00  -0.02   0.01
  55   1     0.03   0.01  -0.01     0.00  -0.01  -0.04    -0.00  -0.00  -0.01
  56   1     0.04   0.01  -0.00     0.04   0.01  -0.01     0.01   0.00   0.00
  57   1     0.08   0.02   0.01     0.09   0.01   0.01     0.01  -0.00   0.00
  58   1    -0.06   0.01   0.01    -0.01   0.05   0.00     0.05  -0.00  -0.01
  59   1    -0.03   0.04  -0.01     0.09  -0.04   0.04     0.05  -0.03   0.02
  60   8     0.00   0.01   0.00    -0.09   0.00  -0.05    -0.03  -0.00  -0.02
  61   1     0.06   0.04  -0.01    -0.22  -0.29  -0.04    -0.10  -0.11  -0.00
  62   1     0.01   0.01  -0.02     0.51  -0.07   0.30     0.19  -0.03   0.12
  63   7     0.01  -0.02  -0.10    -0.00   0.03   0.03     0.00  -0.09  -0.06
  64   6    -0.03   0.08   0.03     0.03  -0.05   0.02    -0.07   0.12  -0.08
  65   8    -0.06   0.09   0.03     0.07  -0.02  -0.05    -0.20   0.03   0.14
  66   6     0.03  -0.01   0.03    -0.04   0.01  -0.03     0.11  -0.02   0.09
  67   6     0.04   0.02   0.03    -0.02   0.01  -0.03     0.04  -0.05   0.09
  68   8    -0.02   0.14  -0.02     0.03  -0.08   0.03    -0.08   0.22  -0.09
  69   1     0.01  -0.01   0.01    -0.00  -0.01  -0.00     0.01   0.02  -0.00
  70   1     0.01  -0.00   0.01    -0.02  -0.00  -0.01     0.05   0.00   0.03
  71   1     0.00  -0.00   0.01    -0.02   0.00  -0.01     0.06  -0.00   0.04
  72   7     0.13   0.04  -0.07    -0.03  -0.04  -0.00     0.06   0.11   0.03
  73   6     0.18   0.07  -0.08    -0.04  -0.01   0.02     0.07   0.03  -0.03
  74   1     0.04   0.03  -0.02    -0.01  -0.00   0.01     0.03  -0.00  -0.02
  75   1     0.04   0.03  -0.02    -0.01  -0.00   0.01     0.02   0.00  -0.01
  76   1     0.07   0.03  -0.03    -0.01  -0.00   0.00    -0.00  -0.00  -0.00
                     64                     65                     66
                        a                      a                      a 
 Frequencies --   543.2491               552.8271               579.7864
 Red. masses --     7.1380                 7.6137                 8.2211
 Frc consts  --     0.0000                 0.0000                 0.0000
 IR Inten    --    81.9512                14.0049                 4.0295
 Raman Activ --     0.0000                 0.0000                 0.0000
 Depolar     --     0.0000                 0.0000                 0.0000
 Atom AN      X      Y      Z        X      Y      Z        X      Y      Z
   1   7    -0.06   0.10  -0.08     0.03  -0.02   0.00     0.02  -0.03   0.02
   2   6    -0.06  -0.01   0.04     0.03  -0.02   0.01     0.01  -0.03   0.03
   3   6    -0.03  -0.03   0.01     0.01   0.01   0.01    -0.02   0.05  -0.01
   4   6    -0.03  -0.00  -0.04     0.00   0.01   0.01    -0.02  -0.03   0.02
   5   6     0.05  -0.03  -0.00    -0.02  -0.02   0.02    -0.02  -0.02   0.01
   6   6     0.00   0.04   0.01     0.00  -0.01  -0.02    -0.01  -0.04   0.01
   7   6     0.00   0.01   0.04     0.01  -0.01  -0.01    -0.00   0.03  -0.02
   8   6     0.07  -0.01  -0.02    -0.03   0.01   0.01    -0.01   0.05  -0.02
   9   6     0.02   0.01  -0.01    -0.01   0.01   0.01     0.05   0.01  -0.05
  10   6     0.10   0.16  -0.06    -0.04  -0.03   0.02     0.03  -0.02  -0.01
  11   6     0.06   0.11   0.04    -0.06   0.01  -0.01    -0.00   0.01  -0.01
  12   6    -0.22  -0.16   0.00     0.05   0.09   0.01    -0.01   0.01  -0.01
  13   6    -0.14  -0.28   0.01     0.06   0.11  -0.01     0.00   0.01  -0.00
  14   6     0.06   0.06   0.07    -0.02  -0.03  -0.04    -0.00  -0.00   0.00
  15   6     0.08   0.08  -0.07    -0.02  -0.02   0.02    -0.00  -0.00   0.00
  16   8    -0.06  -0.10   0.04     0.02   0.01   0.00    -0.02   0.02  -0.01
  17   7    -0.11  -0.00   0.01     0.01   0.16  -0.05    -0.01   0.00  -0.00
  18   6     0.04  -0.10  -0.12     0.04  -0.17   0.10    -0.00  -0.01  -0.00
  19   6     0.02   0.05  -0.14    -0.04   0.10  -0.01     0.01  -0.00   0.00
  20   6     0.02  -0.04   0.15     0.01  -0.09   0.00     0.00   0.01  -0.00
  21   6     0.10  -0.08  -0.00     0.05  -0.26   0.09    -0.00  -0.00  -0.00
  22   6    -0.05   0.06  -0.13    -0.05   0.25  -0.07     0.00   0.00   0.00
  23   6    -0.00   0.09   0.14     0.04  -0.25   0.03     0.00  -0.01   0.01
  24   6    -0.00   0.14   0.00    -0.05   0.32  -0.12    -0.01   0.00   0.00
  25   6     0.01  -0.12   0.07     0.06  -0.34   0.09     0.00   0.00   0.00
  26   6     0.13   0.04   0.04    -0.04  -0.03  -0.00     0.00  -0.00   0.00
  27   8     0.04  -0.01   0.03    -0.01  -0.00  -0.01     0.00  -0.00   0.00
  28   1    -0.04   0.05  -0.07     0.01  -0.01   0.01     0.00  -0.01   0.01
  29   1     0.08  -0.11   0.07    -0.02   0.02  -0.02    -0.00   0.00  -0.00
  30   1     0.00   0.01  -0.01    -0.00   0.01  -0.00    -0.01   0.03  -0.01
  31   1    -0.02   0.02  -0.02     0.01   0.01  -0.01    -0.00  -0.00  -0.00
  32   1    -0.02   0.02  -0.01     0.01   0.01  -0.01    -0.00  -0.00  -0.01
  33   1     0.01   0.01  -0.01    -0.00   0.01  -0.01    -0.01   0.03  -0.01
  34   1     0.02  -0.00  -0.01    -0.01   0.01  -0.00    -0.01   0.01  -0.00
  35   1     0.03   0.00  -0.01    -0.01  -0.00  -0.00     0.00   0.01  -0.01
  36   1     0.01   0.00  -0.00    -0.00   0.00   0.00    -0.00   0.02  -0.03
  37   1     0.01  -0.00  -0.01    -0.00   0.00   0.01     0.29  -0.03  -0.31
  38   1    -0.01   0.00  -0.01     0.01  -0.00   0.01    -0.07   0.01  -0.11
  39   1     0.04   0.09   0.00    -0.02  -0.03   0.00     0.01  -0.01   0.00
  40   1     0.06   0.09   0.06    -0.02  -0.02  -0.00     0.01   0.01   0.01
  41   1    -0.11  -0.07   0.04     0.02   0.05  -0.01    -0.00   0.01  -0.00
  42   1     0.00  -0.07   0.05     0.02   0.04  -0.02     0.01   0.00   0.00
  43   1    -0.06  -0.16   0.02     0.03   0.04  -0.02     0.00  -0.00  -0.00
  44   1     0.02   0.03  -0.02    -0.01  -0.01   0.00    -0.00  -0.00   0.00
  45   1     0.02   0.03   0.02    -0.00  -0.01  -0.01    -0.00  -0.00  -0.00
  46   1    -0.02  -0.03  -0.04     0.01   0.02   0.01     0.00   0.00   0.00
  47   1     0.05   0.04  -0.05    -0.02  -0.02   0.02    -0.00  -0.00   0.00
  48   1     0.05   0.04  -0.06    -0.02  -0.01   0.02    -0.00  -0.00   0.00
  49   1    -0.11   0.05  -0.02    -0.06   0.50  -0.17    -0.01   0.01  -0.01
  50   1    -0.05   0.01  -0.03     0.01  -0.00   0.01    -0.00  -0.00   0.00
  51   1     0.07  -0.02   0.01    -0.00  -0.05   0.01     0.00   0.00  -0.00
  52   1    -0.04  -0.00  -0.04    -0.01   0.10  -0.03    -0.00   0.00  -0.00
  53   1    -0.00   0.08   0.00    -0.04   0.20  -0.07    -0.00   0.00  -0.00
  54   1    -0.01  -0.07   0.05     0.03  -0.17   0.05     0.00   0.00   0.00
  55   1     0.00  -0.01  -0.04     0.02   0.03   0.02     0.00   0.00  -0.00
  56   1     0.06   0.01   0.00    -0.08  -0.00  -0.04    -0.00   0.00  -0.00
  57   1     0.09   0.01   0.01    -0.00   0.03   0.01     0.00   0.00   0.00
  58   1    -0.05   0.04   0.04    -0.01   0.00  -0.00    -0.01   0.01   0.00
  59   1    -0.05  -0.01  -0.03     0.01   0.01   0.00    -0.00   0.00  -0.00
  60   8     0.07  -0.02   0.04    -0.02   0.00  -0.01     0.00   0.00   0.00
  61   1     0.12   0.15   0.02    -0.02  -0.03  -0.01     0.00  -0.00  -0.00
  62   1    -0.41   0.05  -0.22     0.08  -0.01   0.04    -0.00   0.00  -0.00
  63   7     0.00  -0.00   0.01    -0.00   0.01  -0.00     0.12  -0.02  -0.09
  64   6    -0.00   0.00  -0.02     0.00  -0.01   0.02     0.03   0.02  -0.00
  65   8    -0.02  -0.01   0.01     0.02   0.01  -0.01    -0.06  -0.02   0.01
  66   6     0.00  -0.00   0.00    -0.01   0.00  -0.01     0.02  -0.00   0.06
  67   6     0.00  -0.00   0.00     0.00   0.01  -0.01    -0.41  -0.02   0.53
  68   8    -0.00   0.00  -0.00     0.00  -0.01   0.01     0.17  -0.01  -0.27
  69   1     0.00   0.00   0.00     0.00  -0.00   0.00    -0.10   0.09  -0.20
  70   1     0.00   0.00   0.00    -0.01   0.00  -0.00     0.28  -0.11   0.10
  71   1     0.00   0.00   0.00    -0.01  -0.00  -0.00     0.08   0.02  -0.13
  72   7    -0.01   0.01   0.01     0.00  -0.01  -0.01    -0.00   0.05   0.04
  73   6    -0.02  -0.00   0.01     0.01   0.00  -0.00    -0.02  -0.01   0.01
  74   1    -0.00  -0.00   0.00    -0.00   0.00   0.00     0.01  -0.01  -0.00
  75   1    -0.00  -0.00   0.00     0.00   0.00   0.00     0.00  -0.00   0.00
  76   1    -0.01  -0.00   0.00     0.01   0.00  -0.00    -0.02  -0.01   0.01
                     67                     68                     69
                        a                      a                      a 
 Frequencies --   594.3104               601.9285               613.1895
 Red. masses --    11.0105                10.6875                10.9560
 Frc consts  --     0.0000                 0.0000                 0.0000
 IR Inten    --     5.7829                25.5026                 8.4817
 Raman Activ --     0.0000                 0.0000                 0.0000
 Depolar     --     0.0000                 0.0000                 0.0000
 Atom AN      X      Y      Z        X      Y      Z        X      Y      Z
   1   7    -0.00   0.00  -0.00     0.05  -0.08   0.08     0.01   0.08   0.07
   2   6    -0.00  -0.00  -0.00     0.03  -0.05   0.08     0.02   0.10   0.05
   3   6     0.01  -0.01  -0.02    -0.09   0.17   0.02    -0.27   0.19   0.27
   4   6     0.02   0.01  -0.00    -0.13  -0.13   0.05    -0.42  -0.10  -0.11
   5   6     0.00  -0.01   0.02    -0.05   0.00  -0.04    -0.01  -0.04  -0.09
   6   6    -0.01   0.02   0.01     0.01  -0.15  -0.01     0.30  -0.19  -0.30
   7   6    -0.02  -0.01   0.00     0.04   0.10  -0.05     0.44   0.09   0.11
   8   6    -0.00  -0.01   0.01     0.01   0.18  -0.07    -0.02  -0.08  -0.03
   9   6    -0.01   0.00   0.01     0.14   0.05  -0.14    -0.07  -0.06   0.01
  10   6    -0.00  -0.01  -0.02     0.11  -0.08  -0.04    -0.02   0.02   0.00
  11   6     0.04  -0.01   0.04     0.02   0.02  -0.02     0.00   0.00   0.00
  12   6     0.00   0.03   0.28    -0.02   0.03   0.00     0.01  -0.01   0.01
  13   6     0.03   0.01  -0.02     0.01   0.02   0.00     0.00  -0.00  -0.00
  14   6     0.02  -0.00  -0.09    -0.00  -0.00  -0.00     0.00  -0.00  -0.01
  15   6     0.03   0.04  -0.02    -0.00  -0.00   0.00     0.00   0.00  -0.00
  16   8    -0.03  -0.03  -0.03    -0.07   0.04  -0.04     0.01  -0.00   0.00
  17   7     0.13   0.08   0.23     0.00   0.02   0.02     0.01  -0.01   0.01
  18   6     0.20   0.09   0.14     0.02  -0.01   0.01    -0.00   0.02  -0.00
  19   6    -0.27  -0.05  -0.04    -0.02  -0.01  -0.00    -0.01   0.01  -0.00
  20   6    -0.24  -0.06   0.08    -0.03   0.04  -0.00     0.01  -0.05   0.02
  21   6     0.29   0.06   0.01     0.03   0.01  -0.00     0.00  -0.00   0.00
  22   6    -0.21  -0.11  -0.22    -0.02  -0.02  -0.02    -0.01   0.01  -0.01
  23   6    -0.08   0.04   0.01    -0.00  -0.03   0.03    -0.01   0.04  -0.02
  24   6     0.39   0.05  -0.07     0.04  -0.00  -0.00     0.00   0.01  -0.01
  25   6    -0.21  -0.13  -0.26    -0.02  -0.00  -0.02    -0.00  -0.01  -0.00
  26   6    -0.12  -0.02  -0.00    -0.00  -0.00   0.00    -0.01   0.00  -0.00
  27   8    -0.01  -0.02  -0.01    -0.00  -0.01   0.00    -0.00  -0.00  -0.00
  28   1    -0.00  -0.00   0.01     0.00  -0.03   0.07    -0.01   0.01   0.13
  29   1     0.02  -0.03  -0.01     0.01  -0.01  -0.02    -0.01   0.01  -0.00
  30   1     0.01  -0.01  -0.00    -0.02   0.07  -0.01    -0.03   0.03   0.10
  31   1     0.00   0.00   0.00    -0.02  -0.04  -0.01    -0.09  -0.06  -0.03
  32   1    -0.00   0.01   0.00    -0.01  -0.04  -0.01     0.05  -0.08  -0.07
  33   1    -0.00  -0.00  -0.00    -0.01   0.06  -0.02     0.10   0.01   0.07
  34   1    -0.00  -0.00   0.00    -0.01   0.06  -0.03    -0.03  -0.01  -0.02
  35   1     0.00  -0.00   0.00     0.00   0.02  -0.04     0.01  -0.05  -0.03
  36   1    -0.01   0.00   0.00     0.11   0.04  -0.07    -0.05  -0.03   0.02
  37   1     0.01   0.00  -0.01    -0.01  -0.04   0.03    -0.02   0.02  -0.01
  38   1     0.01  -0.00   0.01    -0.13   0.04  -0.21     0.06  -0.01   0.09
  39   1    -0.00  -0.00  -0.01     0.04  -0.02  -0.00    -0.01   0.01  -0.00
  40   1    -0.05   0.03  -0.07     0.03   0.04   0.02     0.00  -0.00   0.00
  41   1     0.01  -0.01   0.07    -0.01   0.02   0.00     0.00  -0.00   0.00
  42   1     0.02   0.01  -0.03     0.01   0.01   0.00    -0.00  -0.00  -0.00
  43   1     0.02   0.03  -0.03     0.00  -0.00  -0.00     0.00   0.00  -0.00
  44   1     0.01   0.01  -0.04     0.00  -0.00   0.00    -0.00   0.00  -0.00
  45   1     0.01   0.01  -0.03     0.00  -0.00  -0.00     0.00   0.00  -0.00
  46   1     0.03   0.03  -0.00     0.00   0.00   0.00     0.00   0.00  -0.00
  47   1     0.00   0.00   0.00    -0.00  -0.00   0.01    -0.00   0.00  -0.00
  48   1     0.00   0.01   0.01    -0.00  -0.00   0.00     0.00   0.00   0.00
  49   1     0.05  -0.02   0.07    -0.01   0.03  -0.00     0.01  -0.03   0.01
  50   1    -0.00  -0.00  -0.00     0.00  -0.00   0.00     0.00  -0.00   0.00
  51   1     0.02  -0.01  -0.02     0.00   0.01  -0.00     0.00  -0.01   0.00
  52   1    -0.00  -0.02  -0.04    -0.00  -0.00  -0.01     0.00  -0.00   0.00
  53   1     0.12   0.04   0.06     0.01   0.00   0.01     0.00  -0.00   0.00
  54   1    -0.14  -0.03  -0.00    -0.01   0.00  -0.00    -0.00  -0.01   0.00
  55   1    -0.03  -0.01   0.02     0.00   0.00   0.00    -0.01  -0.01  -0.00
  56   1    -0.02  -0.01   0.01    -0.01  -0.00  -0.01     0.01  -0.00   0.01
  57   1    -0.06  -0.01  -0.00     0.01   0.01   0.00    -0.01  -0.01  -0.00
  58   1     0.10  -0.05  -0.03    -0.02   0.01   0.01    -0.00   0.00   0.00
  59   1     0.00   0.01   0.00    -0.00   0.01  -0.00     0.01   0.00   0.00
  60   8    -0.00   0.00  -0.00    -0.00   0.00  -0.00    -0.00   0.00  -0.00
  61   1     0.04   0.09   0.03     0.02   0.04   0.01     0.00   0.02   0.01
  62   1     0.03  -0.00   0.01     0.02  -0.00   0.01     0.01  -0.00   0.01
  63   7     0.00   0.01  -0.01    -0.01  -0.16   0.09    -0.03   0.02  -0.03
  64   6     0.01  -0.01   0.03    -0.09   0.08  -0.39     0.01  -0.02   0.11
  65   8     0.01   0.01  -0.01    -0.08  -0.08   0.15     0.02   0.03  -0.04
  66   6    -0.02   0.01  -0.01     0.25  -0.09   0.19    -0.04   0.01  -0.02
  67   6    -0.02   0.02   0.01     0.16  -0.22  -0.05    -0.02   0.04   0.01
  68   8     0.02  -0.02   0.00    -0.22   0.18  -0.07     0.03  -0.00   0.01
  69   1    -0.01  -0.00  -0.01     0.05   0.02   0.07    -0.01  -0.01  -0.01
  70   1     0.01  -0.01   0.00    -0.00   0.05   0.02     0.00  -0.01  -0.00
  71   1    -0.01   0.00  -0.01     0.15  -0.02   0.15    -0.03   0.00  -0.02
  72   7    -0.00  -0.01  -0.01     0.03   0.12   0.18    -0.00  -0.03  -0.06
  73   6     0.00   0.00  -0.00    -0.06  -0.01   0.03     0.03   0.01  -0.02
  74   1    -0.00   0.00   0.00     0.02  -0.04  -0.01    -0.00   0.01   0.00
  75   1     0.00   0.00   0.00    -0.01  -0.01   0.00     0.00   0.00  -0.00
  76   1     0.01   0.00  -0.00    -0.07  -0.02   0.02     0.03   0.01  -0.01
                     70                     71                     72
                        a                      a                      a 
 Frequencies --   625.1073               631.1169               639.1093
 Red. masses --     9.7620                 3.0368                10.2181
 Frc consts  --     0.0000                 0.0000                 0.0000
 IR Inten    --     9.2758               256.9640                 9.3755
 Raman Activ --     0.0000                 0.0000                 0.0000
 Depolar     --     0.0000                 0.0000                 0.0000
 Atom AN      X      Y      Z        X      Y      Z        X      Y      Z
   1   7    -0.04  -0.13   0.13     0.02   0.04  -0.03    -0.05  -0.28   0.24
   2   6    -0.04   0.03  -0.00     0.04  -0.01  -0.00    -0.04  -0.05   0.05
   3   6    -0.03   0.06  -0.06     0.01  -0.01   0.03    -0.00   0.12  -0.14
   4   6    -0.02  -0.06   0.03     0.00   0.03  -0.00     0.03  -0.13   0.10
   5   6     0.03   0.11  -0.11    -0.03  -0.05   0.05     0.03   0.25  -0.20
   6   6     0.02  -0.03   0.07     0.01  -0.01  -0.05     0.01  -0.08   0.17
   7   6     0.02   0.09  -0.01     0.02  -0.04  -0.00    -0.02   0.17  -0.09
   8   6     0.04  -0.07  -0.01    -0.04   0.04   0.01     0.05  -0.10  -0.02
   9   6     0.00  -0.04   0.00    -0.01   0.02   0.00     0.04  -0.08  -0.01
  10   6     0.14  -0.08  -0.05    -0.09   0.01   0.08     0.20  -0.13  -0.08
  11   6     0.11  -0.02  -0.00    -0.07  -0.04   0.02    -0.00   0.10  -0.04
  12   6    -0.03  -0.04  -0.00     0.04   0.01   0.02    -0.09   0.13  -0.08
  13   6    -0.05  -0.06   0.01     0.03   0.04  -0.01     0.05   0.11  -0.00
  14   6    -0.00   0.02   0.05    -0.01   0.00  -0.03    -0.00  -0.02  -0.03
  15   6     0.00   0.00  -0.00     0.01   0.00   0.00    -0.01  -0.01   0.01
  16   8    -0.08   0.08  -0.10     0.10   0.09  -0.03    -0.13   0.11  -0.10
  17   7    -0.04   0.14   0.02     0.01  -0.02   0.06    -0.01  -0.07   0.01
  18   6     0.07  -0.18   0.05     0.03   0.07  -0.01    -0.05   0.12  -0.05
  19   6     0.00  -0.02  -0.01     0.00  -0.00  -0.00    -0.03  -0.04  -0.00
  20   6    -0.10   0.53  -0.15     0.03  -0.12   0.04     0.03  -0.29   0.11
  21   6     0.04   0.07  -0.05     0.06  -0.02  -0.03    -0.01  -0.04   0.06
  22   6    -0.00  -0.14   0.04    -0.04   0.02   0.01    -0.02   0.07  -0.08
  23   6     0.04  -0.32   0.16    -0.04   0.08  -0.02    -0.01   0.16  -0.03
  24   6     0.05  -0.12   0.04     0.02   0.04  -0.02     0.01   0.09  -0.02
  25   6    -0.06   0.10  -0.06    -0.04  -0.05  -0.01     0.02  -0.07   0.02
  26   6     0.01  -0.04   0.01    -0.04  -0.00  -0.01     0.05   0.04   0.02
  27   8     0.04   0.03   0.03     0.09   0.13   0.07     0.02   0.00   0.02
  28   1    -0.01  -0.04   0.05     0.01  -0.00   0.03    -0.01  -0.07   0.00
  29   1    -0.01   0.01  -0.01    -0.10   0.11   0.02     0.00  -0.00  -0.02
  30   1     0.01  -0.04   0.03    -0.00   0.02  -0.01     0.00  -0.04   0.01
  31   1    -0.01  -0.08   0.07     0.01   0.03  -0.03     0.00  -0.13   0.12
  32   1     0.00  -0.07   0.07     0.01   0.02  -0.03     0.00  -0.12   0.13
  33   1     0.02  -0.04   0.04    -0.00   0.02  -0.01     0.01  -0.04   0.03
  34   1     0.02  -0.04   0.01    -0.02   0.02  -0.01     0.04  -0.07   0.04
  35   1    -0.01  -0.00   0.02    -0.00  -0.00  -0.01    -0.04   0.01   0.05
  36   1    -0.02  -0.03   0.02     0.01   0.01  -0.01    -0.01  -0.05   0.02
  37   1    -0.02   0.01   0.01     0.01  -0.01  -0.01    -0.02   0.01   0.03
  38   1     0.03  -0.00   0.06    -0.02   0.00  -0.05     0.03  -0.00   0.09
  39   1     0.04   0.01  -0.02    -0.04  -0.03  -0.01     0.06  -0.01  -0.01
  40   1     0.01   0.05  -0.02    -0.07  -0.06  -0.05     0.09   0.08   0.09
  41   1     0.01  -0.05  -0.00     0.03   0.01  -0.01    -0.04   0.08  -0.02
  42   1    -0.02  -0.02   0.00    -0.01   0.00  -0.01     0.07   0.06   0.02
  43   1    -0.02  -0.01   0.02     0.01   0.03  -0.00     0.03  -0.03  -0.02
  44   1    -0.00   0.01   0.00     0.00   0.00  -0.00     0.00  -0.01   0.02
  45   1    -0.00   0.00   0.02    -0.01  -0.02  -0.00     0.00  -0.02  -0.02
  46   1    -0.01  -0.02  -0.01     0.01   0.01   0.00     0.01   0.02   0.01
  47   1     0.01   0.01  -0.01     0.01   0.00   0.01    -0.01  -0.01   0.02
  48   1     0.01   0.01  -0.01    -0.00  -0.01   0.01    -0.01  -0.01   0.01
  49   1    -0.06   0.22  -0.06     0.01  -0.05   0.03     0.00  -0.10   0.03
  50   1    -0.02   0.01  -0.01    -0.05   0.03  -0.03    -0.00  -0.00  -0.00
  51   1    -0.00   0.10  -0.04     0.02  -0.02  -0.00     0.00  -0.06   0.03
  52   1    -0.01   0.02  -0.01     0.01   0.02   0.01     0.00  -0.01  -0.01
  53   1     0.01   0.01   0.01     0.01   0.01   0.02     0.01  -0.01  -0.00
  54   1    -0.03   0.10  -0.03    -0.01  -0.02   0.00     0.00  -0.06   0.03
  55   1     0.03   0.04  -0.00    -0.02  -0.02  -0.01    -0.00  -0.02   0.00
  56   1    -0.10  -0.01  -0.06     0.01  -0.00   0.01     0.07   0.01   0.03
  57   1     0.06   0.05   0.01    -0.02  -0.01  -0.01     0.00  -0.02   0.00
  58   1     0.05  -0.01  -0.01     0.04  -0.01  -0.02    -0.12   0.06   0.04
  59   1    -0.03  -0.02  -0.02    -0.07  -0.09  -0.05    -0.02  -0.00  -0.01
  60   8     0.03  -0.01   0.01     0.07  -0.04   0.03     0.01  -0.00   0.00
  61   1    -0.05  -0.18  -0.08    -0.24  -0.67  -0.25    -0.02  -0.09  -0.04
  62   1    -0.14   0.01  -0.07    -0.39   0.04  -0.18    -0.03   0.00  -0.02
  63   7     0.00   0.03  -0.00    -0.00  -0.02   0.00     0.01   0.05   0.01
  64   6     0.03  -0.00   0.07    -0.02   0.00  -0.04     0.04   0.01   0.07
  65   8    -0.01   0.01  -0.01     0.01  -0.00   0.01    -0.04  -0.01  -0.00
  66   6    -0.06   0.02  -0.05     0.04  -0.02   0.03    -0.09   0.04  -0.07
  67   6    -0.02   0.05  -0.02     0.01  -0.03   0.00    -0.02   0.06  -0.03
  68   8     0.04  -0.03   0.03    -0.02   0.02  -0.01     0.05  -0.05   0.04
  69   1    -0.01  -0.00  -0.01     0.01   0.00   0.01    -0.01  -0.00  -0.01
  70   1    -0.02  -0.00  -0.01     0.01   0.00   0.00    -0.02   0.00  -0.02
  71   1    -0.04   0.01  -0.03     0.02  -0.00   0.02    -0.05   0.01  -0.04
  72   7    -0.01  -0.00  -0.03     0.01  -0.00   0.02    -0.02   0.03  -0.03
  73   6     0.00   0.00  -0.00     0.00   0.00  -0.00    -0.01   0.00   0.00
  74   1    -0.00   0.00   0.00     0.00  -0.00  -0.00     0.00  -0.00  -0.00
  75   1     0.00  -0.00  -0.00    -0.00   0.00   0.00     0.01  -0.01  -0.01
  76   1     0.00   0.00   0.00     0.00   0.00  -0.00    -0.01  -0.01   0.01
                     73                     74                     75
                        a                      a                      a 
 Frequencies --   645.8150               656.6047               689.0346
 Red. masses --     8.7548                10.7247                 6.0465
 Frc consts  --     0.0000                 0.0000                 0.0000
 IR Inten    --    57.6200                 8.8477                40.0934
 Raman Activ --     0.0000                 0.0000                 0.0000
 Depolar     --     0.0000                 0.0000                 0.0000
 Atom AN      X      Y      Z        X      Y      Z        X      Y      Z
   1   7    -0.05  -0.02   0.03    -0.00  -0.01   0.01     0.10   0.07  -0.11
   2   6    -0.02  -0.04   0.03    -0.00  -0.01   0.01     0.04  -0.05   0.02
   3   6     0.05  -0.01  -0.08    -0.00   0.00  -0.01    -0.05   0.04   0.06
   4   6     0.07  -0.04   0.01     0.00  -0.01   0.01    -0.06  -0.01   0.04
   5   6     0.03   0.04  -0.03     0.00   0.03  -0.02    -0.03  -0.02   0.03
   6   6     0.02  -0.02   0.05    -0.00  -0.01   0.02    -0.07  -0.02   0.01
   7   6    -0.00   0.04  -0.02    -0.01   0.01  -0.01    -0.07  -0.03  -0.02
   8   6    -0.01   0.18  -0.06     0.01  -0.01  -0.00     0.05  -0.01  -0.03
   9   6    -0.19   0.12  -0.08     0.01  -0.01  -0.01     0.26  -0.07  -0.16
  10   6    -0.00   0.01  -0.01     0.02   0.01  -0.01    -0.02  -0.01   0.02
  11   6     0.01   0.01  -0.00    -0.03   0.02  -0.04    -0.03  -0.03   0.01
  12   6    -0.01   0.00  -0.00    -0.01  -0.01  -0.18     0.02  -0.01   0.03
  13   6    -0.00  -0.00  -0.00    -0.03  -0.03   0.00     0.00  -0.00   0.00
  14   6     0.00   0.00   0.00    -0.00   0.01   0.06    -0.00   0.00  -0.01
  15   6    -0.00   0.00   0.00    -0.02  -0.02   0.01     0.00   0.00  -0.00
  16   8    -0.01   0.00  -0.01     0.00   0.00   0.04     0.03  -0.01   0.03
  17   7    -0.00  -0.00  -0.00    -0.02   0.07   0.25     0.01   0.00  -0.01
  18   6    -0.00  -0.00  -0.00     0.25   0.06  -0.04    -0.00  -0.01   0.01
  19   6    -0.00  -0.00  -0.00     0.24   0.05   0.05    -0.00   0.01  -0.00
  20   6    -0.00   0.00   0.00     0.16  -0.02  -0.02    -0.00   0.00  -0.00
  21   6    -0.00   0.00   0.00     0.31  -0.07  -0.36    -0.01   0.00   0.00
  22   6     0.00  -0.00  -0.00    -0.05   0.12   0.34     0.00  -0.01   0.00
  23   6     0.00   0.00   0.00    -0.21   0.01   0.03     0.01  -0.00  -0.01
  24   6     0.00   0.00   0.00    -0.08  -0.02  -0.05    -0.00  -0.01   0.00
  25   6     0.00   0.00  -0.00    -0.12  -0.03   0.02     0.00   0.01  -0.00
  26   6     0.01   0.00   0.00    -0.35  -0.12  -0.15    -0.00  -0.00  -0.00
  27   8     0.00   0.00   0.00    -0.01  -0.01  -0.01    -0.00   0.00  -0.00
  28   1    -0.01  -0.00  -0.02    -0.00   0.00  -0.03     0.02   0.01   0.04
  29   1     0.00  -0.00   0.00     0.01  -0.01   0.00    -0.01   0.01   0.01
  30   1     0.02   0.01  -0.03    -0.00   0.01  -0.01    -0.03   0.05  -0.02
  31   1     0.02  -0.01   0.01    -0.00  -0.01   0.01    -0.02   0.05  -0.03
  32   1     0.01  -0.00   0.01    -0.00  -0.01   0.01    -0.02   0.04  -0.04
  33   1     0.01   0.01  -0.02     0.00   0.00  -0.00    -0.04   0.06  -0.04
  34   1     0.02   0.06  -0.02     0.01  -0.01   0.00     0.01  -0.05   0.03
  35   1     0.01   0.07  -0.02    -0.00   0.00   0.01     0.00   0.02   0.01
  36   1    -0.12   0.09  -0.06    -0.00  -0.01   0.00     0.12  -0.06  -0.02
  37   1    -0.08   0.00  -0.05    -0.00   0.00   0.00     0.04  -0.02   0.05
  38   1     0.24  -0.05   0.45     0.01  -0.00   0.02     0.25  -0.00   0.66
  39   1    -0.00   0.02  -0.01     0.01   0.01   0.01    -0.00  -0.03   0.01
  40   1     0.01   0.01   0.00     0.06  -0.01   0.06    -0.03  -0.02  -0.02
  41   1    -0.00  -0.00  -0.00    -0.04   0.01  -0.03     0.01  -0.00   0.01
  42   1     0.00   0.00   0.00    -0.01  -0.01   0.02    -0.01  -0.01  -0.01
  43   1    -0.00  -0.01  -0.00    -0.02  -0.04   0.01     0.00   0.02   0.00
  44   1     0.00   0.00  -0.00    -0.00  -0.00   0.02    -0.00   0.00  -0.00
  45   1     0.00  -0.00  -0.00    -0.00   0.00   0.01    -0.00   0.00   0.00
  46   1    -0.00  -0.00   0.00    -0.02  -0.02  -0.00     0.00   0.00   0.00
  47   1     0.00   0.00   0.00     0.00   0.00  -0.01     0.00   0.00  -0.00
  48   1     0.00  -0.00  -0.00     0.00   0.00  -0.01    -0.00  -0.00   0.00
  49   1    -0.00  -0.00  -0.00     0.00   0.00   0.07     0.00   0.00  -0.00
  50   1    -0.00   0.00  -0.00     0.01  -0.00   0.01    -0.00   0.00  -0.00
  51   1    -0.00   0.00   0.00     0.13  -0.01  -0.09    -0.00   0.00   0.00
  52   1    -0.00  -0.00  -0.00    -0.01   0.03   0.10     0.00  -0.00  -0.00
  53   1     0.00  -0.00  -0.00    -0.00   0.03   0.09    -0.00  -0.00  -0.00
  54   1    -0.00   0.00   0.00     0.04  -0.02  -0.05     0.00   0.00  -0.00
  55   1     0.00   0.00   0.00    -0.13  -0.05  -0.07     0.00   0.00   0.00
  56   1     0.00   0.00   0.00    -0.08  -0.04  -0.05    -0.00   0.00   0.00
  57   1     0.00   0.00   0.00    -0.07  -0.03  -0.04    -0.00  -0.00  -0.00
  58   1    -0.00   0.00   0.00    -0.09   0.04   0.02     0.02  -0.01  -0.01
  59   1    -0.00  -0.00  -0.00     0.00   0.01   0.00     0.00  -0.00  -0.00
  60   8     0.00  -0.00   0.00    -0.01   0.01  -0.00     0.00  -0.00   0.00
  61   1    -0.00  -0.01  -0.00     0.02   0.06   0.02    -0.01  -0.01  -0.00
  62   1    -0.01   0.00  -0.00     0.05  -0.00   0.02    -0.01   0.00  -0.00
  63   7    -0.23  -0.17  -0.09     0.00   0.00   0.00     0.11   0.03   0.09
  64   6     0.02  -0.07   0.26     0.01   0.00   0.01     0.07   0.09  -0.25
  65   8     0.11   0.07  -0.08    -0.01  -0.00   0.00    -0.12  -0.13   0.17
  66   6     0.26  -0.13   0.23    -0.01   0.00  -0.01    -0.10   0.05  -0.07
  67   6     0.07  -0.14   0.12    -0.00   0.00  -0.00    -0.05   0.01  -0.00
  68   8    -0.13   0.23  -0.15     0.00  -0.00   0.00     0.03  -0.08  -0.02
  69   1     0.04   0.00   0.02    -0.00   0.00  -0.00    -0.04   0.03  -0.04
  70   1     0.10  -0.02   0.07    -0.00  -0.00  -0.00    -0.01   0.01  -0.02
  71   1     0.13  -0.03   0.08    -0.00   0.00  -0.00    -0.01   0.02  -0.02
  72   7    -0.05  -0.15  -0.18    -0.00   0.01  -0.01    -0.08   0.21  -0.05
  73   6     0.01  -0.00  -0.01    -0.00  -0.00   0.00    -0.09   0.00   0.04
  74   1    -0.04   0.04   0.01     0.00  -0.00  -0.00     0.03  -0.03  -0.03
  75   1    -0.02   0.00   0.00     0.00  -0.00  -0.00     0.02  -0.06  -0.03
  76   1     0.06   0.02  -0.01    -0.00  -0.00   0.00    -0.12  -0.05   0.07
                     76                     77                     78
                        a                      a                      a 
 Frequencies --   696.3824               704.0829               725.0780
 Red. masses --    10.5028                11.5532                11.0621
 Frc consts  --     0.0000                 0.0000                 0.0000
 IR Inten    --     6.2299                 0.6669                 2.3353
 Raman Activ --     0.0000                 0.0000                 0.0000
 Depolar     --     0.0000                 0.0000                 0.0000
 Atom AN      X      Y      Z        X      Y      Z        X      Y      Z
   1   7     0.10  -0.18   0.16     0.02  -0.05   0.05     0.11   0.03  -0.10
   2   6    -0.03   0.36  -0.28    -0.00   0.06  -0.05     0.02   0.01  -0.02
   3   6    -0.09  -0.14   0.14    -0.01  -0.03   0.02    -0.08   0.02   0.06
   4   6    -0.13   0.15  -0.18    -0.02   0.03  -0.03    -0.10  -0.01   0.01
   5   6     0.07  -0.29   0.19     0.01  -0.04   0.03     0.02  -0.03   0.02
   6   6    -0.12   0.22  -0.08    -0.02   0.04  -0.01    -0.08   0.03   0.05
   7   6    -0.11  -0.10   0.16    -0.02  -0.01   0.02    -0.09  -0.02   0.02
   8   6     0.16   0.01   0.00     0.03  -0.00   0.00     0.11   0.02  -0.10
   9   6     0.01   0.09   0.00    -0.00   0.02   0.00     0.12  -0.04  -0.26
  10   6     0.20  -0.18  -0.04     0.03  -0.03  -0.01     0.04  -0.05   0.02
  11   6     0.04   0.02  -0.04    -0.02   0.02  -0.03    -0.02  -0.02   0.00
  12   6    -0.05   0.06  -0.08    -0.01   0.03  -0.04     0.01   0.00   0.01
  13   6     0.02   0.06  -0.00     0.02   0.05   0.00     0.01   0.01   0.00
  14   6    -0.00  -0.00   0.00    -0.00  -0.01  -0.02    -0.00  -0.00  -0.00
  15   6    -0.01  -0.01   0.01    -0.00  -0.00   0.00    -0.00  -0.00  -0.00
  16   8    -0.09   0.08  -0.06    -0.01   0.02   0.00     0.01   0.00   0.02
  17   7    -0.02  -0.01   0.03    -0.02   0.08  -0.02     0.00   0.00  -0.00
  18   6    -0.02   0.10  -0.04     0.10  -0.50   0.17     0.00  -0.00   0.00
  19   6     0.02  -0.11   0.03    -0.11   0.55  -0.19    -0.00   0.00  -0.00
  20   6    -0.01   0.03  -0.00     0.06  -0.32   0.11     0.00  -0.00   0.00
  21   6     0.02  -0.04   0.02    -0.04   0.20  -0.06    -0.00   0.00   0.00
  22   6    -0.02   0.04  -0.03     0.03  -0.18   0.06     0.00   0.00  -0.00
  23   6    -0.01   0.00   0.03    -0.01   0.06  -0.02     0.00   0.00  -0.00
  24   6     0.01   0.04  -0.01     0.04  -0.16   0.06    -0.00  -0.00   0.00
  25   6    -0.00  -0.05   0.01    -0.04   0.19  -0.07    -0.00   0.00  -0.00
  26   6     0.01   0.01   0.01     0.00   0.01   0.00    -0.00  -0.00  -0.00
  27   8     0.01  -0.00   0.01     0.00   0.00   0.00    -0.00   0.00  -0.00
  28   1     0.07  -0.07  -0.02     0.02  -0.01  -0.02     0.02  -0.00   0.06
  29   1     0.01  -0.00  -0.03    -0.00   0.01  -0.01    -0.01   0.01   0.00
  30   1    -0.04  -0.14   0.11    -0.01  -0.02   0.02    -0.04   0.03  -0.01
  31   1    -0.05  -0.00   0.01    -0.01  -0.00   0.00    -0.04   0.04  -0.02
  32   1    -0.07  -0.01   0.02    -0.01  -0.01   0.01    -0.04   0.04  -0.02
  33   1    -0.03  -0.13   0.14    -0.00  -0.03   0.03    -0.04   0.04  -0.02
  34   1     0.02   0.06  -0.05     0.00   0.01  -0.01     0.05  -0.07   0.04
  35   1     0.12  -0.03  -0.07     0.02  -0.01  -0.01     0.04   0.10   0.01
  36   1     0.01   0.05  -0.02     0.00   0.01  -0.00    -0.04  -0.02  -0.05
  37   1     0.02  -0.01  -0.01     0.00  -0.00  -0.00    -0.09   0.02   0.01
  38   1     0.04  -0.01   0.09     0.00  -0.00   0.01    -0.17   0.03  -0.17
  39   1     0.07  -0.04   0.00     0.01  -0.01   0.00     0.02  -0.04   0.02
  40   1     0.07   0.06   0.05     0.04   0.00   0.04    -0.01  -0.01  -0.01
  41   1    -0.02   0.03  -0.02    -0.02   0.04  -0.01     0.00   0.01   0.00
  42   1     0.03   0.03   0.01     0.03   0.02   0.01    -0.00   0.00  -0.00
  43   1     0.01  -0.02  -0.01     0.02  -0.01  -0.01     0.00   0.01   0.00
  44   1     0.00  -0.01   0.02     0.00  -0.01   0.01    -0.00  -0.00  -0.00
  45   1     0.00  -0.01  -0.01     0.00  -0.01  -0.01    -0.00   0.00   0.00
  46   1     0.00   0.00   0.00     0.01   0.01   0.00     0.00   0.00   0.00
  47   1    -0.01  -0.01   0.01    -0.00  -0.01   0.01    -0.00  -0.00   0.00
  48   1    -0.01  -0.01   0.01    -0.01  -0.01   0.01    -0.00  -0.00   0.00
  49   1    -0.01  -0.02   0.01    -0.02   0.09  -0.03     0.00  -0.00  -0.00
  50   1    -0.00  -0.00  -0.00     0.00  -0.00   0.00    -0.00   0.00  -0.00
  51   1     0.01  -0.01   0.00    -0.00   0.02  -0.01    -0.00  -0.00   0.00
  52   1    -0.00   0.01  -0.01     0.02  -0.10   0.03     0.00  -0.00   0.00
  53   1     0.00   0.00   0.00     0.01  -0.04   0.01    -0.00  -0.00   0.00
  54   1    -0.01  -0.00   0.00     0.00  -0.03   0.01     0.00  -0.00   0.00
  55   1    -0.00  -0.00  -0.01    -0.01  -0.01  -0.00     0.00   0.00   0.00
  56   1     0.01   0.00  -0.00     0.01   0.00   0.00    -0.00  -0.00   0.00
  57   1     0.01   0.00   0.00     0.00  -0.00   0.00    -0.00  -0.00  -0.00
  58   1    -0.06   0.03   0.02    -0.06   0.02   0.02     0.00   0.00  -0.00
  59   1    -0.01   0.00  -0.00    -0.00  -0.00  -0.00    -0.00   0.00  -0.00
  60   8     0.00   0.00   0.00     0.00   0.00  -0.00     0.00  -0.00   0.00
  61   1    -0.00  -0.02  -0.01    -0.01  -0.02  -0.01    -0.00  -0.01  -0.00
  62   1    -0.00   0.00  -0.00     0.00   0.00   0.00    -0.00   0.00  -0.00
  63   7    -0.00  -0.01  -0.02    -0.00  -0.00  -0.00    -0.21  -0.01   0.02
  64   6    -0.03  -0.00  -0.07    -0.01  -0.00  -0.01     0.50  -0.05   0.45
  65   8     0.03  -0.01   0.02     0.01   0.00   0.00    -0.18  -0.20  -0.15
  66   6     0.03  -0.02   0.03     0.00  -0.00   0.00     0.04  -0.02   0.02
  67   6    -0.00  -0.01   0.01     0.00  -0.00   0.00     0.05   0.01  -0.03
  68   8    -0.01   0.01  -0.02    -0.00   0.00  -0.00    -0.02   0.06   0.03
  69   1     0.00   0.00   0.00     0.00  -0.00   0.00     0.03  -0.02   0.02
  70   1     0.01  -0.00   0.01     0.00  -0.00   0.00    -0.00  -0.01   0.00
  71   1     0.02  -0.00   0.01     0.00  -0.00   0.00    -0.01  -0.01   0.00
  72   7    -0.01  -0.03  -0.00    -0.00  -0.01   0.00    -0.07   0.25  -0.03
  73   6    -0.02  -0.01   0.01    -0.00  -0.00   0.00    -0.05   0.01   0.03
  74   1    -0.01   0.00   0.00    -0.00   0.00   0.00     0.05  -0.05  -0.03
  75   1    -0.01  -0.00   0.00    -0.00   0.00   0.00     0.04  -0.05  -0.03
  76   1    -0.00  -0.00   0.00     0.00   0.00  -0.00    -0.13  -0.05   0.05
                     79                     80                     81
                        a                      a                      a 
 Frequencies --   751.6157               763.1841               774.3964
 Red. masses --     9.6325                10.5052                 3.5241
 Frc consts  --     0.0000                 0.0000                 0.0000
 IR Inten    --     4.6536                36.8712                28.8749
 Raman Activ --     0.0000                 0.0000                 0.0000
 Depolar     --     0.0000                 0.0000                 0.0000
 Atom AN      X      Y      Z        X      Y      Z        X      Y      Z
   1   7     0.06  -0.04  -0.01    -0.23  -0.10   0.42     0.01  -0.00   0.00
   2   6     0.00  -0.02   0.02     0.00   0.10  -0.09     0.00  -0.00   0.00
   3   6    -0.05   0.04  -0.02     0.16  -0.06  -0.03    -0.01   0.00   0.00
   4   6    -0.06  -0.00  -0.02     0.19   0.10   0.03    -0.01  -0.00  -0.00
   5   6     0.03  -0.01  -0.01    -0.13  -0.12   0.15     0.00   0.00  -0.00
   6   6    -0.04   0.04   0.03     0.14  -0.10  -0.23    -0.01   0.00   0.00
   7   6    -0.05   0.03  -0.00     0.17  -0.08  -0.05    -0.01   0.00  -0.00
   8   6     0.07  -0.02  -0.01    -0.31   0.11   0.07     0.01  -0.00  -0.00
   9   6    -0.01   0.02   0.02     0.05  -0.05  -0.09    -0.00   0.00   0.00
  10   6     0.10  -0.03   0.01    -0.09   0.12  -0.05     0.00  -0.00  -0.01
  11   6    -0.08   0.15   0.19     0.04   0.06   0.02    -0.01   0.01  -0.01
  12   6    -0.15   0.07   0.50    -0.03   0.01   0.08    -0.01   0.00   0.02
  13   6    -0.06  -0.06   0.01    -0.03  -0.04  -0.00    -0.00   0.02   0.00
  14   6     0.01  -0.01  -0.07     0.00  -0.00  -0.00    -0.01   0.00  -0.01
  15   6     0.06   0.06  -0.03     0.01   0.01  -0.00     0.00   0.00  -0.00
  16   8    -0.07  -0.03  -0.13    -0.07   0.02  -0.10    -0.00   0.00   0.01
  17   7     0.18  -0.05  -0.25     0.03  -0.01  -0.04     0.01  -0.04   0.00
  18   6     0.06  -0.04  -0.08     0.01   0.00  -0.01    -0.03   0.15  -0.06
  19   6     0.05   0.04   0.02     0.01   0.00   0.00    -0.03   0.19  -0.06
  20   6    -0.09  -0.04   0.07    -0.02   0.00   0.01     0.01  -0.10   0.04
  21   6     0.03  -0.04  -0.17     0.01  -0.01  -0.02     0.04  -0.21   0.06
  22   6     0.09   0.07   0.14     0.02   0.01   0.02     0.04  -0.17   0.06
  23   6     0.08  -0.02  -0.18     0.01  -0.00  -0.02    -0.00   0.02  -0.01
  24   6    -0.19  -0.03   0.01    -0.03  -0.01   0.00     0.03  -0.19   0.06
  25   6     0.11   0.07   0.12     0.02   0.01   0.02     0.03  -0.13   0.05
  26   6    -0.13  -0.06  -0.10    -0.02  -0.01  -0.02    -0.01   0.00  -0.00
  27   8     0.00  -0.00   0.00     0.00  -0.00   0.00     0.00  -0.01  -0.00
  28   1     0.01  -0.01   0.02    -0.00   0.02  -0.31     0.00  -0.00  -0.00
  29   1    -0.01  -0.02   0.00     0.02  -0.03  -0.02     0.01  -0.01  -0.00
  30   1    -0.01  -0.05   0.04     0.04  -0.04   0.01    -0.00  -0.00   0.00
  31   1    -0.02  -0.04   0.03     0.09   0.01  -0.03    -0.00  -0.00   0.00
  32   1    -0.02  -0.02   0.03     0.10  -0.04  -0.04    -0.00  -0.00   0.00
  33   1    -0.01  -0.02   0.03     0.06  -0.07   0.01    -0.00  -0.00   0.00
  34   1     0.02   0.01  -0.01    -0.12   0.01   0.04     0.00   0.00  -0.00
  35   1     0.03  -0.01  -0.01    -0.08   0.02   0.01     0.00  -0.00  -0.00
  36   1    -0.01   0.01   0.00     0.04  -0.01  -0.03    -0.00   0.00   0.00
  37   1     0.00  -0.00  -0.01    -0.01   0.00   0.02     0.00  -0.00  -0.00
  38   1     0.00  -0.01  -0.01    -0.03   0.03   0.05     0.00  -0.00  -0.00
  39   1     0.01  -0.06  -0.02    -0.04   0.10  -0.05     0.00  -0.00   0.00
  40   1    -0.19   0.16  -0.14     0.00   0.04  -0.01     0.00   0.00   0.01
  41   1    -0.05  -0.04   0.15    -0.01  -0.02   0.03    -0.01   0.00   0.01
  42   1     0.04   0.02  -0.00     0.01  -0.00   0.01     0.02   0.01   0.02
  43   1     0.01  -0.03  -0.03    -0.00  -0.03  -0.01     0.01  -0.01  -0.02
  44   1     0.02   0.01  -0.04     0.01   0.00  -0.00     0.02   0.00   0.02
  45   1     0.01  -0.00  -0.04     0.00  -0.00  -0.01     0.00  -0.02  -0.02
  46   1     0.02   0.02  -0.01    -0.00  -0.00  -0.00     0.01   0.00   0.00
  47   1     0.02   0.02  -0.01     0.01   0.01  -0.01     0.01   0.00   0.00
  48   1     0.02   0.02  -0.01     0.01   0.00  -0.01    -0.00  -0.01   0.00
  49   1     0.09  -0.01  -0.07     0.01   0.00  -0.01     0.01  -0.02   0.01
  50   1    -0.00  -0.00  -0.00    -0.00  -0.00  -0.00    -0.00   0.00  -0.00
  51   1     0.06  -0.02  -0.03     0.01   0.00  -0.01    -0.08   0.41  -0.14
  52   1     0.02   0.00   0.04    -0.00   0.01   0.00    -0.06   0.30  -0.10
  53   1    -0.05  -0.03   0.01    -0.01   0.00  -0.00    -0.09   0.46  -0.16
  54   1     0.09  -0.01  -0.01     0.01   0.01  -0.00    -0.08   0.44  -0.15
  55   1     0.02   0.01   0.04     0.00   0.00   0.01    -0.00  -0.00   0.00
  56   1    -0.06  -0.01   0.01    -0.01  -0.00   0.00     0.00   0.00   0.00
  57   1    -0.14  -0.04  -0.03    -0.02  -0.01  -0.00    -0.01  -0.00  -0.00
  58   1     0.21  -0.02  -0.04     0.02  -0.02   0.00    -0.01   0.00   0.00
  59   1    -0.01   0.00  -0.00    -0.00  -0.00   0.00    -0.00   0.01  -0.00
  60   8     0.00   0.00   0.00     0.00  -0.00   0.00    -0.00  -0.00   0.00
  61   1     0.00  -0.01  -0.01     0.00   0.00   0.00     0.01   0.01   0.00
  62   1    -0.02   0.00  -0.01    -0.00   0.00  -0.00    -0.00   0.00  -0.01
  63   7    -0.00  -0.00  -0.01    -0.01   0.01   0.04    -0.00  -0.00  -0.00
  64   6    -0.03  -0.00  -0.01     0.19  -0.00   0.01    -0.00  -0.00   0.00
  65   8     0.01   0.02   0.00    -0.07  -0.13  -0.01     0.00   0.00  -0.00
  66   6     0.00  -0.00   0.00    -0.00  -0.00  -0.00    -0.00   0.00   0.00
  67   6    -0.00   0.00   0.00     0.00  -0.01  -0.01     0.00   0.00   0.00
  68   8     0.00   0.00  -0.00    -0.01  -0.01   0.00     0.00   0.00   0.00
  69   1     0.00  -0.00   0.00    -0.00   0.00  -0.00     0.00  -0.00  -0.00
  70   1     0.00  -0.00   0.00    -0.00   0.00  -0.00     0.00  -0.00   0.00
  71   1    -0.00  -0.00  -0.00     0.00   0.00   0.00    -0.00   0.00  -0.00
  72   7     0.00  -0.03  -0.00    -0.02   0.20   0.01     0.00  -0.00  -0.00
  73   6    -0.00  -0.00   0.00    -0.00   0.03   0.00    -0.00  -0.00   0.00
  74   1    -0.01   0.00   0.00     0.05  -0.03  -0.03    -0.00   0.00   0.00
  75   1    -0.01   0.01   0.00     0.04  -0.04  -0.03    -0.00   0.00   0.00
  76   1     0.01   0.01  -0.01    -0.09  -0.03   0.04     0.00   0.00  -0.00
                     82                     83                     84
                        a                      a                      a 
 Frequencies --   787.5064               812.6547               816.5825
 Red. masses --     2.5172                 5.7103                 6.9040
 Frc consts  --     0.0000                 0.0000                 0.0000
 IR Inten    --    21.6042                38.9410                41.2795
 Raman Activ --     0.0000                 0.0000                 0.0000
 Depolar     --     0.0000                 0.0000                 0.0000
 Atom AN      X      Y      Z        X      Y      Z        X      Y      Z
   1   7    -0.06  -0.02  -0.10     0.08  -0.01   0.22    -0.22  -0.19  -0.28
   2   6    -0.02   0.02  -0.01    -0.03   0.21  -0.19    -0.12   0.18  -0.11
   3   6     0.03  -0.01  -0.00    -0.06  -0.18   0.04     0.11  -0.14  -0.04
   4   6     0.04   0.00   0.00    -0.09  -0.18   0.06     0.13  -0.03  -0.03
   5   6    -0.01  -0.01   0.01     0.04   0.15  -0.12    -0.03  -0.03   0.02
   6   6     0.01  -0.01  -0.00     0.04  -0.08   0.19     0.06   0.00   0.04
   7   6     0.03   0.00   0.03     0.04  -0.13   0.18     0.14   0.05   0.17
   8   6    -0.05   0.02   0.01    -0.01   0.00  -0.08    -0.23   0.07   0.02
   9   6    -0.00  -0.01  -0.00     0.00  -0.06  -0.01    -0.02  -0.03  -0.00
  10   6    -0.03  -0.03   0.05     0.07  -0.06  -0.02     0.07  -0.13   0.13
  11   6     0.12  -0.04   0.06    -0.01  -0.02  -0.03     0.12   0.11   0.06
  12   6    -0.03  -0.01  -0.03    -0.01   0.00   0.06    -0.10   0.07  -0.04
  13   6    -0.13   0.15  -0.05    -0.00   0.01   0.00     0.01   0.03   0.01
  14   6    -0.15   0.13  -0.02    -0.01   0.01  -0.01     0.06  -0.05   0.01
  15   6    -0.02   0.02   0.00     0.00   0.01  -0.00     0.01  -0.02   0.00
  16   8     0.01  -0.03  -0.02    -0.05   0.04  -0.04     0.01  -0.05  -0.04
  17   7    -0.01   0.00   0.01     0.02  -0.00  -0.02    -0.00   0.00  -0.00
  18   6     0.00  -0.01  -0.00     0.00  -0.00  -0.01     0.01  -0.00  -0.01
  19   6     0.00  -0.01   0.01    -0.00  -0.00   0.00    -0.00   0.01  -0.00
  20   6    -0.01   0.02  -0.01    -0.02   0.01   0.01    -0.02  -0.04   0.02
  21   6     0.00   0.01  -0.01     0.00  -0.00  -0.01     0.02  -0.01  -0.03
  22   6    -0.00   0.01   0.00     0.01   0.00   0.00     0.01   0.01   0.01
  23   6    -0.00  -0.00   0.01     0.01  -0.00  -0.01    -0.00   0.00  -0.00
  24   6     0.00   0.01  -0.00    -0.01  -0.00   0.00    -0.02  -0.01   0.01
  25   6    -0.00   0.01  -0.00     0.01   0.00   0.01     0.02   0.01   0.02
  26   6     0.00   0.00   0.01    -0.01  -0.01  -0.01     0.01  -0.00  -0.00
  27   8    -0.00  -0.00  -0.00     0.00  -0.00   0.00    -0.00  -0.00  -0.01
  28   1    -0.03  -0.03   0.16     0.09   0.01  -0.22    -0.12  -0.13   0.55
  29   1    -0.01   0.00  -0.01     0.02  -0.01  -0.03    -0.02   0.01   0.01
  30   1     0.02   0.01  -0.00    -0.02   0.23  -0.21     0.09   0.06  -0.07
  31   1     0.02   0.01  -0.01    -0.07   0.27  -0.19     0.04   0.04  -0.06
  32   1     0.00   0.01  -0.02    -0.03   0.29  -0.21    -0.01   0.08  -0.06
  33   1     0.01   0.02  -0.01     0.01   0.29  -0.26     0.04   0.10  -0.03
  34   1    -0.01  -0.00   0.01     0.05  -0.07   0.04    -0.05  -0.02   0.04
  35   1    -0.02   0.01   0.01    -0.07   0.07   0.06    -0.10   0.04   0.04
  36   1     0.00  -0.00  -0.00    -0.00  -0.05   0.02     0.02  -0.02   0.00
  37   1    -0.00   0.00   0.00     0.00   0.00   0.02     0.01   0.00   0.01
  38   1    -0.00   0.00   0.00     0.02  -0.01  -0.03    -0.00   0.01   0.02
  39   1    -0.01   0.01   0.00     0.02  -0.02  -0.00     0.01   0.04   0.01
  40   1     0.01  -0.05  -0.01     0.01   0.02   0.00     0.02   0.06   0.00
  41   1    -0.01  -0.08   0.01    -0.01   0.01   0.02    -0.02   0.01  -0.01
  42   1     0.21   0.08   0.30     0.01   0.00   0.01     0.02   0.03  -0.05
  43   1     0.11  -0.25  -0.24     0.01   0.00  -0.01    -0.03  -0.00   0.05
  44   1     0.31   0.05   0.37     0.02   0.01   0.01    -0.11  -0.04  -0.09
  45   1     0.05  -0.36  -0.27     0.00  -0.02  -0.02     0.00   0.12   0.07
  46   1     0.05  -0.05   0.01     0.01   0.00   0.00    -0.02   0.03  -0.00
  47   1     0.21   0.09   0.01     0.02   0.01   0.00    -0.09  -0.05   0.01
  48   1    -0.06  -0.21   0.02    -0.01  -0.02   0.00     0.03   0.09  -0.01
  49   1    -0.01   0.00   0.00     0.01   0.00  -0.01    -0.01  -0.00   0.00
  50   1    -0.01  -0.01  -0.01    -0.00  -0.00  -0.00     0.00   0.00   0.00
  51   1     0.01  -0.02   0.01     0.00  -0.00  -0.00     0.01   0.01  -0.01
  52   1     0.00  -0.01   0.00     0.00   0.00   0.00     0.00  -0.00   0.00
  53   1     0.01  -0.02   0.01    -0.00  -0.00  -0.00    -0.01   0.01  -0.00
  54   1     0.00  -0.02   0.01     0.01   0.00  -0.00     0.01   0.01  -0.00
  55   1    -0.00  -0.00  -0.00     0.00   0.00   0.00     0.01   0.00   0.00
  56   1     0.01  -0.00  -0.00    -0.01  -0.00  -0.00     0.00   0.00   0.00
  57   1     0.00   0.01   0.01    -0.01  -0.00  -0.00    -0.00  -0.00  -0.00
  58   1     0.06  -0.01   0.00    -0.02  -0.02   0.00     0.06   0.11   0.00
  59   1     0.00   0.00   0.00    -0.00  -0.00  -0.00    -0.00   0.00  -0.00
  60   8     0.00   0.00   0.01     0.00   0.00   0.00    -0.00  -0.00  -0.00
  61   1     0.01   0.01   0.01    -0.00  -0.01  -0.01     0.01   0.02   0.01
  62   1     0.01   0.00  -0.01    -0.00   0.00  -0.00    -0.00  -0.00   0.00
  63   7     0.00   0.00   0.01     0.04   0.01   0.03     0.03   0.01   0.03
  64   6     0.01  -0.00  -0.00    -0.09   0.01   0.04     0.03  -0.00  -0.02
  65   8    -0.00  -0.01   0.00    -0.00   0.09   0.01    -0.01  -0.03   0.00
  66   6    -0.01  -0.00   0.00    -0.02   0.00  -0.01    -0.00  -0.00  -0.00
  67   6     0.00  -0.00  -0.00    -0.00  -0.01  -0.00    -0.01  -0.01  -0.00
  68   8     0.00  -0.00   0.00    -0.00  -0.01  -0.00    -0.01  -0.02  -0.01
  69   1    -0.00   0.00  -0.01    -0.01   0.01  -0.01    -0.00   0.01  -0.00
  70   1    -0.00   0.00   0.00    -0.01   0.01  -0.01    -0.00   0.00  -0.00
  71   1     0.00   0.00  -0.00     0.01   0.00   0.00     0.01  -0.00   0.01
  72   7    -0.00   0.01   0.00     0.01  -0.09  -0.01    -0.00   0.06   0.01
  73   6     0.00   0.00  -0.00     0.01  -0.02  -0.00     0.02   0.01  -0.01
  74   1     0.00  -0.00  -0.00    -0.03   0.02   0.01     0.02  -0.01  -0.01
  75   1     0.00  -0.00  -0.00    -0.02   0.02   0.02     0.02  -0.01  -0.01
  76   1    -0.01  -0.00   0.00     0.05   0.02  -0.02    -0.02  -0.01   0.01
                     85                     86                     87
                        a                      a                      a 
 Frequencies --   859.6804               864.7716               870.0653
 Red. masses --     9.4223                11.0593                 6.6897
 Frc consts  --     0.0000                 0.0000                 0.0000
 IR Inten    --    18.3927                 0.3024                 1.2350
 Raman Activ --     0.0000                 0.0000                 0.0000
 Depolar     --     0.0000                 0.0000                 0.0000
 Atom AN      X      Y      Z        X      Y      Z        X      Y      Z
   1   7    -0.10  -0.07   0.06    -0.05  -0.03   0.01     0.05   0.03   0.01
   2   6     0.09   0.00  -0.05     0.03   0.01  -0.02    -0.01  -0.01   0.01
   3   6    -0.00   0.23   0.15     0.00   0.08   0.07     0.00   0.03  -0.14
   4   6     0.06   0.17   0.12     0.04   0.07   0.05    -0.04   0.03  -0.15
   5   6    -0.03   0.01  -0.01    -0.02  -0.01   0.00     0.01   0.09  -0.08
   6   6    -0.03  -0.17  -0.09    -0.01  -0.06  -0.05     0.01  -0.07   0.13
   7   6    -0.12  -0.22  -0.08    -0.04  -0.07  -0.04     0.03  -0.10   0.16
   8   6     0.20  -0.05  -0.11     0.07  -0.01  -0.06     0.01  -0.07   0.26
   9   6     0.06   0.01  -0.06     0.03   0.00  -0.04    -0.08   0.05   0.22
  10   6    -0.11   0.04   0.25    -0.04   0.02   0.01     0.02  -0.01   0.04
  11   6     0.12   0.15   0.20     0.04  -0.00  -0.02    -0.01   0.00   0.03
  12   6     0.00   0.01  -0.15    -0.00  -0.00  -0.04     0.01  -0.00  -0.04
  13   6    -0.02   0.03  -0.04    -0.00   0.01  -0.00     0.01   0.01  -0.01
  14   6     0.04  -0.01   0.05     0.00  -0.00  -0.00     0.00   0.00   0.01
  15   6    -0.00  -0.04   0.02     0.00  -0.01  -0.00    -0.00  -0.01   0.00
  16   8    -0.08  -0.08  -0.32     0.01  -0.00  -0.00    -0.02  -0.00  -0.05
  17   7    -0.10  -0.03  -0.03     0.21   0.17   0.39     0.01   0.02   0.05
  18   6    -0.03  -0.01  -0.01     0.11   0.06   0.10     0.01   0.01   0.01
  19   6     0.02   0.02   0.03    -0.03  -0.06  -0.16     0.00  -0.01  -0.02
  20   6     0.05  -0.04  -0.03    -0.08  -0.02  -0.01     0.00  -0.01  -0.01
  21   6     0.02   0.02   0.04    -0.06  -0.05  -0.15    -0.00  -0.02  -0.00
  22   6    -0.03   0.03   0.10     0.10  -0.14  -0.44     0.00  -0.00  -0.05
  23   6    -0.02   0.00   0.01    -0.02   0.01   0.01    -0.01   0.00   0.01
  24   6     0.11   0.01  -0.02    -0.39  -0.04   0.08    -0.03  -0.01   0.01
  25   6    -0.05  -0.03  -0.06     0.18   0.10   0.22     0.01   0.02   0.01
  26   6     0.04   0.02   0.03    -0.04  -0.02  -0.02     0.00   0.00   0.00
  27   8    -0.00  -0.01  -0.00    -0.00   0.00  -0.00     0.00  -0.00   0.00
  28   1    -0.02  -0.02   0.01    -0.02  -0.01   0.03     0.03   0.01  -0.06
  29   1    -0.00  -0.03  -0.06    -0.00   0.00  -0.00     0.00  -0.01  -0.01
  30   1    -0.07  -0.09   0.14    -0.02  -0.02   0.05     0.02  -0.18   0.11
  31   1     0.06  -0.07   0.09     0.03  -0.02   0.03    -0.00  -0.24   0.15
  32   1     0.02   0.09  -0.13     0.01   0.02  -0.04    -0.04   0.18  -0.13
  33   1    -0.08   0.14  -0.14    -0.03   0.03  -0.04    -0.01   0.29  -0.23
  34   1     0.11  -0.04   0.00     0.05  -0.03   0.01    -0.12   0.16  -0.10
  35   1     0.07   0.05  -0.01     0.02   0.04   0.00     0.00  -0.27  -0.05
  36   1     0.01  -0.02   0.00     0.01  -0.02   0.00    -0.06   0.11  -0.02
  37   1     0.01  -0.01   0.01     0.01  -0.00   0.01    -0.05   0.01  -0.07
  38   1     0.02  -0.01  -0.03     0.01  -0.01  -0.01    -0.04   0.01   0.06
  39   1    -0.08   0.00  -0.03    -0.01   0.03  -0.00    -0.00  -0.03   0.00
  40   1    -0.07  -0.05  -0.07     0.03  -0.02   0.02    -0.02  -0.01  -0.01
  41   1     0.04  -0.08  -0.05     0.01  -0.00  -0.01     0.01  -0.01  -0.02
  42   1     0.04   0.03   0.02     0.01   0.01   0.01     0.00   0.00   0.00
  43   1    -0.01  -0.06  -0.01    -0.00  -0.01  -0.00    -0.00  -0.00   0.00
  44   1    -0.06  -0.03  -0.01    -0.01  -0.01   0.00    -0.01  -0.00   0.00
  45   1     0.02   0.07   0.02     0.00   0.01   0.00     0.00   0.00   0.00
  46   1    -0.04  -0.00  -0.00    -0.00   0.01   0.00    -0.00  -0.00   0.00
  47   1    -0.06  -0.03  -0.00    -0.01  -0.01   0.00    -0.01  -0.00   0.00
  48   1     0.03   0.07  -0.02     0.00   0.01   0.00     0.00   0.00   0.00
  49   1    -0.06  -0.01  -0.01     0.14   0.06   0.11     0.01   0.01   0.01
  50   1    -0.00   0.00  -0.00    -0.00   0.00  -0.00    -0.00  -0.00  -0.00
  51   1    -0.01   0.01   0.01     0.02  -0.03  -0.02    -0.01   0.04  -0.01
  52   1     0.02   0.01   0.04    -0.10  -0.05  -0.17    -0.00  -0.03  -0.01
  53   1     0.03   0.02   0.01    -0.11  -0.04  -0.03    -0.01   0.01  -0.01
  54   1    -0.01  -0.01  -0.02     0.03   0.04   0.07     0.00  -0.02   0.02
  55   1    -0.00  -0.00  -0.01     0.02   0.01   0.04     0.00   0.00   0.00
  56   1     0.03   0.00  -0.00    -0.03  -0.00   0.01     0.00   0.00   0.00
  57   1     0.04   0.01   0.01    -0.06  -0.01  -0.01     0.00   0.00   0.00
  58   1     0.19   0.16  -0.02    -0.01   0.01   0.00     0.03   0.01  -0.00
  59   1     0.00   0.00   0.00     0.00  -0.00   0.00    -0.00  -0.00  -0.00
  60   8    -0.00   0.00   0.00     0.00  -0.00   0.00     0.00   0.00  -0.00
  61   1     0.02   0.04   0.01    -0.00  -0.00   0.00     0.00   0.00   0.00
  62   1    -0.00  -0.00   0.00    -0.00   0.00  -0.00    -0.00  -0.00   0.00
  63   7     0.02   0.01   0.03     0.02   0.01   0.03    -0.16  -0.10  -0.18
  64   6    -0.06   0.02   0.06    -0.03   0.01   0.03     0.11  -0.04  -0.16
  65   8    -0.01   0.09   0.01    -0.01   0.05   0.00     0.05  -0.20  -0.02
  66   6     0.00  -0.00  -0.00     0.00  -0.01  -0.00    -0.00   0.04   0.00
  67   6    -0.00  -0.00  -0.00    -0.00  -0.01  -0.00     0.03   0.05   0.03
  68   8    -0.01  -0.01  -0.00    -0.01  -0.01  -0.00     0.04   0.09   0.02
  69   1    -0.00   0.01  -0.00    -0.00   0.00  -0.00     0.03  -0.04   0.02
  70   1    -0.00   0.00  -0.00    -0.00   0.00  -0.00     0.02  -0.03   0.01
  71   1     0.01  -0.00   0.01     0.01  -0.00   0.01    -0.08   0.01  -0.06
  72   7     0.01  -0.11  -0.02     0.00  -0.05  -0.01    -0.01   0.18   0.04
  73   6    -0.03  -0.03   0.01    -0.01  -0.02   0.01     0.03   0.06  -0.01
  74   1    -0.04   0.02   0.02    -0.02   0.01   0.01     0.08  -0.04  -0.04
  75   1    -0.04   0.02   0.02    -0.02   0.01   0.01     0.07  -0.04  -0.04
  76   1     0.05   0.02  -0.02     0.02   0.01  -0.01    -0.10  -0.04   0.05
                     88                     89                     90
                        a                      a                      a 
 Frequencies --   870.5876               872.1426               880.0057
 Red. masses --     3.4983                 6.6145                 9.1380
 Frc consts  --     0.0000                 0.0000                 0.0000
 IR Inten    --     0.6464                12.5681                12.0172
 Raman Activ --     0.0000                 0.0000                 0.0000
 Depolar     --     0.0000                 0.0000                 0.0000
 Atom AN      X      Y      Z        X      Y      Z        X      Y      Z
   1   7    -0.00  -0.01  -0.00    -0.06  -0.02  -0.02    -0.20  -0.11  -0.00
   2   6    -0.00   0.00  -0.00    -0.02  -0.00  -0.01     0.04   0.09  -0.09
   3   6     0.00   0.01  -0.01     0.01   0.14  -0.07     0.04   0.08   0.26
   4   6     0.00   0.02  -0.02     0.04   0.19  -0.08     0.13   0.06   0.21
   5   6    -0.00   0.00  -0.00    -0.01  -0.09   0.06    -0.05   0.12  -0.08
   6   6     0.00  -0.01   0.01     0.03  -0.09   0.04    -0.04  -0.16  -0.17
   7   6     0.00  -0.01   0.02     0.03  -0.10   0.10    -0.13  -0.15  -0.13
   8   6    -0.00  -0.00   0.01    -0.06   0.06  -0.16     0.26  -0.13   0.11
   9   6    -0.00   0.00   0.01     0.02  -0.02  -0.11     0.03   0.04   0.09
  10   6    -0.00  -0.00  -0.02     0.01   0.02  -0.24    -0.06   0.02  -0.18
  11   6    -0.00  -0.01  -0.01    -0.05  -0.10  -0.17     0.06  -0.08  -0.16
  12   6    -0.00   0.00   0.01    -0.03   0.01   0.12    -0.06   0.03   0.14
  13   6    -0.00   0.00   0.00    -0.00  -0.02   0.03    -0.05   0.01   0.03
  14   6     0.00  -0.00  -0.00    -0.02  -0.00  -0.03     0.00  -0.03  -0.03
  15   6     0.00  -0.00  -0.00     0.01   0.03  -0.02     0.04   0.01  -0.02
  16   8     0.00   0.01   0.03     0.08   0.06   0.28     0.07   0.04   0.22
  17   7    -0.01  -0.01  -0.03     0.01  -0.04  -0.11     0.02  -0.03  -0.11
  18   6     0.00  -0.04   0.01    -0.01  -0.01  -0.03    -0.00  -0.01  -0.03
  19   6    -0.01   0.04  -0.00    -0.01  -0.00   0.03    -0.02  -0.00   0.03
  20   6     0.00  -0.00   0.00    -0.02   0.04   0.04    -0.05   0.05   0.04
  21   6    -0.05   0.29  -0.09     0.02  -0.02   0.02     0.02  -0.01  -0.01
  22   6     0.03  -0.16   0.08    -0.01   0.03   0.06     0.00   0.02   0.06
  23   6     0.00  -0.00  -0.00     0.03  -0.00  -0.01     0.03  -0.00  -0.01
  24   6     0.00   0.10  -0.04     0.04  -0.00  -0.01     0.02   0.01  -0.01
  25   6     0.04  -0.26   0.08    -0.02   0.01  -0.03     0.00   0.01  -0.01
  26   6     0.00  -0.00   0.00    -0.02  -0.01  -0.02    -0.02  -0.01  -0.02
  27   8     0.00  -0.00  -0.00     0.00   0.01   0.00     0.00   0.01   0.00
  28   1    -0.00  -0.00   0.01    -0.03  -0.01   0.08    -0.06  -0.05   0.17
  29   1     0.01  -0.00   0.00     0.01   0.02   0.06     0.00   0.02   0.04
  30   1     0.00  -0.03   0.02    -0.01  -0.26   0.20    -0.03   0.19  -0.07
  31   1     0.00  -0.03   0.03     0.04  -0.27   0.22     0.08   0.13  -0.09
  32   1    -0.00   0.02  -0.02    -0.01   0.16  -0.14     0.03  -0.04  -0.04
  33   1    -0.00   0.04  -0.03    -0.01   0.21  -0.17    -0.08   0.01  -0.02
  34   1    -0.00   0.00  -0.00     0.07  -0.10   0.07     0.03   0.10  -0.09
  35   1    -0.00  -0.01  -0.00    -0.02   0.18   0.03     0.08  -0.20  -0.05
  36   1    -0.00   0.00   0.00     0.02  -0.07   0.02    -0.01   0.08  -0.03
  37   1    -0.00   0.00  -0.00     0.03  -0.00   0.04    -0.03  -0.01  -0.05
  38   1    -0.00   0.00   0.00     0.01  -0.01  -0.02    -0.00  -0.00   0.01
  39   1     0.00   0.00  -0.00     0.04   0.06   0.00     0.01   0.12  -0.01
  40   1     0.01   0.01   0.01     0.09   0.06   0.07     0.12   0.05   0.07
  41   1    -0.00  -0.00   0.00    -0.04   0.07   0.05    -0.06   0.05   0.06
  42   1     0.00   0.00   0.00    -0.01  -0.01  -0.01     0.03   0.03   0.02
  43   1     0.00  -0.00  -0.00     0.00   0.02   0.01     0.00  -0.03  -0.02
  44   1    -0.00  -0.00  -0.00     0.02   0.01  -0.01    -0.03  -0.02  -0.00
  45   1     0.00   0.00  -0.00    -0.01  -0.03  -0.01     0.01   0.02  -0.02
  46   1    -0.00   0.00  -0.00     0.03   0.01   0.00     0.01   0.04  -0.00
  47   1    -0.01  -0.00   0.00     0.03   0.01   0.00    -0.03  -0.02   0.01
  48   1     0.00   0.01  -0.00    -0.01  -0.03   0.01     0.02   0.04  -0.00
  49   1    -0.01   0.01  -0.01    -0.00  -0.01  -0.03     0.00  -0.01  -0.03
  50   1    -0.00   0.00   0.00     0.00  -0.00   0.00    -0.00   0.00  -0.00
  51   1     0.11  -0.58   0.20    -0.01   0.05  -0.02     0.01   0.02  -0.01
  52   1    -0.08   0.40  -0.13     0.02  -0.02   0.03     0.01   0.01   0.02
  53   1     0.03  -0.10   0.04     0.01   0.00   0.00     0.01  -0.01   0.01
  54   1    -0.08   0.40  -0.14     0.01  -0.04   0.00     0.01  -0.01  -0.01
  55   1     0.00   0.00  -0.00    -0.01  -0.00  -0.00     0.00   0.00   0.00
  56   1    -0.00  -0.00  -0.00    -0.01  -0.00  -0.00    -0.01  -0.00  -0.00
  57   1     0.00   0.00   0.00    -0.02  -0.00  -0.00    -0.02  -0.01  -0.01
  58   1    -0.01  -0.01   0.00    -0.16  -0.15   0.02    -0.14  -0.11   0.02
  59   1    -0.00   0.01  -0.00    -0.00  -0.00  -0.00    -0.00  -0.00  -0.00
  60   8    -0.00  -0.00   0.00     0.00  -0.00  -0.00     0.00  -0.00   0.00
  61   1     0.01   0.01   0.00    -0.02  -0.03  -0.01    -0.01  -0.03  -0.01
  62   1     0.00   0.00  -0.01     0.00   0.00  -0.00    -0.00   0.00  -0.00
  63   7    -0.00  -0.00  -0.00     0.10   0.07   0.11    -0.12  -0.09  -0.12
  64   6     0.00  -0.00  -0.01    -0.05   0.02   0.07     0.02  -0.00  -0.04
  65   8     0.00  -0.01  -0.00    -0.02   0.08   0.01     0.01  -0.04  -0.00
  66   6     0.00   0.00   0.00     0.01  -0.03   0.00    -0.01   0.04  -0.01
  67   6     0.00   0.00   0.00    -0.02  -0.03  -0.02     0.03   0.04   0.02
  68   8     0.00   0.00   0.00    -0.03  -0.06  -0.02     0.03   0.08   0.02
  69   1     0.00  -0.00   0.00    -0.02   0.02  -0.01     0.02  -0.03   0.01
  70   1     0.00  -0.00   0.00    -0.01   0.02  -0.01     0.01  -0.03   0.01
  71   1    -0.00   0.00  -0.00     0.05  -0.01   0.04    -0.07   0.01  -0.05
  72   7    -0.00   0.01   0.00     0.00  -0.07  -0.02     0.00   0.01   0.00
  73   6     0.00   0.00  -0.00    -0.01  -0.02   0.00    -0.02   0.00   0.01
  74   1     0.00  -0.00  -0.00    -0.03   0.02   0.01     0.00  -0.01  -0.00
  75   1     0.00  -0.00  -0.00    -0.03   0.02   0.02     0.00  -0.01  -0.00
  76   1    -0.00  -0.00   0.00     0.04   0.02  -0.02    -0.02  -0.01   0.01
                     91                     92                     93
                        a                      a                      a 
 Frequencies --   893.6849               902.5253               912.5640
 Red. masses --     4.1185                 3.8028                 2.8879
 Frc consts  --     0.0000                 0.0000                 0.0000
 IR Inten    --     6.7743                 1.0498                 0.1970
 Raman Activ --     0.0000                 0.0000                 0.0000
 Depolar     --     0.0000                 0.0000                 0.0000
 Atom AN      X      Y      Z        X      Y      Z        X      Y      Z
   1   7     0.09   0.09   0.01     0.00  -0.01  -0.00     0.00   0.01   0.02
   2   6     0.01  -0.05   0.04    -0.00   0.00  -0.00     0.01  -0.02   0.02
   3   6    -0.02  -0.01  -0.07     0.00  -0.00   0.00    -0.01  -0.09   0.06
   4   6    -0.05  -0.05  -0.04     0.00   0.00  -0.00    -0.02   0.06  -0.06
   5   6     0.02  -0.01   0.01     0.00  -0.00  -0.00     0.00   0.01   0.01
   6   6     0.01   0.04   0.05    -0.00   0.00   0.00    -0.02   0.23  -0.19
   7   6     0.02   0.04   0.00     0.00   0.00   0.00     0.01  -0.18   0.14
   8   6    -0.04   0.02  -0.01    -0.00  -0.00  -0.00    -0.01   0.01  -0.02
   9   6    -0.01  -0.01  -0.01    -0.00   0.00   0.00     0.00   0.01  -0.03
  10   6    -0.07  -0.01  -0.06     0.00  -0.00   0.01     0.01  -0.01   0.03
  11   6     0.13  -0.18   0.00    -0.01   0.02   0.00     0.01  -0.01  -0.01
  12   6    -0.08   0.00  -0.00     0.01  -0.00  -0.00     0.00  -0.01   0.02
  13   6    -0.21   0.27  -0.01     0.02  -0.02   0.00    -0.01   0.01   0.00
  14   6     0.07  -0.08  -0.02    -0.00   0.00   0.00     0.00  -0.00  -0.00
  15   6     0.14  -0.08  -0.01    -0.01   0.00   0.00     0.01  -0.00  -0.00
  16   8     0.02   0.01   0.06    -0.01  -0.00  -0.01    -0.01   0.00  -0.02
  17   7    -0.01  -0.01  -0.01    -0.00  -0.01   0.01     0.00  -0.00  -0.01
  18   6     0.01  -0.00  -0.02    -0.00   0.00   0.00     0.00  -0.00  -0.00
  19   6    -0.03  -0.00   0.01    -0.01   0.08  -0.03    -0.00  -0.00   0.00
  20   6    -0.07   0.01  -0.01     0.01  -0.02   0.01    -0.01   0.01   0.00
  21   6     0.03  -0.03  -0.04     0.04  -0.20   0.07     0.00   0.00  -0.00
  22   6     0.02  -0.01   0.02     0.05  -0.26   0.09     0.00   0.00   0.00
  23   6    -0.00  -0.01  -0.00    -0.00   0.01  -0.00     0.00   0.00  -0.00
  24   6    -0.01   0.02  -0.00    -0.06   0.32  -0.11     0.00  -0.00   0.00
  25   6     0.02   0.03   0.02    -0.01   0.05  -0.02     0.00   0.00   0.00
  26   6     0.02   0.01   0.02     0.00   0.00  -0.00    -0.00  -0.00  -0.00
  27   8     0.00   0.00   0.00     0.00  -0.01  -0.00     0.00  -0.00   0.00
  28   1     0.05   0.03  -0.10    -0.00  -0.00   0.01     0.01   0.01  -0.02
  29   1     0.00   0.01  -0.02     0.01  -0.01  -0.00     0.00  -0.00  -0.01
  30   1     0.01  -0.05   0.02    -0.00   0.00  -0.00     0.00   0.26  -0.20
  31   1    -0.03   0.01  -0.01     0.00  -0.00   0.00     0.00  -0.21   0.17
  32   1    -0.01   0.01   0.01    -0.00  -0.00   0.00     0.06  -0.48   0.41
  33   1     0.02  -0.03   0.02    -0.00   0.00  -0.00    -0.03   0.37  -0.32
  34   1    -0.01  -0.01   0.01     0.00  -0.00   0.00    -0.00  -0.01   0.01
  35   1    -0.01   0.02   0.01    -0.00   0.00   0.00     0.01   0.03  -0.00
  36   1     0.00  -0.01   0.00    -0.00   0.00   0.00    -0.00  -0.01   0.01
  37   1     0.00   0.00   0.01     0.00  -0.00  -0.00     0.01  -0.00   0.01
  38   1     0.00   0.00   0.00    -0.00   0.00   0.00     0.00  -0.00  -0.00
  39   1    -0.01  -0.02   0.01    -0.00  -0.00  -0.00    -0.00  -0.00   0.00
  40   1     0.04  -0.10   0.01    -0.01   0.01  -0.00     0.00  -0.01  -0.00
  41   1    -0.02  -0.09   0.01     0.00  -0.00  -0.00    -0.00  -0.00   0.01
  42   1     0.20   0.15   0.23    -0.01  -0.01  -0.02     0.01   0.01   0.02
  43   1     0.03  -0.24  -0.15    -0.00   0.02   0.01     0.01  -0.01  -0.01
  44   1    -0.25  -0.17   0.09     0.02   0.01  -0.01    -0.01  -0.01   0.01
  45   1     0.12   0.22  -0.09    -0.01  -0.01   0.01     0.01   0.01  -0.01
  46   1    -0.06   0.15  -0.01     0.00  -0.01   0.00    -0.00   0.01  -0.00
  47   1    -0.33  -0.19   0.05     0.02   0.01  -0.00    -0.02  -0.01   0.00
  48   1     0.12   0.32  -0.03    -0.01  -0.02   0.00     0.01   0.02  -0.00
  49   1    -0.02  -0.00  -0.00    -0.00   0.00   0.00    -0.00  -0.00  -0.00
  50   1    -0.01   0.00  -0.00     0.00   0.00   0.00    -0.00   0.00  -0.00
  51   1     0.02   0.03  -0.02    -0.07   0.35  -0.12     0.00  -0.00   0.00
  52   1     0.00   0.04  -0.00    -0.09   0.42  -0.15     0.00  -0.00   0.00
  53   1     0.01  -0.03   0.02     0.11  -0.58   0.20    -0.00   0.00  -0.00
  54   1     0.02  -0.02   0.01     0.01  -0.08   0.03     0.00   0.00  -0.00
  55   1     0.00   0.00   0.00     0.00   0.00   0.00     0.00   0.00   0.00
  56   1     0.01   0.00   0.00    -0.00   0.00  -0.00    -0.00  -0.00  -0.00
  57   1     0.00   0.01   0.01    -0.00   0.00  -0.00    -0.00  -0.00  -0.00
  58   1     0.02  -0.12   0.01     0.00   0.02  -0.00    -0.00   0.01   0.00
  59   1    -0.00  -0.01  -0.00    -0.00   0.01  -0.00    -0.00  -0.00  -0.00
  60   8     0.00  -0.01   0.00    -0.00  -0.00   0.00     0.00  -0.00   0.00
  61   1    -0.01  -0.01  -0.00     0.01   0.01   0.00     0.00  -0.00  -0.00
  62   1    -0.02   0.00  -0.01     0.00   0.00  -0.01    -0.00   0.00  -0.00
  63   7     0.02   0.01   0.02    -0.00   0.00  -0.00     0.02   0.02   0.02
  64   6    -0.00  -0.00   0.00     0.00  -0.00  -0.00    -0.00   0.00   0.01
  65   8    -0.00   0.00   0.00     0.00  -0.00  -0.00    -0.00   0.01   0.00
  66   6     0.01  -0.00   0.00    -0.00  -0.00  -0.00     0.01  -0.01   0.00
  67   6    -0.01  -0.00  -0.00     0.00  -0.00   0.00    -0.01  -0.00  -0.01
  68   8    -0.01  -0.01  -0.00     0.00  -0.00   0.00    -0.01  -0.02  -0.00
  69   1    -0.00   0.01   0.00    -0.00  -0.00  -0.00    -0.00   0.01  -0.00
  70   1    -0.00   0.00  -0.00    -0.00   0.00  -0.00    -0.00   0.00  -0.00
  71   1     0.00  -0.00   0.01     0.00   0.00   0.00     0.01  -0.00   0.01
  72   7    -0.00   0.00  -0.00    -0.00   0.00   0.00     0.00  -0.01  -0.00
  73   6     0.00   0.00  -0.00     0.00   0.00  -0.00    -0.00  -0.00   0.00
  74   1     0.00   0.00  -0.00     0.00  -0.00  -0.00    -0.00   0.00   0.00
  75   1     0.00   0.00  -0.00     0.00  -0.00  -0.00    -0.01   0.00   0.00
  76   1     0.00   0.00  -0.00    -0.00  -0.00   0.00     0.01   0.00  -0.00
                     94                     95                     96
                        a                      a                      a 
 Frequencies --   921.4484               924.3795               927.3741
 Red. masses --     9.0911                 2.9050                 4.3113
 Frc consts  --     0.0000                 0.0000                 0.0000
 IR Inten    --     0.6850                 0.6445                 0.3263
 Raman Activ --     0.0000                 0.0000                 0.0000
 Depolar     --     0.0000                 0.0000                 0.0000
 Atom AN      X      Y      Z        X      Y      Z        X      Y      Z
   1   7    -0.01   0.05   0.00    -0.00   0.01   0.00     0.01   0.01   0.02
   2   6    -0.00  -0.01   0.01    -0.00  -0.00   0.00     0.00  -0.01  -0.00
   3   6     0.00   0.01  -0.01     0.00   0.00  -0.00    -0.01  -0.19   0.21
   4   6     0.01  -0.00   0.01     0.00  -0.00   0.00    -0.03   0.25  -0.15
   5   6    -0.00   0.00   0.00    -0.00   0.00   0.00     0.00   0.01  -0.01
   6   6     0.00  -0.00  -0.02     0.00  -0.00  -0.00     0.02  -0.14   0.12
   7   6    -0.00  -0.01  -0.00     0.00  -0.00  -0.00    -0.02   0.10  -0.14
   8   6     0.00   0.00   0.01     0.00   0.00   0.00     0.01  -0.03  -0.08
   9   6     0.01  -0.00  -0.01     0.00  -0.00  -0.00    -0.10   0.05   0.08
  10   6     0.01   0.00   0.00     0.00   0.00   0.01    -0.01   0.00   0.04
  11   6     0.03  -0.07   0.01     0.00  -0.01  -0.00     0.02  -0.00  -0.01
  12   6    -0.08  -0.10  -0.07    -0.00   0.00   0.00     0.01  -0.02   0.02
  13   6     0.11   0.08   0.19    -0.01   0.00  -0.00    -0.01   0.01   0.01
  14   6    -0.02  -0.04  -0.14    -0.00  -0.00  -0.00    -0.00  -0.01  -0.01
  15   6     0.02   0.05  -0.13     0.00  -0.00   0.00     0.01   0.00  -0.01
  16   8     0.00  -0.00  -0.00     0.00   0.00  -0.00    -0.01  -0.01  -0.04
  17   7    -0.22  -0.02   0.06     0.01   0.01  -0.00    -0.01  -0.00  -0.00
  18   6     0.04  -0.02  -0.06     0.02  -0.08   0.03     0.00  -0.00  -0.00
  19   6    -0.22  -0.01   0.10    -0.01   0.05  -0.02    -0.01  -0.00   0.01
  20   6    -0.40  -0.11  -0.13     0.00   0.00   0.00    -0.02   0.01  -0.00
  21   6     0.21  -0.05  -0.27     0.00  -0.04   0.02     0.01  -0.00  -0.01
  22   6     0.07   0.06   0.13    -0.04   0.21  -0.08     0.00   0.01   0.01
  23   6    -0.07  -0.04  -0.05     0.00   0.00   0.00    -0.00  -0.00  -0.00
  24   6    -0.02   0.01   0.02    -0.03   0.14  -0.04    -0.00   0.00   0.00
  25   6     0.16   0.08   0.15     0.05  -0.27   0.09     0.01   0.00   0.01
  26   6     0.26   0.09   0.08    -0.01  -0.00  -0.00     0.01  -0.00  -0.00
  27   8    -0.00  -0.00  -0.00    -0.00   0.00   0.00    -0.00  -0.00  -0.00
  28   1    -0.00   0.02  -0.03    -0.00   0.00  -0.01    -0.00   0.01  -0.03
  29   1     0.00  -0.00   0.00    -0.01   0.00  -0.00    -0.00   0.00  -0.02
  30   1    -0.00  -0.02   0.01     0.00  -0.00   0.00    -0.01   0.43  -0.31
  31   1     0.00   0.02  -0.01     0.00   0.00  -0.00     0.01  -0.39   0.33
  32   1     0.00  -0.01   0.01     0.00  -0.00   0.00    -0.00   0.21  -0.17
  33   1    -0.00   0.00  -0.01    -0.00   0.00  -0.00     0.01  -0.19   0.14
  34   1    -0.00   0.00  -0.00    -0.00   0.00  -0.00     0.07  -0.04   0.02
  35   1     0.00  -0.01  -0.00     0.00  -0.00  -0.00     0.00   0.07   0.02
  36   1     0.01   0.00  -0.00     0.00   0.00  -0.00    -0.07  -0.02   0.06
  37   1    -0.00  -0.00  -0.00    -0.00  -0.00   0.00     0.01   0.01   0.01
  38   1     0.00   0.00  -0.00     0.00   0.00  -0.00    -0.03  -0.01   0.02
  39   1     0.00   0.01   0.00     0.00   0.00   0.00    -0.01   0.00   0.00
  40   1    -0.00  -0.01  -0.01     0.00  -0.01   0.00     0.00  -0.02  -0.01
  41   1     0.11  -0.01  -0.11    -0.01   0.01   0.00     0.01  -0.01   0.00
  42   1    -0.04   0.00  -0.01     0.00   0.00   0.01     0.00   0.00   0.02
  43   1    -0.01   0.08   0.10     0.00  -0.00  -0.00     0.01  -0.00  -0.01
  44   1     0.01  -0.01  -0.02    -0.00  -0.00   0.00    -0.01  -0.01   0.01
  45   1    -0.07  -0.08   0.03     0.00   0.00  -0.00     0.00   0.00  -0.01
  46   1     0.19   0.17   0.02    -0.00   0.00  -0.00     0.01   0.02  -0.00
  47   1     0.01  -0.02   0.07    -0.01  -0.00   0.00    -0.02  -0.01   0.01
  48   1    -0.09  -0.11   0.09     0.00   0.01  -0.00     0.00   0.01   0.00
  49   1    -0.20  -0.03   0.02     0.00   0.00  -0.00    -0.01  -0.00  -0.00
  50   1     0.00  -0.00   0.00    -0.00  -0.01  -0.00    -0.00   0.00  -0.00
  51   1     0.14   0.01  -0.05    -0.04   0.19  -0.06     0.01   0.00  -0.00
  52   1     0.09   0.03   0.06     0.10  -0.49   0.17     0.01  -0.00   0.01
  53   1     0.01   0.01   0.05     0.06  -0.34   0.12     0.00  -0.00   0.00
  54   1     0.09   0.03   0.01    -0.11   0.57  -0.19     0.00   0.01  -0.00
  55   1     0.12   0.05   0.08    -0.00   0.00  -0.00     0.01   0.01   0.01
  56   1     0.06   0.03   0.06    -0.01  -0.00  -0.00     0.00   0.00   0.00
  57   1     0.02   0.01   0.02     0.00   0.00   0.00    -0.00   0.00  -0.00
  58   1     0.02  -0.00  -0.00    -0.00  -0.00   0.00    -0.01   0.03   0.00
  59   1     0.00   0.00   0.00     0.00  -0.01   0.00     0.00   0.00   0.00
  60   8    -0.00   0.00  -0.00     0.00   0.00  -0.00     0.00   0.00   0.00
  61   1     0.01   0.02   0.01    -0.01  -0.01  -0.00     0.00   0.00   0.00
  62   1     0.01  -0.00   0.00    -0.01  -0.00   0.01    -0.00   0.00  -0.00
  63   7    -0.00  -0.00  -0.00    -0.00  -0.00   0.00     0.03   0.05   0.01
  64   6    -0.00   0.00   0.01    -0.00   0.00   0.00     0.02  -0.02  -0.06
  65   8    -0.00   0.01   0.00    -0.00   0.00   0.00     0.03  -0.07  -0.02
  66   6    -0.00   0.00  -0.00    -0.00   0.00  -0.00     0.03  -0.03   0.03
  67   6     0.00   0.00   0.00     0.00   0.00  -0.00    -0.03  -0.00  -0.02
  68   8     0.00   0.00   0.00     0.00   0.00   0.00    -0.02  -0.04  -0.02
  69   1     0.00  -0.00   0.00    -0.00   0.00  -0.00     0.00   0.00   0.01
  70   1    -0.00  -0.00  -0.00     0.00  -0.00   0.00     0.01   0.00   0.00
  71   1    -0.00   0.00  -0.00    -0.00   0.00  -0.00     0.03  -0.01   0.02
  72   7     0.00  -0.01  -0.00     0.00  -0.00  -0.00    -0.01   0.05   0.01
  73   6    -0.00  -0.00   0.00    -0.00  -0.00   0.00     0.03   0.02  -0.01
  74   1    -0.00   0.00   0.00    -0.00   0.00   0.00     0.03  -0.01  -0.01
  75   1    -0.00   0.00   0.00    -0.00   0.00   0.00     0.03  -0.01  -0.02
  76   1     0.00   0.00  -0.00     0.00   0.00  -0.00    -0.03  -0.01   0.02
                     97                     98                     99
                        a                      a                      a 
 Frequencies --   932.9822               953.1385               977.9672
 Red. masses --     8.7069                 6.6529                10.7200
 Frc consts  --     0.0000                 0.0000                 0.0000
 IR Inten    --     1.0120                17.3577                18.9951
 Raman Activ --     0.0000                 0.0000                 0.0000
 Depolar     --     0.0000                 0.0000                 0.0000
 Atom AN      X      Y      Z        X      Y      Z        X      Y      Z
   1   7     0.01   0.01  -0.01     0.03  -0.02   0.01     0.00  -0.01   0.00
   2   6    -0.02   0.01   0.03     0.01  -0.00  -0.00     0.01  -0.01  -0.01
   3   6     0.03  -0.12  -0.04    -0.00  -0.01   0.01    -0.01   0.03   0.03
   4   6    -0.02   0.03  -0.13    -0.02  -0.01  -0.01    -0.00   0.02   0.01
   5   6    -0.03   0.01   0.04     0.00   0.00  -0.00     0.02  -0.05   0.02
   6   6    -0.01  -0.07   0.01    -0.00   0.01   0.02     0.01   0.03   0.01
   7   6     0.01   0.06   0.01    -0.00  -0.00  -0.00    -0.01  -0.01  -0.02
   8   6    -0.02   0.12   0.25    -0.00   0.00  -0.00     0.00   0.18  -0.19
   9   6     0.36  -0.17  -0.30    -0.00  -0.00   0.00    -0.12  -0.08   0.11
  10   6     0.02  -0.01   0.01    -0.06  -0.01  -0.11    -0.01   0.01  -0.00
  11   6    -0.01  -0.00   0.00     0.04  -0.01   0.00     0.00   0.01  -0.00
  12   6     0.00  -0.00  -0.00     0.06   0.11   0.03     0.00  -0.00   0.00
  13   6     0.00   0.00  -0.00     0.05  -0.02  -0.36    -0.00  -0.00   0.01
  14   6     0.00   0.00   0.00     0.07   0.11   0.20     0.00  -0.00  -0.00
  15   6     0.00  -0.00   0.00    -0.15  -0.11   0.30     0.00   0.00  -0.01
  16   8    -0.00  -0.00  -0.01     0.02   0.01   0.08    -0.00  -0.00  -0.00
  17   7     0.00   0.00   0.00    -0.11  -0.01   0.03     0.00   0.00   0.00
  18   6    -0.00   0.00   0.00     0.01  -0.00  -0.02    -0.00  -0.00   0.00
  19   6     0.00   0.00  -0.00    -0.15  -0.00   0.05     0.00  -0.00  -0.00
  20   6     0.01   0.00   0.00    -0.19  -0.09  -0.05     0.00   0.00  -0.00
  21   6    -0.00   0.00   0.00     0.10  -0.03  -0.13    -0.00   0.00   0.00
  22   6    -0.00  -0.00  -0.00     0.03   0.03   0.05    -0.00   0.00  -0.00
  23   6     0.00   0.00   0.00    -0.03  -0.02  -0.05     0.00   0.00  -0.00
  24   6     0.00  -0.00  -0.00    -0.01   0.00   0.01     0.00  -0.00  -0.00
  25   6    -0.00  -0.00  -0.00     0.08   0.04   0.08    -0.00  -0.00  -0.00
  26   6    -0.00  -0.00  -0.00     0.14   0.03   0.03    -0.00  -0.00  -0.00
  27   8     0.00  -0.00   0.00     0.00   0.00   0.00     0.00   0.00   0.00
  28   1     0.01   0.00  -0.01     0.02  -0.02   0.01    -0.00  -0.00   0.00
  29   1    -0.00  -0.00  -0.00     0.00   0.01  -0.00    -0.00   0.00  -0.00
  30   1     0.05   0.08  -0.09     0.00   0.02  -0.01    -0.01   0.00   0.01
  31   1     0.02  -0.19   0.09    -0.00  -0.01   0.00    -0.01   0.01   0.01
  32   1    -0.03   0.06  -0.07     0.00   0.00   0.01     0.02  -0.01   0.02
  33   1    -0.00  -0.02   0.05     0.00   0.00  -0.00     0.01  -0.01  -0.01
  34   1    -0.24   0.12  -0.04    -0.00   0.00   0.00     0.14   0.01   0.00
  35   1     0.04  -0.21  -0.08     0.00   0.00  -0.00    -0.03   0.16   0.02
  36   1     0.19   0.05  -0.17    -0.00  -0.00   0.00    -0.11  -0.00   0.02
  37   1    -0.03  -0.02  -0.01     0.00  -0.00  -0.00    -0.02  -0.04  -0.04
  38   1     0.08   0.01  -0.07    -0.00   0.00  -0.00    -0.01   0.01   0.00
  39   1     0.00  -0.01   0.00    -0.01  -0.01  -0.01    -0.00   0.00  -0.00
  40   1    -0.01  -0.00  -0.00     0.00   0.00  -0.01     0.00   0.00   0.00
  41   1    -0.00  -0.00   0.00     0.05  -0.02  -0.01     0.00  -0.00   0.00
  42   1     0.00   0.00   0.00     0.06   0.04  -0.13    -0.00  -0.00   0.00
  43   1     0.00   0.00  -0.00     0.04   0.01  -0.14    -0.00  -0.00   0.00
  44   1    -0.00  -0.00   0.00     0.07   0.09  -0.05    -0.00  -0.00   0.00
  45   1     0.00   0.00  -0.00     0.09   0.11  -0.03    -0.00   0.00   0.00
  46   1    -0.00   0.00  -0.00    -0.35  -0.40  -0.02     0.01   0.01   0.00
  47   1    -0.00  -0.00  -0.00     0.08   0.10  -0.15    -0.01  -0.00   0.00
  48   1     0.00   0.00  -0.00     0.12   0.08  -0.15    -0.00   0.00   0.00
  49   1     0.00   0.00   0.00    -0.11  -0.02   0.01     0.00  -0.00   0.00
  50   1    -0.00   0.00  -0.00    -0.00  -0.00  -0.00    -0.00   0.00  -0.00
  51   1    -0.00  -0.00   0.00     0.07   0.01  -0.03    -0.00  -0.00   0.00
  52   1    -0.00   0.00  -0.00     0.05   0.01   0.03    -0.00  -0.00   0.00
  53   1    -0.00   0.00  -0.00     0.00   0.01   0.02    -0.00  -0.00  -0.00
  54   1    -0.00  -0.00   0.00     0.04   0.01   0.01    -0.00   0.00  -0.00
  55   1    -0.00  -0.00  -0.00     0.08   0.04   0.06     0.00   0.00  -0.00
  56   1    -0.00  -0.00  -0.00     0.02   0.01   0.03    -0.00  -0.00  -0.00
  57   1     0.00  -0.00  -0.00    -0.03   0.00   0.01     0.00   0.00   0.00
  58   1     0.00   0.00  -0.00     0.01  -0.07  -0.00     0.00   0.00   0.00
  59   1    -0.00  -0.00  -0.00     0.00  -0.00   0.00     0.00  -0.00   0.00
  60   8     0.00  -0.00   0.00     0.00  -0.00   0.00     0.00  -0.00   0.00
  61   1     0.00  -0.00  -0.00    -0.01  -0.01  -0.00    -0.00  -0.00  -0.00
  62   1    -0.00   0.00  -0.00    -0.01   0.00  -0.00    -0.00   0.00  -0.00
  63   7    -0.07  -0.17  -0.00    -0.00  -0.00   0.00    -0.01  -0.37   0.01
  64   6    -0.07   0.08   0.18    -0.00  -0.00  -0.00    -0.02  -0.03  -0.06
  65   8    -0.12   0.25   0.05     0.00  -0.00  -0.00     0.03  -0.06  -0.01
  66   6    -0.12   0.08  -0.10    -0.01  -0.00  -0.01    -0.34   0.01  -0.30
  67   6     0.10  -0.01   0.07     0.01  -0.00   0.00     0.25  -0.17   0.27
  68   8     0.07   0.12   0.06     0.00   0.00   0.00     0.23   0.30   0.15
  69   1    -0.03   0.01  -0.03    -0.00   0.00  -0.00    -0.18   0.14  -0.12
  70   1    -0.03   0.01  -0.02    -0.00   0.00  -0.00    -0.18   0.14  -0.13
  71   1    -0.07   0.02  -0.06     0.00   0.00   0.00     0.02   0.01   0.03
  72   7     0.03  -0.17  -0.05    -0.00   0.00   0.00    -0.03   0.05   0.03
  73   6    -0.10  -0.09   0.05     0.00   0.00  -0.00     0.06   0.03  -0.03
  74   1    -0.11   0.05   0.05     0.00  -0.00  -0.00     0.03  -0.01  -0.01
  75   1    -0.11   0.05   0.06     0.00  -0.00  -0.00     0.04  -0.01  -0.02
  76   1     0.12   0.05  -0.06    -0.00  -0.00   0.00    -0.02  -0.01   0.01
                    100                    101                    102
                        a                      a                      a 
 Frequencies --   991.4353               994.0269               997.1840
 Red. masses --     5.9759                 5.2333                 7.4954
 Frc consts  --     0.0000                 0.0000                 0.0000
 IR Inten    --     9.9241                 1.9079                14.4151
 Raman Activ --     0.0000                 0.0000                 0.0000
 Depolar     --     0.0000                 0.0000                 0.0000
 Atom AN      X      Y      Z        X      Y      Z        X      Y      Z
   1   7     0.01  -0.01  -0.00    -0.00   0.04  -0.00     0.08   0.02  -0.02
   2   6     0.04   0.00   0.01    -0.00  -0.01   0.01     0.08  -0.05   0.02
   3   6     0.02   0.03   0.03    -0.00  -0.00   0.00     0.01   0.05   0.02
   4   6    -0.03  -0.08  -0.07    -0.00   0.01   0.00    -0.08  -0.07  -0.09
   5   6     0.04   0.09  -0.05    -0.00  -0.01   0.01     0.04  -0.03   0.01
   6   6    -0.01  -0.00   0.03     0.01   0.00  -0.00     0.01   0.10   0.10
   7   6    -0.06  -0.05  -0.05     0.00   0.00  -0.01    -0.02  -0.03  -0.06
   8   6     0.07   0.00   0.22    -0.01   0.00  -0.03    -0.06   0.03  -0.03
   9   6    -0.17  -0.01  -0.14     0.02  -0.00   0.02     0.03  -0.02   0.02
  10   6    -0.07   0.01   0.06     0.00  -0.01   0.03    -0.22   0.02   0.34
  11   6     0.09  -0.02  -0.04     0.07  -0.08   0.02     0.33  -0.10  -0.21
  12   6    -0.05   0.04   0.01    -0.11   0.01  -0.05    -0.13   0.14   0.09
  13   6     0.00  -0.00   0.00     0.07   0.07  -0.03    -0.03  -0.04   0.01
  14   6     0.01  -0.01   0.00     0.03   0.01   0.02     0.01  -0.05  -0.00
  15   6    -0.02   0.01  -0.00    -0.05  -0.01   0.02    -0.02   0.07   0.00
  16   8     0.00  -0.01  -0.03    -0.00  -0.00  -0.02     0.00  -0.05  -0.17
  17   7     0.04  -0.01  -0.05     0.19  -0.05  -0.24     0.04  -0.02  -0.09
  18   6     0.00   0.00  -0.00     0.04   0.02   0.03    -0.00  -0.01  -0.03
  19   6    -0.02  -0.00   0.01    -0.11  -0.00   0.06    -0.06  -0.00   0.04
  20   6    -0.03   0.01   0.03    -0.14  -0.03  -0.00    -0.06   0.08   0.14
  21   6     0.01  -0.00  -0.02     0.05  -0.02  -0.10     0.02  -0.00  -0.03
  22   6     0.00  -0.00  -0.00     0.02  -0.01  -0.03     0.01  -0.00   0.00
  23   6     0.01   0.01   0.01    -0.02   0.00   0.09     0.05   0.03   0.01
  24   6    -0.01  -0.00   0.00    -0.06  -0.00   0.02    -0.01  -0.00   0.01
  25   6     0.01   0.00   0.01     0.06   0.03   0.04     0.01   0.01   0.01
  26   6    -0.03  -0.00   0.02    -0.20   0.10   0.32    -0.02  -0.06  -0.10
  27   8    -0.00   0.00  -0.00    -0.00  -0.00  -0.00    -0.00   0.00  -0.00
  28   1     0.02  -0.01   0.00     0.00   0.01  -0.02     0.05  -0.01  -0.04
  29   1    -0.00   0.00  -0.04     0.00  -0.00  -0.01    -0.00   0.02  -0.20
  30   1     0.06   0.01   0.02     0.01   0.01  -0.00     0.03  -0.03   0.05
  31   1     0.01  -0.01  -0.06    -0.00  -0.00   0.01    -0.01  -0.03  -0.04
  32   1     0.00   0.02  -0.01     0.01  -0.00   0.00     0.03   0.02   0.04
  33   1    -0.02  -0.00  -0.02     0.00  -0.01   0.00     0.03  -0.04  -0.03
  34   1    -0.18   0.08  -0.03     0.02  -0.01   0.01    -0.00  -0.01   0.01
  35   1     0.17  -0.10  -0.10    -0.02   0.02   0.01    -0.04   0.02   0.02
  36   1    -0.00   0.01  -0.05    -0.00  -0.00   0.01     0.01  -0.01   0.01
  37   1    -0.04   0.19  -0.03     0.01  -0.02   0.01     0.01  -0.04   0.01
  38   1    -0.01   0.01   0.01     0.00  -0.00  -0.00     0.00   0.00  -0.00
  39   1    -0.01   0.03   0.02     0.00   0.01   0.01    -0.04   0.08   0.09
  40   1     0.06  -0.03   0.04     0.01  -0.03   0.00     0.26  -0.17   0.16
  41   1    -0.03   0.02   0.02     0.01  -0.02  -0.03    -0.16   0.12   0.10
  42   1     0.02   0.02  -0.04     0.04   0.05  -0.07     0.06   0.07  -0.11
  43   1    -0.02  -0.01   0.03    -0.00   0.02   0.03    -0.06  -0.05   0.07
  44   1     0.01   0.01  -0.03     0.02   0.02  -0.05     0.02   0.03  -0.09
  45   1    -0.02  -0.01   0.03    -0.02   0.00   0.05    -0.05  -0.02   0.07
  46   1     0.01  -0.01   0.00    -0.01  -0.04   0.00     0.02  -0.03   0.00
  47   1     0.03   0.02   0.00     0.04   0.02  -0.01     0.09   0.06  -0.02
  48   1    -0.01  -0.03   0.00    -0.02  -0.04   0.00    -0.02  -0.07   0.00
  49   1     0.02  -0.00  -0.01     0.19   0.02  -0.07    -0.03  -0.02  -0.02
  50   1     0.00   0.00   0.00    -0.00   0.00  -0.00     0.00   0.00   0.00
  51   1     0.01  -0.00  -0.00     0.03  -0.00  -0.02     0.02   0.00  -0.00
  52   1     0.00   0.00  -0.00     0.03   0.01  -0.00     0.01   0.01   0.00
  53   1    -0.00   0.00   0.00    -0.01   0.00   0.02    -0.00   0.00   0.01
  54   1     0.00   0.00   0.00     0.02   0.01   0.00     0.01  -0.00   0.00
  55   1    -0.04  -0.02  -0.03    -0.39  -0.18  -0.35     0.07   0.04   0.06
  56   1     0.00  -0.00  -0.02     0.14  -0.02  -0.14    -0.08  -0.00   0.01
  57   1     0.03   0.01   0.01     0.44   0.07   0.09    -0.12  -0.02  -0.03
  58   1    -0.03   0.00   0.01     0.02  -0.04   0.00    -0.17   0.05   0.05
  59   1    -0.00  -0.00  -0.00     0.00  -0.00   0.00    -0.00  -0.00  -0.00
  60   8    -0.00  -0.00   0.00    -0.00  -0.00  -0.00     0.00  -0.00   0.00
  61   1    -0.00  -0.00  -0.00     0.00   0.00   0.00    -0.00  -0.02  -0.01
  62   1     0.00  -0.00  -0.00     0.00  -0.00   0.00    -0.00   0.00  -0.00
  63   7     0.12   0.27   0.07    -0.01  -0.04  -0.01    -0.02  -0.06  -0.00
  64   6    -0.01  -0.04   0.06     0.00   0.00  -0.01    -0.01   0.00  -0.01
  65   8     0.00  -0.02  -0.02    -0.00   0.00   0.00    -0.00   0.01   0.00
  66   6     0.01  -0.32  -0.15    -0.00   0.04   0.02    -0.04   0.07   0.07
  67   6    -0.10  -0.01   0.10     0.01   0.00  -0.01     0.05   0.00  -0.07
  68   8     0.05  -0.08   0.00    -0.01   0.01   0.00    -0.02   0.01   0.01
  69   1    -0.13   0.18  -0.01     0.02  -0.02  -0.00    -0.00  -0.02  -0.04
  70   1    -0.23   0.23  -0.15     0.03  -0.03   0.02     0.11  -0.07   0.06
  71   1     0.34  -0.07   0.33    -0.04   0.01  -0.05    -0.07   0.02  -0.10
  72   7    -0.03   0.04   0.01     0.00  -0.00  -0.00     0.00  -0.00   0.00
  73   6     0.06   0.03  -0.02    -0.01  -0.00   0.00     0.00  -0.00  -0.00
  74   1     0.04  -0.01  -0.02    -0.00   0.00   0.00    -0.00   0.00   0.00
  75   1     0.02  -0.01  -0.02    -0.00   0.00   0.00     0.00   0.00   0.00
  76   1    -0.02  -0.01   0.00     0.00   0.00  -0.00     0.00   0.00  -0.00
                    103                    104                    105
                        a                      a                      a 
 Frequencies --  1005.1059              1006.6911              1021.4687
 Red. masses --     5.4280                 9.5229                 6.3127
 Frc consts  --     0.0000                 0.0000                 0.0000
 IR Inten    --    27.5253                30.8391                13.0135
 Raman Activ --     0.0000                 0.0000                 0.0000
 Depolar     --     0.0000                 0.0000                 0.0000
 Atom AN      X      Y      Z        X      Y      Z        X      Y      Z
   1   7    -0.01  -0.02   0.01    -0.07   0.22  -0.07    -0.04  -0.05  -0.02
   2   6     0.01   0.01  -0.01    -0.15   0.01   0.05     0.02   0.00  -0.03
   3   6     0.01   0.01   0.02    -0.05  -0.14  -0.19     0.03   0.07   0.07
   4   6    -0.01  -0.02  -0.02     0.15   0.19   0.23    -0.01  -0.06  -0.06
   5   6     0.01   0.03  -0.01    -0.10   0.02   0.01     0.03  -0.02  -0.01
   6   6    -0.00  -0.00   0.01    -0.02  -0.21  -0.25     0.02   0.06   0.07
   7   6    -0.02  -0.02  -0.02     0.09   0.15   0.17    -0.03  -0.05  -0.05
   8   6     0.02   0.00   0.06     0.09  -0.06  -0.01    -0.03   0.02   0.01
   9   6    -0.05  -0.01  -0.03    -0.01   0.05   0.00    -0.00  -0.02  -0.01
  10   6     0.00   0.01  -0.06     0.31  -0.11   0.29     0.08   0.05   0.25
  11   6    -0.04   0.04   0.03    -0.08  -0.23  -0.09    -0.19   0.14  -0.22
  12   6     0.02  -0.02  -0.01    -0.05  -0.01   0.05     0.28  -0.08   0.14
  13   6     0.00  -0.01   0.00     0.05   0.05  -0.04    -0.06  -0.20   0.06
  14   6    -0.00   0.01  -0.00     0.00   0.02   0.00    -0.14   0.01  -0.06
  15   6     0.01  -0.01  -0.00    -0.01  -0.02   0.05     0.14  -0.01   0.04
  16   8     0.00   0.01   0.03    -0.02  -0.01  -0.13    -0.01  -0.02  -0.14
  17   7    -0.01   0.00   0.01     0.02  -0.01  -0.04     0.00  -0.02  -0.04
  18   6     0.00   0.00   0.01    -0.00  -0.00  -0.01     0.00   0.01   0.01
  19   6     0.01   0.00  -0.01    -0.03  -0.00   0.02    -0.09  -0.01   0.04
  20   6     0.01  -0.01  -0.02    -0.03   0.04   0.06    -0.09   0.00  -0.05
  21   6    -0.00   0.00   0.00     0.01  -0.00  -0.01     0.04  -0.01  -0.06
  22   6    -0.00   0.00   0.00     0.01  -0.01  -0.00     0.01   0.00   0.00
  23   6    -0.01  -0.01  -0.00     0.02   0.02   0.01    -0.03  -0.00  -0.02
  24   6     0.00  -0.00  -0.00    -0.01   0.00   0.00    -0.02   0.00   0.01
  25   6    -0.00  -0.00   0.00     0.00   0.00   0.00     0.03   0.02   0.03
  26   6     0.00   0.01   0.02    -0.01  -0.03  -0.04     0.01   0.02   0.09
  27   8     0.00  -0.00   0.00    -0.00  -0.00  -0.00    -0.00  -0.00  -0.00
  28   1    -0.00  -0.01   0.02    -0.08   0.12  -0.11    -0.06   0.02   0.03
  29   1     0.00  -0.00   0.03     0.00  -0.01  -0.02    -0.00  -0.00  -0.04
  30   1     0.02   0.01   0.01    -0.16  -0.08  -0.06     0.04  -0.02   0.06
  31   1     0.01  -0.01  -0.02    -0.04   0.10   0.13     0.04  -0.03  -0.07
  32   1     0.00   0.01  -0.00    -0.11  -0.07  -0.08     0.04   0.03   0.02
  33   1    -0.01  -0.00  -0.01    -0.06   0.09   0.12     0.03  -0.03  -0.04
  34   1    -0.05   0.02  -0.01     0.05   0.00  -0.02    -0.02   0.01   0.00
  35   1     0.06  -0.02  -0.03     0.04  -0.01  -0.01    -0.01  -0.00   0.00
  36   1    -0.01  -0.00  -0.01    -0.02   0.02  -0.00     0.01  -0.00  -0.01
  37   1    -0.02   0.06  -0.01    -0.01   0.02  -0.01    -0.00   0.00   0.00
  38   1    -0.02   0.00  -0.01    -0.00  -0.00  -0.00     0.00   0.00   0.00
  39   1    -0.00  -0.00  -0.02     0.07  -0.02   0.06     0.02   0.06   0.06
  40   1    -0.03   0.03  -0.02     0.04  -0.11   0.05     0.06   0.03   0.08
  41   1     0.03  -0.02  -0.01    -0.08   0.10   0.04     0.08   0.19  -0.01
  42   1    -0.02  -0.02   0.02    -0.00   0.01  -0.02    -0.19  -0.22   0.19
  43   1     0.01   0.01  -0.01     0.04   0.05  -0.04     0.14   0.15  -0.20
  44   1    -0.01  -0.01   0.02     0.00   0.00   0.02    -0.02  -0.05   0.16
  45   1     0.01   0.01  -0.01     0.02   0.02  -0.03     0.11   0.01  -0.23
  46   1     0.00   0.01  -0.00    -0.05  -0.05  -0.00    -0.08   0.01  -0.02
  47   1    -0.02  -0.01   0.00    -0.00   0.00  -0.02    -0.10  -0.05  -0.02
  48   1     0.00   0.01   0.00     0.02   0.02  -0.02     0.11   0.18  -0.06
  49   1     0.00   0.00   0.00    -0.01  -0.01  -0.01     0.02  -0.00  -0.01
  50   1    -0.00  -0.00  -0.00     0.00   0.00   0.00     0.00  -0.00   0.00
  51   1    -0.00  -0.00  -0.00     0.01  -0.00   0.00     0.03   0.00  -0.01
  52   1    -0.00  -0.00   0.00     0.01   0.02  -0.00     0.06   0.02   0.02
  53   1     0.00  -0.00  -0.00    -0.00   0.00   0.01    -0.00   0.01   0.02
  54   1    -0.00   0.00   0.00     0.00  -0.00   0.00     0.01   0.00   0.01
  55   1    -0.01  -0.01  -0.01     0.03   0.02   0.02    -0.05  -0.01  -0.05
  56   1     0.01   0.00  -0.00    -0.04  -0.00  -0.00     0.02  -0.00  -0.03
  57   1     0.02   0.00   0.00    -0.05  -0.00  -0.01     0.10   0.03   0.03
  58   1     0.02  -0.01  -0.01    -0.09   0.04   0.01    -0.19   0.13   0.00
  59   1    -0.00   0.00  -0.00    -0.01   0.00  -0.00    -0.01   0.01  -0.00
  60   8     0.00   0.00  -0.00     0.00   0.00   0.00     0.00   0.00   0.00
  61   1    -0.00   0.00   0.00     0.01   0.00  -0.00     0.01  -0.00  -0.00
  62   1     0.00   0.00   0.00    -0.00  -0.00  -0.00    -0.00   0.00  -0.00
  63   7     0.01   0.08   0.06    -0.01   0.03  -0.00     0.01  -0.00   0.00
  64   6    -0.03  -0.02   0.02     0.02   0.01  -0.01    -0.01  -0.01   0.01
  65   8     0.01  -0.01  -0.01     0.00  -0.01  -0.00    -0.00   0.00   0.00
  66   6    -0.30  -0.11   0.26    -0.04  -0.06   0.00     0.01   0.01  -0.01
  67   6     0.27  -0.02  -0.32     0.02  -0.00  -0.01    -0.01   0.00   0.01
  68   8    -0.02  -0.01   0.09     0.02   0.01   0.02    -0.00  -0.00  -0.01
  69   1    -0.32   0.19  -0.41    -0.06   0.05  -0.05     0.01  -0.01   0.02
  70   1     0.42  -0.08   0.18     0.01   0.03  -0.00    -0.01  -0.00  -0.00
  71   1     0.20   0.02  -0.10     0.07  -0.01   0.04    -0.01  -0.00  -0.00
  72   7    -0.02   0.02   0.02     0.01  -0.01  -0.01    -0.01   0.01   0.00
  73   6     0.04   0.02  -0.02    -0.02  -0.01   0.01     0.01   0.00  -0.01
  74   1     0.02  -0.01  -0.01    -0.01   0.00   0.00     0.00  -0.00  -0.00
  75   1     0.02  -0.01  -0.01    -0.01   0.00   0.00     0.00  -0.00  -0.00
  76   1    -0.01  -0.00   0.00    -0.00   0.00   0.00     0.00  -0.00  -0.00
                    106                    107                    108
                        a                      a                      a 
 Frequencies --  1028.9960              1031.9146              1037.8328
 Red. masses --     9.0931                 4.3979                 8.4807
 Frc consts  --     0.0000                 0.0000                 0.0000
 IR Inten    --    42.6821                 8.6726                29.1381
 Raman Activ --     0.0000                 0.0000                 0.0000
 Depolar     --     0.0000                 0.0000                 0.0000
 Atom AN      X      Y      Z        X      Y      Z        X      Y      Z
   1   7    -0.22   0.17  -0.02     0.02  -0.01  -0.00     0.03  -0.02  -0.01
   2   6    -0.04   0.04  -0.03     0.00  -0.01   0.00    -0.01   0.02   0.03
   3   6     0.06   0.17   0.20    -0.01  -0.01  -0.02    -0.01  -0.06  -0.07
   4   6    -0.02  -0.10  -0.12     0.00   0.01   0.01     0.02   0.02   0.03
   5   6     0.07  -0.01  -0.01    -0.01  -0.00   0.00     0.03   0.07  -0.01
   6   6     0.08   0.08   0.09    -0.01  -0.01  -0.01    -0.04  -0.10  -0.11
   7   6    -0.11  -0.17  -0.18     0.01   0.01   0.01    -0.04   0.03   0.04
   8   6    -0.04   0.09   0.02     0.00  -0.01  -0.00     0.15   0.28   0.07
   9   6    -0.03  -0.08  -0.01     0.00   0.01   0.00    -0.15  -0.27  -0.09
  10   6     0.39  -0.03   0.12    -0.03   0.00   0.03    -0.05  -0.02  -0.02
  11   6    -0.18  -0.31   0.06     0.02   0.02  -0.02     0.03   0.05  -0.01
  12   6    -0.15  -0.07  -0.05     0.02   0.02   0.01     0.02   0.01   0.01
  13   6     0.12   0.16  -0.06    -0.02  -0.02   0.00    -0.02  -0.02   0.01
  14   6     0.05   0.06   0.02    -0.01  -0.00  -0.01    -0.01  -0.01  -0.00
  15   6    -0.06  -0.06   0.03     0.01   0.00   0.00     0.01   0.01  -0.00
  16   8    -0.01   0.02  -0.07    -0.00  -0.01  -0.01     0.00  -0.00   0.02
  17   7     0.00   0.01   0.01    -0.02   0.02   0.00    -0.00   0.00   0.00
  18   6    -0.00  -0.00  -0.01     0.01   0.00   0.01     0.00   0.00   0.00
  19   6     0.03   0.01  -0.01    -0.00   0.02  -0.01    -0.00  -0.00   0.00
  20   6     0.03   0.01   0.05    -0.01   0.03  -0.01    -0.00  -0.00  -0.01
  21   6    -0.01   0.00   0.02    -0.00   0.00  -0.00     0.00  -0.00  -0.00
  22   6    -0.00  -0.01  -0.00    -0.00  -0.00  -0.00     0.00   0.00   0.00
  23   6     0.03  -0.01   0.02     0.08  -0.31   0.10    -0.00  -0.01  -0.00
  24   6     0.00   0.00  -0.00    -0.00   0.00   0.00    -0.00  -0.00   0.00
  25   6    -0.01  -0.01  -0.02     0.00  -0.00   0.00     0.00   0.00   0.00
  26   6    -0.01   0.01  -0.07    -0.08   0.39  -0.16     0.00   0.01   0.00
  27   8    -0.00  -0.00  -0.00     0.00   0.00  -0.00     0.00   0.00   0.00
  28   1    -0.15   0.12  -0.05     0.01  -0.01   0.00     0.03  -0.02   0.00
  29   1     0.01  -0.03   0.16    -0.00   0.00  -0.03     0.00   0.00  -0.03
  30   1     0.21   0.07   0.10    -0.01  -0.01  -0.01    -0.03  -0.02  -0.03
  31   1     0.09  -0.08  -0.12    -0.01   0.01   0.01    -0.03   0.03   0.04
  32   1     0.15   0.05   0.03    -0.01  -0.00  -0.00    -0.07  -0.04  -0.04
  33   1     0.06  -0.11  -0.12    -0.00   0.01   0.01    -0.08   0.06   0.06
  34   1    -0.05   0.02   0.01     0.01  -0.00  -0.00    -0.13   0.07  -0.01
  35   1     0.02   0.02  -0.02    -0.01  -0.00   0.00     0.29   0.11  -0.15
  36   1     0.02  -0.03   0.00    -0.00   0.00   0.00     0.03  -0.14   0.03
  37   1     0.01  -0.01   0.01    -0.00   0.00  -0.00     0.04  -0.03   0.05
  38   1    -0.01   0.01   0.01     0.00  -0.00  -0.00    -0.08   0.00   0.04
  39   1     0.08   0.04  -0.01    -0.01   0.00   0.01    -0.01  -0.01   0.00
  40   1    -0.09  -0.07  -0.04     0.03   0.00   0.02     0.02   0.02   0.01
  41   1    -0.07   0.01   0.01    -0.00   0.01   0.01     0.01  -0.00  -0.00
  42   1     0.03   0.06  -0.05    -0.01  -0.01   0.01    -0.01  -0.01   0.01
  43   1     0.02   0.05   0.01    -0.00  -0.00  -0.00    -0.00  -0.01  -0.00
  44   1     0.01   0.01   0.01     0.00   0.00  -0.00     0.00  -0.00  -0.00
  45   1     0.00   0.02   0.02     0.00  -0.00  -0.01    -0.00  -0.00  -0.00
  46   1    -0.03  -0.03   0.00    -0.00  -0.00  -0.00     0.00   0.00  -0.00
  47   1    -0.01  -0.01  -0.00     0.00   0.00  -0.00     0.00   0.00  -0.00
  48   1    -0.01  -0.02   0.00     0.01   0.01  -0.00     0.00   0.00  -0.00
  49   1    -0.02  -0.00   0.00    -0.02   0.00   0.00     0.00   0.00   0.00
  50   1     0.00   0.00   0.00    -0.00   0.00  -0.00     0.00  -0.00   0.00
  51   1    -0.01   0.00   0.01    -0.01  -0.00  -0.00     0.00  -0.00  -0.00
  52   1    -0.02   0.00  -0.01    -0.00  -0.00  -0.00     0.00  -0.00   0.00
  53   1    -0.00  -0.00  -0.00    -0.00  -0.00   0.00     0.00   0.00   0.00
  54   1    -0.00  -0.00  -0.00    -0.00   0.01  -0.00     0.00   0.00   0.00
  55   1     0.01  -0.01   0.03    -0.20  -0.27   0.00    -0.01  -0.01  -0.00
  56   1     0.02   0.01   0.04     0.54   0.07   0.32     0.01   0.00   0.00
  57   1    -0.09  -0.04  -0.02    -0.25  -0.30  -0.12     0.00  -0.00   0.00
  58   1     0.02  -0.07  -0.01    -0.01  -0.00   0.00    -0.00   0.01   0.00
  59   1    -0.00   0.00  -0.00     0.00  -0.00  -0.00     0.00  -0.00  -0.00
  60   8    -0.00   0.00   0.00     0.00  -0.00   0.00    -0.00  -0.00  -0.00
  61   1     0.01   0.02   0.01    -0.00  -0.00  -0.00    -0.00  -0.00  -0.00
  62   1    -0.00  -0.00  -0.00     0.00   0.00  -0.00     0.00   0.00   0.00
  63   7     0.03  -0.02   0.03    -0.01   0.00  -0.00     0.15  -0.06   0.13
  64   6    -0.06  -0.03   0.03     0.01   0.01  -0.01    -0.27  -0.16   0.13
  65   8     0.00   0.00  -0.00    -0.00   0.00   0.00     0.03  -0.01  -0.02
  66   6     0.01   0.05   0.01    -0.00  -0.01  -0.00     0.03   0.16   0.02
  67   6    -0.01  -0.00  -0.00     0.00   0.00   0.00    -0.01  -0.02  -0.01
  68   8    -0.02  -0.01  -0.01     0.00   0.00   0.00    -0.05  -0.05  -0.05
  69   1     0.03  -0.03   0.02    -0.00   0.00  -0.00     0.10  -0.10   0.06
  70   1     0.01  -0.02   0.01    -0.00   0.00  -0.00     0.03  -0.08   0.04
  71   1    -0.05   0.01  -0.04     0.01  -0.00   0.00    -0.16   0.03  -0.12
  72   7    -0.04   0.02   0.02     0.01  -0.00  -0.00    -0.20   0.09   0.11
  73   6     0.07   0.02  -0.03    -0.01  -0.00   0.01     0.32   0.13  -0.15
  74   1     0.03  -0.01  -0.01    -0.01   0.00   0.00     0.15  -0.03  -0.07
  75   1     0.03  -0.01  -0.02    -0.01   0.00   0.00     0.14  -0.04  -0.08
  76   1    -0.01  -0.00   0.00     0.00   0.00  -0.00    -0.05  -0.03   0.02
                    109                    110                    111
                        a                      a                      a 
 Frequencies --  1068.6710              1081.2195              1086.2200
 Red. masses --     6.2833                 6.9869                 9.2506
 Frc consts  --     0.0000                 0.0000                 0.0000
 IR Inten    --     0.5419                23.1969                 7.2182
 Raman Activ --     0.0000                 0.0000                 0.0000
 Depolar     --     0.0000                 0.0000                 0.0000
 Atom AN      X      Y      Z        X      Y      Z        X      Y      Z
   1   7     0.00  -0.01   0.00    -0.02   0.00  -0.01     0.05  -0.07   0.01
   2   6     0.00   0.00   0.00     0.01   0.03   0.03     0.05  -0.01  -0.00
   3   6    -0.00  -0.00  -0.00     0.03  -0.02  -0.03    -0.00  -0.02  -0.02
   4   6    -0.00  -0.00  -0.00    -0.02  -0.05  -0.04    -0.01  -0.01  -0.01
   5   6    -0.00   0.00  -0.00     0.02   0.11   0.01     0.00   0.00  -0.00
   6   6    -0.00   0.00   0.00    -0.01  -0.06  -0.06    -0.02   0.01   0.01
   7   6     0.00   0.00   0.00    -0.05  -0.03  -0.02     0.01   0.02   0.02
   8   6     0.00  -0.00   0.00     0.03   0.11   0.10     0.00   0.01   0.01
   9   6    -0.00   0.00  -0.00    -0.28  -0.03   0.03    -0.02  -0.00  -0.00
  10   6    -0.01   0.00  -0.03     0.01  -0.01   0.01    -0.12   0.08   0.01
  11   6     0.01   0.01   0.02    -0.00   0.00  -0.00    -0.00   0.10  -0.06
  12   6    -0.01  -0.02  -0.03     0.00   0.02  -0.00    -0.10  -0.31   0.02
  13   6     0.01   0.00  -0.00    -0.01  -0.01   0.01     0.22   0.12  -0.05
  14   6     0.02   0.03  -0.00    -0.02  -0.02  -0.00     0.28   0.43  -0.01
  15   6    -0.02  -0.03  -0.00     0.01   0.02   0.00    -0.24  -0.36  -0.06
  16   8     0.00   0.00   0.01    -0.00   0.00   0.00     0.01  -0.01  -0.02
  17   7     0.01   0.00  -0.00    -0.00   0.00   0.01     0.05  -0.02  -0.09
  18   6     0.03  -0.01  -0.05    -0.00   0.00  -0.00     0.00  -0.00  -0.00
  19   6    -0.03   0.02   0.09     0.01  -0.00  -0.00    -0.06   0.00   0.05
  20   6    -0.01   0.01   0.04     0.00  -0.01  -0.01    -0.02   0.07   0.15
  21   6     0.06   0.08   0.21    -0.00   0.00   0.00     0.01  -0.02  -0.05
  22   6     0.20  -0.01  -0.14     0.00   0.00   0.00    -0.01  -0.01  -0.02
  23   6     0.02   0.01   0.02    -0.00  -0.00  -0.01     0.07   0.04   0.07
  24   6    -0.36  -0.00   0.20    -0.00  -0.00  -0.00     0.02   0.00  -0.01
  25   6    -0.13  -0.15  -0.36    -0.00  -0.00  -0.00     0.02   0.02   0.04
  26   6    -0.02  -0.01  -0.03     0.00   0.00   0.00    -0.06  -0.04  -0.07
  27   8    -0.00  -0.00  -0.00    -0.00  -0.00  -0.00    -0.00   0.00   0.00
  28   1     0.01  -0.01   0.00     0.00  -0.01   0.00     0.04  -0.04   0.03
  29   1    -0.00   0.00   0.01     0.00  -0.00  -0.00    -0.00   0.00  -0.04
  30   1    -0.00   0.00  -0.00     0.11   0.00   0.01    -0.05  -0.02  -0.01
  31   1    -0.00   0.00   0.00    -0.04   0.03  -0.00    -0.01   0.00   0.00
  32   1    -0.00  -0.00   0.00     0.01  -0.00  -0.03    -0.03  -0.00   0.00
  33   1    -0.00   0.00   0.00    -0.07   0.03   0.03    -0.01   0.02   0.02
  34   1    -0.00  -0.00   0.00    -0.25  -0.05   0.07    -0.02  -0.00   0.00
  35   1     0.00   0.00  -0.00     0.32   0.15  -0.15     0.02   0.01  -0.01
  36   1    -0.00  -0.00   0.00    -0.27  -0.18   0.17    -0.01  -0.01   0.01
  37   1     0.00  -0.00   0.00     0.03  -0.02   0.04     0.00  -0.00   0.00
  38   1     0.00   0.00  -0.00     0.07   0.01  -0.04     0.00   0.00  -0.00
  39   1    -0.00  -0.01  -0.01     0.00   0.00   0.00    -0.02   0.07   0.02
  40   1    -0.01   0.00  -0.01     0.00   0.01   0.00     0.03   0.10   0.02
  41   1     0.04  -0.01  -0.03     0.01   0.01  -0.01    -0.07  -0.10   0.04
  42   1    -0.01  -0.01   0.01    -0.00  -0.00   0.00    -0.09  -0.08   0.07
  43   1    -0.00  -0.00   0.01     0.00  -0.00  -0.00     0.05   0.11   0.01
  44   1     0.01   0.01   0.00    -0.00  -0.00  -0.00     0.08   0.08   0.10
  45   1     0.01   0.01  -0.01    -0.00  -0.00  -0.00     0.10   0.08  -0.06
  46   1     0.00   0.00   0.00    -0.00  -0.00  -0.00     0.01   0.05   0.02
  47   1    -0.01  -0.01   0.01     0.01   0.01  -0.01    -0.19  -0.18   0.09
  48   1    -0.01  -0.01   0.01     0.01   0.01  -0.00    -0.12  -0.09   0.08
  49   1    -0.03  -0.01  -0.00     0.00   0.00   0.00    -0.04  -0.02  -0.02
  50   1     0.00   0.00   0.00     0.00  -0.00   0.00    -0.00   0.00  -0.00
  51   1     0.43   0.15   0.19     0.00   0.00   0.00    -0.03  -0.02  -0.03
  52   1     0.42   0.11   0.06     0.00   0.00   0.00    -0.03  -0.02  -0.01
  53   1    -0.09   0.04   0.17    -0.00  -0.00  -0.00     0.01   0.00   0.00
  54   1     0.06  -0.06  -0.19     0.00  -0.00  -0.00    -0.02   0.01   0.03
  55   1     0.00  -0.00   0.01     0.00   0.00  -0.00     0.01   0.00   0.01
  56   1    -0.01  -0.00   0.00    -0.00   0.00  -0.00    -0.04  -0.00   0.00
  57   1    -0.03  -0.01  -0.01     0.00   0.00   0.00    -0.07  -0.01  -0.02
  58   1     0.01   0.01  -0.00    -0.00  -0.01   0.00    -0.05   0.07   0.00
  59   1     0.01  -0.00   0.00    -0.00   0.00  -0.00     0.00  -0.01   0.00
  60   8    -0.00  -0.00   0.00     0.00   0.00   0.00     0.00  -0.00   0.00
  61   1     0.00   0.01   0.00     0.00  -0.00  -0.00    -0.00  -0.00  -0.00
  62   1     0.01  -0.00   0.00     0.00  -0.00   0.00    -0.01   0.00  -0.00
  63   7     0.00   0.00   0.00     0.12  -0.05   0.10     0.01  -0.00   0.01
  64   6     0.00   0.00  -0.00     0.32   0.17  -0.18     0.02   0.01  -0.01
  65   8     0.00  -0.00  -0.00    -0.02  -0.05   0.01    -0.00  -0.00   0.00
  66   6    -0.00   0.00   0.00    -0.02   0.09  -0.00     0.00   0.01  -0.00
  67   6     0.00  -0.00  -0.00     0.03  -0.07   0.01    -0.00  -0.00   0.00
  68   8    -0.00  -0.00  -0.00    -0.03  -0.00  -0.01    -0.00  -0.00  -0.00
  69   1     0.00  -0.00  -0.00     0.03  -0.04   0.01     0.01  -0.01   0.00
  70   1     0.00  -0.00   0.00     0.02  -0.04   0.02    -0.00  -0.00   0.00
  71   1     0.00   0.00  -0.00    -0.09   0.02  -0.07    -0.01   0.00  -0.01
  72   7     0.00  -0.00  -0.00     0.21  -0.01  -0.11     0.01  -0.00  -0.01
  73   6    -0.00  -0.00   0.00    -0.28  -0.15   0.13    -0.01  -0.01   0.01
  74   1    -0.00   0.00  -0.00    -0.15   0.05   0.06    -0.01   0.00   0.00
  75   1    -0.00   0.00   0.00    -0.15   0.04   0.09    -0.01   0.00   0.00
  76   1    -0.00   0.00  -0.00     0.09   0.04  -0.04     0.00   0.00  -0.00
                    112                    113                    114
                        a                      a                      a 
 Frequencies --  1096.5236              1104.8047              1110.9673
 Red. masses --     6.9313                 3.7503                 8.4389
 Frc consts  --     0.0000                 0.0000                 0.0000
 IR Inten    --    59.1755                 0.3494                 2.0215
 Raman Activ --     0.0000                 0.0000                 0.0000
 Depolar     --     0.0000                 0.0000                 0.0000
 Atom AN      X      Y      Z        X      Y      Z        X      Y      Z
   1   7    -0.13   0.29  -0.06    -0.00  -0.00  -0.00     0.01  -0.02   0.01
   2   6    -0.13   0.01   0.07     0.00   0.01   0.01     0.03  -0.01   0.00
   3   6     0.00   0.05   0.04     0.00  -0.00  -0.01    -0.00  -0.00  -0.00
   4   6     0.04   0.01  -0.00    -0.00  -0.00  -0.00     0.00  -0.01  -0.01
   5   6     0.00   0.00   0.01     0.01  -0.00   0.01     0.00  -0.01  -0.01
   6   6     0.05  -0.02  -0.04    -0.00  -0.01  -0.01    -0.01   0.01   0.01
   7   6    -0.04  -0.06  -0.06    -0.01  -0.00  -0.00     0.01   0.01   0.01
   8   6    -0.01  -0.00  -0.01     0.01   0.06  -0.01    -0.00   0.00   0.01
   9   6     0.01  -0.01   0.01     0.06  -0.08   0.04    -0.01   0.00  -0.01
  10   6     0.01  -0.44   0.04     0.00   0.00   0.00    -0.08   0.01  -0.06
  11   6     0.07   0.25  -0.08    -0.00  -0.00   0.00     0.00   0.09  -0.01
  12   6     0.02  -0.10   0.07     0.00   0.01  -0.00    -0.16  -0.36  -0.06
  13   6     0.01   0.05  -0.00    -0.00  -0.00   0.00     0.30   0.20  -0.19
  14   6     0.04   0.01  -0.00     0.00   0.00  -0.00    -0.29  -0.22   0.20
  15   6    -0.02  -0.02   0.00    -0.00  -0.00  -0.00     0.22   0.21   0.04
  16   8    -0.03  -0.07   0.19     0.00   0.00  -0.00     0.00  -0.00   0.03
  17   7    -0.02   0.02   0.06    -0.00  -0.00  -0.00     0.04  -0.02  -0.07
  18   6     0.00  -0.00  -0.01    -0.00   0.00   0.00     0.01   0.00   0.01
  19   6     0.06  -0.01  -0.05    -0.00   0.00   0.00    -0.05   0.01   0.07
  20   6     0.01  -0.02  -0.08    -0.00  -0.00   0.00     0.01   0.06   0.12
  21   6    -0.02   0.01   0.04     0.00  -0.00  -0.00     0.01  -0.01  -0.03
  22   6    -0.00   0.01   0.03    -0.00  -0.00   0.00     0.01  -0.01  -0.05
  23   6    -0.04  -0.02  -0.04    -0.00   0.00  -0.00     0.08   0.04   0.07
  24   6     0.00  -0.00  -0.01     0.00   0.00  -0.00    -0.01   0.00   0.01
  25   6    -0.01  -0.01  -0.02     0.00   0.00   0.00     0.00   0.00   0.00
  26   6     0.03   0.02   0.03     0.00  -0.00   0.00    -0.06  -0.03  -0.06
  27   8     0.00   0.01   0.00    -0.00  -0.00  -0.00    -0.00   0.00   0.00
  28   1    -0.03   0.09  -0.12     0.00  -0.00   0.00     0.03  -0.03   0.00
  29   1    -0.02   0.07  -0.52     0.00  -0.00   0.01    -0.00   0.00  -0.02
  30   1     0.09   0.01   0.05     0.02  -0.00   0.00    -0.06  -0.01  -0.01
  31   1     0.04  -0.02  -0.02    -0.01   0.01   0.01     0.01  -0.01  -0.01
  32   1     0.10   0.01   0.00     0.01  -0.00  -0.00    -0.02  -0.00   0.00
  33   1     0.04  -0.05  -0.06    -0.02   0.01   0.01     0.01  -0.00  -0.01
  34   1     0.01   0.00  -0.00    -0.01   0.00   0.01    -0.01   0.00   0.00
  35   1    -0.02  -0.00   0.01     0.01   0.02  -0.00     0.01   0.00  -0.00
  36   1     0.01   0.00  -0.00    -0.03  -0.04   0.03    -0.00   0.00  -0.00
  37   1    -0.00   0.01  -0.01    -0.03   0.04  -0.03     0.00   0.00   0.00
  38   1     0.00   0.00   0.00    -0.00  -0.02   0.03     0.00   0.00  -0.00
  39   1     0.03  -0.15   0.08    -0.00   0.00  -0.00    -0.02   0.02  -0.01
  40   1     0.07   0.31   0.03    -0.00  -0.00   0.00     0.01   0.07   0.00
  41   1     0.06  -0.15   0.01     0.00   0.01  -0.00    -0.08  -0.16   0.02
  42   1     0.04   0.03   0.00    -0.00  -0.00   0.00     0.01   0.03  -0.12
  43   1     0.00  -0.01   0.00    -0.00  -0.00   0.00     0.15   0.22  -0.15
  44   1     0.01   0.02  -0.03     0.00   0.00  -0.00    -0.12  -0.12   0.17
  45   1    -0.00   0.00   0.02     0.00   0.00  -0.00    -0.12  -0.12   0.11
  46   1    -0.00  -0.01   0.00     0.00   0.00   0.00     0.00   0.02  -0.00
  47   1    -0.00  -0.00   0.00    -0.00  -0.00   0.00     0.06   0.07  -0.03
  48   1    -0.01  -0.01   0.00    -0.00  -0.00   0.00     0.10   0.13  -0.04
  49   1     0.04   0.01   0.02    -0.00   0.00  -0.00    -0.08  -0.02  -0.02
  50   1    -0.00  -0.00  -0.00     0.00  -0.00   0.00    -0.00   0.00  -0.00
  51   1     0.00   0.01   0.01    -0.00  -0.00  -0.00    -0.01  -0.01  -0.01
  52   1    -0.01  -0.00   0.01     0.00   0.00   0.00    -0.01  -0.01  -0.01
  53   1    -0.00  -0.01  -0.02     0.00   0.00   0.00     0.00   0.01   0.03
  54   1     0.01  -0.00  -0.02    -0.00   0.00   0.00    -0.02   0.00   0.02
  55   1    -0.00   0.00  -0.00     0.00   0.00   0.00    -0.00  -0.00   0.00
  56   1     0.02   0.00  -0.00    -0.00   0.00  -0.00    -0.03  -0.01  -0.00
  57   1     0.04   0.01   0.01     0.00   0.00   0.00    -0.07  -0.02  -0.02
  58   1    -0.04   0.00   0.01     0.00  -0.00  -0.00    -0.01   0.14  -0.01
  59   1    -0.01  -0.00  -0.01    -0.00   0.00  -0.00     0.01  -0.00   0.00
  60   8     0.00  -0.00  -0.00    -0.00   0.00   0.00    -0.00  -0.00  -0.00
  61   1    -0.02  -0.04  -0.01     0.00   0.00   0.00     0.00   0.00   0.00
  62   1    -0.01   0.00  -0.00     0.00  -0.00   0.00     0.00   0.00   0.00
  63   7    -0.01   0.00  -0.01    -0.05   0.03  -0.04     0.01  -0.00   0.01
  64   6    -0.00  -0.00   0.00     0.02   0.01   0.02     0.01   0.00  -0.00
  65   8    -0.00   0.00   0.00    -0.01   0.01   0.01    -0.00  -0.00  -0.00
  66   6    -0.00  -0.00   0.00     0.01  -0.03   0.01     0.00   0.00  -0.00
  67   6    -0.00   0.00  -0.00    -0.02   0.03  -0.01     0.00  -0.00   0.00
  68   8    -0.00  -0.00   0.00    -0.00  -0.01  -0.00    -0.00  -0.00  -0.00
  69   1    -0.00   0.00  -0.00    -0.00   0.01   0.00    -0.00   0.00  -0.00
  70   1     0.00   0.00   0.00     0.00   0.01  -0.00    -0.00   0.00  -0.00
  71   1     0.01  -0.00   0.00     0.02  -0.01   0.02    -0.01  -0.00  -0.00
  72   7    -0.00   0.00   0.00     0.12  -0.04   0.18     0.01   0.00   0.00
  73   6    -0.00  -0.00  -0.00    -0.20   0.04  -0.36    -0.01  -0.00  -0.00
  74   1    -0.00  -0.00   0.00    -0.42  -0.11   0.40    -0.01  -0.00   0.01
  75   1     0.00   0.00  -0.00     0.59   0.07  -0.10     0.01   0.00  -0.00
  76   1     0.00   0.00   0.00     0.06  -0.02   0.20     0.00   0.00   0.00
                    115                    116                    117
                        a                      a                      a 
 Frequencies --  1117.2464              1121.3381              1126.1229
 Red. masses --     7.8306                 7.7226                 7.3987
 Frc consts  --     0.0000                 0.0000                 0.0000
 IR Inten    --     3.9374                33.0977                10.3077
 Raman Activ --     0.0000                 0.0000                 0.0000
 Depolar     --     0.0000                 0.0000                 0.0000
 Atom AN      X      Y      Z        X      Y      Z        X      Y      Z
   1   7    -0.08   0.16  -0.01     0.01  -0.02  -0.00    -0.01   0.06   0.00
   2   6    -0.08   0.03   0.04     0.02   0.00   0.00     0.01  -0.00   0.03
   3   6    -0.00   0.02   0.02     0.00  -0.00  -0.01    -0.00  -0.00  -0.00
   4   6     0.02   0.00  -0.00    -0.00   0.02   0.01     0.00  -0.00  -0.01
   5   6     0.00  -0.00   0.01     0.03  -0.06   0.02     0.00  -0.00  -0.00
   6   6     0.03  -0.02  -0.03     0.01   0.00  -0.02     0.00   0.00   0.00
   7   6    -0.03  -0.03  -0.03    -0.03   0.01   0.00    -0.00  -0.01  -0.01
   8   6     0.00   0.02  -0.01     0.08   0.28  -0.05    -0.00   0.00   0.00
   9   6     0.01  -0.03   0.02     0.11  -0.40   0.24    -0.00  -0.00   0.00
  10   6     0.03  -0.24  -0.21    -0.01   0.02   0.01    -0.09  -0.06  -0.12
  11   6     0.18   0.02   0.16    -0.01   0.00  -0.01     0.18  -0.06   0.12
  12   6     0.06   0.25  -0.15    -0.01  -0.02   0.01    -0.26  -0.13  -0.07
  13   6    -0.02  -0.22  -0.06     0.01   0.02  -0.00     0.10   0.08   0.40
  14   6    -0.05   0.08   0.08     0.00  -0.01  -0.00    -0.05  -0.04  -0.39
  15   6     0.03  -0.03  -0.06    -0.00   0.00   0.00    -0.00  -0.02   0.19
  16   8    -0.02   0.01   0.15     0.00   0.00  -0.01    -0.00   0.01   0.06
  17   7     0.04  -0.05  -0.16    -0.00   0.00   0.01     0.05   0.02   0.03
  18   6    -0.01   0.02   0.06     0.00  -0.00  -0.00     0.02  -0.01  -0.05
  19   6    -0.17   0.02   0.15     0.01  -0.00  -0.01     0.10  -0.00  -0.07
  20   6     0.03   0.05   0.19    -0.00  -0.00  -0.01    -0.03   0.03   0.02
  21   6     0.04  -0.04  -0.15    -0.00   0.00   0.01    -0.03   0.02   0.08
  22   6     0.04  -0.03  -0.11    -0.00   0.00   0.01    -0.04   0.01   0.05
  23   6     0.11   0.05   0.08    -0.01  -0.00  -0.00     0.01   0.02   0.04
  24   6    -0.00   0.01   0.04    -0.00  -0.00  -0.00     0.01  -0.01  -0.02
  25   6     0.01   0.03   0.07     0.00  -0.00  -0.01    -0.00  -0.01  -0.03
  26   6    -0.07  -0.05  -0.07     0.00   0.00   0.00    -0.02  -0.01  -0.02
  27   8     0.00   0.00  -0.00    -0.00  -0.00  -0.00     0.00  -0.00   0.00
  28   1     0.03   0.01  -0.06     0.00  -0.01   0.01     0.07  -0.03  -0.02
  29   1    -0.00   0.00   0.02     0.00  -0.00   0.01     0.00  -0.00   0.03
  30   1     0.04   0.01   0.02    -0.01  -0.01   0.00    -0.04  -0.01  -0.01
  31   1     0.02  -0.01  -0.01    -0.05   0.02   0.05     0.01  -0.01  -0.01
  32   1     0.07   0.01   0.00     0.03  -0.01   0.01     0.01   0.00   0.00
  33   1     0.03  -0.03  -0.04    -0.04   0.02   0.03     0.02  -0.01  -0.02
  34   1     0.02   0.01  -0.00     0.13   0.14  -0.06     0.00   0.00  -0.00
  35   1    -0.01  -0.00   0.01    -0.12  -0.02   0.05    -0.00  -0.00   0.00
  36   1    -0.00  -0.01   0.01    -0.02  -0.15   0.09     0.00   0.00  -0.00
  37   1    -0.01   0.02  -0.01    -0.12   0.20  -0.14    -0.00   0.00  -0.00
  38   1     0.00   0.01  -0.00     0.07   0.12   0.00     0.00   0.00  -0.00
  39   1    -0.05  -0.22  -0.12     0.00   0.02   0.00    -0.05  -0.03  -0.07
  40   1     0.00  -0.19  -0.01     0.00   0.01   0.00     0.01  -0.02  -0.01
  41   1    -0.05   0.21  -0.02     0.00  -0.02   0.00    -0.02   0.20  -0.09
  42   1    -0.13  -0.15   0.03     0.01   0.01  -0.00    -0.05  -0.01   0.06
  43   1    -0.00   0.03  -0.01     0.00   0.00  -0.00     0.09   0.18   0.02
  44   1    -0.01  -0.02   0.12    -0.00  -0.00  -0.00     0.10   0.05  -0.13
  45   1     0.01  -0.02  -0.03    -0.00   0.00   0.00     0.11   0.04  -0.27
  46   1     0.04   0.08  -0.00    -0.00  -0.00   0.00    -0.18  -0.19  -0.01
  47   1    -0.07  -0.06   0.04     0.00   0.00  -0.00     0.03   0.06  -0.11
  48   1    -0.01   0.02   0.03     0.00  -0.00  -0.00     0.11   0.09  -0.11
  49   1    -0.13  -0.03  -0.04     0.01   0.00   0.00     0.02   0.01   0.01
  50   1     0.00   0.00   0.00    -0.00  -0.00  -0.00    -0.00  -0.00  -0.00
  51   1    -0.08  -0.04  -0.07     0.01   0.00   0.01     0.01   0.01   0.03
  52   1     0.09   0.02  -0.01    -0.01  -0.00   0.00    -0.09  -0.02  -0.01
  53   1     0.02   0.04   0.11    -0.00  -0.00  -0.01    -0.01  -0.03  -0.08
  54   1    -0.11   0.02   0.12     0.01  -0.00  -0.01     0.05  -0.01  -0.06
  55   1    -0.01  -0.00  -0.00     0.00   0.00   0.00    -0.00   0.00   0.00
  56   1    -0.04  -0.01  -0.01     0.00   0.00   0.00    -0.01  -0.00   0.00
  57   1    -0.07  -0.02  -0.02     0.00   0.00   0.00    -0.01  -0.00  -0.00
  58   1     0.15   0.22  -0.01    -0.01  -0.01   0.00     0.09   0.20   0.00
  59   1    -0.00   0.00  -0.00     0.00   0.00   0.00    -0.00   0.00  -0.00
  60   8    -0.00  -0.00  -0.00     0.00   0.00   0.00     0.00   0.00   0.00
  61   1    -0.01  -0.01  -0.00     0.00   0.00   0.00    -0.00  -0.01  -0.00
  62   1     0.01  -0.00   0.00    -0.00  -0.00  -0.00     0.00   0.00  -0.00
  63   7    -0.01   0.01  -0.01    -0.14   0.12  -0.15     0.00   0.00   0.00
  64   6     0.01   0.00  -0.01     0.08   0.03  -0.07     0.00   0.00  -0.00
  65   8    -0.00  -0.00   0.00    -0.02  -0.08   0.01    -0.00  -0.00  -0.00
  66   6     0.01  -0.01   0.00     0.04  -0.07   0.04    -0.00   0.00   0.00
  67   6    -0.01   0.01  -0.00    -0.06   0.08  -0.05     0.00  -0.00  -0.00
  68   8    -0.00  -0.00  -0.00    -0.03  -0.05  -0.02    -0.00  -0.00  -0.00
  69   1    -0.00   0.00   0.00    -0.01   0.01   0.01     0.00  -0.00  -0.00
  70   1     0.00   0.00   0.00     0.02   0.01   0.00     0.00   0.00   0.00
  71   1     0.00  -0.00   0.00     0.06  -0.02   0.05     0.00   0.00  -0.00
  72   7    -0.01   0.01   0.00    -0.17   0.20   0.08     0.00   0.00   0.00
  73   6     0.01  -0.02   0.00     0.12  -0.25  -0.03    -0.00  -0.00  -0.00
  74   1    -0.00   0.01  -0.00    -0.11   0.11   0.02    -0.00   0.00   0.00
  75   1    -0.02   0.01   0.01    -0.17   0.10   0.11    -0.00   0.00   0.00
  76   1     0.02   0.01  -0.01     0.32   0.09  -0.18     0.00   0.00  -0.00
                    118                    119                    120
                        a                      a                      a 
 Frequencies --  1130.6309              1140.2758              1141.5568
 Red. masses --     6.7750                 5.7833                 5.0082
 Frc consts  --     0.0000                 0.0000                 0.0000
 IR Inten    --    17.6802                 2.0122                 1.4994
 Raman Activ --     0.0000                 0.0000                 0.0000
 Depolar     --     0.0000                 0.0000                 0.0000
 Atom AN      X      Y      Z        X      Y      Z        X      Y      Z
   1   7     0.01  -0.02  -0.01     0.01  -0.04  -0.00    -0.03   0.03   0.01
   2   6     0.02   0.05   0.06     0.01   0.00  -0.01    -0.01  -0.08  -0.09
   3   6     0.04  -0.04  -0.06     0.01  -0.01  -0.01    -0.05   0.08   0.11
   4   6    -0.06  -0.02  -0.02    -0.01  -0.00   0.00     0.12   0.02   0.02
   5   6     0.03   0.02   0.09     0.00   0.01   0.01    -0.01  -0.10  -0.10
   6   6     0.03  -0.05  -0.07     0.00  -0.01  -0.01    -0.06   0.08   0.09
   7   6    -0.08  -0.03  -0.04    -0.00   0.00   0.00     0.09   0.05   0.05
   8   6     0.04   0.17  -0.05    -0.00  -0.02  -0.00     0.05   0.20   0.04
   9   6     0.21  -0.20   0.17     0.01   0.02  -0.00    -0.04  -0.26   0.08
  10   6    -0.01   0.02   0.01     0.02   0.05   0.06     0.02  -0.03  -0.02
  11   6     0.00   0.00   0.00    -0.13   0.06  -0.05    -0.02   0.01  -0.02
  12   6    -0.03  -0.01  -0.02     0.10  -0.13  -0.05     0.06  -0.02   0.04
  13   6     0.03  -0.00  -0.00    -0.10   0.14   0.21    -0.05   0.03   0.02
  14   6    -0.02   0.00   0.00     0.05  -0.13  -0.21     0.05  -0.02  -0.02
  15   6     0.01   0.00   0.01    -0.04   0.05   0.09    -0.03   0.01   0.00
  16   8     0.00   0.00  -0.01     0.00  -0.01  -0.03    -0.00   0.00   0.02
  17   7     0.00   0.00   0.00    -0.04  -0.04  -0.11    -0.01  -0.01  -0.01
  18   6     0.00  -0.00  -0.00    -0.01   0.04   0.12    -0.01   0.00   0.01
  19   6     0.00   0.00  -0.00    -0.05   0.04   0.16    -0.01   0.00   0.01
  20   6     0.00  -0.00   0.01     0.16   0.06   0.05     0.01   0.01  -0.01
  21   6    -0.00   0.00   0.00     0.01  -0.06  -0.18     0.00  -0.01  -0.02
  22   6    -0.00  -0.00   0.00     0.12  -0.04  -0.19     0.01  -0.00  -0.01
  23   6     0.01   0.00   0.00     0.11   0.03   0.02    -0.01  -0.01  -0.01
  24   6    -0.00  -0.00  -0.00    -0.02   0.03   0.10     0.00   0.00   0.01
  25   6     0.00  -0.00  -0.00    -0.06   0.00   0.05    -0.00   0.00   0.01
  26   6    -0.00  -0.00  -0.00    -0.06  -0.04  -0.05     0.00   0.00   0.00
  27   8    -0.00  -0.00  -0.00    -0.00  -0.00  -0.00     0.00   0.00   0.00
  28   1     0.02  -0.02   0.01    -0.03   0.01   0.02    -0.04   0.03  -0.02
  29   1     0.00  -0.00   0.00    -0.00   0.00  -0.03    -0.00   0.00   0.01
  30   1     0.24   0.01   0.03     0.05   0.01   0.01    -0.43  -0.03  -0.05
  31   1    -0.17   0.08   0.13    -0.03   0.02   0.02     0.28  -0.14  -0.20
  32   1     0.16   0.01   0.00     0.02   0.00  -0.00    -0.31  -0.05  -0.00
  33   1    -0.15   0.07   0.10    -0.03   0.02   0.02     0.24  -0.12  -0.16
  34   1    -0.02  -0.00   0.03    -0.00  -0.01   0.00     0.01   0.10  -0.03
  35   1    -0.05   0.02   0.02    -0.00   0.00   0.00     0.01  -0.00  -0.01
  36   1    -0.06  -0.18   0.16     0.00   0.01  -0.00    -0.04  -0.10   0.05
  37   1    -0.07   0.07  -0.09     0.00  -0.01   0.00    -0.05   0.11  -0.06
  38   1    -0.12  -0.17   0.01     0.00   0.01   0.00    -0.01  -0.07  -0.02
  39   1     0.00   0.03   0.01     0.03   0.04   0.04    -0.01  -0.05  -0.02
  40   1     0.00   0.03   0.00    -0.03   0.10  -0.01    -0.00  -0.04   0.00
  41   1    -0.00   0.01  -0.01     0.12  -0.13  -0.06     0.01  -0.04   0.02
  42   1    -0.02  -0.01  -0.00     0.09   0.10   0.06     0.04   0.04   0.01
  43   1     0.01   0.03  -0.01    -0.04  -0.10   0.07    -0.02  -0.05   0.01
  44   1    -0.00  -0.00   0.02     0.04   0.03  -0.19     0.00   0.01  -0.05
  45   1     0.00  -0.01  -0.01     0.02   0.04  -0.04    -0.00   0.02   0.02
  46   1    -0.00   0.00  -0.00    -0.07  -0.12  -0.00     0.00  -0.01   0.00
  47   1    -0.01  -0.00  -0.00     0.09   0.08  -0.06     0.02   0.01  -0.00
  48   1     0.01   0.01  -0.00     0.03  -0.02  -0.05    -0.01  -0.03   0.00
  49   1    -0.01  -0.00   0.00    -0.20  -0.05  -0.03     0.02   0.00  -0.00
  50   1     0.00  -0.00   0.00    -0.00  -0.00  -0.00    -0.00   0.00  -0.00
  51   1    -0.00   0.00   0.00    -0.25  -0.09  -0.13    -0.01  -0.01  -0.01
  52   1    -0.01  -0.00  -0.00     0.21   0.04  -0.00     0.03   0.00   0.00
  53   1    -0.00  -0.00  -0.00     0.04   0.11   0.31     0.00   0.01   0.03
  54   1     0.00  -0.00  -0.00    -0.23   0.02   0.19    -0.02   0.00   0.02
  55   1     0.00   0.00   0.00    -0.02  -0.01  -0.01     0.00  -0.00   0.00
  56   1    -0.01  -0.00  -0.00    -0.04  -0.01  -0.01     0.01   0.00   0.00
  57   1    -0.01   0.00  -0.00    -0.03  -0.00  -0.01     0.01  -0.00   0.00
  58   1     0.00  -0.04   0.00    -0.05  -0.10  -0.00    -0.01   0.08  -0.00
  59   1     0.00   0.00   0.00     0.00  -0.00   0.00     0.00  -0.00   0.00
  60   8    -0.00   0.00  -0.00    -0.00  -0.00   0.00     0.00  -0.00   0.00
  61   1     0.00   0.00   0.00     0.00   0.01   0.00    -0.00  -0.00  -0.00
  62   1     0.00  -0.00   0.00     0.00  -0.00   0.00    -0.00   0.00  -0.00
  63   7    -0.16   0.04  -0.16    -0.00  -0.00  -0.00    -0.01   0.04  -0.02
  64   6    -0.06   0.04  -0.02    -0.00  -0.00   0.00     0.03   0.05  -0.03
  65   8    -0.02   0.13   0.04     0.00  -0.00  -0.00    -0.02   0.06   0.02
  66   6     0.03  -0.08   0.02    -0.00  -0.00  -0.00     0.01  -0.01   0.01
  67   6    -0.04   0.08  -0.03     0.00  -0.00   0.00    -0.02   0.02  -0.02
  68   8     0.01   0.00   0.00     0.00   0.00   0.00    -0.03  -0.03  -0.02
  69   1    -0.02   0.02  -0.00    -0.00  -0.00  -0.00     0.01  -0.00   0.01
  70   1     0.00   0.02  -0.01     0.00   0.00   0.00     0.01  -0.00   0.01
  71   1     0.07  -0.02   0.05     0.01   0.00   0.00     0.00  -0.00   0.00
  72   7     0.20  -0.24  -0.15    -0.02   0.01   0.01     0.18  -0.11  -0.11
  73   6    -0.09   0.21   0.14     0.01  -0.01  -0.01    -0.13   0.10   0.09
  74   1     0.19  -0.08  -0.10    -0.00   0.00   0.00     0.06  -0.04  -0.03
  75   1     0.01  -0.11  -0.07    -0.00   0.00   0.00     0.00  -0.05  -0.03
  76   1    -0.33  -0.08   0.12     0.01   0.00  -0.01    -0.17  -0.04   0.07
                    121                    122                    123
                        a                      a                      a 
 Frequencies --  1164.5034              1164.9587              1169.0450
 Red. masses --     4.7815                 5.3587                 4.8519
 Frc consts  --     0.0000                 0.0000                 0.0000
 IR Inten    --     3.5996                 2.6708                11.9908
 Raman Activ --     0.0000                 0.0000                 0.0000
 Depolar     --     0.0000                 0.0000                 0.0000
 Atom AN      X      Y      Z        X      Y      Z        X      Y      Z
   1   7    -0.02   0.02   0.00     0.02  -0.00  -0.00     0.05  -0.02  -0.00
   2   6     0.02   0.00   0.01     0.00   0.01   0.02     0.03  -0.05  -0.04
   3   6     0.00   0.00   0.00     0.00  -0.02  -0.03    -0.01   0.01   0.02
   4   6     0.01  -0.02  -0.02    -0.03   0.01   0.01     0.00   0.02   0.02
   5   6     0.02   0.03   0.01    -0.02  -0.03  -0.01    -0.02  -0.01  -0.02
   6   6    -0.02  -0.01  -0.01     0.04   0.01   0.01    -0.04   0.02   0.02
   7   6     0.01  -0.01  -0.02    -0.04   0.01   0.01     0.05   0.02   0.01
   8   6    -0.02  -0.02  -0.01     0.03   0.02   0.01     0.02   0.01   0.00
   9   6     0.17   0.12   0.07    -0.27  -0.17  -0.11     0.01  -0.01   0.01
  10   6    -0.02  -0.02  -0.03    -0.03   0.01  -0.01    -0.04   0.08   0.06
  11   6     0.04  -0.01  -0.00     0.03  -0.02   0.01     0.10  -0.19   0.14
  12   6    -0.06  -0.07   0.08    -0.07  -0.02   0.04    -0.25   0.23  -0.10
  13   6     0.04   0.03  -0.02     0.04   0.01  -0.01     0.12  -0.14  -0.02
  14   6     0.01   0.02   0.02    -0.01   0.02   0.01    -0.15   0.09   0.04
  15   6    -0.01  -0.01  -0.00     0.01  -0.01  -0.00     0.09  -0.05  -0.01
  16   8     0.00   0.01   0.01     0.00   0.00  -0.00    -0.00  -0.05  -0.00
  17   7    -0.18  -0.03   0.00    -0.12  -0.02   0.00    -0.03   0.01   0.03
  18   6    -0.16  -0.03  -0.00    -0.10  -0.02  -0.00     0.01   0.01   0.03
  19   6     0.07   0.01  -0.01     0.06   0.01  -0.01     0.11   0.01  -0.05
  20   6     0.06   0.01  -0.05     0.04   0.00  -0.03     0.03  -0.07  -0.06
  21   6     0.02  -0.04  -0.12     0.01  -0.02  -0.07    -0.02  -0.00   0.01
  22   6     0.10   0.01  -0.04     0.07   0.00  -0.03     0.07   0.00  -0.03
  23   6    -0.22  -0.06  -0.04    -0.13  -0.04  -0.03     0.00  -0.01  -0.04
  24   6     0.06   0.02   0.03     0.04   0.01   0.02    -0.02   0.02   0.06
  25   6    -0.05  -0.01   0.01    -0.04  -0.01   0.00    -0.04  -0.02  -0.04
  26   6     0.14   0.04   0.01     0.09   0.03   0.01     0.02   0.00   0.02
  27   8    -0.00  -0.00  -0.00    -0.00  -0.00  -0.00    -0.00   0.00  -0.00
  28   1     0.02  -0.01  -0.01     0.03  -0.02   0.00    -0.01   0.01   0.00
  29   1     0.00  -0.01   0.06     0.00  -0.00   0.02    -0.00   0.03  -0.27
  30   1    -0.04  -0.01  -0.00     0.04  -0.00   0.00    -0.04   0.02  -0.02
  31   1     0.03  -0.02  -0.03    -0.07   0.04   0.07     0.03  -0.02  -0.02
  32   1    -0.07  -0.02  -0.01     0.21   0.04   0.03    -0.16  -0.03  -0.01
  33   1     0.02  -0.02  -0.02    -0.08   0.05   0.07     0.08  -0.03  -0.04
  34   1    -0.19  -0.15   0.10     0.29   0.22  -0.16    -0.01  -0.00   0.00
  35   1     0.09   0.07  -0.04    -0.15  -0.12   0.06     0.02   0.01  -0.01
  36   1    -0.03  -0.09   0.13     0.05   0.16  -0.20    -0.00  -0.01   0.01
  37   1     0.04  -0.14   0.04    -0.06   0.21  -0.05    -0.00  -0.00  -0.00
  38   1    -0.07  -0.03   0.04     0.11   0.05  -0.06    -0.00  -0.00   0.00
  39   1    -0.03  -0.02  -0.04    -0.01   0.01  -0.01     0.09   0.25   0.14
  40   1     0.02  -0.03   0.01     0.01   0.01   0.00    -0.05   0.25  -0.06
  41   1    -0.11   0.05   0.07    -0.07   0.04   0.03     0.02   0.13  -0.10
  42   1     0.01   0.01  -0.02    -0.01  -0.00  -0.02    -0.11  -0.10  -0.05
  43   1     0.02   0.03  -0.01     0.01   0.03  -0.01     0.03   0.13   0.00
  44   1    -0.00  -0.00   0.02     0.00  -0.00   0.02     0.03   0.01   0.13
  45   1     0.00   0.00   0.00     0.00  -0.01  -0.01     0.01  -0.06  -0.09
  46   1     0.00   0.00   0.00    -0.00   0.01  -0.00    -0.01   0.05  -0.00
  47   1    -0.00  -0.00   0.00    -0.01  -0.01   0.00    -0.09  -0.06   0.01
  48   1    -0.00  -0.00   0.00     0.00   0.01   0.00     0.04   0.09  -0.00
  49   1     0.56   0.10   0.00     0.35   0.06   0.00    -0.06  -0.01   0.01
  50   1     0.00   0.00   0.00     0.00   0.00   0.00     0.00  -0.00   0.00
  51   1    -0.00  -0.01  -0.04    -0.01  -0.01  -0.03    -0.21  -0.06  -0.06
  52   1     0.11   0.03   0.01     0.07   0.02   0.01     0.02   0.01  -0.01
  53   1     0.05   0.10   0.26     0.04   0.07   0.18     0.03   0.09   0.24
  54   1    -0.12   0.01   0.10    -0.08   0.00   0.06     0.03  -0.01  -0.04
  55   1     0.08   0.03   0.08     0.05   0.02   0.05    -0.00   0.00  -0.00
  56   1     0.05   0.01   0.04     0.03   0.01   0.03    -0.01   0.00  -0.00
  57   1     0.02  -0.00   0.00     0.01  -0.00   0.00     0.00   0.01   0.01
  58   1    -0.01   0.14   0.00     0.00   0.03   0.00     0.09  -0.36   0.01
  59   1     0.00  -0.00   0.00     0.00  -0.00   0.00    -0.00   0.00  -0.00
  60   8    -0.00  -0.00   0.00    -0.00  -0.00   0.00    -0.00   0.00  -0.00
  61   1     0.00   0.00  -0.00     0.00   0.00  -0.00    -0.00  -0.01   0.00
  62   1     0.00   0.00  -0.00     0.00   0.00  -0.00     0.01  -0.00   0.00
  63   7    -0.12  -0.03  -0.12     0.20   0.04   0.18    -0.01   0.00  -0.01
  64   6    -0.02  -0.01  -0.01     0.03   0.01   0.02     0.00   0.00  -0.00
  65   8     0.01   0.00   0.00    -0.01  -0.01  -0.00    -0.00   0.00   0.00
  66   6     0.01  -0.06   0.00    -0.02   0.09  -0.01     0.00  -0.01   0.00
  67   6    -0.03   0.07  -0.01     0.04  -0.10   0.02    -0.00   0.01  -0.00
  68   8     0.05   0.05   0.03    -0.07  -0.08  -0.05     0.00   0.00   0.00
  69   1    -0.02   0.02  -0.01     0.03  -0.03   0.01    -0.00   0.00   0.00
  70   1    -0.01   0.02  -0.01     0.01  -0.03   0.01     0.00   0.00  -0.00
  71   1     0.05  -0.01   0.04    -0.09   0.02  -0.07     0.00  -0.00   0.00
  72   7    -0.10   0.00   0.05     0.15   0.00  -0.07    -0.00  -0.00  -0.00
  73   6     0.09  -0.03  -0.04    -0.14   0.05   0.06     0.00  -0.00   0.00
  74   1     0.00   0.02  -0.01    -0.00  -0.02   0.01    -0.00   0.00  -0.00
  75   1    -0.01   0.01   0.01     0.02  -0.02  -0.01    -0.00   0.00   0.00
  76   1     0.05   0.01  -0.03    -0.08  -0.01   0.05     0.00   0.00  -0.00
                    124                    125                    126
                        a                      a                      a 
 Frequencies --  1177.5512              1194.3090              1201.9060
 Red. masses --     2.5854                 2.4916                 4.9931
 Frc consts  --     0.0000                 0.0000                 0.0000
 IR Inten    --     5.7041                14.6670                 2.2799
 Raman Activ --     0.0000                 0.0000                 0.0000
 Depolar     --     0.0000                 0.0000                 0.0000
 Atom AN      X      Y      Z        X      Y      Z        X      Y      Z
   1   7     0.03  -0.02   0.00    -0.11   0.04   0.00    -0.01   0.03  -0.00
   2   6     0.00  -0.02  -0.02     0.16  -0.01  -0.00     0.01   0.01   0.03
   3   6    -0.00   0.00   0.01    -0.04  -0.04  -0.04     0.01   0.01   0.00
   4   6    -0.00   0.01   0.02     0.00  -0.10  -0.13    -0.00   0.01   0.01
   5   6    -0.01  -0.00  -0.01     0.03   0.01   0.01     0.03  -0.01  -0.01
   6   6    -0.02   0.01   0.01     0.10   0.05   0.06    -0.03  -0.02  -0.02
   7   6     0.02   0.01   0.01    -0.06   0.04   0.05     0.00  -0.03  -0.03
   8   6     0.01   0.00  -0.00    -0.02  -0.01  -0.00    -0.01   0.00   0.01
   9   6    -0.00  -0.01   0.00     0.02   0.02   0.02    -0.00   0.01  -0.01
  10   6     0.00   0.05   0.02     0.01  -0.04  -0.00    -0.05  -0.04   0.00
  11   6    -0.01  -0.04   0.06     0.01  -0.08   0.04     0.07  -0.04  -0.02
  12   6    -0.03   0.06  -0.12    -0.03   0.04   0.03    -0.14  -0.08   0.21
  13   6     0.03  -0.02   0.04    -0.01  -0.02  -0.02     0.00   0.00  -0.05
  14   6    -0.05  -0.01  -0.04    -0.00   0.01   0.03     0.03   0.04   0.08
  15   6     0.03   0.00   0.02     0.00  -0.01  -0.02    -0.02  -0.02  -0.04
  16   8    -0.00  -0.03   0.00    -0.00  -0.01   0.03     0.01   0.03  -0.02
  17   7    -0.01  -0.00  -0.01     0.01   0.02   0.04     0.01   0.06   0.17
  18   6    -0.06  -0.04  -0.08     0.03   0.01  -0.01     0.12   0.01  -0.04
  19   6    -0.09   0.03   0.12     0.04   0.00  -0.02     0.16  -0.01  -0.12
  20   6     0.10   0.03   0.11     0.02  -0.02  -0.06     0.03  -0.06  -0.26
  21   6    -0.01  -0.03  -0.09    -0.02   0.00   0.01    -0.06   0.01   0.06
  22   6    -0.06  -0.01  -0.00     0.01   0.00   0.00     0.06   0.02   0.02
  23   6     0.03   0.03   0.06     0.02  -0.01  -0.05     0.01  -0.07  -0.21
  24   6     0.07  -0.02  -0.10    -0.01  -0.00   0.00    -0.04  -0.00   0.02
  25   6    -0.02   0.03   0.10    -0.03  -0.00   0.01    -0.10  -0.01   0.02
  26   6    -0.01  -0.02  -0.05    -0.01   0.01   0.03    -0.00   0.03   0.11
  27   8    -0.00   0.00  -0.00    -0.00   0.00  -0.00    -0.00  -0.00  -0.00
  28   1    -0.02   0.01   0.01    -0.03   0.02  -0.01     0.08  -0.04  -0.01
  29   1    -0.00   0.01  -0.13     0.00   0.00  -0.05     0.00  -0.02   0.15
  30   1     0.02   0.01  -0.00    -0.46  -0.07  -0.10     0.07   0.00   0.02
  31   1     0.00   0.00   0.00     0.20  -0.15  -0.21    -0.10   0.06   0.09
  32   1    -0.07  -0.01  -0.01     0.42   0.10   0.06    -0.11  -0.03  -0.02
  33   1     0.03  -0.01  -0.02    -0.36   0.22   0.30     0.09  -0.06  -0.08
  34   1     0.01   0.01  -0.00    -0.04  -0.04   0.03    -0.01   0.00  -0.00
  35   1     0.00   0.00  -0.00     0.03   0.02  -0.02    -0.03  -0.02   0.01
  36   1    -0.00  -0.00  -0.00     0.01  -0.02   0.02    -0.01   0.01  -0.01
  37   1    -0.00   0.01  -0.00     0.01  -0.04   0.01    -0.01   0.02  -0.01
  38   1     0.00   0.00  -0.00    -0.02  -0.01   0.01     0.01   0.00  -0.00
  39   1     0.05   0.10   0.07     0.01   0.10  -0.01    -0.05  -0.02  -0.05
  40   1    -0.04   0.10  -0.03    -0.02   0.07  -0.02     0.04   0.03   0.02
  41   1     0.06  -0.02  -0.07    -0.00   0.05  -0.00    -0.13   0.17   0.09
  42   1    -0.03  -0.03   0.01     0.01   0.01  -0.02     0.05   0.04  -0.07
  43   1    -0.01   0.01   0.03     0.00   0.00  -0.01     0.05   0.05  -0.08
  44   1     0.01   0.00   0.01     0.00   0.00   0.01    -0.01   0.01   0.02
  45   1    -0.00  -0.02  -0.04     0.00   0.00   0.00     0.02   0.02   0.01
  46   1    -0.02  -0.01  -0.00     0.01   0.01   0.00     0.03   0.03   0.00
  47   1    -0.01  -0.00  -0.01    -0.01  -0.01   0.01    -0.01  -0.02   0.02
  48   1     0.03   0.03  -0.02    -0.01  -0.00   0.01    -0.03  -0.03   0.03
  49   1     0.19   0.04  -0.00    -0.09  -0.01   0.01    -0.29  -0.04   0.04
  50   1     0.00  -0.00   0.00     0.00   0.00   0.00     0.01   0.01   0.00
  51   1     0.36   0.10   0.08    -0.03  -0.01  -0.01    -0.19  -0.05  -0.03
  52   1     0.19   0.06   0.06     0.09   0.03   0.02     0.36   0.11   0.10
  53   1    -0.04  -0.16  -0.46    -0.01  -0.02  -0.06    -0.04  -0.06  -0.15
  54   1    -0.39   0.05   0.36    -0.08   0.01   0.07    -0.27   0.02   0.21
  55   1     0.01   0.00   0.02    -0.02  -0.01  -0.02    -0.06  -0.01  -0.06
  56   1    -0.03   0.00   0.01     0.01  -0.00  -0.01     0.05  -0.00  -0.03
  57   1    -0.05  -0.01  -0.01     0.03   0.00   0.01     0.11   0.02   0.03
  58   1     0.04  -0.18   0.00     0.02   0.03  -0.00    -0.02   0.16   0.01
  59   1     0.00   0.00   0.00    -0.00   0.00  -0.00     0.01   0.00   0.00
  60   8    -0.00   0.00  -0.00    -0.00  -0.00  -0.00    -0.00  -0.00   0.00
  61   1    -0.00   0.00   0.00    -0.00  -0.00   0.00     0.00   0.01   0.00
  62   1     0.00  -0.00   0.00     0.00  -0.00   0.00     0.01  -0.00  -0.00
  63   7    -0.00   0.00  -0.00    -0.02  -0.02  -0.02     0.01   0.00   0.01
  64   6     0.00   0.00  -0.00     0.01   0.00  -0.01    -0.00  -0.00   0.00
  65   8    -0.00  -0.00   0.00    -0.00   0.01   0.00     0.00  -0.00  -0.00
  66   6    -0.00  -0.00   0.00     0.00  -0.01   0.00    -0.00   0.01  -0.00
  67   6     0.00  -0.00  -0.00    -0.01   0.02  -0.01     0.01  -0.01   0.01
  68   8    -0.00  -0.00  -0.00     0.01   0.01   0.01    -0.01  -0.01  -0.00
  69   1    -0.00  -0.00   0.00    -0.00   0.00  -0.00     0.00  -0.00   0.00
  70   1     0.00  -0.00   0.00    -0.00   0.00  -0.00    -0.00  -0.00  -0.00
  71   1     0.00   0.00   0.00     0.01  -0.00   0.01    -0.01   0.00  -0.01
  72   7     0.00   0.00  -0.00    -0.01  -0.01   0.00     0.00   0.00   0.00
  73   6    -0.00  -0.00   0.00     0.01  -0.00  -0.01    -0.00   0.00   0.00
  74   1    -0.00   0.00   0.00     0.00   0.00  -0.00     0.00  -0.00  -0.00
  75   1    -0.00   0.00   0.00    -0.00  -0.00  -0.00     0.00  -0.00  -0.00
  76   1    -0.00   0.00   0.00     0.00  -0.00  -0.00    -0.00   0.00   0.00
                    127                    128                    129
                        a                      a                      a 
 Frequencies --  1210.7024              1214.1645              1217.9954
 Red. masses --     5.3089                 5.8669                 4.6328
 Frc consts  --     0.0000                 0.0000                 0.0000
 IR Inten    --     5.8846                34.1782                 9.1568
 Raman Activ --     0.0000                 0.0000                 0.0000
 Depolar     --     0.0000                 0.0000                 0.0000
 Atom AN      X      Y      Z        X      Y      Z        X      Y      Z
   1   7    -0.03   0.01   0.00    -0.16   0.05   0.01    -0.03   0.01   0.00
   2   6     0.03  -0.00  -0.00     0.24  -0.04  -0.07     0.05  -0.02  -0.03
   3   6     0.01   0.01   0.01     0.04   0.08   0.10     0.03   0.03   0.03
   4   6     0.01  -0.01  -0.01     0.02  -0.02  -0.03    -0.00   0.01   0.01
   5   6     0.02  -0.03  -0.00     0.45  -0.08  -0.10     0.08  -0.07  -0.06
   6   6    -0.00   0.01   0.01     0.07   0.00  -0.01     0.03   0.01   0.02
   7   6     0.00  -0.00  -0.00    -0.08  -0.07  -0.08    -0.03  -0.00  -0.00
   8   6     0.01  -0.01   0.05    -0.14   0.06   0.02     0.03   0.11   0.11
   9   6     0.10   0.13  -0.13     0.01   0.05  -0.01    -0.28  -0.05  -0.22
  10   6     0.01  -0.01   0.00     0.04  -0.08  -0.02     0.01  -0.01  -0.01
  11   6    -0.00  -0.01   0.00    -0.02  -0.03   0.03    -0.00  -0.01   0.01
  12   6     0.01   0.01  -0.01     0.04   0.01  -0.02     0.00   0.00  -0.00
  13   6    -0.00  -0.00   0.00    -0.03   0.00  -0.00    -0.01   0.00  -0.00
  14   6     0.00  -0.00  -0.00     0.02  -0.02   0.01     0.00  -0.00   0.00
  15   6    -0.00  -0.00   0.00    -0.02   0.01  -0.00    -0.00   0.00  -0.00
  16   8    -0.00  -0.00   0.01    -0.01  -0.01   0.06    -0.00  -0.00   0.01
  17   7    -0.00  -0.00  -0.01    -0.01  -0.01  -0.02    -0.00  -0.00  -0.00
  18   6    -0.00   0.00   0.00    -0.01   0.00   0.02    -0.00   0.00   0.00
  19   6    -0.01   0.00   0.01    -0.03   0.00   0.03    -0.00   0.00   0.00
  20   6     0.00   0.00   0.01     0.01   0.01   0.02     0.00   0.00   0.00
  21   6     0.00  -0.00  -0.00     0.01  -0.00  -0.01     0.00  -0.00  -0.00
  22   6    -0.00  -0.00  -0.00    -0.01  -0.00  -0.01    -0.00  -0.00  -0.00
  23   6     0.00   0.00   0.01     0.01   0.00   0.01     0.00   0.00   0.00
  24   6     0.00  -0.00  -0.00     0.00  -0.00  -0.01     0.00  -0.00  -0.00
  25   6     0.00   0.00  -0.00     0.01   0.00  -0.00     0.00   0.00  -0.00
  26   6    -0.00  -0.00  -0.00    -0.00  -0.00  -0.01    -0.00  -0.00  -0.00
  27   8     0.00   0.00  -0.00     0.00   0.00  -0.00     0.00   0.00  -0.00
  28   1    -0.01   0.00  -0.00    -0.09   0.05  -0.01    -0.02   0.01  -0.00
  29   1    -0.00   0.00  -0.01    -0.00   0.01  -0.08    -0.00   0.00  -0.02
  30   1    -0.05  -0.01  -0.01    -0.17  -0.00  -0.01    -0.04  -0.00  -0.00
  31   1    -0.02   0.02   0.02    -0.25   0.15   0.22    -0.10   0.06   0.10
  32   1    -0.01  -0.00   0.00    -0.34  -0.08  -0.05    -0.04  -0.00  -0.00
  33   1     0.00  -0.00  -0.00    -0.18   0.08   0.12    -0.02   0.00   0.01
  34   1    -0.05   0.01   0.00    -0.23  -0.09   0.08     0.14   0.20  -0.11
  35   1    -0.14  -0.12   0.07    -0.21  -0.06   0.09    -0.23  -0.22   0.09
  36   1    -0.37   0.03   0.03    -0.04   0.06  -0.03     0.07  -0.24   0.10
  37   1    -0.12   0.29  -0.10    -0.04   0.08  -0.03     0.23  -0.46   0.23
  38   1    -0.44  -0.31   0.18     0.16   0.12  -0.07    -0.20  -0.14   0.08
  39   1    -0.00   0.02  -0.01    -0.01   0.10  -0.05    -0.00   0.02  -0.01
  40   1    -0.00   0.01  -0.00    -0.02   0.03  -0.01    -0.01   0.00  -0.00
  41   1     0.01  -0.00  -0.00     0.01   0.02  -0.01     0.00   0.01  -0.00
  42   1     0.00  -0.00   0.00    -0.00  -0.00   0.02    -0.00  -0.00   0.00
  43   1    -0.00  -0.00   0.00     0.00  -0.01  -0.01     0.00  -0.00  -0.01
  44   1    -0.00  -0.00  -0.00    -0.01  -0.01  -0.01    -0.00  -0.00  -0.00
  45   1    -0.00  -0.00   0.00     0.01   0.02   0.01     0.00   0.00   0.00
  46   1    -0.00  -0.00   0.00     0.01  -0.00   0.00     0.00  -0.00   0.00
  47   1     0.00   0.00  -0.00     0.02   0.01   0.00     0.00   0.00   0.00
  48   1    -0.00  -0.00   0.00    -0.01  -0.02   0.00    -0.00  -0.00   0.00
  49   1     0.01   0.00  -0.00     0.01   0.00  -0.00     0.00   0.00  -0.00
  50   1    -0.00  -0.00  -0.00    -0.00  -0.00  -0.00    -0.00  -0.00  -0.00
  51   1     0.01   0.00   0.00     0.04   0.01   0.01     0.00   0.00   0.00
  52   1    -0.01  -0.00  -0.00    -0.05  -0.02  -0.02    -0.01  -0.00  -0.00
  53   1     0.00   0.00   0.00     0.00   0.00   0.01     0.00   0.00   0.00
  54   1     0.01  -0.00  -0.01     0.03  -0.00  -0.02     0.00  -0.00  -0.00
  55   1     0.00   0.00   0.00     0.00   0.00   0.00     0.00   0.00   0.00
  56   1    -0.00  -0.00   0.00    -0.00  -0.00  -0.00    -0.00  -0.00  -0.00
  57   1    -0.00  -0.00  -0.00    -0.01  -0.00  -0.00    -0.00  -0.00  -0.00
  58   1     0.00   0.00  -0.00     0.02   0.06  -0.00     0.01   0.01  -0.00
  59   1    -0.00   0.00  -0.00    -0.00   0.00  -0.00    -0.00   0.00  -0.00
  60   8     0.00   0.00  -0.00     0.00   0.00  -0.00     0.00   0.00  -0.00
  61   1    -0.00  -0.00   0.00    -0.00  -0.01  -0.00    -0.00  -0.00   0.00
  62   1    -0.00  -0.00   0.00    -0.00   0.00  -0.00    -0.00  -0.00   0.00
  63   7     0.10   0.05   0.13     0.03   0.01   0.03     0.02  -0.08  -0.01
  64   6     0.17   0.13  -0.11    -0.09  -0.06   0.03     0.16   0.09  -0.03
  65   8    -0.05   0.15   0.05     0.03  -0.06  -0.02    -0.04   0.07   0.02
  66   6    -0.02   0.09  -0.03    -0.01   0.02  -0.01     0.02  -0.07   0.02
  67   6     0.08  -0.19   0.06     0.03  -0.04   0.02    -0.11   0.21  -0.09
  68   8    -0.06  -0.04  -0.04    -0.02  -0.02  -0.02     0.09   0.08   0.07
  69   1     0.02  -0.02   0.01     0.00  -0.00   0.00    -0.01   0.01  -0.02
  70   1    -0.01  -0.02   0.00    -0.00  -0.00   0.00     0.00   0.02  -0.00
  71   1    -0.09   0.02  -0.06    -0.02   0.00  -0.02     0.10  -0.01   0.06
  72   7    -0.19  -0.18   0.08     0.05   0.06  -0.01    -0.02  -0.06   0.00
  73   6     0.21  -0.06  -0.10    -0.06   0.03   0.03     0.04  -0.04  -0.03
  74   1    -0.02   0.01   0.01     0.01  -0.01  -0.01    -0.03   0.01   0.02
  75   1    -0.02   0.01   0.01     0.01  -0.01  -0.01    -0.01   0.01   0.01
  76   1     0.06  -0.01  -0.03    -0.02   0.00   0.01     0.03  -0.00  -0.01
                    130                    131                    132
                        a                      a                      a 
 Frequencies --  1226.1318              1229.4715              1238.3915
 Red. masses --     5.9469                 4.5108                 4.3819
 Frc consts  --     0.0000                 0.0000                 0.0000
 IR Inten    --    16.2000                 6.8994                84.5246
 Raman Activ --     0.0000                 0.0000                 0.0000
 Depolar     --     0.0000                 0.0000                 0.0000
 Atom AN      X      Y      Z        X      Y      Z        X      Y      Z
   1   7     0.00  -0.02   0.01     0.03  -0.02   0.00    -0.12   0.15  -0.05
   2   6    -0.02  -0.01  -0.03     0.01  -0.00   0.00     0.10   0.10   0.20
   3   6     0.00   0.02   0.02     0.01  -0.02  -0.02    -0.02  -0.03  -0.04
   4   6     0.01   0.00   0.01    -0.02   0.00   0.00     0.03  -0.04  -0.07
   5   6     0.05  -0.01  -0.01    -0.08   0.01   0.02    -0.01   0.01   0.01
   6   6     0.03   0.00  -0.00    -0.03   0.01   0.01    -0.08  -0.03  -0.03
   7   6    -0.02   0.00   0.00     0.03   0.01   0.01    -0.00  -0.04  -0.05
   8   6    -0.01   0.01   0.00     0.02  -0.02  -0.01    -0.00  -0.01   0.01
   9   6    -0.00   0.01  -0.01     0.01  -0.01   0.01     0.00   0.01  -0.01
  10   6     0.02   0.02   0.00     0.00   0.05  -0.07    -0.08  -0.26   0.18
  11   6    -0.00   0.07  -0.07    -0.04  -0.10   0.11     0.02  -0.06  -0.07
  12   6    -0.03   0.02  -0.04     0.01  -0.10  -0.05     0.03   0.07  -0.05
  13   6     0.01  -0.03  -0.02    -0.15   0.04  -0.06    -0.06  -0.03  -0.03
  14   6    -0.04   0.02   0.02     0.26  -0.21   0.15    -0.01  -0.02   0.06
  15   6     0.02  -0.01  -0.00    -0.21   0.16  -0.08     0.01  -0.00  -0.02
  16   8    -0.00   0.00   0.00    -0.02  -0.04   0.04     0.05   0.09  -0.10
  17   7     0.19   0.04  -0.01     0.03   0.00  -0.02     0.02  -0.01  -0.04
  18   6     0.08  -0.08  -0.28    -0.00  -0.02  -0.05    -0.02  -0.01  -0.02
  19   6     0.07  -0.07  -0.24    -0.01  -0.01  -0.03    -0.01   0.01   0.02
  20   6    -0.26  -0.00   0.17    -0.04   0.01   0.06    -0.01   0.00   0.08
  21   6    -0.06   0.01   0.08    -0.01   0.00   0.01    -0.00  -0.00  -0.01
  22   6    -0.07   0.03   0.12    -0.03  -0.00   0.02    -0.02  -0.00  -0.00
  23   6    -0.07   0.07   0.26    -0.00   0.03   0.08     0.02   0.03   0.09
  24   6     0.02   0.03   0.07     0.01   0.01   0.01     0.02   0.00  -0.00
  25   6    -0.01   0.01   0.04     0.01   0.01   0.01     0.01   0.00   0.00
  26   6    -0.00  -0.02  -0.07    -0.01  -0.01  -0.02    -0.01  -0.02  -0.04
  27   8    -0.00  -0.00   0.00     0.00   0.00  -0.00    -0.00  -0.00  -0.00
  28   1    -0.07   0.04   0.00     0.02  -0.01   0.01     0.31  -0.18  -0.02
  29   1    -0.00  -0.00   0.01    -0.00   0.02  -0.19     0.01  -0.04   0.40
  30   1    -0.00   0.01   0.01     0.05   0.00   0.00    -0.20  -0.05  -0.04
  31   1     0.01  -0.00  -0.00    -0.00  -0.00  -0.00    -0.10   0.05   0.08
  32   1    -0.02  -0.01  -0.00     0.01   0.01   0.01     0.10   0.02   0.01
  33   1    -0.05   0.03   0.04     0.04  -0.02  -0.02     0.15  -0.12  -0.14
  34   1    -0.03  -0.01   0.01     0.04   0.01  -0.01     0.01   0.01  -0.00
  35   1    -0.03  -0.01   0.01     0.05   0.02  -0.02     0.01   0.00  -0.01
  36   1    -0.01   0.00   0.00     0.01   0.00  -0.01     0.01  -0.01   0.00
  37   1    -0.00   0.00   0.00    -0.00   0.01  -0.01     0.00  -0.01   0.00
  38   1     0.00   0.00  -0.00    -0.01  -0.01   0.00     0.02   0.01  -0.01
  39   1    -0.01  -0.12  -0.01     0.06   0.21   0.05    -0.09   0.15  -0.10
  40   1     0.03  -0.15   0.02    -0.06   0.07  -0.03     0.03   0.39   0.00
  41   1     0.29  -0.15  -0.19     0.07   0.29  -0.12     0.21  -0.01  -0.15
  42   1     0.01   0.01  -0.05    -0.04  -0.05   0.17     0.02   0.01   0.01
  43   1    -0.00   0.00   0.01     0.16   0.08  -0.29     0.01  -0.01  -0.04
  44   1     0.02   0.01   0.02    -0.19  -0.13  -0.05     0.02   0.02  -0.04
  45   1    -0.01  -0.01  -0.01     0.15   0.25   0.02    -0.00  -0.01   0.02
  46   1    -0.00   0.01  -0.00     0.13  -0.03   0.01     0.02   0.02  -0.00
  47   1    -0.02  -0.01   0.00     0.20   0.13   0.02    -0.01  -0.01   0.01
  48   1     0.01   0.02   0.00    -0.14  -0.24   0.04    -0.01   0.00   0.01
  49   1     0.18   0.04  -0.00     0.06   0.01  -0.00     0.05   0.01  -0.01
  50   1    -0.00  -0.01  -0.00     0.00   0.00   0.00    -0.00  -0.00  -0.00
  51   1    -0.34  -0.09  -0.08    -0.04  -0.01  -0.01     0.02   0.00   0.00
  52   1     0.37   0.12   0.15     0.03   0.01   0.01    -0.04  -0.01  -0.01
  53   1    -0.01  -0.02  -0.05     0.00   0.00   0.00     0.01   0.00   0.01
  54   1     0.04  -0.00  -0.02     0.04  -0.00  -0.03     0.02  -0.00  -0.02
  55   1     0.03   0.01   0.04     0.01   0.01   0.01     0.01   0.00   0.01
  56   1    -0.03   0.00   0.03    -0.00  -0.00   0.01    -0.02   0.00   0.01
  57   1    -0.08  -0.01  -0.02    -0.05   0.00  -0.00    -0.04  -0.00  -0.01
  58   1    -0.03  -0.05  -0.00     0.07   0.11  -0.01    -0.04  -0.07   0.00
  59   1     0.00   0.00   0.00    -0.01   0.00  -0.01     0.00   0.00   0.00
  60   8     0.00   0.00  -0.00     0.00  -0.00   0.00     0.00   0.00  -0.00
  61   1     0.01   0.01   0.00    -0.01  -0.01   0.00     0.02   0.03   0.01
  62   1     0.00  -0.00   0.01    -0.00   0.00  -0.00    -0.00  -0.00   0.00
  63   7     0.00  -0.00   0.00    -0.01   0.00  -0.01    -0.00  -0.01  -0.00
  64   6    -0.00  -0.00  -0.00     0.01   0.00  -0.00    -0.01  -0.01   0.01
  65   8     0.00  -0.00  -0.00    -0.00   0.00   0.00     0.00  -0.01  -0.00
  66   6    -0.00   0.00  -0.00    -0.00   0.00  -0.00    -0.00  -0.00   0.00
  67   6     0.00  -0.00   0.00     0.00  -0.00   0.00    -0.00   0.01  -0.00
  68   8    -0.00  -0.00  -0.00    -0.00  -0.00  -0.00     0.00   0.00   0.00
  69   1    -0.00   0.00  -0.00     0.00  -0.00   0.00     0.00  -0.00  -0.00
  70   1    -0.00  -0.00   0.00     0.00  -0.00   0.00    -0.00   0.00  -0.00
  71   1    -0.00   0.00  -0.00     0.00   0.00   0.00     0.00   0.00   0.00
  72   7     0.00   0.00  -0.00    -0.00  -0.00   0.00     0.00   0.01  -0.00
  73   6    -0.00   0.00   0.00     0.00  -0.00  -0.00    -0.01   0.00   0.00
  74   1     0.00  -0.00  -0.00    -0.00   0.00   0.00     0.00  -0.00  -0.00
  75   1     0.00  -0.00  -0.00    -0.00   0.00   0.00     0.00  -0.00  -0.00
  76   1    -0.00   0.00   0.00     0.00  -0.00  -0.00    -0.00   0.00   0.00
                    133                    134                    135
                        a                      a                      a 
 Frequencies --  1254.0725              1258.2219              1266.9870
 Red. masses --     4.3478                 4.0364                 3.3537
 Frc consts  --     0.0000                 0.0000                 0.0000
 IR Inten    --    41.8897                28.7673                 1.6773
 Raman Activ --     0.0000                 0.0000                 0.0000
 Depolar     --     0.0000                 0.0000                 0.0000
 Atom AN      X      Y      Z        X      Y      Z        X      Y      Z
   1   7    -0.11   0.03   0.01     0.01  -0.02  -0.02    -0.03   0.01  -0.01
   2   6     0.22  -0.02  -0.04     0.04   0.09   0.11     0.01   0.06   0.08
   3   6     0.08  -0.00  -0.01     0.03  -0.03  -0.04    -0.01   0.00   0.01
   4   6    -0.06  -0.03  -0.03     0.00  -0.03  -0.04     0.04  -0.02  -0.03
   5   6    -0.02   0.03  -0.06    -0.13  -0.01   0.03     0.04  -0.01  -0.03
   6   6    -0.04   0.04   0.05    -0.10  -0.02  -0.01    -0.03  -0.02  -0.02
   7   6     0.06  -0.01  -0.02     0.02   0.01   0.01    -0.03  -0.01  -0.01
   8   6    -0.19  -0.13   0.01     0.11   0.04   0.01    -0.03  -0.01   0.01
   9   6    -0.08  -0.09   0.17     0.09   0.05  -0.10    -0.01   0.01   0.01
  10   6     0.05  -0.04  -0.04     0.07   0.05  -0.12     0.01  -0.02   0.02
  11   6    -0.07  -0.05   0.03    -0.15  -0.12   0.09     0.00   0.05   0.01
  12   6     0.08  -0.02   0.01     0.16  -0.05   0.01     0.03   0.14  -0.08
  13   6    -0.02   0.01  -0.00    -0.04   0.04  -0.02     0.19   0.09  -0.05
  14   6    -0.05   0.04  -0.02    -0.07   0.06  -0.05     0.10  -0.07  -0.19
  15   6     0.05  -0.04   0.02     0.08  -0.06   0.03    -0.07   0.12   0.10
  16   8    -0.02  -0.02   0.06    -0.02  -0.05   0.06     0.01   0.00  -0.01
  17   7     0.02   0.00  -0.01     0.03   0.00  -0.01     0.01   0.01   0.02
  18   6     0.01  -0.00  -0.02     0.03  -0.01  -0.04     0.04  -0.01  -0.05
  19   6    -0.03  -0.01  -0.02    -0.08  -0.03  -0.04    -0.09  -0.04  -0.07
  20   6    -0.01   0.00   0.01    -0.00   0.01   0.02     0.01  -0.01  -0.02
  21   6     0.01   0.00   0.01     0.02   0.01   0.01     0.04   0.01   0.02
  22   6    -0.02  -0.00   0.01    -0.05  -0.01   0.01    -0.04  -0.00   0.01
  23   6    -0.02   0.00   0.02    -0.04   0.00   0.03    -0.05  -0.02  -0.04
  24   6    -0.00   0.00   0.01    -0.00   0.01   0.02    -0.01   0.01   0.03
  25   6     0.01   0.01   0.02     0.01   0.01   0.03    -0.00   0.01   0.05
  26   6    -0.00   0.00  -0.01    -0.01   0.00  -0.01     0.02   0.01   0.02
  27   8     0.00   0.00  -0.00     0.00   0.00   0.00    -0.00   0.00   0.00
  28   1    -0.04   0.02   0.00     0.10  -0.07   0.03     0.08  -0.06   0.01
  29   1    -0.00   0.01  -0.11    -0.00   0.03  -0.25    -0.00   0.00   0.02
  30   1    -0.01  -0.01  -0.01    -0.06  -0.03  -0.02    -0.13  -0.01  -0.03
  31   1    -0.17   0.08   0.13    -0.08   0.04   0.05    -0.06   0.04   0.06
  32   1    -0.08   0.00   0.00     0.16   0.03   0.02     0.08   0.01   0.00
  33   1     0.02  -0.00  -0.00     0.16  -0.09  -0.12     0.06  -0.05  -0.06
  34   1     0.15   0.06  -0.05    -0.01   0.00   0.00    -0.01   0.00   0.00
  35   1     0.30   0.24  -0.13    -0.07  -0.10   0.03     0.02   0.02  -0.01
  36   1     0.45   0.10  -0.12    -0.27  -0.07   0.08     0.05  -0.01   0.01
  37   1    -0.04   0.06  -0.06     0.02  -0.03   0.03    -0.01   0.01  -0.01
  38   1    -0.20  -0.15   0.09     0.12   0.10  -0.06    -0.01  -0.01   0.00
  39   1    -0.00   0.20  -0.06     0.11   0.37   0.06     0.02   0.02   0.03
  40   1    -0.03  -0.03  -0.01    -0.08  -0.08  -0.02    -0.00  -0.01  -0.00
  41   1    -0.01   0.00   0.02    -0.06   0.04   0.06    -0.31  -0.21   0.24
  42   1     0.05   0.05  -0.05     0.07   0.07  -0.06    -0.26  -0.26   0.31
  43   1    -0.05  -0.06   0.07    -0.10  -0.12   0.12    -0.10  -0.06   0.19
  44   1     0.06   0.05  -0.02     0.09   0.07  -0.04    -0.22  -0.20   0.17
  45   1    -0.06  -0.07   0.04    -0.11  -0.12   0.08     0.00   0.02   0.00
  46   1    -0.03   0.01  -0.00    -0.05   0.01  -0.01    -0.05  -0.13   0.00
  47   1    -0.05  -0.03  -0.00    -0.08  -0.05  -0.01     0.10   0.10  -0.05
  48   1     0.03   0.05  -0.01     0.05   0.09  -0.01    -0.00  -0.08  -0.04
  49   1     0.01   0.00  -0.00     0.02   0.00  -0.00     0.01   0.00   0.00
  50   1     0.00  -0.00   0.00     0.00   0.00   0.00     0.00   0.01   0.00
  51   1    -0.04  -0.01  -0.01    -0.07  -0.02  -0.02    -0.11  -0.03  -0.03
  52   1     0.05   0.02   0.02     0.10   0.03   0.04     0.17   0.05   0.06
  53   1    -0.00  -0.01  -0.02    -0.01  -0.02  -0.05    -0.01  -0.03  -0.07
  54   1     0.04  -0.00  -0.03     0.08  -0.00  -0.06     0.08  -0.00  -0.06
  55   1     0.01   0.00   0.01     0.01   0.00   0.01     0.00  -0.00   0.01
  56   1     0.01  -0.00   0.00     0.02  -0.00   0.00     0.00   0.00   0.00
  57   1     0.01  -0.00  -0.00     0.02  -0.01  -0.00     0.03   0.00   0.00
  58   1     0.01   0.17  -0.01     0.03   0.32  -0.02     0.03  -0.15  -0.00
  59   1    -0.00   0.00  -0.00    -0.00  -0.00  -0.00     0.01  -0.01   0.00
  60   8    -0.00   0.00  -0.00    -0.00  -0.00  -0.00    -0.00  -0.00   0.00
  61   1    -0.00  -0.01  -0.00    -0.01  -0.02  -0.00     0.00   0.00  -0.00
  62   1     0.00  -0.00   0.00     0.01   0.00  -0.00     0.00   0.00  -0.01
  63   7    -0.05  -0.00  -0.07     0.02   0.00   0.03    -0.01   0.00  -0.01
  64   6     0.17   0.09  -0.03    -0.11  -0.06   0.02     0.01   0.00   0.00
  65   8    -0.06   0.10   0.04     0.03  -0.06  -0.02    -0.00   0.01   0.00
  66   6     0.00  -0.00   0.00    -0.00  -0.00  -0.00     0.00   0.00  -0.00
  67   6     0.01  -0.03   0.00    -0.00   0.02   0.00     0.01  -0.01   0.01
  68   8     0.00   0.01   0.00    -0.00  -0.01  -0.00    -0.00   0.00  -0.00
  69   1    -0.00   0.00   0.00     0.00   0.00   0.00    -0.00   0.00  -0.00
  70   1     0.00   0.00  -0.00     0.00   0.00   0.00    -0.00   0.00  -0.00
  71   1    -0.01  -0.00  -0.00     0.01   0.00   0.00    -0.01  -0.00  -0.00
  72   7    -0.02  -0.07  -0.01     0.01   0.04   0.00     0.00  -0.00  -0.00
  73   6     0.05  -0.03  -0.02    -0.03   0.02   0.01     0.00  -0.00  -0.00
  74   1    -0.03   0.01   0.02     0.02  -0.01  -0.01    -0.00   0.00   0.00
  75   1    -0.03   0.01   0.01     0.02  -0.00  -0.01    -0.00   0.00   0.00
  76   1     0.01  -0.01  -0.01    -0.00   0.01   0.00     0.00  -0.00  -0.00
                    136                    137                    138
                        a                      a                      a 
 Frequencies --  1273.5329              1277.8487              1282.0052
 Red. masses --     7.2240                 4.3044                 5.5765
 Frc consts  --     0.0000                 0.0000                 0.0000
 IR Inten    --    28.7066                 4.8328                47.3143
 Raman Activ --     0.0000                 0.0000                 0.0000
 Depolar     --     0.0000                 0.0000                 0.0000
 Atom AN      X      Y      Z        X      Y      Z        X      Y      Z
   1   7    -0.19   0.09   0.03     0.11   0.02   0.00    -0.08   0.02   0.01
   2   6     0.34  -0.16  -0.20    -0.19  -0.06  -0.03     0.16  -0.05  -0.07
   3   6     0.08  -0.06  -0.09    -0.13  -0.00   0.00     0.06  -0.03  -0.04
   4   6    -0.19  -0.00   0.01     0.02   0.05   0.06    -0.08  -0.00  -0.00
   5   6    -0.28   0.07   0.13     0.13   0.05   0.08    -0.19   0.01   0.05
   6   6    -0.06   0.10   0.12     0.11  -0.02  -0.04    -0.06   0.04   0.05
   7   6     0.20   0.02   0.00    -0.03  -0.03  -0.03     0.09   0.03   0.02
   8   6     0.12  -0.01  -0.04     0.03   0.03  -0.05     0.17  -0.00   0.03
   9   6     0.10  -0.08  -0.04    -0.12   0.02   0.04    -0.10   0.29  -0.10
  10   6    -0.01  -0.16   0.07    -0.11  -0.03   0.00     0.02  -0.04   0.02
  11   6     0.03   0.01  -0.02     0.01  -0.11   0.06     0.01   0.02  -0.02
  12   6     0.03   0.02  -0.03     0.14  -0.08  -0.09    -0.01   0.01   0.01
  13   6     0.02   0.03  -0.03    -0.07   0.10  -0.06     0.01  -0.01   0.00
  14   6     0.02  -0.01  -0.04     0.01  -0.02  -0.01     0.00   0.00  -0.00
  15   6     0.00   0.01   0.02     0.07  -0.04   0.03    -0.01   0.01   0.00
  16   8    -0.00   0.03   0.04     0.03   0.02  -0.06    -0.01   0.00   0.03
  17   7     0.00  -0.00  -0.00    -0.00  -0.00  -0.01     0.00   0.00   0.00
  18   6     0.01  -0.00  -0.02     0.03  -0.01  -0.04    -0.00   0.00   0.00
  19   6    -0.04  -0.01  -0.02    -0.15  -0.04  -0.03     0.01   0.00   0.00
  20   6     0.01   0.00   0.01     0.06   0.03   0.03    -0.01  -0.00  -0.00
  21   6     0.02   0.00   0.00     0.06   0.01  -0.00    -0.00  -0.00   0.00
  22   6    -0.02  -0.00  -0.00    -0.09  -0.02  -0.01     0.01   0.00   0.00
  23   6    -0.01  -0.00   0.00    -0.03   0.00   0.02     0.00  -0.00  -0.00
  24   6    -0.00   0.00   0.01     0.00   0.01   0.04    -0.00  -0.00  -0.00
  25   6     0.00   0.01   0.02     0.01   0.03   0.07    -0.00  -0.00  -0.01
  26   6     0.01   0.00  -0.00     0.00  -0.00  -0.01     0.00   0.00   0.00
  27   8    -0.00  -0.00  -0.00    -0.00  -0.00  -0.00     0.00   0.00  -0.00
  28   1    -0.14   0.09  -0.04     0.09  -0.03  -0.03    -0.08   0.05  -0.01
  29   1     0.00  -0.01   0.10     0.01  -0.01   0.11    -0.00   0.00   0.00
  30   1     0.21   0.00   0.01     0.19   0.03   0.04     0.05  -0.01  -0.01
  31   1     0.03  -0.06  -0.08     0.22  -0.11  -0.16    -0.01  -0.02  -0.01
  32   1    -0.22  -0.01   0.01    -0.17  -0.05  -0.04    -0.02   0.01   0.02
  33   1    -0.08   0.09   0.13    -0.15   0.08   0.10     0.02   0.01   0.02
  34   1     0.12   0.05  -0.04    -0.06  -0.06   0.04     0.00   0.00  -0.00
  35   1     0.04   0.00  -0.01    -0.13  -0.05   0.06    -0.10  -0.14   0.05
  36   1    -0.32   0.11  -0.06     0.18  -0.02  -0.00     0.36  -0.47   0.34
  37   1     0.03  -0.06   0.06    -0.01   0.03  -0.02    -0.06   0.15  -0.11
  38   1     0.05   0.04  -0.03    -0.04  -0.03   0.02     0.07   0.05  -0.03
  39   1    -0.14   0.04  -0.22     0.03   0.04   0.09    -0.06   0.01  -0.11
  40   1     0.02   0.12   0.01    -0.02   0.31  -0.02     0.01  -0.01   0.01
  41   1    -0.07  -0.00   0.05    -0.16   0.21   0.07     0.02  -0.03  -0.00
  42   1    -0.05  -0.05   0.08    -0.03  -0.03   0.14    -0.00  -0.00  -0.01
  43   1    -0.03  -0.03   0.04    -0.02  -0.08  -0.01    -0.00   0.00   0.01
  44   1    -0.02  -0.02   0.01     0.10   0.09  -0.15    -0.02  -0.02   0.03
  45   1    -0.03  -0.02   0.03    -0.15  -0.13   0.18     0.02   0.01  -0.02
  46   1    -0.02  -0.02  -0.00    -0.03  -0.00  -0.00     0.00  -0.00   0.00
  47   1     0.01   0.01  -0.01    -0.05  -0.04  -0.00     0.01   0.01  -0.00
  48   1     0.01  -0.00  -0.01     0.04   0.06  -0.01    -0.00  -0.01  -0.00
  49   1     0.02   0.00  -0.00     0.05   0.01  -0.00    -0.00  -0.00   0.00
  50   1     0.00   0.00   0.00     0.01   0.01   0.00    -0.00  -0.00  -0.00
  51   1    -0.04  -0.01  -0.01    -0.09  -0.03  -0.03     0.01   0.00   0.00
  52   1     0.06   0.02   0.02     0.14   0.05   0.05    -0.01  -0.00  -0.00
  53   1    -0.01  -0.01  -0.03    -0.01  -0.03  -0.08     0.00   0.00   0.01
  54   1     0.04  -0.00  -0.03     0.14  -0.01  -0.10    -0.01   0.00   0.01
  55   1     0.00  -0.00   0.00     0.01   0.00   0.01    -0.00  -0.00  -0.00
  56   1    -0.00   0.00   0.00     0.00   0.00   0.01    -0.00   0.00  -0.00
  57   1     0.00   0.00   0.00    -0.00   0.00  -0.00    -0.00  -0.00   0.00
  58   1     0.00  -0.01  -0.00     0.03   0.08   0.00    -0.01  -0.01  -0.00
  59   1     0.00   0.00   0.00     0.00   0.00   0.00    -0.00  -0.00  -0.00
  60   8    -0.00   0.00   0.00    -0.00  -0.00   0.00     0.00   0.00   0.00
  61   1     0.00   0.00   0.00     0.00  -0.00  -0.00     0.00   0.00   0.00
  62   1     0.00  -0.00  -0.00     0.01   0.00  -0.00    -0.00  -0.00   0.00
  63   7     0.03  -0.03   0.06     0.00   0.02  -0.02    -0.04   0.09  -0.11
  64   6    -0.06  -0.02  -0.01     0.06   0.02  -0.00    -0.03  -0.04   0.06
  65   8     0.02  -0.03  -0.01    -0.01   0.02   0.01     0.02  -0.03  -0.02
  66   6     0.01  -0.02   0.01    -0.01   0.01  -0.00    -0.03   0.06  -0.02
  67   6    -0.06   0.11  -0.05     0.03  -0.05   0.02     0.17  -0.26   0.14
  68   8     0.02   0.00   0.02    -0.01  -0.00  -0.01    -0.07  -0.03  -0.05
  69   1     0.00  -0.00   0.01     0.00  -0.01  -0.00    -0.01   0.01  -0.02
  70   1     0.01   0.00   0.00    -0.00  -0.00   0.00    -0.03  -0.00  -0.01
  71   1     0.03  -0.00   0.03    -0.01   0.00  -0.01    -0.10   0.01  -0.07
  72   7    -0.00   0.01   0.01     0.00  -0.01  -0.00     0.01   0.03  -0.00
  73   6    -0.00   0.01   0.01     0.00  -0.01  -0.01    -0.02   0.01   0.00
  74   1     0.01  -0.00  -0.01    -0.01   0.00   0.01     0.00  -0.00  -0.00
  75   1     0.01  -0.00  -0.01    -0.01   0.00   0.00     0.02  -0.00  -0.00
  76   1    -0.01   0.00   0.00     0.00  -0.00  -0.00     0.00   0.00   0.00
                    139                    140                    141
                        a                      a                      a 
 Frequencies --  1288.9333              1296.6434              1310.1179
 Red. masses --     2.4752                 4.5453                 6.5417
 Frc consts  --     0.0000                 0.0000                 0.0000
 IR Inten    --     0.5886                 2.1331                26.0350
 Raman Activ --     0.0000                 0.0000                 0.0000
 Depolar     --     0.0000                 0.0000                 0.0000
 Atom AN      X      Y      Z        X      Y      Z        X      Y      Z
   1   7    -0.03  -0.04   0.01    -0.01   0.04  -0.01     0.09   0.00   0.01
   2   6     0.05   0.01  -0.02    -0.00   0.04   0.07    -0.13  -0.13  -0.14
   3   6     0.10   0.03   0.03    -0.13  -0.05  -0.06     0.13   0.05   0.06
   4   6    -0.00  -0.01  -0.01     0.01  -0.01  -0.02    -0.07   0.07   0.10
   5   6    -0.06  -0.07  -0.11     0.04   0.12   0.17    -0.00  -0.12  -0.17
   6   6    -0.02   0.02   0.03    -0.04  -0.03  -0.03     0.17   0.03   0.02
   7   6    -0.02   0.04   0.05     0.06  -0.07  -0.09    -0.12   0.08   0.10
   8   6    -0.05  -0.02   0.06     0.10   0.03  -0.09    -0.13  -0.04   0.09
   9   6     0.07   0.03  -0.03    -0.10  -0.04   0.05     0.10   0.04  -0.05
  10   6     0.01   0.07   0.01     0.07  -0.07  -0.03    -0.12  -0.04  -0.04
  11   6     0.07   0.01   0.01    -0.07  -0.02  -0.04     0.01  -0.17  -0.01
  12   6    -0.07   0.05  -0.06    -0.09   0.18   0.07     0.04   0.02   0.07
  13   6    -0.11   0.10  -0.01     0.00   0.02  -0.02     0.04   0.05  -0.15
  14   6     0.09  -0.06   0.03     0.08  -0.01  -0.06     0.05   0.03  -0.11
  15   6     0.08  -0.08   0.01     0.01  -0.01   0.03     0.01   0.04   0.06
  16   8    -0.00  -0.01   0.00    -0.01  -0.00   0.04     0.03   0.02  -0.05
  17   7     0.01   0.01   0.02     0.07   0.01  -0.00     0.12   0.00  -0.05
  18   6    -0.01  -0.01  -0.02    -0.02  -0.00   0.00     0.01   0.01   0.01
  19   6     0.02   0.00  -0.01     0.19   0.04  -0.00     0.18   0.04   0.00
  20   6    -0.02  -0.00  -0.00    -0.16  -0.05  -0.02    -0.20  -0.05  -0.00
  21   6    -0.01  -0.00   0.00    -0.09  -0.01   0.02    -0.09  -0.01   0.02
  22   6     0.02   0.01   0.01     0.11   0.04   0.05     0.09   0.03   0.05
  23   6     0.01  -0.00  -0.01    -0.02  -0.00   0.01    -0.08   0.02   0.09
  24   6     0.00  -0.00  -0.00    -0.01  -0.02  -0.05    -0.02  -0.02  -0.04
  25   6    -0.00  -0.00  -0.01    -0.00  -0.03  -0.09     0.02  -0.03  -0.10
  26   6     0.01  -0.00   0.01     0.00  -0.00   0.01    -0.00  -0.00  -0.02
  27   8    -0.00  -0.00  -0.00     0.00   0.00   0.00     0.00  -0.00   0.00
  28   1    -0.13   0.07   0.01     0.18  -0.11  -0.00    -0.07   0.06  -0.03
  29   1    -0.00   0.00  -0.02     0.00   0.01  -0.06     0.01  -0.01   0.10
  30   1    -0.12  -0.01  -0.02     0.12  -0.00   0.02     0.05   0.02   0.02
  31   1    -0.13   0.08   0.10     0.13  -0.08  -0.11    -0.01   0.03   0.02
  32   1     0.13   0.03   0.02    -0.14  -0.03  -0.03     0.03   0.00   0.01
  33   1     0.08  -0.04  -0.05    -0.06   0.03   0.04    -0.02   0.02   0.02
  34   1     0.03   0.05  -0.03    -0.05  -0.07   0.04     0.07   0.09  -0.05
  35   1     0.09   0.03  -0.04    -0.12  -0.05   0.06     0.11   0.05  -0.05
  36   1    -0.06  -0.05   0.05     0.09   0.07  -0.07    -0.09  -0.09   0.08
  37   1    -0.01   0.00  -0.00     0.01  -0.00   0.00    -0.01   0.01  -0.01
  38   1     0.03   0.02  -0.01    -0.03  -0.03   0.02     0.03   0.02  -0.01
  39   1    -0.02  -0.19   0.01     0.01   0.29  -0.07     0.06   0.01   0.13
  40   1     0.00  -0.04  -0.01     0.01  -0.23   0.03     0.02   0.22   0.01
  41   1    -0.08  -0.02   0.04     0.12  -0.30  -0.01     0.14   0.06  -0.08
  42   1    -0.15  -0.14   0.31    -0.13  -0.13   0.19    -0.05  -0.07   0.11
  43   1     0.18   0.13  -0.30     0.06   0.07  -0.09    -0.14  -0.14   0.17
  44   1     0.21   0.19  -0.35     0.02   0.02  -0.06    -0.11  -0.10   0.13
  45   1    -0.22  -0.16   0.33    -0.10  -0.06   0.16    -0.09  -0.08   0.10
  46   1    -0.00   0.01  -0.00    -0.02  -0.03  -0.00    -0.06  -0.07  -0.00
  47   1    -0.07  -0.06   0.01    -0.02  -0.01  -0.01    -0.00   0.02  -0.02
  48   1     0.04   0.07  -0.00     0.02   0.01  -0.01     0.01  -0.02  -0.02
  49   1     0.00   0.00   0.00    -0.07  -0.01  -0.00    -0.07  -0.02  -0.01
  50   1     0.00   0.00   0.00    -0.00  -0.01  -0.00    -0.00  -0.01  -0.00
  51   1     0.00   0.00   0.00     0.07   0.03   0.03     0.06   0.02   0.03
  52   1     0.00   0.00   0.00    -0.13  -0.04  -0.03    -0.14  -0.04  -0.03
  53   1     0.00   0.01   0.02     0.01   0.04   0.11     0.01   0.03   0.09
  54   1    -0.02   0.00   0.02    -0.19   0.01   0.14    -0.17   0.01   0.13
  55   1    -0.01   0.01  -0.02    -0.00   0.00  -0.00     0.02   0.01   0.03
  56   1    -0.00  -0.00  -0.00     0.01  -0.00   0.00     0.01   0.00   0.02
  57   1    -0.03   0.01   0.00     0.00   0.01   0.00     0.02   0.00  -0.00
  58   1    -0.01  -0.13   0.02    -0.02   0.15  -0.02     0.01   0.26  -0.01
  59   1     0.00  -0.00   0.00     0.00  -0.00   0.00    -0.00   0.00  -0.00
  60   8    -0.00   0.00  -0.00     0.00   0.00  -0.00     0.00   0.00  -0.00
  61   1     0.00   0.00  -0.00     0.00   0.00   0.00    -0.00   0.00   0.00
  62   1     0.01  -0.00  -0.00    -0.01  -0.00   0.00    -0.00  -0.00   0.01
  63   7    -0.01   0.01  -0.01     0.02  -0.01   0.01    -0.02   0.01  -0.01
  64   6    -0.03  -0.01   0.01     0.04   0.02  -0.01    -0.04  -0.01   0.01
  65   8     0.01  -0.01  -0.00    -0.01   0.01   0.01     0.01  -0.01  -0.01
  66   6    -0.01   0.00  -0.00    -0.00  -0.00   0.00     0.00   0.00  -0.00
  67   6     0.01  -0.01   0.01    -0.01   0.01  -0.01     0.02  -0.02   0.01
  68   8    -0.00  -0.00  -0.00     0.00   0.00   0.00    -0.01  -0.00  -0.00
  69   1     0.00  -0.01   0.00     0.00  -0.00   0.00    -0.00   0.00  -0.00
  70   1     0.00   0.00  -0.00     0.00   0.00   0.00    -0.00   0.00  -0.00
  71   1     0.01   0.00  -0.00     0.00   0.00   0.00    -0.01  -0.00  -0.00
  72   7    -0.00   0.01   0.00     0.00  -0.01  -0.00     0.00   0.01   0.00
  73   6    -0.00   0.01   0.00     0.00  -0.01  -0.00    -0.00   0.01   0.00
  74   1     0.01  -0.00  -0.00    -0.01   0.00   0.00     0.01  -0.00  -0.00
  75   1     0.01  -0.00  -0.00    -0.01   0.00   0.00     0.01  -0.00  -0.00
  76   1    -0.00   0.00  -0.00     0.00  -0.00   0.00     0.00   0.00  -0.00
                    142                    143                    144
                        a                      a                      a 
 Frequencies --  1317.0938              1319.7082              1325.8083
 Red. masses --     9.2789                 5.6511                 4.7357
 Frc consts  --     0.0000                 0.0000                 0.0000
 IR Inten    --    36.4613                 5.6978                 0.4990
 Raman Activ --     0.0000                 0.0000                 0.0000
 Depolar     --     0.0000                 0.0000                 0.0000
 Atom AN      X      Y      Z        X      Y      Z        X      Y      Z
   1   7    -0.02  -0.00   0.00     0.00   0.06   0.01    -0.22   0.05   0.05
   2   6     0.03   0.03   0.02    -0.07  -0.11  -0.10     0.22   0.07   0.03
   3   6    -0.02  -0.01  -0.01     0.07   0.02   0.02    -0.02  -0.02  -0.03
   4   6     0.01  -0.02  -0.02    -0.07   0.06   0.08     0.02  -0.08  -0.10
   5   6    -0.00   0.02   0.03     0.01  -0.05  -0.09    -0.08   0.08   0.13
   6   6    -0.04  -0.00  -0.00     0.15   0.03   0.02    -0.16   0.01   0.03
   7   6     0.03  -0.01  -0.02    -0.08   0.04   0.05     0.16  -0.06  -0.08
   8   6     0.02   0.01  -0.02    -0.12  -0.05   0.08     0.11   0.02  -0.06
   9   6    -0.02  -0.01   0.01     0.08   0.04  -0.05    -0.05  -0.02   0.03
  10   6     0.01   0.02   0.00    -0.08  -0.13  -0.07    -0.13  -0.02  -0.15
  11   6     0.01   0.05   0.02    -0.04  -0.09  -0.02     0.02  -0.01   0.03
  12   6     0.04  -0.09   0.01    -0.05   0.23  -0.01     0.03   0.00  -0.02
  13   6     0.00   0.03  -0.05    -0.00  -0.08   0.15    -0.00  -0.01   0.00
  14   6     0.01   0.02  -0.04    -0.03  -0.04   0.08    -0.00  -0.00   0.00
  15   6     0.01   0.01   0.02    -0.03  -0.01  -0.05    -0.00   0.00  -0.00
  16   8    -0.00  -0.01   0.00     0.04   0.03  -0.06     0.08   0.01  -0.12
  17   7     0.13   0.13   0.33    -0.06   0.03   0.13     0.03  -0.01  -0.04
  18   6    -0.22  -0.17  -0.38    -0.07  -0.04  -0.09     0.02   0.01   0.02
  19   6    -0.13  -0.03  -0.02    -0.15  -0.03  -0.01     0.04   0.01   0.00
  20   6    -0.02   0.01   0.02     0.15   0.02   0.01    -0.05  -0.01  -0.00
  21   6    -0.31  -0.08  -0.07    -0.02  -0.01  -0.03    -0.00   0.00   0.01
  22   6    -0.08   0.02   0.11    -0.07  -0.02  -0.01     0.02   0.01   0.01
  23   6     0.33   0.02  -0.13     0.16  -0.01  -0.12    -0.05   0.00   0.04
  24   6     0.19   0.02  -0.05     0.06   0.01   0.01    -0.02  -0.00  -0.01
  25   6     0.14   0.03   0.01     0.01   0.03   0.07     0.00  -0.01  -0.02
  26   6    -0.10  -0.01   0.04    -0.04  -0.00   0.02     0.01  -0.00  -0.01
  27   8     0.00  -0.00  -0.00    -0.00   0.00   0.00     0.00  -0.00   0.00
  28   1    -0.01  -0.00   0.01     0.08  -0.03  -0.03    -0.08   0.03   0.01
  29   1    -0.00   0.00  -0.01     0.01  -0.01   0.12     0.01  -0.02   0.14
  30   1    -0.02  -0.00  -0.01     0.08   0.01   0.02    -0.03  -0.02  -0.01
  31   1    -0.01   0.00   0.00     0.04  -0.01  -0.03    -0.07   0.01   0.04
  32   1     0.00   0.00   0.00    -0.06  -0.01  -0.01    -0.04   0.01   0.01
  33   1     0.01  -0.00  -0.00    -0.06   0.03   0.04     0.00   0.01   0.01
  34   1    -0.01  -0.02   0.01     0.10   0.09  -0.06    -0.03  -0.05   0.03
  35   1    -0.02  -0.01   0.01     0.08   0.05  -0.04    -0.05  -0.03   0.03
  36   1     0.01   0.02  -0.01    -0.07  -0.08   0.07     0.05   0.04  -0.04
  37   1     0.00  -0.00   0.00    -0.01   0.01  -0.00     0.00  -0.00   0.00
  38   1    -0.00  -0.00   0.00     0.02   0.02  -0.01    -0.01  -0.01   0.01
  39   1    -0.00  -0.05   0.00     0.14   0.17   0.22     0.34  -0.25   0.66
  40   1    -0.01   0.00  -0.01     0.02  -0.02   0.03    -0.00   0.01  -0.00
  41   1    -0.02   0.16  -0.01    -0.01  -0.43   0.09    -0.01   0.00   0.01
  42   1     0.00   0.00   0.01    -0.00   0.01  -0.05     0.01   0.01  -0.01
  43   1    -0.06  -0.07   0.07     0.12   0.16  -0.13    -0.00  -0.00   0.00
  44   1    -0.03  -0.03   0.05     0.05   0.05  -0.08    -0.00  -0.00   0.00
  45   1    -0.04  -0.04   0.04     0.11   0.10  -0.13     0.01   0.01  -0.01
  46   1    -0.02  -0.02  -0.00     0.05   0.05   0.01     0.00   0.00   0.00
  47   1    -0.01   0.00  -0.01     0.02   0.00   0.01     0.00   0.00   0.00
  48   1     0.01   0.00  -0.00    -0.02  -0.00   0.01    -0.00   0.00   0.00
  49   1    -0.02   0.02   0.09     0.03   0.02   0.03    -0.02  -0.01  -0.01
  50   1     0.00   0.00   0.00    -0.00   0.00  -0.00    -0.00  -0.00  -0.00
  51   1     0.17   0.05   0.05     0.01   0.00  -0.01     0.00   0.00   0.00
  52   1     0.02   0.02   0.05     0.10   0.03   0.03    -0.04  -0.01  -0.01
  53   1     0.10   0.13   0.33     0.02   0.01   0.02    -0.00   0.00   0.01
  54   1     0.00   0.01   0.04     0.11  -0.00  -0.07    -0.04   0.00   0.03
  55   1    -0.10  -0.04  -0.10    -0.04  -0.01  -0.04     0.01   0.01   0.02
  56   1    -0.04  -0.01  -0.08    -0.00  -0.01  -0.04     0.01   0.00   0.01
  57   1    -0.01  -0.03  -0.00     0.00  -0.01   0.00     0.00   0.00  -0.00
  58   1     0.01  -0.05   0.00    -0.01   0.21  -0.01     0.01   0.08   0.00
  59   1    -0.00   0.00  -0.00     0.01  -0.01   0.01    -0.00   0.00  -0.00
  60   8    -0.00  -0.00   0.00     0.00  -0.00   0.00     0.00   0.00  -0.00
  61   1    -0.00  -0.00   0.00     0.01   0.01  -0.01    -0.00   0.00   0.00
  62   1     0.01   0.00  -0.00    -0.01   0.00  -0.00    -0.00  -0.00   0.00
  63   7     0.00  -0.00   0.00    -0.02   0.01  -0.01     0.01  -0.01   0.01
  64   6     0.01   0.00  -0.00    -0.03  -0.01   0.01     0.02   0.00  -0.00
  65   8    -0.00   0.00   0.00     0.01  -0.01  -0.00    -0.00   0.00   0.00
  66   6     0.00  -0.00   0.00    -0.00   0.00  -0.00     0.00  -0.00   0.00
  67   6    -0.00   0.00  -0.00     0.02  -0.02   0.01    -0.01   0.01  -0.01
  68   8     0.00   0.00   0.00    -0.01  -0.00  -0.00     0.00   0.00   0.00
  69   1    -0.00   0.00  -0.00    -0.00   0.00   0.00     0.00  -0.00   0.00
  70   1    -0.00   0.00   0.00     0.00   0.00  -0.00     0.00  -0.00   0.00
  71   1     0.00  -0.00   0.00    -0.00   0.00  -0.00     0.00  -0.00   0.00
  72   7    -0.00  -0.00  -0.00    -0.00   0.01   0.00    -0.00  -0.00  -0.00
  73   6     0.00  -0.00  -0.00    -0.00   0.01   0.00     0.00  -0.00  -0.00
  74   1    -0.00   0.00   0.00     0.01  -0.00  -0.00    -0.00   0.00   0.00
  75   1    -0.00   0.00   0.00     0.01  -0.00  -0.00    -0.00   0.00   0.00
  76   1    -0.00  -0.00   0.00     0.00   0.00  -0.00    -0.00  -0.00   0.00
                    145                    146                    147
                        a                      a                      a 
 Frequencies --  1330.3818              1343.6206              1344.8347
 Red. masses --     6.4762                 6.5627                 6.6637
 Frc consts  --     0.0000                 0.0000                 0.0000
 IR Inten    --     4.0662                34.8515                21.9569
 Raman Activ --     0.0000                 0.0000                 0.0000
 Depolar     --     0.0000                 0.0000                 0.0000
 Atom AN      X      Y      Z        X      Y      Z        X      Y      Z
   1   7    -0.04   0.03   0.00    -0.13   0.11  -0.01     0.03  -0.02  -0.00
   2   6    -0.00   0.09   0.11     0.01  -0.13  -0.10    -0.01   0.01   0.01
   3   6    -0.25  -0.01   0.00     0.18  -0.00  -0.01    -0.02   0.00   0.00
   4   6     0.16  -0.06  -0.08    -0.19   0.08   0.11     0.02  -0.00  -0.00
   5   6     0.19   0.14   0.11    -0.07  -0.09  -0.11     0.01   0.00   0.00
   6   6    -0.08  -0.01   0.01     0.21   0.03   0.01    -0.01  -0.00  -0.00
   7   6     0.13  -0.14  -0.16    -0.15   0.07   0.09     0.00  -0.00  -0.00
   8   6    -0.32  -0.14   0.16     0.03   0.01  -0.01    -0.01  -0.00   0.00
   9   6     0.16   0.08  -0.13    -0.00   0.00   0.01     0.00   0.00  -0.00
  10   6     0.04  -0.00  -0.00     0.02  -0.22  -0.01     0.01   0.03   0.03
  11   6    -0.01   0.11   0.02    -0.03   0.36   0.06    -0.02  -0.06   0.03
  12   6     0.02  -0.08  -0.01     0.05  -0.17  -0.05     0.24   0.03  -0.21
  13   6    -0.01   0.02  -0.01    -0.01   0.02   0.01     0.03   0.02   0.08
  14   6     0.00   0.01  -0.01    -0.01   0.00   0.00    -0.14  -0.11   0.18
  15   6     0.01  -0.00   0.01     0.01  -0.01   0.00    -0.02  -0.03  -0.07
  16   8     0.00  -0.00  -0.00     0.03   0.02  -0.04    -0.01  -0.00   0.01
  17   7     0.01  -0.00  -0.02     0.04  -0.00  -0.03     0.26   0.03  -0.06
  18   6     0.01   0.01   0.01     0.01   0.01   0.01     0.06  -0.03  -0.13
  19   6     0.03   0.00  -0.00     0.04   0.00  -0.01     0.06   0.03   0.04
  20   6    -0.03  -0.00  -0.00    -0.08  -0.00  -0.01    -0.22  -0.05  -0.04
  21   6     0.00   0.00   0.01    -0.00   0.00   0.01    -0.16  -0.03  -0.00
  22   6     0.02   0.00   0.01     0.03   0.01   0.02    -0.01   0.03   0.08
  23   6    -0.03   0.00   0.02    -0.06   0.00   0.04    -0.23   0.01   0.16
  24   6    -0.01  -0.00  -0.00    -0.02  -0.01  -0.01    -0.01   0.01   0.04
  25   6    -0.00  -0.00  -0.01     0.00  -0.01  -0.03     0.14  -0.02  -0.14
  26   6     0.01   0.00  -0.00     0.04   0.01   0.00     0.04   0.01  -0.02
  27   8     0.00  -0.00  -0.00     0.00  -0.00  -0.00    -0.00   0.00   0.00
  28   1     0.12  -0.08   0.01     0.26  -0.16  -0.02    -0.02   0.01   0.00
  29   1     0.00  -0.00  -0.02     0.01  -0.01   0.09    -0.00   0.00  -0.02
  30   1     0.02   0.01   0.02    -0.01  -0.00  -0.02    -0.00   0.00   0.00
  31   1     0.08  -0.03  -0.05     0.03  -0.03  -0.04     0.00   0.00   0.00
  32   1    -0.17  -0.02  -0.03    -0.03  -0.01  -0.00     0.01   0.00   0.00
  33   1    -0.12   0.06   0.08    -0.00  -0.01  -0.00     0.00  -0.00  -0.00
  34   1     0.36   0.28  -0.18    -0.05  -0.03   0.02     0.00   0.00  -0.00
  35   1     0.12   0.11  -0.04     0.01  -0.01  -0.01    -0.00   0.00   0.00
  36   1    -0.15  -0.19   0.16     0.01   0.01  -0.00     0.00  -0.00   0.00
  37   1    -0.01   0.00  -0.00    -0.01   0.01  -0.01    -0.00   0.00  -0.00
  38   1     0.04   0.04  -0.02     0.00   0.00  -0.00    -0.00  -0.00   0.00
  39   1     0.04   0.00   0.05     0.13   0.24   0.16    -0.05  -0.01  -0.08
  40   1    -0.02  -0.11  -0.01    -0.04  -0.32  -0.01    -0.03   0.16  -0.02
  41   1    -0.03   0.12  -0.01    -0.12   0.22   0.03    -0.36  -0.10   0.25
  42   1     0.01   0.01  -0.01     0.02   0.03  -0.04     0.01   0.03  -0.06
  43   1    -0.01  -0.02   0.01     0.00  -0.02  -0.02     0.02   0.00   0.00
  44   1     0.00   0.00   0.00     0.03   0.02  -0.02     0.12   0.12  -0.17
  45   1    -0.02  -0.02   0.03    -0.02  -0.01   0.02     0.19   0.14  -0.24
  46   1    -0.01  -0.00  -0.00    -0.00   0.01  -0.00     0.08   0.09   0.01
  47   1    -0.01  -0.00  -0.00    -0.01  -0.01  -0.00     0.04   0.01   0.02
  48   1     0.00   0.00  -0.00     0.00   0.01   0.00    -0.01   0.04   0.01
  49   1    -0.01  -0.00  -0.01    -0.01  -0.01  -0.01    -0.08  -0.02  -0.02
  50   1     0.00   0.00   0.00     0.00   0.00   0.00    -0.00   0.01  -0.00
  51   1    -0.00  -0.00   0.00    -0.00  -0.00   0.00     0.03   0.01   0.02
  52   1    -0.02  -0.00  -0.01    -0.02  -0.00  -0.00    -0.05  -0.01   0.01
  53   1    -0.00  -0.00  -0.00    -0.00   0.00   0.01     0.01   0.04   0.11
  54   1    -0.02   0.00   0.01    -0.04   0.00   0.03    -0.14   0.01   0.12
  55   1     0.00   0.00   0.00    -0.00  -0.01  -0.00     0.04   0.01   0.05
  56   1    -0.00   0.00   0.01    -0.02   0.01   0.01     0.01   0.01   0.05
  57   1    -0.01   0.00   0.00    -0.03   0.00   0.00     0.01   0.02   0.00
  58   1     0.01  -0.13   0.01     0.04  -0.33   0.01     0.01  -0.02   0.00
  59   1    -0.00   0.00  -0.00    -0.00   0.00  -0.00     0.01  -0.01   0.00
  60   8    -0.00   0.00  -0.00    -0.00  -0.00   0.00     0.00  -0.00   0.00
  61   1    -0.00  -0.00   0.00    -0.00  -0.00   0.00     0.00  -0.01  -0.01
  62   1     0.00  -0.00  -0.00     0.00   0.00  -0.00    -0.01   0.00  -0.01
  63   7    -0.03   0.02  -0.02     0.00  -0.01   0.00    -0.00   0.00  -0.00
  64   6    -0.07  -0.02   0.02     0.00  -0.00  -0.00    -0.00  -0.00   0.00
  65   8     0.02  -0.02  -0.01    -0.00   0.00   0.00     0.00  -0.00  -0.00
  66   6    -0.00   0.01  -0.01     0.00  -0.00   0.00    -0.01   0.00  -0.01
  67   6     0.03  -0.04   0.03    -0.00   0.00  -0.00     0.00  -0.00   0.00
  68   8    -0.01  -0.01  -0.01    -0.00   0.00  -0.00     0.00   0.00   0.00
  69   1    -0.00   0.01  -0.00    -0.00   0.01   0.00     0.01  -0.01   0.01
  70   1    -0.01   0.00  -0.00     0.00   0.00  -0.00     0.01  -0.00   0.00
  71   1    -0.02   0.00  -0.01    -0.01  -0.00   0.00     0.01   0.00   0.01
  72   7     0.00   0.01   0.00    -0.00  -0.00   0.00     0.00   0.00  -0.00
  73   6    -0.01   0.01   0.00     0.00   0.00  -0.00    -0.00  -0.00   0.00
  74   1     0.01  -0.00  -0.01     0.00  -0.00   0.00    -0.00   0.00  -0.00
  75   1     0.01  -0.00  -0.00     0.00  -0.00  -0.00     0.00   0.00   0.00
  76   1     0.00   0.00  -0.00    -0.00  -0.00   0.00     0.00   0.00  -0.00
                    148                    149                    150
                        a                      a                      a 
 Frequencies --  1367.1756              1370.5432              1373.9440
 Red. masses --     9.2585                 6.7111                 3.6401
 Frc consts  --     0.0000                 0.0000                 0.0000
 IR Inten    --    13.3516                 2.0643                19.1398
 Raman Activ --     0.0000                 0.0000                 0.0000
 Depolar     --     0.0000                 0.0000                 0.0000
 Atom AN      X      Y      Z        X      Y      Z        X      Y      Z
   1   7     0.00  -0.00   0.00     0.02  -0.01  -0.00     0.01  -0.00  -0.00
   2   6    -0.00   0.00   0.00    -0.01   0.00   0.00    -0.00  -0.00  -0.00
   3   6    -0.00   0.00   0.00    -0.02   0.00   0.01    -0.01   0.00   0.00
   4   6     0.00  -0.00  -0.00     0.02  -0.00  -0.00     0.01  -0.00  -0.00
   5   6     0.00   0.00   0.00     0.01  -0.00  -0.00     0.00  -0.00  -0.00
   6   6    -0.00  -0.00   0.00    -0.02  -0.00  -0.00    -0.01   0.00   0.00
   7   6     0.00  -0.00  -0.00     0.01   0.00   0.00     0.01   0.00   0.00
   8   6     0.00  -0.00   0.00    -0.00   0.00   0.00    -0.00  -0.00   0.00
   9   6    -0.00   0.00  -0.00     0.00  -0.01   0.00    -0.01   0.03  -0.01
  10   6    -0.00   0.00  -0.00    -0.01  -0.00   0.01    -0.01  -0.01   0.01
  11   6     0.00  -0.01   0.00    -0.03  -0.03   0.02    -0.01  -0.00   0.01
  12   6     0.02  -0.03  -0.00     0.16   0.03  -0.18     0.06   0.01  -0.07
  13   6     0.11   0.13  -0.12    -0.14  -0.16   0.20    -0.08  -0.09   0.10
  14   6    -0.15  -0.13   0.15     0.15   0.14  -0.15     0.09   0.09  -0.09
  15   6     0.00  -0.01  -0.05    -0.01   0.00   0.05     0.00   0.02   0.03
  16   8    -0.00  -0.00  -0.00     0.00   0.00  -0.00     0.00   0.00  -0.00
  17   7    -0.02  -0.00   0.01     0.07   0.01  -0.02     0.03   0.00  -0.01
  18   6    -0.20   0.03   0.19    -0.12   0.01   0.10    -0.02   0.00   0.02
  19   6    -0.01  -0.12  -0.34    -0.02  -0.08  -0.23    -0.00  -0.02  -0.05
  20   6    -0.09   0.02   0.11    -0.13  -0.00   0.06    -0.04  -0.00   0.01
  21   6     0.18   0.07   0.11     0.09   0.04   0.08     0.01   0.01   0.02
  22   6     0.26   0.08   0.08     0.17   0.06   0.08     0.03   0.01   0.02
  23   6     0.15   0.02  -0.02     0.01   0.02   0.06    -0.02   0.00   0.03
  24   6    -0.04  -0.13  -0.35    -0.03  -0.09  -0.24    -0.01  -0.02  -0.05
  25   6    -0.24   0.03   0.23    -0.12   0.02   0.13    -0.02   0.00   0.02
  26   6    -0.01   0.00   0.01     0.05   0.01   0.02     0.02   0.01   0.01
  27   8     0.00   0.00   0.00    -0.00   0.00   0.00    -0.00   0.00   0.00
  28   1    -0.01   0.01  -0.00    -0.03   0.02  -0.00    -0.01   0.01  -0.00
  29   1     0.00  -0.00  -0.00    -0.00  -0.00   0.01     0.00  -0.00   0.01
  30   1     0.00   0.00   0.00    -0.00   0.00   0.00    -0.00   0.00   0.00
  31   1    -0.00   0.00   0.00    -0.00   0.00   0.00    -0.00   0.00   0.00
  32   1     0.00   0.00   0.00     0.01   0.00   0.00     0.01   0.00   0.00
  33   1     0.00   0.00   0.00     0.00  -0.00  -0.00     0.00   0.00   0.00
  34   1    -0.00   0.00  -0.00    -0.00  -0.00   0.00    -0.00   0.00  -0.00
  35   1    -0.00  -0.00   0.00     0.00  -0.00  -0.00    -0.00  -0.00   0.00
  36   1     0.00  -0.00   0.00    -0.01   0.01  -0.01     0.02  -0.03   0.02
  37   1    -0.00   0.00  -0.00     0.01  -0.01   0.01    -0.02   0.03  -0.02
  38   1     0.00   0.00  -0.00    -0.00  -0.00   0.00     0.00   0.00  -0.00
  39   1     0.00   0.01  -0.00    -0.02   0.01  -0.02    -0.01   0.01  -0.01
  40   1    -0.00  -0.00  -0.00     0.00   0.11   0.01     0.00   0.04   0.00
  41   1     0.03   0.03  -0.02    -0.18  -0.07   0.11    -0.07  -0.03   0.05
  42   1    -0.10  -0.09   0.12     0.14   0.14  -0.19     0.08   0.08  -0.10
  43   1    -0.10  -0.13   0.15     0.13   0.15  -0.18     0.07   0.09  -0.09
  44   1     0.14   0.11  -0.15    -0.15  -0.12   0.15    -0.10  -0.08   0.10
  45   1     0.12   0.12  -0.16    -0.11  -0.12   0.13    -0.07  -0.08   0.08
  46   1     0.05   0.06   0.00    -0.03  -0.04   0.00    -0.03  -0.05  -0.00
  47   1     0.03   0.00   0.02    -0.02   0.01  -0.03    -0.02  -0.00   0.00
  48   1    -0.00   0.04   0.01     0.01  -0.03  -0.02    -0.00  -0.02  -0.00
  49   1    -0.02  -0.00   0.00    -0.03  -0.01  -0.01    -0.01  -0.00  -0.00
  50   1    -0.00  -0.00  -0.00     0.00   0.01   0.00     0.00   0.00   0.00
  51   1     0.07   0.02   0.04     0.05   0.02   0.03     0.01   0.00   0.01
  52   1     0.04   0.01   0.01     0.04   0.01   0.02     0.01   0.00   0.01
  53   1     0.02   0.03   0.08     0.01   0.03   0.09     0.00   0.01   0.02
  54   1    -0.00   0.00   0.01    -0.03   0.01   0.03    -0.01   0.00   0.01
  55   1    -0.05  -0.03  -0.05    -0.04  -0.03  -0.05    -0.01  -0.01  -0.02
  56   1    -0.05  -0.00  -0.04    -0.06   0.00  -0.03    -0.02   0.00  -0.01
  57   1    -0.03  -0.03  -0.01    -0.09  -0.02  -0.00    -0.04  -0.01  -0.00
  58   1    -0.01   0.03   0.00     0.04  -0.03  -0.02     0.02  -0.02  -0.01
  59   1    -0.00   0.00  -0.00     0.01  -0.00   0.00     0.01  -0.00   0.00
  60   8     0.00  -0.00   0.00    -0.00  -0.00   0.00    -0.00  -0.00   0.00
  61   1    -0.00  -0.00  -0.00     0.00   0.00  -0.00     0.00   0.00  -0.00
  62   1    -0.00  -0.00   0.00     0.01   0.00  -0.00     0.00   0.00  -0.00
  63   7    -0.00  -0.00  -0.00     0.00   0.00   0.00     0.00  -0.02   0.00
  64   6     0.00  -0.00   0.00     0.00   0.00  -0.00     0.00  -0.00   0.00
  65   8     0.00   0.00  -0.00    -0.00   0.00   0.00     0.00  -0.00  -0.00
  66   6    -0.05   0.02  -0.04     0.13  -0.05   0.11    -0.29   0.10  -0.26
  67   6     0.00  -0.01   0.00    -0.01   0.02  -0.01     0.02  -0.03   0.01
  68   8     0.00   0.00   0.00    -0.00  -0.01  -0.00     0.01   0.02   0.01
  69   1     0.03  -0.04   0.06    -0.08   0.08  -0.17     0.18  -0.17   0.40
  70   1     0.07  -0.03   0.02    -0.19   0.07  -0.05     0.45  -0.15   0.12
  71   1     0.06   0.00   0.05    -0.13  -0.01  -0.14     0.29   0.01   0.32
  72   7    -0.00  -0.00   0.00     0.00  -0.00  -0.00    -0.00   0.00   0.00
  73   6     0.00   0.00  -0.00    -0.00  -0.00   0.00     0.00  -0.00  -0.00
  74   1    -0.00   0.00   0.00     0.00  -0.00  -0.00    -0.00   0.00   0.00
  75   1    -0.00   0.00   0.00     0.00  -0.00  -0.00    -0.00   0.00   0.00
  76   1    -0.00  -0.00   0.00     0.00   0.00  -0.00    -0.00  -0.00   0.00
                    151                    152                    153
                        a                      a                      a 
 Frequencies --  1389.5825              1393.1853              1402.0952
 Red. masses --     6.8452                 2.6272                 4.9784
 Frc consts  --     0.0000                 0.0000                 0.0000
 IR Inten    --    16.4972                 2.7146                10.3056
 Raman Activ --     0.0000                 0.0000                 0.0000
 Depolar     --     0.0000                 0.0000                 0.0000
 Atom AN      X      Y      Z        X      Y      Z        X      Y      Z
   1   7     0.25  -0.03   0.01    -0.00   0.00  -0.00    -0.02  -0.00  -0.00
   2   6    -0.10  -0.04  -0.06     0.00   0.00   0.00     0.01   0.01   0.01
   3   6    -0.23   0.06   0.08     0.00  -0.00  -0.00     0.02  -0.01  -0.01
   4   6     0.26  -0.03  -0.05    -0.00   0.00   0.00    -0.03   0.00   0.00
   5   6     0.03  -0.06  -0.08    -0.00   0.00   0.00    -0.00   0.01   0.01
   6   6    -0.25  -0.00   0.02     0.00   0.00  -0.00     0.02  -0.00  -0.00
   7   6     0.17   0.02   0.01    -0.00  -0.00  -0.00    -0.02  -0.00  -0.00
   8   6     0.00   0.04   0.02    -0.00  -0.00  -0.00    -0.00  -0.00  -0.00
   9   6    -0.01   0.00   0.01    -0.01   0.01   0.00     0.00  -0.00  -0.00
  10   6    -0.17  -0.35  -0.04     0.00   0.01   0.00     0.01   0.04  -0.00
  11   6     0.01   0.17   0.03    -0.00  -0.00  -0.00    -0.02  -0.04  -0.00
  12   6    -0.01  -0.03   0.00    -0.00   0.00   0.00     0.08   0.00  -0.04
  13   6     0.01   0.01  -0.01    -0.00  -0.00  -0.00     0.00   0.01  -0.01
  14   6    -0.01  -0.01   0.01     0.00   0.00  -0.00    -0.02  -0.01   0.01
  15   6     0.00  -0.01  -0.00    -0.00  -0.00   0.00    -0.01  -0.01  -0.00
  16   8     0.03   0.06  -0.05    -0.00  -0.00   0.00    -0.00  -0.01   0.00
  17   7    -0.02  -0.00   0.01     0.00  -0.00  -0.00    -0.18  -0.01   0.06
  18   6     0.02  -0.00  -0.02    -0.00   0.00   0.00     0.07  -0.04  -0.14
  19   6     0.02   0.01   0.02    -0.00  -0.00  -0.00     0.03   0.05   0.12
  20   6    -0.02  -0.00  -0.00     0.00   0.00   0.00    -0.15  -0.01   0.04
  21   6     0.00  -0.00  -0.00     0.00   0.00   0.00     0.13   0.04   0.04
  22   6     0.00   0.00  -0.00    -0.00  -0.00   0.00     0.13   0.03   0.02
  23   6     0.01  -0.00  -0.01     0.00   0.00   0.00     0.15   0.01  -0.08
  24   6    -0.01   0.01   0.03     0.00  -0.00  -0.00    -0.09   0.04   0.17
  25   6     0.01  -0.01  -0.03    -0.00   0.00   0.00    -0.01  -0.06  -0.16
  26   6     0.03   0.01   0.02    -0.00  -0.00  -0.00     0.25   0.11   0.15
  27   8    -0.00  -0.00   0.00     0.00  -0.00  -0.00     0.00  -0.00  -0.00
  28   1    -0.35   0.28  -0.08     0.01  -0.01   0.00     0.03  -0.02   0.01
  29   1     0.01  -0.02   0.20    -0.00   0.00  -0.00    -0.00   0.00  -0.02
  30   1     0.06   0.04   0.05    -0.00  -0.00  -0.00    -0.01  -0.00  -0.01
  31   1    -0.04   0.06   0.08     0.00  -0.00  -0.00     0.00  -0.01  -0.01
  32   1     0.17   0.05   0.04    -0.00  -0.00  -0.00    -0.02  -0.01  -0.00
  33   1     0.01   0.03   0.03    -0.00  -0.00  -0.00     0.00  -0.00  -0.01
  34   1    -0.06  -0.03   0.03    -0.00  -0.00   0.00     0.01   0.00  -0.00
  35   1     0.01  -0.01  -0.01     0.00   0.00   0.00    -0.00   0.00   0.00
  36   1     0.01   0.00  -0.00     0.01   0.00  -0.00    -0.00   0.00  -0.00
  37   1    -0.01   0.01  -0.01    -0.01   0.02  -0.01     0.00  -0.00   0.00
  38   1    -0.00  -0.00   0.00    -0.07  -0.04   0.03     0.00   0.00  -0.00
  39   1     0.01   0.38   0.01    -0.00  -0.01   0.00    -0.00  -0.04   0.00
  40   1     0.02  -0.11   0.03    -0.00   0.00  -0.00     0.02   0.05   0.02
  41   1    -0.02   0.04   0.00     0.00  -0.00  -0.00    -0.04   0.00   0.03
  42   1    -0.01  -0.01   0.00     0.00   0.00   0.00    -0.00  -0.00   0.00
  43   1    -0.00  -0.01   0.00    -0.00   0.00   0.00    -0.02  -0.04   0.03
  44   1     0.02   0.01  -0.01    -0.00  -0.00  -0.00     0.01   0.01  -0.01
  45   1     0.00   0.01  -0.00    -0.00  -0.00  -0.00     0.01   0.01  -0.02
  46   1     0.00   0.01   0.00     0.00   0.00   0.00     0.01   0.02   0.00
  47   1     0.00  -0.00  -0.00     0.00   0.00  -0.00     0.02   0.01  -0.00
  48   1     0.00   0.01   0.00     0.00   0.00  -0.00     0.00   0.02  -0.00
  49   1     0.02   0.00   0.00    -0.00  -0.00  -0.00     0.14   0.03   0.02
  50   1     0.00   0.00   0.00    -0.00  -0.00  -0.00    -0.00  -0.00  -0.00
  51   1    -0.02  -0.01  -0.01     0.00   0.00   0.00    -0.17  -0.05  -0.05
  52   1    -0.01  -0.00  -0.00     0.00   0.00   0.00    -0.15  -0.05  -0.05
  53   1    -0.01  -0.01  -0.02     0.00   0.00   0.00    -0.05  -0.05  -0.13
  54   1    -0.01  -0.00   0.00     0.00   0.00  -0.00    -0.09  -0.01   0.03
  55   1    -0.02  -0.02  -0.02     0.00   0.00   0.00    -0.24  -0.22  -0.23
  56   1    -0.04   0.00  -0.02     0.00  -0.00   0.00    -0.35   0.02  -0.25
  57   1    -0.04  -0.02  -0.00     0.00   0.00   0.00    -0.34  -0.22  -0.03
  58   1     0.06  -0.06  -0.01    -0.00   0.00   0.00     0.03   0.05  -0.01
  59   1     0.01  -0.00   0.00    -0.00   0.00  -0.00    -0.00   0.00  -0.00
  60   8    -0.00  -0.00   0.00    -0.00   0.00  -0.00     0.00   0.00  -0.00
  61   1     0.01   0.00  -0.01    -0.00   0.00   0.00    -0.00  -0.00   0.00
  62   1     0.00   0.00  -0.00     0.00  -0.00   0.00    -0.00  -0.00   0.00
  63   7     0.01  -0.03   0.01     0.01  -0.03   0.01    -0.00   0.01  -0.00
  64   6     0.00  -0.00  -0.00     0.04  -0.02  -0.02     0.00   0.00  -0.00
  65   8    -0.00   0.00   0.00    -0.02   0.06   0.02    -0.00   0.00   0.00
  66   6     0.01  -0.01   0.00     0.00  -0.00   0.00    -0.00   0.00  -0.00
  67   6    -0.01   0.02  -0.01    -0.02   0.02  -0.01     0.00  -0.00   0.00
  68   8     0.00   0.00   0.00     0.01   0.01   0.00    -0.00  -0.00  -0.00
  69   1    -0.00   0.01  -0.00     0.00  -0.00   0.00     0.00  -0.00  -0.00
  70   1    -0.00   0.00  -0.00     0.00   0.00   0.00    -0.00  -0.00  -0.00
  71   1    -0.00  -0.00  -0.00     0.00  -0.00   0.00     0.00   0.00  -0.00
  72   7     0.00   0.00  -0.00    -0.04  -0.02   0.02    -0.00  -0.00   0.00
  73   6    -0.01  -0.00   0.00    -0.33   0.01   0.16     0.00   0.00  -0.00
  74   1     0.00  -0.00  -0.00     0.37  -0.17  -0.28     0.00  -0.00  -0.00
  75   1     0.01  -0.00  -0.00     0.44  -0.17  -0.13     0.00  -0.00  -0.00
  76   1     0.01   0.00  -0.00     0.50   0.25  -0.23     0.00   0.00  -0.00
                    154                    155                    156
                        a                      a                      a 
 Frequencies --  1412.8051              1415.5393              1420.4783
 Red. masses --     7.5535                 3.3342                 9.8628
 Frc consts  --     0.0000                 0.0000                 0.0000
 IR Inten    --    13.2246                 2.7431               246.9626
 Raman Activ --     0.0000                 0.0000                 0.0000
 Depolar     --     0.0000                 0.0000                 0.0000
 Atom AN      X      Y      Z        X      Y      Z        X      Y      Z
   1   7     0.00  -0.00  -0.00     0.00  -0.00  -0.00    -0.02   0.01   0.00
   2   6    -0.00  -0.00  -0.00     0.00   0.00   0.00    -0.00  -0.03  -0.03
   3   6    -0.00   0.00   0.00     0.00  -0.00  -0.00    -0.03   0.00   0.01
   4   6     0.00   0.00   0.00    -0.00  -0.00  -0.00     0.02   0.01   0.01
   5   6     0.00  -0.00  -0.00     0.00   0.00   0.00    -0.01  -0.02  -0.03
   6   6    -0.00  -0.00   0.00     0.00  -0.00  -0.00    -0.02   0.01   0.01
   7   6     0.00   0.00   0.00    -0.00  -0.00  -0.00     0.03   0.00   0.00
   8   6    -0.00   0.00   0.00    -0.00   0.00   0.00     0.00  -0.03  -0.00
   9   6    -0.00   0.00  -0.00     0.00  -0.01   0.01    -0.03   0.19  -0.07
  10   6    -0.00  -0.00   0.01    -0.00  -0.01   0.00     0.01   0.03   0.00
  11   6    -0.01   0.00   0.01     0.00   0.00   0.00    -0.01  -0.02  -0.00
  12   6     0.11  -0.01  -0.09     0.03   0.00  -0.03     0.00   0.00   0.00
  13   6    -0.02  -0.02   0.03     0.01   0.01   0.02     0.00   0.00  -0.00
  14   6     0.01   0.01  -0.01    -0.04  -0.03   0.06    -0.00  -0.00   0.01
  15   6    -0.04  -0.05   0.01     0.28   0.31  -0.09     0.02   0.02  -0.01
  16   8     0.00   0.00  -0.00     0.00   0.00  -0.00    -0.00  -0.01   0.01
  17   7    -0.18   0.01   0.12    -0.02   0.00   0.02    -0.00   0.00   0.00
  18   6     0.02  -0.08  -0.24     0.00  -0.02  -0.05    -0.00  -0.00  -0.00
  19   6    -0.07   0.01   0.09    -0.02   0.00   0.01    -0.00  -0.00   0.00
  20   6    -0.18   0.02   0.14    -0.03   0.00   0.02     0.00   0.00   0.00
  21   6     0.20   0.08   0.11     0.04   0.01   0.02     0.00   0.00   0.00
  22   6     0.27   0.08   0.07     0.05   0.02   0.02     0.00   0.00   0.00
  23   6     0.29   0.01  -0.13     0.04   0.00  -0.02     0.00   0.00  -0.00
  24   6    -0.12   0.00   0.07    -0.02  -0.00   0.01    -0.00  -0.00  -0.00
  25   6    -0.08  -0.06  -0.12    -0.01  -0.01  -0.02    -0.00  -0.00  -0.00
  26   6    -0.29  -0.10  -0.07    -0.03  -0.01  -0.01     0.00   0.00   0.00
  27   8     0.00   0.00  -0.00     0.00   0.00   0.00     0.00  -0.00  -0.00
  28   1    -0.00   0.00  -0.00    -0.01   0.00  -0.00     0.05  -0.04   0.00
  29   1    -0.00  -0.00   0.00     0.00  -0.00   0.00    -0.00   0.00  -0.02
  30   1     0.00   0.00   0.00    -0.00  -0.00  -0.00     0.02   0.01   0.01
  31   1     0.00   0.00   0.00    -0.00   0.00   0.00     0.01   0.00   0.00
  32   1     0.00   0.00   0.00    -0.00  -0.00  -0.00     0.01   0.01   0.01
  33   1     0.00   0.00   0.00     0.00  -0.00  -0.00    -0.00   0.01   0.01
  34   1    -0.00  -0.00   0.00     0.00  -0.00   0.00    -0.05   0.03  -0.03
  35   1     0.00  -0.00  -0.00     0.00  -0.00  -0.00    -0.01   0.06   0.04
  36   1     0.00  -0.00   0.00    -0.01   0.01  -0.01     0.10  -0.12   0.10
  37   1    -0.00   0.00  -0.00     0.01  -0.02   0.01    -0.21   0.33  -0.21
  38   1     0.00   0.00  -0.00     0.00   0.00  -0.00    -0.04  -0.03   0.02
  39   1    -0.00   0.01  -0.00     0.00   0.01   0.00    -0.00  -0.03  -0.00
  40   1    -0.00   0.03  -0.00    -0.01  -0.00  -0.01     0.01   0.01   0.01
  41   1    -0.05   0.01   0.03    -0.03  -0.02   0.02     0.00  -0.01  -0.00
  42   1     0.01   0.02  -0.03     0.01   0.01  -0.01    -0.00  -0.00   0.01
  43   1     0.01  -0.00  -0.02     0.01   0.01  -0.00    -0.00   0.00   0.00
  44   1    -0.01  -0.01   0.02    -0.00   0.03  -0.09    -0.00   0.00  -0.01
  45   1    -0.01  -0.01   0.01     0.06  -0.01  -0.09     0.01  -0.01  -0.01
  46   1     0.05   0.06   0.02    -0.30  -0.37  -0.11    -0.02  -0.02  -0.01
  47   1     0.06   0.03  -0.03    -0.42  -0.22   0.17    -0.02  -0.01   0.01
  48   1     0.03   0.06  -0.03    -0.20  -0.42   0.20    -0.02  -0.03   0.02
  49   1     0.13   0.04   0.03     0.02   0.01   0.00     0.00   0.00   0.00
  50   1     0.00   0.00   0.00    -0.00  -0.00  -0.00    -0.00  -0.00   0.00
  51   1    -0.21  -0.06  -0.05    -0.04  -0.01  -0.01    -0.00  -0.00  -0.00
  52   1    -0.19  -0.06  -0.06    -0.04  -0.01  -0.01    -0.00  -0.00  -0.00
  53   1    -0.05  -0.04  -0.10    -0.01  -0.01  -0.01    -0.00  -0.00  -0.00
  54   1    -0.12  -0.01   0.05    -0.02  -0.00   0.01    -0.00  -0.00   0.00
  55   1     0.14   0.19   0.11     0.01   0.02   0.01    -0.00  -0.01   0.00
  56   1     0.28  -0.03   0.09     0.03  -0.00   0.01    -0.01   0.00  -0.00
  57   1     0.26   0.13   0.02     0.03   0.01   0.00     0.00  -0.00  -0.00
  58   1     0.01  -0.03  -0.00    -0.01  -0.00   0.01     0.01   0.01  -0.00
  59   1    -0.00   0.00  -0.00     0.00  -0.00   0.00    -0.00   0.00  -0.00
  60   8    -0.00  -0.00   0.00     0.00  -0.00   0.00     0.00   0.00  -0.00
  61   1    -0.00  -0.00   0.00     0.00  -0.00  -0.00    -0.00   0.00   0.01
  62   1     0.00   0.00  -0.00    -0.00  -0.00   0.00    -0.00  -0.00   0.00
  63   7     0.00  -0.00   0.00    -0.01   0.04  -0.01     0.17  -0.56   0.16
  64   6    -0.00  -0.00   0.00     0.01   0.00  -0.00    -0.06  -0.03   0.03
  65   8     0.00  -0.00  -0.00    -0.00   0.00   0.00     0.01  -0.02  -0.01
  66   6    -0.00  -0.00  -0.00    -0.00   0.01   0.01     0.06  -0.08   0.05
  67   6    -0.00   0.00  -0.00     0.02  -0.03   0.02    -0.26   0.39  -0.21
  68   8     0.00   0.00   0.00    -0.01  -0.00  -0.00     0.09   0.03   0.07
  69   1    -0.00   0.00   0.01     0.01  -0.02  -0.02    -0.01   0.04   0.04
  70   1     0.01  -0.00   0.00    -0.02   0.01  -0.01     0.04   0.08  -0.01
  71   1    -0.00  -0.00   0.00     0.01   0.01  -0.02     0.03  -0.01  -0.02
  72   7     0.00   0.00  -0.00    -0.01  -0.01   0.00     0.05   0.07  -0.02
  73   6     0.00  -0.00  -0.00     0.00   0.00  -0.00    -0.00  -0.04   0.00
  74   1    -0.00   0.00   0.00     0.00  -0.00  -0.00    -0.03   0.04  -0.00
  75   1    -0.00   0.00   0.00     0.00  -0.00  -0.00    -0.01   0.04   0.03
  76   1    -0.00  -0.00   0.00     0.00   0.00  -0.00    -0.01  -0.01   0.00
                    157                    158                    159
                        a                      a                      a 
 Frequencies --  1430.7455              1435.4593              1450.5793
 Red. masses --     8.1265                 8.5441                10.9923
 Frc consts  --     0.0000                 0.0000                 0.0000
 IR Inten    --    27.7561               211.1937                58.7326
 Raman Activ --     0.0000                 0.0000                 0.0000
 Depolar     --     0.0000                 0.0000                 0.0000
 Atom AN      X      Y      Z        X      Y      Z        X      Y      Z
   1   7     0.15  -0.11  -0.03     0.01  -0.01  -0.00     0.00   0.00  -0.00
   2   6     0.07   0.24   0.23     0.00   0.02   0.02    -0.00   0.00   0.00
   3   6     0.23  -0.08  -0.12     0.01  -0.01  -0.01    -0.00  -0.00  -0.00
   4   6    -0.25  -0.04  -0.03    -0.02   0.00   0.00     0.00  -0.00  -0.00
   5   6     0.10   0.23   0.28     0.01   0.02   0.02     0.00   0.00   0.00
   6   6     0.21  -0.11  -0.15     0.01  -0.01  -0.01    -0.00  -0.00  -0.00
   7   6    -0.29  -0.01   0.02    -0.02   0.00   0.00    -0.00   0.00   0.00
   8   6    -0.03  -0.07  -0.04    -0.01  -0.01   0.00    -0.00  -0.00  -0.00
   9   6     0.00   0.03  -0.02    -0.03   0.02   0.01    -0.00  -0.00   0.00
  10   6    -0.10  -0.12  -0.03    -0.01  -0.00  -0.00    -0.00  -0.01  -0.00
  11   6     0.02   0.05   0.02    -0.00   0.00   0.00     0.04   0.01   0.00
  12   6    -0.01  -0.01  -0.00    -0.00  -0.00  -0.00    -0.10   0.00   0.07
  13   6     0.00   0.00   0.00     0.00   0.00  -0.00    -0.01  -0.01  -0.02
  14   6    -0.00  -0.00  -0.00    -0.00  -0.00  -0.00     0.01   0.00  -0.01
  15   6     0.00  -0.00  -0.00    -0.00  -0.00   0.00    -0.00  -0.00   0.00
  16   8     0.01   0.02  -0.02     0.00   0.00  -0.00     0.00   0.00  -0.00
  17   7    -0.00  -0.00   0.00    -0.00  -0.00  -0.00     0.32   0.08   0.04
  18   6     0.00   0.00   0.00     0.00   0.00   0.00    -0.07  -0.12  -0.32
  19   6     0.01   0.00  -0.00     0.00   0.00  -0.00    -0.38  -0.02   0.16
  20   6    -0.00  -0.00  -0.00    -0.00  -0.00   0.00     0.34   0.05  -0.03
  21   6    -0.00  -0.00  -0.00    -0.00  -0.00  -0.00     0.18   0.09   0.16
  22   6    -0.00  -0.00  -0.00    -0.00  -0.00  -0.00     0.23   0.06   0.06
  23   6     0.00   0.00  -0.00     0.00   0.00   0.00    -0.39  -0.08  -0.02
  24   6     0.00   0.00   0.00     0.00   0.00   0.00    -0.10  -0.08  -0.16
  25   6     0.00   0.00   0.00     0.00   0.00   0.00    -0.06  -0.00   0.03
  26   6    -0.00  -0.00  -0.00    -0.00  -0.00  -0.00     0.12   0.07   0.02
  27   8    -0.00   0.00   0.00    -0.00   0.00   0.00     0.00  -0.00  -0.00
  28   1    -0.37   0.24  -0.00    -0.03   0.02   0.00    -0.01   0.01  -0.00
  29   1     0.00  -0.01   0.08    -0.00   0.00   0.00    -0.00   0.00   0.00
  30   1    -0.14  -0.06  -0.07    -0.01  -0.00  -0.00     0.00  -0.00   0.00
  31   1     0.05  -0.09  -0.11     0.01  -0.01  -0.01     0.00  -0.00  -0.00
  32   1    -0.13  -0.07  -0.07    -0.01  -0.01  -0.01     0.00  -0.00  -0.00
  33   1     0.09  -0.10  -0.14     0.01  -0.01  -0.01     0.00  -0.00  -0.00
  34   1     0.10   0.07  -0.06     0.00   0.02  -0.02     0.00   0.00  -0.00
  35   1    -0.05   0.05   0.05    -0.00   0.02   0.01    -0.00   0.00   0.00
  36   1     0.00  -0.02   0.02     0.01  -0.03   0.03     0.00  -0.00   0.00
  37   1    -0.02   0.03  -0.02    -0.03   0.04  -0.03     0.00  -0.00  -0.00
  38   1    -0.03  -0.02   0.01     0.39   0.24  -0.17     0.00   0.00  -0.00
  39   1     0.00   0.12   0.01     0.00   0.01   0.00     0.00   0.01   0.00
  40   1    -0.00  -0.02  -0.00     0.01   0.00   0.01    -0.05  -0.03  -0.06
  41   1    -0.01   0.01   0.00    -0.00   0.00  -0.00     0.10   0.00  -0.07
  42   1    -0.00  -0.00  -0.00    -0.00  -0.00  -0.00     0.02  -0.00   0.03
  43   1     0.00  -0.00  -0.00     0.00  -0.00  -0.00    -0.00   0.03   0.00
  44   1     0.00   0.00  -0.00     0.00   0.00   0.00     0.00  -0.00   0.01
  45   1    -0.00   0.00   0.00    -0.00   0.00   0.00    -0.01   0.00   0.02
  46   1    -0.00   0.00  -0.00     0.00   0.00   0.00     0.00   0.01   0.00
  47   1     0.00   0.00  -0.00     0.00   0.00  -0.00     0.01   0.00  -0.01
  48   1    -0.00   0.00   0.00     0.00   0.00  -0.00     0.00   0.01  -0.00
  49   1    -0.00  -0.00   0.00     0.00   0.00  -0.00    -0.10  -0.02   0.00
  50   1     0.00   0.00   0.00    -0.00  -0.00  -0.00    -0.00  -0.00  -0.00
  51   1     0.00   0.00   0.00     0.00   0.00   0.00    -0.12  -0.03  -0.01
  52   1     0.00   0.00   0.00     0.00   0.00   0.00    -0.15  -0.04  -0.04
  53   1     0.00   0.00   0.00     0.00   0.00   0.00    -0.02   0.01   0.04
  54   1     0.00  -0.00  -0.00     0.00   0.00  -0.00    -0.06   0.00   0.04
  55   1     0.00   0.00   0.00     0.00   0.00   0.00     0.00  -0.09   0.07
  56   1     0.00  -0.00   0.00     0.00   0.00   0.00    -0.06   0.02   0.02
  57   1     0.00   0.00   0.00     0.00   0.00   0.00     0.04  -0.05  -0.00
  58   1     0.01  -0.02   0.00     0.01   0.00  -0.00    -0.08   0.01   0.03
  59   1     0.01  -0.00   0.00     0.00  -0.00   0.00    -0.00   0.00  -0.00
  60   8    -0.00  -0.00   0.00     0.00   0.00  -0.00     0.00   0.00   0.00
  61   1     0.00   0.00  -0.00     0.00  -0.00  -0.00    -0.00   0.00   0.00
  62   1     0.00   0.00  -0.00    -0.00  -0.00   0.00    -0.00   0.00  -0.00
  63   7     0.02  -0.05   0.02     0.02  -0.08   0.02    -0.00  -0.00   0.00
  64   6    -0.03  -0.01   0.01     0.35   0.11  -0.15     0.00   0.00  -0.00
  65   8     0.01  -0.02  -0.01    -0.08   0.12   0.05    -0.00   0.00   0.00
  66   6     0.00  -0.01   0.00     0.01  -0.02   0.01     0.00  -0.00  -0.00
  67   6    -0.02   0.03  -0.02    -0.04   0.07  -0.04     0.00   0.00  -0.00
  68   8     0.01   0.00   0.01     0.01  -0.00   0.01    -0.00  -0.00  -0.00
  69   1    -0.00   0.00   0.00    -0.00   0.01   0.01    -0.00   0.01   0.00
  70   1     0.00   0.01  -0.00     0.01   0.01   0.00     0.00  -0.00   0.00
  71   1     0.00  -0.00  -0.00     0.01  -0.00  -0.00    -0.01  -0.00   0.00
  72   7     0.04   0.03  -0.01    -0.42  -0.37   0.16    -0.00  -0.00   0.00
  73   6    -0.01  -0.02   0.00     0.13   0.21  -0.06     0.00   0.00  -0.00
  74   1    -0.01   0.02  -0.01     0.07  -0.23   0.12     0.00  -0.00   0.00
  75   1     0.00   0.02   0.01    -0.07  -0.20  -0.15    -0.00  -0.00  -0.00
  76   1     0.00  -0.00  -0.00    -0.04   0.01   0.03    -0.00   0.00  -0.00
                    160                    161                    162
                        a                      a                      a 
 Frequencies --  1456.1393              1456.7870              1462.5411
 Red. masses --     1.7212                 1.9923                 1.5687
 Frc consts  --     0.0000                 0.0000                 0.0000
 IR Inten    --     4.7806                 2.3239                 9.9661
 Raman Activ --     0.0000                 0.0000                 0.0000
 Depolar     --     0.0000                 0.0000                 0.0000
 Atom AN      X      Y      Z        X      Y      Z        X      Y      Z
   1   7    -0.00  -0.00  -0.00     0.01   0.01  -0.00    -0.00   0.00   0.00
   2   6     0.00   0.00   0.00    -0.00  -0.01  -0.01    -0.00  -0.00  -0.00
   3   6     0.01   0.00   0.00    -0.02  -0.00  -0.00    -0.00   0.00   0.00
   4   6    -0.00  -0.00  -0.00     0.01   0.00   0.00     0.00   0.00   0.00
   5   6    -0.00   0.00   0.00     0.00  -0.01  -0.01    -0.00  -0.00  -0.00
   6   6     0.00   0.00   0.00    -0.01  -0.00  -0.00    -0.00   0.00   0.00
   7   6    -0.00  -0.00  -0.00     0.00   0.00   0.01     0.00   0.00   0.00
   8   6    -0.00   0.01  -0.00    -0.00   0.01   0.00     0.00  -0.00  -0.00
   9   6     0.00  -0.02   0.00    -0.00  -0.00   0.00     0.00  -0.00   0.00
  10   6    -0.00   0.01   0.00     0.00  -0.03   0.00     0.00   0.00   0.00
  11   6    -0.08  -0.00  -0.02     0.25   0.01   0.06     0.00  -0.00   0.00
  12   6    -0.01  -0.01   0.00     0.04   0.02  -0.01    -0.00   0.00   0.00
  13   6    -0.00  -0.00  -0.01     0.01   0.02   0.03     0.00   0.00  -0.00
  14   6    -0.00   0.00   0.02     0.02   0.02  -0.00     0.00   0.00   0.00
  15   6     0.00   0.00   0.00    -0.01   0.00   0.01     0.00  -0.00  -0.00
  16   8     0.00  -0.00   0.00    -0.00   0.00  -0.01    -0.00  -0.00  -0.00
  17   7     0.01   0.00   0.00    -0.03  -0.01  -0.01    -0.00  -0.00  -0.00
  18   6    -0.00  -0.00  -0.01     0.01   0.01   0.03     0.00   0.00   0.00
  19   6    -0.01   0.00   0.01     0.03   0.00  -0.02    -0.00  -0.00  -0.00
  20   6     0.01   0.00  -0.00    -0.04  -0.01   0.01     0.00   0.00   0.00
  21   6     0.00   0.00   0.00    -0.01  -0.01  -0.01    -0.00   0.00   0.00
  22   6     0.00   0.00  -0.00    -0.02  -0.00   0.00    -0.00  -0.00   0.00
  23   6    -0.01  -0.00  -0.01     0.04   0.01   0.02     0.00   0.00   0.00
  24   6    -0.00  -0.00  -0.00     0.00   0.01   0.01    -0.00  -0.00  -0.00
  25   6    -0.00   0.00   0.00     0.01  -0.00  -0.01     0.00   0.00  -0.00
  26   6     0.00   0.00  -0.01    -0.01  -0.00   0.03     0.00   0.00  -0.00
  27   8    -0.00   0.00   0.00     0.01  -0.00  -0.00    -0.00  -0.00  -0.00
  28   1     0.00  -0.00   0.00    -0.01   0.01  -0.01     0.00  -0.00   0.00
  29   1    -0.00   0.00  -0.00     0.00  -0.00   0.01    -0.00   0.00   0.00
  30   1    -0.01   0.00  -0.01     0.03  -0.01   0.02     0.00   0.00   0.00
  31   1    -0.00  -0.00   0.00     0.00   0.00   0.00     0.00   0.00   0.00
  32   1    -0.00  -0.00  -0.00     0.01   0.00   0.00     0.00   0.00   0.00
  33   1    -0.00  -0.00  -0.00     0.00   0.00   0.00     0.00   0.00   0.00
  34   1     0.01  -0.01   0.01     0.00  -0.01   0.01    -0.01   0.00  -0.00
  35   1     0.00  -0.01  -0.01     0.00  -0.01  -0.01    -0.00   0.01   0.00
  36   1    -0.02   0.02  -0.02    -0.00   0.00  -0.00    -0.00   0.00  -0.00
  37   1     0.03  -0.06   0.04     0.01  -0.01   0.01     0.00  -0.00   0.00
  38   1    -0.01  -0.00   0.00     0.00   0.00  -0.00    -0.01  -0.00   0.00
  39   1    -0.00  -0.01  -0.00     0.00   0.03  -0.00    -0.00  -0.00  -0.00
  40   1     0.13   0.01   0.15    -0.40  -0.03  -0.47    -0.00   0.00  -0.00
  41   1     0.01   0.01  -0.01    -0.01  -0.02   0.02     0.00  -0.00  -0.00
  42   1     0.02   0.00   0.03    -0.07  -0.02  -0.07    -0.00  -0.00   0.00
  43   1    -0.01   0.02   0.02     0.02  -0.08  -0.04    -0.00  -0.00   0.00
  44   1    -0.01   0.01  -0.04    -0.05  -0.02   0.00    -0.00   0.00  -0.00
  45   1     0.01  -0.03  -0.02     0.00  -0.03  -0.01     0.00  -0.00  -0.00
  46   1     0.00   0.00   0.00     0.01   0.01   0.00    -0.00  -0.00  -0.00
  47   1    -0.01  -0.00  -0.01     0.01   0.01  -0.01     0.00   0.00   0.00
  48   1     0.00  -0.01  -0.01     0.01  -0.00  -0.01    -0.00   0.00   0.00
  49   1    -0.00  -0.00   0.00     0.02   0.00  -0.00     0.00  -0.00  -0.00
  50   1    -0.00   0.00  -0.00    -0.00  -0.00   0.00     0.00  -0.00  -0.00
  51   1    -0.00  -0.00  -0.00     0.01   0.00   0.00     0.00   0.00   0.00
  52   1    -0.00  -0.00  -0.00     0.01   0.00   0.00     0.00   0.00   0.00
  53   1     0.00   0.00   0.00     0.00  -0.00  -0.00    -0.00   0.00   0.00
  54   1     0.00  -0.00  -0.00    -0.00   0.00   0.00    -0.00   0.00   0.00
  55   1    -0.00  -0.02   0.02     0.00   0.06  -0.05    -0.00  -0.00   0.00
  56   1    -0.02   0.01   0.02     0.04  -0.02  -0.08    -0.00   0.00   0.00
  57   1     0.02   0.01   0.00    -0.06  -0.04  -0.01     0.00  -0.00  -0.00
  58   1     0.18  -0.02  -0.08    -0.57   0.05   0.25    -0.00   0.00   0.00
  59   1     0.01  -0.00   0.00    -0.01   0.01  -0.01     0.00   0.00   0.00
  60   8    -0.00  -0.00   0.00     0.00   0.00  -0.00    -0.00   0.00  -0.00
  61   1     0.01  -0.00  -0.00    -0.01   0.00   0.01     0.00   0.00   0.00
  62   1     0.00   0.00  -0.00    -0.00  -0.00   0.00     0.00  -0.00   0.00
  63   7    -0.01   0.05  -0.01    -0.00   0.00  -0.00    -0.00   0.00  -0.00
  64   6     0.00   0.00  -0.00     0.01   0.00  -0.00    -0.01  -0.00   0.00
  65   8    -0.00   0.00   0.00    -0.00   0.00   0.00    -0.00   0.00  -0.00
  66   6    -0.01  -0.21  -0.03    -0.00  -0.07  -0.00     0.01  -0.00  -0.01
  67   6     0.05  -0.02   0.03     0.01   0.00   0.00     0.00   0.00  -0.00
  68   8    -0.04  -0.03  -0.03    -0.01  -0.01  -0.01    -0.00  -0.00   0.00
  69   1    -0.07   0.35   0.45    -0.02   0.10   0.14    -0.01   0.02   0.01
  70   1     0.35   0.50  -0.04     0.11   0.17  -0.01     0.01  -0.01   0.00
  71   1    -0.24  -0.02  -0.28    -0.06  -0.01  -0.10    -0.02  -0.00   0.01
  72   7     0.00  -0.00   0.00    -0.00  -0.00   0.00    -0.01   0.01  -0.03
  73   6     0.00  -0.00   0.00     0.00   0.00   0.00    -0.10   0.01  -0.20
  74   1    -0.00   0.01  -0.00    -0.00  -0.00   0.00     0.28  -0.34  -0.08
  75   1     0.01  -0.00  -0.00    -0.00  -0.00  -0.00    -0.22   0.34   0.22
  76   1    -0.01   0.00  -0.01    -0.00   0.00  -0.00     0.32  -0.04   0.65
                    163                    164                    165
                        a                      a                      a 
 Frequencies --  1465.3268              1474.8900              1474.9853
 Red. masses --     1.6077                 1.7284                 2.0904
 Frc consts  --     0.0000                 0.0000                 0.0000
 IR Inten    --    14.6339                 4.2826                 0.2428
 Raman Activ --     0.0000                 0.0000                 0.0000
 Depolar     --     0.0000                 0.0000                 0.0000
 Atom AN      X      Y      Z        X      Y      Z        X      Y      Z
   1   7    -0.00   0.00   0.00    -0.00  -0.00  -0.00    -0.01   0.01   0.00
   2   6    -0.00  -0.00  -0.00     0.00   0.00   0.00    -0.01  -0.02  -0.02
   3   6     0.00   0.00   0.00     0.00  -0.00  -0.00    -0.00   0.01   0.01
   4   6     0.00  -0.00  -0.00    -0.00  -0.00   0.00     0.01   0.01  -0.00
   5   6    -0.00   0.00  -0.00     0.00   0.00  -0.00    -0.02  -0.02   0.00
   6   6    -0.00   0.00   0.00     0.00   0.00  -0.00    -0.03  -0.00   0.00
   7   6     0.00  -0.00  -0.00    -0.00  -0.00  -0.00     0.02   0.01   0.01
   8   6    -0.00   0.00   0.00    -0.02   0.02   0.00     0.18  -0.22  -0.01
   9   6     0.00  -0.00   0.00    -0.00   0.00  -0.00     0.02  -0.03   0.01
  10   6     0.00  -0.00  -0.00    -0.00  -0.00   0.00     0.00   0.00   0.00
  11   6    -0.01   0.00  -0.00    -0.01   0.01  -0.00    -0.00  -0.00  -0.00
  12   6     0.00  -0.00  -0.00     0.01  -0.00  -0.03     0.00  -0.00  -0.00
  13   6    -0.00  -0.01   0.00     0.00   0.02   0.03     0.00   0.00   0.00
  14   6    -0.01  -0.02  -0.03     0.01   0.00   0.00     0.00  -0.00  -0.00
  15   6    -0.01   0.00   0.02    -0.00   0.00   0.00    -0.00   0.00   0.00
  16   8    -0.00   0.00  -0.00     0.00   0.00  -0.00    -0.00  -0.00   0.00
  17   7     0.00   0.00  -0.00    -0.01  -0.01  -0.02     0.00  -0.00  -0.00
  18   6     0.00  -0.00  -0.00     0.03   0.02   0.03     0.00   0.00   0.00
  19   6    -0.00  -0.00   0.00     0.03  -0.00  -0.03     0.00  -0.00  -0.00
  20   6     0.00   0.00  -0.00    -0.02   0.02   0.07    -0.00   0.00   0.01
  21   6     0.00   0.00   0.00    -0.03  -0.01  -0.01    -0.00  -0.00  -0.00
  22   6     0.00   0.00   0.00    -0.03  -0.00   0.00    -0.00  -0.00   0.00
  23   6    -0.01  -0.00   0.00    -0.02   0.02  -0.03    -0.00   0.00  -0.00
  24   6    -0.00  -0.00  -0.00     0.01  -0.00  -0.00     0.00  -0.00  -0.00
  25   6     0.00   0.00  -0.00     0.02   0.00   0.00     0.00   0.00   0.00
  26   6     0.00  -0.00   0.00    -0.13   0.17   0.05    -0.01   0.01   0.01
  27   8    -0.00   0.00   0.00    -0.00   0.00   0.00    -0.00   0.00   0.00
  28   1     0.00   0.00  -0.00    -0.00   0.00   0.00     0.02  -0.01  -0.00
  29   1     0.00  -0.00   0.00     0.00  -0.00   0.00     0.00  -0.00  -0.00
  30   1    -0.00  -0.00  -0.00    -0.00   0.00  -0.00     0.01   0.00   0.00
  31   1    -0.00   0.00   0.00    -0.00  -0.00  -0.00     0.01  -0.00   0.00
  32   1    -0.00  -0.00   0.00    -0.00  -0.00  -0.00     0.04   0.01   0.00
  33   1    -0.00   0.00   0.00     0.00  -0.00  -0.00     0.00   0.00   0.00
  34   1     0.00  -0.00   0.00     0.04  -0.03   0.03    -0.43   0.36  -0.38
  35   1     0.00  -0.00  -0.00     0.01  -0.04  -0.03    -0.16   0.52   0.37
  36   1    -0.00  -0.00   0.00     0.00  -0.00   0.00    -0.01   0.01  -0.01
  37   1    -0.01   0.01   0.00    -0.00   0.00  -0.00     0.03  -0.05   0.03
  38   1     0.00   0.00   0.00    -0.00  -0.00   0.00    -0.00  -0.00   0.00
  39   1     0.00   0.00  -0.00    -0.00  -0.00  -0.00    -0.00  -0.00  -0.00
  40   1     0.01  -0.00   0.01     0.02   0.00   0.02     0.00   0.00   0.00
  41   1    -0.00   0.00   0.00     0.00   0.00  -0.01     0.00  -0.00  -0.00
  42   1     0.01   0.01  -0.01    -0.06  -0.02  -0.06    -0.01  -0.00  -0.01
  43   1    -0.00   0.00   0.00     0.04  -0.06  -0.07     0.00  -0.01  -0.01
  44   1     0.06  -0.00   0.08    -0.01  -0.00  -0.01     0.00   0.00   0.00
  45   1    -0.01   0.08   0.05    -0.01  -0.01   0.01    -0.00   0.00   0.00
  46   1     0.05   0.01   0.01    -0.00  -0.00  -0.00     0.00  -0.00   0.00
  47   1    -0.03   0.00  -0.03    -0.00  -0.00   0.00    -0.00  -0.00  -0.00
  48   1     0.03  -0.02  -0.05    -0.00  -0.00   0.00     0.00  -0.00  -0.00
  49   1    -0.00  -0.00  -0.00    -0.02  -0.01  -0.00    -0.00  -0.00  -0.00
  50   1     0.00   0.00   0.00     0.00  -0.00   0.00     0.00   0.00   0.00
  51   1    -0.00  -0.00   0.00     0.02   0.01   0.01     0.00   0.00   0.00
  52   1    -0.00  -0.00  -0.00     0.02   0.01   0.01     0.00   0.00   0.00
  53   1    -0.00   0.00   0.00     0.00   0.00   0.01     0.00   0.00   0.00
  54   1    -0.00   0.00   0.00     0.00   0.00   0.00     0.00   0.00   0.00
  55   1     0.00   0.01  -0.01     0.17  -0.03   0.40     0.02   0.00   0.03
  56   1     0.01  -0.00  -0.00    -0.01  -0.05  -0.47     0.00  -0.01  -0.04
  57   1    -0.01   0.00   0.00     0.30  -0.62  -0.12     0.02  -0.05  -0.01
  58   1     0.01  -0.00  -0.01     0.03  -0.03  -0.01     0.00  -0.00  -0.00
  59   1     0.00  -0.00   0.00     0.00  -0.00   0.00     0.00  -0.00   0.00
  60   8    -0.00  -0.00   0.00     0.00   0.00  -0.00    -0.00  -0.00  -0.00
  61   1     0.00  -0.00  -0.01     0.00   0.00  -0.00     0.00  -0.00  -0.00
  62   1    -0.00   0.00  -0.00    -0.00  -0.00   0.00    -0.00   0.00  -0.00
  63   7    -0.00   0.02  -0.01     0.00  -0.00   0.00    -0.02   0.06  -0.02
  64   6    -0.00  -0.00   0.00    -0.00   0.00   0.00     0.00  -0.01  -0.00
  65   8     0.00  -0.00  -0.00     0.00  -0.00  -0.00    -0.00   0.01   0.01
  66   6    -0.17  -0.00   0.14    -0.00   0.00   0.00    -0.01   0.00  -0.00
  67   6    -0.01  -0.03   0.04    -0.00   0.00  -0.00     0.03  -0.03   0.02
  68   8    -0.00   0.00  -0.00     0.00   0.00   0.00    -0.01  -0.00  -0.01
  69   1     0.21  -0.45  -0.02     0.00  -0.01  -0.00    -0.00   0.00   0.00
  70   1    -0.09   0.38  -0.09    -0.00   0.00  -0.00     0.00   0.01  -0.00
  71   1     0.50   0.11  -0.50     0.01   0.00  -0.00    -0.00   0.00  -0.01
  72   7     0.00   0.00  -0.00     0.00   0.00  -0.00    -0.00  -0.00   0.00
  73   6    -0.00   0.00  -0.01    -0.00   0.00  -0.00    -0.00  -0.01   0.00
  74   1     0.01  -0.02   0.00     0.00  -0.00   0.00    -0.00   0.02  -0.01
  75   1    -0.01   0.01   0.01    -0.00  -0.00   0.00     0.02   0.01   0.01
  76   1     0.01  -0.00   0.03     0.00   0.00   0.00    -0.01  -0.00  -0.01
                    166                    167                    168
                        a                      a                      a 
 Frequencies --  1481.4810              1484.6539              1492.4803
 Red. masses --     1.9790                 2.5331                 2.0551
 Frc consts  --     0.0000                 0.0000                 0.0000
 IR Inten    --     3.3324                27.4301                 1.1898
 Raman Activ --     0.0000                 0.0000                 0.0000
 Depolar     --     0.0000                 0.0000                 0.0000
 Atom AN      X      Y      Z        X      Y      Z        X      Y      Z
   1   7     0.00  -0.00  -0.00     0.00   0.00   0.00     0.00  -0.00   0.00
   2   6    -0.01   0.00   0.00    -0.00  -0.00  -0.00    -0.00   0.00   0.00
   3   6     0.01   0.00   0.00     0.00   0.00   0.00     0.00   0.00   0.00
   4   6     0.00  -0.01  -0.01     0.00  -0.00  -0.00     0.00  -0.00  -0.00
   5   6    -0.01   0.00   0.00    -0.01  -0.00   0.00    -0.00   0.00   0.00
   6   6     0.01   0.00   0.00     0.00   0.00   0.00     0.00   0.00   0.00
   7   6     0.00  -0.01  -0.01     0.00  -0.00  -0.00     0.00  -0.00  -0.00
   8   6     0.00   0.00  -0.00     0.01  -0.01  -0.00     0.00  -0.00  -0.00
   9   6    -0.00   0.00  -0.00     0.01   0.00  -0.01     0.00  -0.00   0.00
  10   6    -0.00   0.01   0.00     0.00  -0.00   0.00    -0.00   0.00  -0.00
  11   6    -0.04  -0.01  -0.01    -0.00   0.00  -0.00    -0.02  -0.00  -0.01
  12   6    -0.02   0.00   0.02    -0.00  -0.00   0.00    -0.02   0.00   0.03
  13   6     0.04   0.08   0.08     0.00   0.00  -0.00     0.06   0.12   0.11
  14   6    -0.00   0.00  -0.01     0.00   0.00   0.00     0.09   0.14   0.13
  15   6    -0.00   0.00  -0.00     0.00  -0.00  -0.00    -0.02  -0.02  -0.01
  16   8    -0.00  -0.00   0.00    -0.00   0.00  -0.00     0.00  -0.00   0.00
  17   7     0.07   0.01  -0.01     0.00   0.00   0.00     0.02   0.01   0.01
  18   6    -0.01  -0.01  -0.03    -0.00  -0.00  -0.00    -0.05  -0.02  -0.02
  19   6    -0.04   0.00   0.03     0.00   0.00   0.00     0.02   0.02   0.03
  20   6     0.07   0.01   0.00    -0.00  -0.00  -0.00    -0.01  -0.01  -0.02
  21   6     0.01   0.01   0.01    -0.00  -0.00  -0.00     0.00  -0.01  -0.02
  22   6     0.01   0.00  -0.00     0.00  -0.00  -0.00     0.03  -0.00  -0.02
  23   6    -0.13  -0.04   0.02    -0.00  -0.00   0.00     0.01   0.00  -0.00
  24   6    -0.01  -0.01  -0.02     0.00   0.00   0.00     0.03   0.01   0.02
  25   6     0.00   0.00   0.01    -0.00  -0.00   0.00    -0.06  -0.00   0.02
  26   6     0.01  -0.07   0.17    -0.00  -0.00   0.00     0.02   0.01  -0.06
  27   8    -0.00   0.00   0.00     0.00  -0.00  -0.00     0.01  -0.00  -0.00
  28   1     0.00  -0.00   0.00     0.00  -0.00  -0.00     0.00  -0.00   0.00
  29   1    -0.00   0.00  -0.00     0.00  -0.00   0.00    -0.00   0.00  -0.00
  30   1    -0.01   0.00  -0.00    -0.00  -0.00  -0.00    -0.00   0.00  -0.00
  31   1    -0.01   0.00   0.00    -0.00   0.00   0.00    -0.00   0.00   0.00
  32   1    -0.01  -0.00  -0.00    -0.00   0.00   0.00    -0.00  -0.00   0.00
  33   1    -0.01   0.00   0.00    -0.00   0.00   0.00    -0.00   0.00   0.00
  34   1     0.01  -0.01   0.00    -0.02   0.01  -0.01    -0.00   0.00  -0.00
  35   1     0.00  -0.01  -0.00    -0.01   0.01   0.01     0.00   0.00   0.00
  36   1    -0.00   0.00   0.00     0.00   0.00  -0.00     0.00  -0.00   0.00
  37   1    -0.00   0.00  -0.00     0.00  -0.00   0.00    -0.00   0.00   0.00
  38   1    -0.00  -0.00  -0.00    -0.15  -0.08   0.07     0.00   0.00  -0.00
  39   1    -0.00  -0.01  -0.00    -0.00   0.00  -0.00     0.00  -0.00   0.00
  40   1     0.08   0.01   0.09     0.00  -0.00   0.00     0.03  -0.01   0.04
  41   1     0.03  -0.00  -0.02     0.00   0.00  -0.00     0.02   0.00  -0.01
  42   1    -0.21  -0.06  -0.19     0.00  -0.00   0.00    -0.29  -0.09  -0.25
  43   1     0.06  -0.26  -0.10    -0.00   0.00   0.00     0.10  -0.35  -0.17
  44   1     0.01   0.00   0.01    -0.01  -0.00  -0.01    -0.36  -0.05  -0.29
  45   1    -0.00   0.02   0.01     0.00  -0.01  -0.00     0.05  -0.43  -0.22
  46   1     0.00  -0.02  -0.00    -0.00   0.00  -0.00     0.00  -0.03   0.00
  47   1    -0.01  -0.01   0.02     0.00   0.00   0.00     0.08   0.01   0.07
  48   1     0.00   0.00  -0.00    -0.00   0.00   0.00    -0.00   0.10   0.04
  49   1    -0.02  -0.01  -0.00    -0.00  -0.00   0.00    -0.01   0.00   0.00
  50   1     0.00  -0.00   0.00     0.00   0.00   0.00    -0.00  -0.02  -0.00
  51   1    -0.01  -0.00   0.00     0.00  -0.00  -0.00     0.00  -0.00  -0.01
  52   1    -0.01  -0.00  -0.00     0.00  -0.00  -0.00    -0.00  -0.00  -0.01
  53   1    -0.00   0.00   0.01     0.00  -0.00  -0.00     0.00  -0.01  -0.03
  54   1    -0.00   0.00   0.00     0.00  -0.00  -0.00     0.02  -0.00  -0.03
  55   1     0.10   0.48  -0.33     0.00   0.00  -0.00    -0.05  -0.15   0.07
  56   1     0.38  -0.08  -0.31     0.00  -0.00  -0.00    -0.12   0.03   0.16
  57   1    -0.34  -0.05   0.00    -0.00  -0.00  -0.00     0.08   0.08   0.01
  58   1     0.10  -0.01  -0.04     0.00  -0.00  -0.00     0.04   0.01  -0.02
  59   1     0.00  -0.00   0.00    -0.00   0.00  -0.00    -0.02   0.01  -0.01
  60   8     0.00   0.00  -0.00    -0.00  -0.00   0.00     0.00   0.01  -0.00
  61   1     0.00  -0.00  -0.00    -0.00   0.00   0.00    -0.02   0.00   0.02
  62   1    -0.00  -0.00   0.00     0.00   0.00  -0.00    -0.00  -0.00   0.01
  63   7     0.00  -0.00   0.00     0.00   0.00   0.00    -0.00   0.00  -0.00
  64   6     0.00  -0.00  -0.00    -0.14  -0.03   0.06     0.00   0.00  -0.00
  65   8    -0.00   0.00   0.00     0.04  -0.07  -0.03    -0.00   0.00   0.00
  66   6     0.00  -0.00  -0.00    -0.00   0.00  -0.00    -0.02   0.01   0.02
  67   6    -0.00   0.00  -0.00     0.00  -0.01   0.00    -0.00  -0.01   0.00
  68   8     0.00   0.00   0.00    -0.00   0.00  -0.00     0.00   0.00   0.00
  69   1    -0.00   0.01   0.00    -0.00   0.00   0.00     0.03  -0.07  -0.03
  70   1     0.01  -0.01   0.00     0.00  -0.00   0.00    -0.03   0.02  -0.01
  71   1    -0.01  -0.00   0.01    -0.00  -0.00   0.00     0.07   0.01  -0.05
  72   7    -0.00  -0.00   0.00     0.17   0.19  -0.06    -0.00  -0.00   0.00
  73   6    -0.00  -0.00  -0.00     0.02   0.15   0.00    -0.00  -0.00  -0.00
  74   1     0.00   0.00  -0.00    -0.08  -0.46   0.41     0.00   0.00  -0.00
  75   1     0.00   0.00   0.00    -0.40  -0.42  -0.23     0.00   0.00   0.00
  76   1    -0.00  -0.00   0.00     0.21   0.11  -0.10    -0.00  -0.00   0.00
                    169                    170                    171
                        a                      a                      a 
 Frequencies --  1495.2047              1496.0681              1497.1581
 Red. masses --     2.0142                10.2866                 9.5851
 Frc consts  --     0.0000                 0.0000                 0.0000
 IR Inten    --     2.3274                10.0048                78.1253
 Raman Activ --     0.0000                 0.0000                 0.0000
 Depolar     --     0.0000                 0.0000                 0.0000
 Atom AN      X      Y      Z        X      Y      Z        X      Y      Z
   1   7     0.01  -0.00  -0.00     0.01   0.00  -0.00    -0.12   0.01   0.02
   2   6    -0.05   0.01   0.01    -0.03   0.00   0.01     0.42  -0.04  -0.07
   3   6     0.03   0.01   0.01     0.02   0.01   0.01    -0.28  -0.12  -0.14
   4   6     0.01  -0.02  -0.02     0.01  -0.01  -0.02    -0.11   0.17   0.22
   5   6    -0.04   0.00   0.01    -0.03   0.00   0.01     0.38  -0.04  -0.10
   6   6     0.03   0.01   0.01     0.02   0.01   0.01    -0.23  -0.13  -0.13
   7   6     0.02  -0.02  -0.03     0.01  -0.01  -0.02    -0.16   0.18   0.22
   8   6     0.01  -0.00  -0.00     0.01  -0.00  -0.00    -0.11   0.01   0.03
   9   6    -0.00   0.00  -0.00    -0.00   0.00  -0.00     0.00  -0.01   0.00
  10   6    -0.00   0.00   0.00     0.00  -0.00   0.00     0.00   0.03  -0.01
  11   6     0.00  -0.02  -0.00     0.00   0.00   0.00    -0.01  -0.01  -0.00
  12   6     0.01   0.01   0.01     0.04   0.00  -0.02     0.00   0.00   0.00
  13   6     0.03   0.10   0.13    -0.01  -0.03  -0.03     0.00   0.01   0.01
  14   6    -0.05  -0.10  -0.14    -0.00  -0.00   0.01    -0.01  -0.01  -0.01
  15   6    -0.00   0.03  -0.02     0.00  -0.00   0.00    -0.00   0.00  -0.00
  16   8    -0.00   0.00  -0.00    -0.00   0.00  -0.00     0.00  -0.01   0.01
  17   7     0.02   0.01   0.01     0.23   0.06   0.04     0.02   0.01   0.00
  18   6    -0.05  -0.01  -0.01    -0.36  -0.10  -0.09    -0.03  -0.01  -0.01
  19   6     0.03   0.02   0.03     0.24   0.12   0.21     0.02   0.01   0.02
  20   6    -0.02  -0.01  -0.02    -0.14  -0.04  -0.03    -0.01  -0.00  -0.00
  21   6     0.00  -0.01  -0.03    -0.01  -0.07  -0.20    -0.00  -0.01  -0.02
  22   6     0.03  -0.00  -0.02     0.22  -0.02  -0.19     0.02  -0.00  -0.02
  23   6     0.02   0.01  -0.01    -0.06  -0.01   0.01    -0.01  -0.00  -0.00
  24   6     0.03   0.02   0.03     0.24   0.11   0.21     0.02   0.01   0.02
  25   6    -0.06  -0.00   0.02    -0.45  -0.03   0.18    -0.04  -0.00   0.02
  26   6     0.02   0.01  -0.07    -0.00   0.01   0.03     0.00  -0.00  -0.00
  27   8    -0.01   0.01   0.00    -0.00   0.00   0.00     0.00  -0.00  -0.00
  28   1     0.00  -0.00  -0.00     0.00  -0.00  -0.00    -0.03   0.00   0.01
  29   1     0.00  -0.00  -0.00     0.00  -0.00   0.00    -0.00   0.00  -0.01
  30   1    -0.02  -0.00  -0.00    -0.02  -0.00  -0.00     0.22   0.01   0.01
  31   1    -0.02   0.01   0.01    -0.01   0.01   0.01     0.18  -0.08  -0.12
  32   1    -0.02  -0.00   0.00    -0.02  -0.00   0.00     0.22   0.02  -0.00
  33   1    -0.02   0.01   0.01    -0.01   0.01   0.01     0.19  -0.09  -0.12
  34   1     0.00  -0.00   0.00     0.00  -0.00  -0.00    -0.01   0.01   0.00
  35   1     0.00  -0.00  -0.00     0.00  -0.00  -0.00    -0.02   0.00   0.00
  36   1    -0.00   0.00  -0.00     0.00   0.00  -0.00    -0.01  -0.00   0.00
  37   1    -0.00  -0.00   0.00    -0.00   0.00  -0.00     0.01  -0.01   0.00
  38   1    -0.00  -0.00   0.00     0.00   0.00  -0.00    -0.01  -0.00   0.00
  39   1    -0.01  -0.01  -0.01     0.00   0.01   0.00     0.01  -0.04   0.02
  40   1     0.01   0.03   0.01    -0.01   0.00  -0.01     0.01   0.00   0.01
  41   1    -0.01   0.00   0.01    -0.03   0.00   0.02     0.00  -0.00   0.00
  42   1    -0.28  -0.08  -0.30     0.08   0.02   0.07    -0.03  -0.01  -0.03
  43   1     0.12  -0.35  -0.20    -0.03   0.09   0.05     0.01  -0.04  -0.02
  44   1     0.32   0.03   0.30    -0.00   0.00  -0.01     0.03   0.00   0.03
  45   1    -0.08   0.39   0.24     0.01  -0.00  -0.01    -0.01   0.04   0.02
  46   1     0.02  -0.07  -0.00    -0.01   0.02  -0.00     0.00  -0.01  -0.00
  47   1    -0.03  -0.03   0.05    -0.00   0.00  -0.02    -0.00  -0.00   0.01
  48   1     0.00  -0.02  -0.01    -0.00  -0.01  -0.00    -0.00   0.00   0.00
  49   1    -0.01   0.00   0.00    -0.10  -0.01   0.01    -0.01  -0.00   0.00
  50   1     0.00   0.01   0.00    -0.00   0.00  -0.00    -0.00  -0.00  -0.00
  51   1     0.00  -0.00  -0.01     0.04  -0.01  -0.05     0.00  -0.00  -0.00
  52   1    -0.00  -0.00  -0.01     0.02  -0.02  -0.07     0.00  -0.00  -0.01
  53   1     0.00  -0.01  -0.03     0.03  -0.06  -0.20     0.00  -0.01  -0.02
  54   1     0.02  -0.01  -0.03     0.16  -0.04  -0.20     0.01  -0.00  -0.02
  55   1    -0.05  -0.18   0.09     0.02   0.04  -0.00    -0.00  -0.00   0.00
  56   1    -0.15   0.04   0.18     0.04  -0.01  -0.05    -0.00   0.00   0.01
  57   1     0.10   0.08   0.01    -0.01  -0.04  -0.00     0.00   0.01   0.00
  58   1     0.01   0.01  -0.00    -0.01  -0.00   0.01     0.01   0.02  -0.01
  59   1     0.02  -0.02   0.01     0.01  -0.01   0.01    -0.00   0.00  -0.00
  60   8    -0.00  -0.00  -0.00     0.00  -0.00   0.00     0.00   0.00  -0.00
  61   1     0.03  -0.01  -0.03     0.01  -0.00  -0.01    -0.00  -0.00   0.00
  62   1     0.00   0.00  -0.00    -0.00   0.00   0.00    -0.00  -0.00   0.00
  63   7     0.00  -0.00   0.00     0.00  -0.00   0.00    -0.01   0.01  -0.00
  64   6    -0.00  -0.00   0.00     0.00   0.00  -0.00    -0.01  -0.00   0.00
  65   8     0.00  -0.00  -0.00    -0.00   0.00   0.00     0.00  -0.00  -0.00
  66   6     0.01  -0.01  -0.02     0.00   0.00   0.00    -0.00   0.00  -0.00
  67   6    -0.00   0.01  -0.00    -0.00   0.00  -0.00     0.01  -0.01   0.01
  68   8    -0.00  -0.00  -0.00     0.00   0.00   0.00    -0.00  -0.00  -0.00
  69   1    -0.02   0.06   0.03     0.00  -0.00  -0.00    -0.00   0.00   0.00
  70   1     0.03  -0.01   0.01    -0.00  -0.00  -0.00     0.00   0.00   0.00
  71   1    -0.05  -0.01   0.03     0.00   0.00  -0.00    -0.00  -0.00   0.00
  72   7     0.00   0.00  -0.00    -0.00  -0.00   0.00     0.01   0.01  -0.00
  73   6    -0.00   0.00   0.00     0.00  -0.00  -0.00    -0.00   0.00   0.00
  74   1    -0.00  -0.00   0.00     0.00   0.00  -0.00    -0.00  -0.00   0.00
  75   1    -0.00  -0.00  -0.00     0.00   0.00   0.00    -0.00  -0.00  -0.00
  76   1     0.00   0.00  -0.00    -0.00  -0.00   0.00     0.00   0.00  -0.00
                    172                    173                    174
                        a                      a                      a 
 Frequencies --  1507.8880              1509.3999              1538.6162
 Red. masses --     1.5526                 1.5790                 2.0952
 Frc consts  --     0.0000                 0.0000                 0.0000
 IR Inten    --     2.2013                 1.6843               129.9909
 Raman Activ --     0.0000                 0.0000                 0.0000
 Depolar     --     0.0000                 0.0000                 0.0000
 Atom AN      X      Y      Z        X      Y      Z        X      Y      Z
   1   7    -0.00   0.00   0.00    -0.00   0.00   0.00     0.01  -0.00  -0.00
   2   6    -0.00  -0.00  -0.00     0.00  -0.00  -0.00    -0.01  -0.00   0.00
   3   6    -0.00   0.00   0.00    -0.00  -0.00  -0.00     0.00   0.00   0.00
   4   6     0.00   0.00   0.00    -0.00   0.00   0.00     0.00  -0.00  -0.01
   5   6    -0.00  -0.00  -0.00     0.00   0.00  -0.00    -0.01   0.00   0.00
   6   6    -0.00   0.00   0.00    -0.00  -0.00  -0.00     0.01   0.00  -0.00
   7   6     0.00  -0.00  -0.00    -0.00   0.00   0.00    -0.00   0.00   0.00
   8   6     0.00  -0.00   0.00    -0.00   0.00   0.00     0.00  -0.00  -0.00
   9   6     0.00  -0.00   0.00    -0.00   0.00  -0.00     0.00  -0.00   0.00
  10   6    -0.00   0.00   0.00    -0.00   0.00   0.00    -0.01  -0.00   0.00
  11   6     0.00  -0.00  -0.00    -0.00  -0.00  -0.00    -0.01  -0.00  -0.00
  12   6    -0.00   0.00  -0.00    -0.00   0.00   0.01     0.00   0.01  -0.01
  13   6    -0.00   0.01   0.02     0.01   0.03   0.01     0.00  -0.00   0.01
  14   6     0.03  -0.04  -0.04     0.01   0.00   0.07    -0.01  -0.01  -0.01
  15   6     0.15  -0.14  -0.06     0.07  -0.01   0.20     0.00  -0.00  -0.00
  16   8    -0.00  -0.00   0.00    -0.00  -0.00   0.00     0.01  -0.00  -0.01
  17   7    -0.00  -0.00  -0.00    -0.00   0.00   0.00     0.01   0.00   0.00
  18   6     0.00   0.00   0.00     0.00  -0.00  -0.00    -0.01  -0.00   0.00
  19   6    -0.00  -0.00  -0.00    -0.00  -0.00   0.00    -0.00  -0.00  -0.01
  20   6     0.00   0.00   0.00     0.00  -0.00  -0.00     0.00   0.00   0.00
  21   6     0.00   0.00   0.00     0.00   0.00   0.00    -0.00  -0.00  -0.01
  22   6    -0.00   0.00   0.00     0.00   0.00   0.00     0.01   0.00  -0.00
  23   6     0.00  -0.00  -0.00     0.00   0.00  -0.00    -0.00  -0.00  -0.00
  24   6    -0.00  -0.00  -0.00    -0.00  -0.00  -0.00     0.01   0.01   0.01
  25   6     0.00   0.00  -0.00     0.00  -0.00  -0.00    -0.01  -0.00  -0.00
  26   6    -0.00  -0.00  -0.00     0.00   0.00  -0.01     0.00   0.00  -0.00
  27   8    -0.00   0.00   0.00    -0.00   0.00   0.00     0.25  -0.09  -0.05
  28   1     0.00  -0.00  -0.00    -0.00  -0.00   0.00    -0.00   0.00   0.00
  29   1     0.00  -0.00  -0.00     0.00  -0.00  -0.00    -0.01   0.01   0.02
  30   1     0.00   0.00   0.00     0.00   0.00  -0.00    -0.00   0.00   0.00
  31   1    -0.00   0.00   0.00     0.00  -0.00  -0.00    -0.00   0.00   0.00
  32   1     0.00   0.00   0.00     0.00   0.00  -0.00    -0.00  -0.00  -0.00
  33   1    -0.00   0.00   0.00     0.00  -0.00  -0.00    -0.00  -0.00   0.00
  34   1    -0.00   0.00  -0.00     0.00  -0.00   0.00     0.00  -0.00   0.00
  35   1    -0.00   0.00   0.00    -0.00  -0.00  -0.00     0.00  -0.00   0.00
  36   1    -0.00   0.00  -0.00    -0.00  -0.00   0.00    -0.00   0.00  -0.00
  37   1     0.00  -0.00   0.00    -0.00   0.00  -0.00     0.00  -0.00   0.00
  38   1     0.00   0.00  -0.00    -0.00  -0.00   0.00     0.00   0.00  -0.00
  39   1    -0.00  -0.00  -0.00    -0.00  -0.00  -0.00    -0.00   0.01  -0.00
  40   1     0.00   0.00  -0.00     0.01   0.00   0.01     0.01   0.00   0.01
  41   1    -0.00  -0.01   0.00     0.00   0.00  -0.00    -0.02  -0.02   0.01
  42   1    -0.02  -0.01  -0.01    -0.07  -0.02  -0.05    -0.00   0.00  -0.01
  43   1     0.02  -0.01  -0.02     0.02  -0.08  -0.04     0.01   0.00  -0.01
  44   1     0.01  -0.02   0.04    -0.02   0.01  -0.05     0.03   0.01   0.03
  45   1    -0.00   0.05   0.03     0.03  -0.02  -0.03    -0.00   0.04   0.02
  46   1    -0.57   0.33  -0.11    -0.02   0.41   0.04    -0.00   0.00  -0.00
  47   1     0.26   0.16  -0.18    -0.31   0.09  -0.62    -0.01  -0.00  -0.00
  48   1    -0.28   0.11   0.53     0.05  -0.45  -0.23    -0.00  -0.00   0.00
  49   1     0.00   0.00  -0.00     0.00   0.00   0.00    -0.00  -0.00   0.00
  50   1    -0.00   0.00  -0.00    -0.00  -0.00  -0.00     0.00   0.03   0.00
  51   1    -0.00   0.00   0.00    -0.00  -0.00  -0.00     0.00   0.00  -0.00
  52   1    -0.00   0.00   0.00    -0.00  -0.00  -0.00     0.01  -0.00   0.00
  53   1    -0.00   0.00   0.00    -0.00   0.00   0.00     0.00  -0.00  -0.01
  54   1    -0.00   0.00   0.00    -0.00   0.00   0.00     0.00  -0.00  -0.00
  55   1     0.00   0.00  -0.00    -0.01  -0.02   0.01     0.00  -0.00   0.00
  56   1     0.00   0.00   0.00    -0.02   0.01   0.03     0.00   0.00   0.00
  57   1    -0.00   0.00   0.00     0.01   0.01   0.00     0.00   0.00   0.00
  58   1     0.00   0.00   0.00     0.01   0.00  -0.01     0.01  -0.00  -0.01
  59   1     0.00  -0.00   0.00     0.00  -0.00   0.00    -0.49   0.30  -0.27
  60   8    -0.00  -0.00   0.00     0.00   0.00  -0.00    -0.00  -0.01   0.01
  61   1     0.00  -0.00  -0.01     0.00  -0.00  -0.00    -0.51   0.04   0.50
  62   1    -0.00   0.00  -0.00    -0.00  -0.00   0.00     0.01   0.01  -0.04
  63   7    -0.00   0.01  -0.00     0.00  -0.00   0.00    -0.00   0.00  -0.00
  64   6     0.00   0.00  -0.00    -0.00  -0.00   0.00     0.00   0.00  -0.00
  65   8    -0.00  -0.00  -0.00     0.00  -0.00  -0.00    -0.00  -0.00  -0.00
  66   6    -0.01  -0.01   0.01     0.00   0.01  -0.01    -0.00   0.00  -0.00
  67   6     0.00  -0.01   0.00    -0.00   0.00  -0.00     0.00  -0.01   0.00
  68   8    -0.00   0.00  -0.00     0.00   0.00   0.00     0.00   0.00   0.00
  69   1     0.01  -0.02   0.01    -0.00   0.01  -0.00     0.00   0.00   0.01
  70   1     0.00   0.03  -0.01     0.00  -0.03   0.01     0.01   0.00   0.00
  71   1     0.03   0.01  -0.03    -0.01  -0.00   0.04    -0.00   0.00  -0.00
  72   7    -0.00  -0.00   0.00     0.00   0.00  -0.00    -0.00  -0.00   0.00
  73   6     0.00   0.00   0.00    -0.00  -0.00   0.00     0.00   0.00  -0.00
  74   1     0.00   0.00  -0.00    -0.00  -0.00   0.00     0.00   0.00  -0.00
  75   1     0.00   0.00   0.00    -0.00  -0.00  -0.00     0.00   0.00   0.00
  76   1    -0.00  -0.00  -0.00     0.00   0.00  -0.00    -0.00  -0.00   0.00
                    175                    176                    177
                        a                      a                      a 
 Frequencies --  1566.4953              1578.7578              1580.5549
 Red. masses --     2.1135                11.4505                11.4875
 Frc consts  --     0.0000                 0.0000                 0.0000
 IR Inten    --   159.2173                 5.1666                 0.3619
 Raman Activ --     0.0000                 0.0000                 0.0000
 Depolar     --     0.0000                 0.0000                 0.0000
 Atom AN      X      Y      Z        X      Y      Z        X      Y      Z
   1   7    -0.00   0.00   0.00     0.02  -0.05  -0.02     0.00  -0.00   0.00
   2   6     0.00   0.00   0.00     0.12   0.33   0.37     0.00   0.00   0.00
   3   6    -0.00  -0.00  -0.00    -0.16  -0.15  -0.18    -0.00  -0.00  -0.00
   4   6    -0.00   0.00   0.01    -0.10   0.21   0.27     0.00   0.00   0.00
   5   6     0.00  -0.00  -0.00    -0.13  -0.32  -0.38    -0.00  -0.00  -0.00
   6   6    -0.00   0.00   0.00     0.18   0.16   0.18     0.00   0.00   0.00
   7   6     0.00  -0.00  -0.00     0.09  -0.22  -0.26    -0.00  -0.00  -0.00
   8   6    -0.00   0.00   0.00     0.02   0.02   0.03     0.00   0.00   0.00
   9   6    -0.00   0.00  -0.00     0.01  -0.00   0.00     0.00  -0.00   0.00
  10   6     0.00  -0.00   0.00    -0.01  -0.01  -0.01    -0.00  -0.00  -0.00
  11   6    -0.00  -0.00  -0.00     0.00   0.00   0.00    -0.00  -0.00  -0.00
  12   6    -0.00   0.00   0.01    -0.00  -0.00   0.00     0.03   0.01   0.00
  13   6     0.00   0.00  -0.00     0.00  -0.00   0.00     0.00  -0.00  -0.00
  14   6     0.00   0.00   0.00     0.00   0.00   0.00    -0.00  -0.00   0.00
  15   6     0.00   0.00   0.00    -0.00  -0.00  -0.00     0.00   0.00  -0.00
  16   8    -0.00   0.00   0.00     0.00   0.00  -0.00     0.00  -0.00  -0.00
  17   7    -0.01  -0.00  -0.00     0.00   0.00   0.00    -0.12  -0.03  -0.01
  18   6     0.02   0.00  -0.01    -0.00  -0.00   0.00     0.28  -0.03  -0.23
  19   6     0.02   0.01   0.03    -0.00  -0.00  -0.00     0.21   0.18   0.43
  20   6    -0.01  -0.00   0.00     0.00   0.00  -0.00    -0.14  -0.06  -0.09
  21   6    -0.00   0.00   0.01     0.00  -0.00  -0.00    -0.02   0.08   0.24
  22   6    -0.01  -0.00  -0.02     0.00   0.00   0.00    -0.16  -0.11  -0.24
  23   6    -0.00   0.00   0.00    -0.00  -0.00   0.00     0.05   0.02   0.04
  24   6    -0.00  -0.01  -0.03    -0.00   0.00   0.00    -0.04  -0.16  -0.46
  25   6    -0.01   0.00   0.02     0.00  -0.00  -0.00    -0.12   0.08   0.29
  26   6     0.00  -0.00   0.00    -0.00  -0.00   0.00    -0.01  -0.00  -0.01
  27   8    -0.02  -0.00   0.01     0.00  -0.00  -0.00     0.01  -0.00  -0.00
  28   1     0.00  -0.00   0.00    -0.11   0.07   0.02    -0.00   0.00   0.00
  29   1     0.00  -0.00  -0.00    -0.00  -0.00   0.01    -0.00   0.00   0.00
  30   1     0.00  -0.00  -0.00     0.06  -0.02  -0.03     0.00  -0.00  -0.00
  31   1     0.00  -0.00  -0.00     0.08  -0.01  -0.03     0.00   0.00  -0.00
  32   1     0.00   0.00   0.00    -0.07   0.02   0.03    -0.00   0.00   0.00
  33   1    -0.00   0.00   0.00    -0.09   0.02   0.02    -0.00   0.00   0.00
  34   1    -0.00  -0.00   0.00    -0.08  -0.01   0.01    -0.00  -0.00  -0.00
  35   1     0.00   0.00  -0.00     0.03   0.01  -0.01     0.00   0.00  -0.00
  36   1     0.00  -0.00   0.00    -0.00  -0.00   0.00    -0.00   0.00  -0.00
  37   1    -0.00   0.00  -0.00    -0.00  -0.00   0.00     0.00  -0.00   0.00
  38   1     0.00   0.00  -0.00    -0.00  -0.00   0.00    -0.00  -0.00   0.00
  39   1     0.00  -0.00   0.00     0.00   0.00   0.01     0.00   0.00   0.00
  40   1    -0.00   0.00  -0.00     0.00  -0.00   0.00    -0.00   0.00  -0.00
  41   1     0.02  -0.01  -0.01    -0.00  -0.00   0.00    -0.03   0.00   0.03
  42   1    -0.01  -0.00  -0.00    -0.00  -0.00   0.00     0.00  -0.00  -0.00
  43   1    -0.00  -0.01   0.00     0.00   0.00  -0.00    -0.00   0.00   0.00
  44   1    -0.01  -0.00  -0.01     0.00   0.00  -0.00     0.00   0.00   0.00
  45   1     0.00  -0.01  -0.01     0.00  -0.00   0.00     0.00   0.00   0.00
  46   1    -0.00   0.00  -0.00     0.00   0.00   0.00     0.00   0.00   0.00
  47   1    -0.00   0.00  -0.00    -0.00   0.00  -0.00    -0.00  -0.00  -0.00
  48   1    -0.00  -0.00  -0.00     0.00   0.00  -0.00    -0.00  -0.00  -0.00
  49   1     0.00   0.00  -0.00    -0.00  -0.00   0.00     0.07   0.01  -0.00
  50   1     0.07   0.64   0.02    -0.00  -0.01  -0.00    -0.00  -0.04  -0.00
  51   1    -0.00   0.00   0.00     0.00  -0.00  -0.00    -0.03   0.01   0.06
  52   1    -0.00  -0.02   0.00    -0.00   0.00   0.00     0.09   0.01  -0.03
  53   1     0.00   0.00   0.01    -0.00  -0.00  -0.00     0.02   0.05   0.13
  54   1     0.00   0.00  -0.00    -0.00  -0.00   0.00     0.08   0.01  -0.02
  55   1    -0.00   0.00  -0.00     0.00   0.00  -0.00    -0.00  -0.00   0.00
  56   1    -0.00   0.00  -0.00     0.00  -0.00  -0.00    -0.01  -0.00  -0.01
  57   1    -0.00  -0.00  -0.00    -0.00   0.00   0.00    -0.01  -0.01  -0.00
  58   1    -0.00   0.00   0.00     0.00   0.00   0.00     0.00   0.00  -0.00
  59   1     0.02   0.01   0.01    -0.00   0.00  -0.00    -0.01   0.01  -0.01
  60   8    -0.10  -0.20   0.14     0.00   0.00  -0.00     0.01   0.01  -0.01
  61   1     0.03  -0.00  -0.03    -0.00   0.00   0.00    -0.01   0.00   0.01
  62   1     0.35   0.19  -0.59    -0.00  -0.00   0.01    -0.02  -0.01   0.04
  63   7     0.00  -0.00   0.00    -0.00   0.00  -0.00    -0.00   0.00  -0.00
  64   6     0.00  -0.00  -0.00     0.00  -0.01  -0.00    -0.00   0.00   0.00
  65   8    -0.00   0.00   0.00    -0.00   0.00   0.00     0.00  -0.00  -0.00
  66   6     0.00  -0.00   0.00     0.00  -0.00   0.00    -0.00  -0.00  -0.00
  67   6    -0.00   0.00  -0.00    -0.00  -0.00  -0.00     0.00  -0.00   0.00
  68   8     0.00  -0.00   0.00     0.00   0.00   0.00    -0.00   0.00  -0.00
  69   1    -0.00   0.00  -0.00     0.00  -0.00   0.00     0.00   0.00   0.00
  70   1    -0.00  -0.00  -0.00     0.00   0.00  -0.00     0.00   0.00   0.00
  71   1    -0.00  -0.00  -0.00     0.00  -0.00  -0.00    -0.00  -0.00   0.00
  72   7    -0.00  -0.00   0.00     0.00   0.00  -0.00     0.00  -0.00  -0.00
  73   6     0.00  -0.00  -0.00     0.00  -0.00  -0.00     0.00   0.00   0.00
  74   1    -0.00   0.00   0.00    -0.00  -0.00   0.00    -0.00   0.00   0.00
  75   1    -0.00   0.00  -0.00    -0.00   0.00   0.00    -0.00  -0.00  -0.00
  76   1    -0.00  -0.00  -0.00     0.00  -0.00   0.00    -0.00   0.00  -0.00
                    178                    179                    180
                        a                      a                      a 
 Frequencies --  1595.2671              1609.4682              1628.8219
 Red. masses --    11.7068                11.5416                11.6709
 Frc consts  --     0.0000                 0.0000                 0.0000
 IR Inten    --     7.0401                13.3249                16.6536
 Raman Activ --     0.0000                 0.0000                 0.0000
 Depolar     --     0.0000                 0.0000                 0.0000
 Atom AN      X      Y      Z        X      Y      Z        X      Y      Z
   1   7    -0.00   0.00  -0.00     0.02   0.01  -0.00    -0.00   0.00  -0.00
   2   6    -0.00  -0.00  -0.00    -0.25   0.01   0.02     0.00  -0.00  -0.00
   3   6     0.01   0.00  -0.00     0.46   0.02  -0.00    -0.00  -0.00  -0.00
   4   6    -0.01   0.00   0.00    -0.39   0.13   0.19     0.00  -0.00  -0.00
   5   6     0.00   0.00  -0.00     0.30  -0.00  -0.04    -0.00  -0.00   0.00
   6   6    -0.01  -0.00  -0.00    -0.47  -0.05  -0.01     0.00   0.00  -0.00
   7   6     0.00  -0.00  -0.00     0.35  -0.11  -0.16    -0.00   0.00   0.00
   8   6    -0.00   0.00   0.00    -0.05   0.01   0.01     0.00  -0.00  -0.00
   9   6    -0.00  -0.00   0.00    -0.01  -0.01   0.00     0.00  -0.00   0.00
  10   6     0.00  -0.00  -0.00     0.01  -0.02   0.00     0.00  -0.00   0.00
  11   6    -0.00   0.01  -0.00     0.00   0.00  -0.00    -0.00   0.01  -0.00
  12   6    -0.04   0.02   0.09     0.00   0.00  -0.00    -0.04   0.01   0.07
  13   6     0.00  -0.00  -0.01    -0.00  -0.00   0.00     0.00  -0.00  -0.00
  14   6     0.00   0.00  -0.00     0.00   0.00   0.00     0.00   0.00  -0.00
  15   6    -0.00  -0.00  -0.00    -0.00  -0.00  -0.00    -0.00  -0.00  -0.00
  16   8    -0.00   0.00   0.00    -0.00   0.00  -0.01    -0.00   0.00   0.00
  17   7     0.06   0.02   0.02    -0.00  -0.00  -0.00    -0.11  -0.04  -0.05
  18   6    -0.43  -0.08   0.02     0.01   0.00  -0.00     0.37   0.06  -0.04
  19   6     0.04   0.03   0.06    -0.00  -0.00  -0.00    -0.30  -0.08  -0.06
  20   6     0.03  -0.15  -0.47     0.00   0.00   0.00     0.08  -0.11  -0.38
  21   6     0.37   0.08   0.04    -0.01  -0.00  -0.00    -0.32  -0.08  -0.05
  22   6    -0.18  -0.04  -0.00     0.01   0.00   0.00     0.35   0.09   0.07
  23   6     0.22   0.19   0.42    -0.00  -0.00  -0.00     0.14   0.16   0.39
  24   6    -0.12  -0.03  -0.02     0.00   0.00   0.00     0.12   0.04   0.05
  25   6     0.19   0.00  -0.09    -0.00  -0.00   0.00    -0.23  -0.02   0.08
  26   6    -0.09  -0.03  -0.07     0.00   0.00   0.00    -0.06  -0.03  -0.06
  27   8     0.00  -0.00   0.00     0.00  -0.00  -0.00    -0.00   0.00   0.00
  28   1     0.00  -0.00   0.00     0.02  -0.01  -0.01    -0.00   0.00   0.00
  29   1     0.00  -0.00  -0.00     0.00  -0.00   0.01     0.00  -0.00  -0.00
  30   1    -0.00  -0.00  -0.00    -0.09  -0.03  -0.03     0.00   0.00   0.00
  31   1     0.00  -0.00  -0.00     0.05  -0.05  -0.08    -0.00   0.00   0.00
  32   1     0.00   0.00   0.00     0.10   0.03   0.03    -0.00  -0.00  -0.00
  33   1     0.00   0.00   0.00    -0.04   0.05   0.06     0.00  -0.00  -0.00
  34   1     0.00   0.00   0.00     0.01   0.00   0.00    -0.00  -0.00   0.00
  35   1    -0.00  -0.00   0.00    -0.01  -0.01   0.01     0.00   0.00  -0.00
  36   1    -0.00  -0.00   0.00     0.00  -0.00  -0.00     0.00  -0.00   0.00
  37   1     0.00  -0.00  -0.00     0.00  -0.00  -0.00     0.00  -0.00  -0.00
  38   1     0.00   0.00   0.00     0.00   0.00  -0.00     0.00   0.00   0.00
  39   1    -0.00  -0.00  -0.00     0.00   0.01  -0.00    -0.00   0.00  -0.00
  40   1     0.01  -0.01   0.01    -0.00   0.00  -0.00     0.00  -0.01   0.01
  41   1    -0.05   0.01   0.04    -0.00  -0.00   0.00    -0.03   0.01   0.03
  42   1    -0.00  -0.00   0.00     0.00   0.00   0.00    -0.00  -0.00   0.00
  43   1    -0.00   0.00   0.00    -0.00   0.00   0.00    -0.00   0.00   0.00
  44   1     0.00   0.00   0.00    -0.00  -0.00   0.00     0.00   0.00   0.00
  45   1     0.00   0.00   0.00    -0.00  -0.00   0.00     0.00   0.00   0.00
  46   1     0.00   0.00  -0.00     0.00   0.00   0.00    -0.00  -0.00  -0.00
  47   1    -0.00  -0.00   0.00     0.00   0.00   0.00    -0.00  -0.00   0.00
  48   1    -0.00  -0.00   0.00     0.00   0.00  -0.00    -0.00  -0.00   0.00
  49   1     0.01   0.01   0.01     0.00  -0.00  -0.00     0.10   0.01  -0.01
  50   1     0.00   0.01   0.00    -0.00  -0.00  -0.00    -0.00   0.00  -0.00
  51   1    -0.07  -0.03  -0.05     0.00   0.00   0.00     0.06   0.02   0.03
  52   1     0.02   0.01   0.02    -0.00  -0.00  -0.00    -0.08  -0.03  -0.03
  53   1    -0.03  -0.01  -0.01     0.00   0.00   0.00     0.02  -0.00  -0.02
  54   1    -0.03   0.01   0.05     0.00  -0.00  -0.00     0.02  -0.01  -0.05
  55   1     0.02   0.02   0.04    -0.00  -0.00  -0.00     0.02   0.02   0.02
  56   1    -0.02  -0.01  -0.05     0.00   0.00   0.00    -0.02  -0.01  -0.03
  57   1    -0.03  -0.06  -0.02    -0.00   0.00   0.00    -0.05  -0.04  -0.02
  58   1     0.01   0.00  -0.00    -0.01  -0.00   0.00     0.01  -0.00  -0.00
  59   1    -0.00   0.00  -0.00    -0.00   0.00  -0.00     0.00  -0.00   0.00
  60   8    -0.00  -0.00   0.00     0.00   0.00  -0.00     0.00  -0.00   0.00
  61   1    -0.00  -0.00   0.00    -0.00   0.00   0.00     0.00  -0.00  -0.00
  62   1     0.00   0.00  -0.01    -0.00  -0.00   0.00    -0.00   0.00  -0.00
  63   7    -0.00   0.00  -0.00    -0.00   0.00   0.00    -0.00   0.00  -0.00
  64   6     0.00  -0.00  -0.00     0.00   0.00  -0.00     0.00   0.00  -0.00
  65   8    -0.00   0.00   0.00    -0.00   0.00   0.00    -0.00  -0.00  -0.00
  66   6    -0.00   0.00  -0.00     0.00  -0.00   0.00    -0.00   0.00   0.00
  67   6    -0.00  -0.00  -0.00    -0.00  -0.00  -0.00    -0.00  -0.00  -0.00
  68   8     0.00   0.00   0.00     0.00   0.00   0.00     0.00   0.00   0.00
  69   1     0.00  -0.00   0.00    -0.00   0.00  -0.00     0.00  -0.00  -0.00
  70   1     0.00   0.00   0.00     0.00   0.00   0.00    -0.00   0.00  -0.00
  71   1    -0.00  -0.00   0.00    -0.00  -0.00  -0.00     0.00   0.00  -0.00
  72   7    -0.00  -0.00   0.00     0.00  -0.00  -0.00    -0.00  -0.00   0.00
  73   6    -0.00  -0.00  -0.00    -0.00   0.00   0.00     0.00   0.00  -0.00
  74   1     0.00  -0.00  -0.00     0.00   0.00  -0.00     0.00   0.00   0.00
  75   1     0.00   0.00   0.00     0.00   0.00   0.00     0.00   0.00   0.00
  76   1     0.00  -0.00   0.00    -0.00  -0.00   0.00    -0.00  -0.00   0.00
                    181                    182                    183
                        a                      a                      a 
 Frequencies --  1716.4603              1759.5158              2872.8186
 Red. masses --    13.1492                13.1870                 1.7185
 Frc consts  --     0.0000                 0.0000                 0.0000
 IR Inten    --   299.1504               576.8662                53.5201
 Raman Activ --     0.0000                 0.0000                 0.0000
 Depolar     --     0.0000                 0.0000                 0.0000
 Atom AN      X      Y      Z        X      Y      Z        X      Y      Z
   1   7    -0.00   0.00   0.00    -0.00   0.00   0.00    -0.01   0.01  -0.00
   2   6     0.00  -0.00  -0.00    -0.00  -0.00  -0.00     0.00   0.00   0.00
   3   6    -0.00  -0.00  -0.00     0.00   0.00   0.00     0.00  -0.00  -0.00
   4   6    -0.00  -0.00  -0.00     0.00  -0.00  -0.00    -0.00  -0.00   0.00
   5   6     0.00  -0.00  -0.00     0.00   0.01   0.00     0.00  -0.00  -0.00
   6   6    -0.00  -0.00   0.00    -0.00  -0.00  -0.00     0.00   0.00   0.00
   7   6    -0.00   0.00   0.00    -0.00   0.00   0.00    -0.00  -0.00  -0.00
   8   6     0.00  -0.00   0.01     0.00  -0.00  -0.00    -0.00   0.00  -0.00
   9   6     0.01  -0.02  -0.01    -0.01   0.03   0.01    -0.00   0.00   0.00
  10   6     0.00  -0.00  -0.00     0.00  -0.00   0.00    -0.22   0.02   0.12
  11   6     0.00   0.00   0.00     0.00   0.00   0.00     0.00  -0.00  -0.01
  12   6     0.00  -0.00   0.00    -0.00  -0.00   0.00     0.00   0.00   0.00
  13   6    -0.00   0.00  -0.00     0.00  -0.00  -0.00     0.00  -0.00   0.00
  14   6    -0.00  -0.00   0.00     0.00  -0.00   0.00     0.00  -0.00  -0.00
  15   6    -0.00   0.00  -0.00     0.00  -0.00  -0.00     0.00  -0.00  -0.00
  16   8    -0.00   0.00   0.00    -0.00   0.00  -0.00    -0.00   0.00   0.01
  17   7    -0.00   0.00   0.00     0.00   0.00   0.00     0.00   0.00   0.00
  18   6    -0.00  -0.00  -0.00     0.00  -0.00  -0.00    -0.00  -0.00   0.00
  19   6     0.00   0.00   0.00    -0.00   0.00   0.00    -0.00   0.00   0.00
  20   6     0.00   0.00   0.00     0.00   0.00   0.00     0.00   0.00  -0.00
  21   6     0.00   0.00   0.00    -0.00  -0.00   0.00    -0.00   0.00   0.00
  22   6    -0.00  -0.00  -0.00     0.00   0.00  -0.00    -0.00   0.00  -0.00
  23   6    -0.00  -0.00  -0.00    -0.00  -0.00  -0.00    -0.00  -0.00  -0.00
  24   6    -0.00  -0.00  -0.00     0.00   0.00  -0.00    -0.00  -0.00   0.00
  25   6     0.00   0.00  -0.00    -0.00   0.00   0.00    -0.00  -0.00  -0.00
  26   6     0.00   0.00   0.00     0.00   0.00  -0.00    -0.00   0.00  -0.00
  27   8    -0.00   0.00   0.00     0.00   0.00   0.00    -0.00   0.00  -0.00
  28   1    -0.00   0.00  -0.00     0.00  -0.00  -0.00    -0.00  -0.00  -0.00
  29   1     0.00  -0.00  -0.00     0.00  -0.00   0.00     0.00  -0.00   0.00
  30   1     0.00  -0.00  -0.00    -0.00  -0.00  -0.00    -0.00   0.00   0.00
  31   1     0.00  -0.00  -0.00    -0.00  -0.00  -0.00     0.00   0.00   0.00
  32   1     0.00   0.00  -0.00     0.00  -0.00  -0.00     0.00  -0.00  -0.00
  33   1     0.00   0.00   0.00     0.00  -0.00  -0.00     0.00   0.00   0.00
  34   1    -0.00   0.01  -0.01     0.02   0.00  -0.00     0.00  -0.00  -0.00
  35   1    -0.01  -0.00   0.00     0.01  -0.00  -0.00     0.00  -0.00   0.00
  36   1     0.01  -0.02   0.01    -0.05  -0.01   0.01     0.00   0.00   0.00
  37   1    -0.01   0.04  -0.01    -0.00   0.00  -0.00     0.00  -0.00  -0.00
  38   1     0.03   0.03   0.01     0.02   0.03   0.01     0.00   0.00   0.00
  39   1     0.00  -0.00  -0.00     0.00   0.00  -0.00     0.83  -0.09  -0.48
  40   1    -0.00  -0.00  -0.00    -0.00  -0.00  -0.00    -0.04   0.00   0.03
  41   1     0.00   0.00  -0.00    -0.00   0.00  -0.00    -0.01  -0.00  -0.01
  42   1     0.00  -0.00   0.00     0.00   0.00   0.00    -0.00   0.00   0.00
  43   1    -0.00   0.00   0.00    -0.00   0.00   0.00    -0.00   0.00  -0.00
  44   1     0.00   0.00  -0.00    -0.00  -0.00  -0.00    -0.00   0.00   0.00
  45   1     0.00   0.00  -0.00    -0.00   0.00  -0.00    -0.00  -0.00  -0.00
  46   1     0.00  -0.00  -0.00    -0.00   0.00  -0.00    -0.00   0.00   0.00
  47   1     0.00  -0.00   0.00     0.00   0.00   0.00    -0.00   0.00   0.00
  48   1    -0.00   0.00   0.00    -0.00   0.00   0.00    -0.00   0.00  -0.00
  49   1    -0.00  -0.00   0.00    -0.00  -0.00   0.00    -0.00  -0.00  -0.00
  50   1    -0.00  -0.00   0.00    -0.00  -0.00  -0.00     0.00  -0.00   0.00
  51   1    -0.00  -0.00  -0.00     0.00  -0.00   0.00     0.00  -0.00  -0.00
  52   1     0.00  -0.00   0.00    -0.00  -0.00  -0.00     0.00  -0.00  -0.00
  53   1     0.00   0.00   0.00     0.00  -0.00   0.00     0.00   0.00  -0.00
  54   1    -0.00  -0.00   0.00    -0.00  -0.00  -0.00     0.00   0.00   0.00
  55   1    -0.00  -0.00   0.00    -0.00  -0.00   0.00     0.00  -0.00  -0.00
  56   1    -0.00   0.00   0.00    -0.00   0.00   0.00    -0.00  -0.00   0.00
  57   1     0.00   0.00   0.00     0.00  -0.00   0.00     0.00   0.00   0.00
  58   1    -0.00  -0.00   0.00    -0.00  -0.00   0.00     0.00   0.00   0.01
  59   1     0.00  -0.00   0.00    -0.00  -0.00  -0.00    -0.00   0.00   0.00
  60   8    -0.00  -0.00  -0.00     0.00   0.00  -0.00     0.00   0.00   0.00
  61   1     0.00  -0.00  -0.00    -0.00  -0.00   0.00     0.00  -0.00   0.00
  62   1     0.00   0.00   0.00    -0.00  -0.00   0.00    -0.00  -0.00   0.00
  63   7     0.01   0.13   0.00    -0.01   0.02  -0.00    -0.00  -0.00   0.00
  64   6    -0.05   0.10   0.04     0.18  -0.75  -0.18     0.00   0.00  -0.00
  65   8     0.04  -0.08  -0.03    -0.20   0.48   0.15    -0.00   0.00   0.00
  66   6     0.05   0.01   0.04     0.01   0.00   0.01    -0.00  -0.00   0.00
  67   6    -0.47  -0.54  -0.35    -0.07  -0.08  -0.05     0.00   0.00   0.00
  68   8     0.34   0.35   0.26     0.05   0.05   0.04    -0.00  -0.00  -0.00
  69   1     0.02  -0.00   0.05     0.00  -0.00   0.01     0.00   0.00  -0.00
  70   1     0.03   0.00   0.01     0.00  -0.00   0.00    -0.00  -0.00  -0.00
  71   1    -0.06  -0.00  -0.04    -0.01  -0.00  -0.01    -0.00   0.00   0.00
  72   7    -0.00  -0.03  -0.00     0.08   0.17  -0.02    -0.00  -0.00   0.00
  73   6    -0.00   0.01   0.00    -0.00  -0.02   0.00    -0.00  -0.00   0.00
  74   1     0.01  -0.00  -0.01    -0.04   0.01   0.03     0.00   0.00   0.00
  75   1     0.01  -0.00  -0.00    -0.05   0.01   0.01    -0.00   0.00  -0.00
  76   1    -0.01  -0.00   0.00    -0.01  -0.01   0.00     0.00  -0.00  -0.00
                    184                    185                    186
                        a                      a                      a 
 Frequencies --  2918.0991              2963.1266              2971.6058
 Red. masses --     1.7451                 1.7922                 1.9230
 Frc consts  --     0.0000                 0.0000                 0.0000
 IR Inten    --    13.0006                27.7388                28.0733
 Raman Activ --     0.0000                 0.0000                 0.0000
 Depolar     --     0.0000                 0.0000                 0.0000
 Atom AN      X      Y      Z        X      Y      Z        X      Y      Z
   1   7    -0.00  -0.00  -0.00     0.00  -0.00   0.00    -0.00   0.00  -0.00
   2   6    -0.00  -0.00  -0.00     0.00   0.00  -0.00     0.00  -0.00  -0.00
   3   6     0.00   0.00   0.00    -0.00   0.00   0.00    -0.00   0.00   0.00
   4   6    -0.00  -0.00  -0.00     0.00   0.00   0.00    -0.00  -0.00  -0.00
   5   6    -0.00  -0.00  -0.00     0.00   0.00   0.00    -0.00  -0.00  -0.00
   6   6     0.00  -0.00  -0.00     0.00  -0.00  -0.00     0.00  -0.00  -0.00
   7   6    -0.00  -0.00  -0.00    -0.00  -0.00  -0.00    -0.00  -0.00  -0.00
   8   6    -0.00  -0.00  -0.02     0.00  -0.00   0.00    -0.00   0.00  -0.01
   9   6     0.03   0.16   0.20    -0.00  -0.00  -0.00     0.00   0.00   0.00
  10   6     0.00  -0.00   0.00    -0.00   0.00  -0.00     0.00  -0.00   0.00
  11   6    -0.00  -0.00  -0.00    -0.01   0.00   0.01     0.00   0.00  -0.00
  12   6    -0.00   0.00  -0.00     0.01   0.00   0.01    -0.00  -0.00  -0.00
  13   6    -0.00   0.00  -0.00    -0.07   0.05  -0.02    -0.00   0.00  -0.00
  14   6     0.00  -0.00  -0.00     0.12  -0.21  -0.05    -0.00   0.00   0.00
  15   6     0.00  -0.00  -0.00    -0.02   0.01   0.01     0.00  -0.00  -0.00
  16   8    -0.00  -0.00  -0.00     0.00  -0.00   0.00    -0.00   0.00  -0.00
  17   7    -0.00   0.00   0.00     0.00   0.00   0.00    -0.00   0.00   0.00
  18   6     0.00  -0.00   0.00    -0.00  -0.00  -0.00     0.00  -0.00  -0.00
  19   6     0.00  -0.00  -0.00    -0.00   0.00   0.00     0.00  -0.00  -0.00
  20   6    -0.00   0.00  -0.00     0.00   0.00   0.00    -0.00   0.00  -0.00
  21   6    -0.00  -0.00   0.00    -0.00   0.00   0.00    -0.00  -0.00  -0.00
  22   6     0.00  -0.00  -0.00    -0.00  -0.00  -0.00     0.00  -0.00  -0.00
  23   6     0.00   0.00  -0.00    -0.00  -0.00  -0.00     0.00   0.00  -0.00
  24   6    -0.00  -0.00  -0.00    -0.00   0.00   0.00    -0.00  -0.00  -0.00
  25   6    -0.00  -0.00  -0.00     0.00   0.00   0.00    -0.00  -0.00  -0.00
  26   6     0.00   0.00  -0.00     0.00  -0.00  -0.00    -0.00   0.00  -0.00
  27   8     0.00  -0.00   0.00    -0.00   0.00  -0.00     0.00  -0.00   0.00
  28   1     0.00   0.00   0.00    -0.00  -0.00  -0.00     0.00   0.00   0.00
  29   1     0.00   0.00   0.00    -0.00  -0.00  -0.00     0.00  -0.00   0.00
  30   1     0.00  -0.00  -0.00     0.00  -0.00  -0.00     0.00  -0.00  -0.00
  31   1     0.01   0.00   0.01    -0.00  -0.00  -0.00     0.00   0.00   0.00
  32   1    -0.00   0.00   0.00    -0.00   0.00   0.00    -0.00   0.00   0.00
  33   1     0.00   0.00   0.00    -0.00   0.00  -0.00     0.00   0.00   0.00
  34   1    -0.01   0.04   0.04     0.00   0.00   0.00    -0.00   0.01   0.01
  35   1     0.02  -0.01   0.03    -0.00   0.00  -0.00     0.01  -0.01   0.01
  36   1    -0.11  -0.59  -0.75     0.00   0.00   0.00    -0.00  -0.00  -0.01
  37   1     0.00   0.01   0.01    -0.00   0.00   0.00    -0.00   0.00   0.00
  38   1    -0.01   0.00   0.00     0.00  -0.00  -0.00    -0.00   0.00  -0.00
  39   1     0.00   0.00  -0.00    -0.00  -0.00   0.00    -0.00   0.00   0.00
  40   1    -0.00  -0.00   0.00     0.04   0.00  -0.03    -0.00  -0.00   0.00
  41   1     0.00   0.00   0.00    -0.03  -0.01  -0.05     0.00   0.00   0.00
  42   1     0.00  -0.00  -0.00     0.11  -0.18  -0.06     0.00  -0.00  -0.00
  43   1     0.00  -0.00   0.00     0.15  -0.00   0.11     0.00  -0.00   0.00
  44   1    -0.00   0.00   0.00    -0.35   0.79   0.27     0.00  -0.00  -0.00
  45   1     0.00  -0.00   0.00    -0.11  -0.00  -0.09     0.00   0.00   0.00
  46   1    -0.00   0.00   0.00     0.00   0.00  -0.03    -0.00  -0.00   0.00
  47   1    -0.00   0.00   0.00     0.02  -0.07  -0.02    -0.00   0.00   0.00
  48   1     0.00  -0.00   0.00     0.04  -0.00   0.02    -0.00   0.00  -0.00
  49   1     0.00  -0.00  -0.00    -0.00  -0.00  -0.00     0.00  -0.00   0.00
  50   1     0.00  -0.00  -0.00    -0.00  -0.00  -0.00     0.00  -0.00   0.00
  51   1    -0.00  -0.00   0.00     0.00  -0.00  -0.00    -0.00   0.00   0.00
  52   1    -0.00   0.00   0.00     0.00   0.00   0.00    -0.00   0.00   0.00
  53   1     0.00   0.00  -0.00    -0.00   0.00   0.00     0.00   0.00  -0.00
  54   1     0.00   0.00   0.00    -0.00  -0.00  -0.00     0.00   0.00   0.00
  55   1    -0.00  -0.00  -0.00    -0.00   0.00   0.00     0.00  -0.00  -0.00
  56   1    -0.00  -0.00   0.00     0.00   0.00  -0.00    -0.00  -0.00   0.00
  57   1    -0.00  -0.00   0.00     0.00  -0.00   0.00    -0.00  -0.00   0.00
  58   1     0.00  -0.00   0.00    -0.00  -0.00  -0.00     0.00  -0.00   0.00
  59   1    -0.00   0.00  -0.00     0.00   0.00   0.00    -0.00  -0.00   0.00
  60   8     0.00   0.00   0.00     0.00   0.00   0.00     0.00  -0.00  -0.00
  61   1    -0.00   0.00  -0.00     0.00   0.00   0.00    -0.00   0.00  -0.00
  62   1    -0.00  -0.00   0.00     0.00   0.00   0.00    -0.00   0.00   0.00
  63   7     0.01  -0.00   0.01     0.00  -0.00   0.00    -0.00   0.00  -0.00
  64   6    -0.00   0.01   0.01    -0.00   0.00   0.00     0.00   0.00   0.00
  65   8     0.00  -0.00  -0.00     0.00  -0.00  -0.00     0.00  -0.00  -0.00
  66   6    -0.00  -0.00  -0.00     0.00   0.00  -0.00     0.00   0.00  -0.00
  67   6     0.00   0.00   0.00    -0.00   0.00  -0.00    -0.00  -0.00   0.00
  68   8    -0.00  -0.00  -0.00     0.00   0.00   0.00     0.00   0.00  -0.00
  69   1     0.00   0.00  -0.00    -0.00  -0.00   0.00    -0.00  -0.00   0.00
  70   1    -0.00   0.00   0.00    -0.00   0.00   0.00    -0.00   0.00   0.00
  71   1    -0.00   0.00  -0.00    -0.00  -0.00  -0.00     0.00   0.00  -0.00
  72   7     0.00  -0.00  -0.00     0.00   0.00   0.00    -0.00  -0.00   0.00
  73   6    -0.00   0.00  -0.00     0.00   0.00   0.00     0.10  -0.06   0.26
  74   1     0.00   0.00  -0.00    -0.00  -0.00  -0.00    -0.31  -0.24  -0.28
  75   1     0.00  -0.00   0.01     0.00  -0.00   0.00    -0.06   0.46  -0.69
  76   1    -0.00   0.00   0.00    -0.00   0.00   0.00     0.02  -0.01   0.04
                    187                    188                    189
                        a                      a                      a 
 Frequencies --  2975.0067              2983.2479              2986.9228
 Red. masses --     1.8331                 1.9233                 1.7979
 Frc consts  --     0.0000                 0.0000                 0.0000
 IR Inten    --    31.3696                16.3832                10.8687
 Raman Activ --     0.0000                 0.0000                 0.0000
 Depolar     --     0.0000                 0.0000                 0.0000
 Atom AN      X      Y      Z        X      Y      Z        X      Y      Z
   1   7    -0.00   0.00  -0.00     0.00  -0.00  -0.00     0.00  -0.00  -0.00
   2   6     0.00   0.00  -0.00    -0.00  -0.00  -0.00    -0.00   0.00   0.00
   3   6    -0.00   0.00   0.00     0.00   0.00   0.00     0.00  -0.00  -0.00
   4   6    -0.00  -0.00  -0.00    -0.00  -0.00  -0.00     0.00   0.00   0.00
   5   6     0.00   0.00   0.00     0.01   0.00   0.01     0.00  -0.00  -0.00
   6   6     0.00  -0.00  -0.00     0.00  -0.00  -0.00     0.00  -0.00  -0.00
   7   6    -0.00  -0.00  -0.00    -0.00   0.00  -0.00    -0.00  -0.00  -0.00
   8   6     0.00  -0.00   0.00     0.12  -0.01   0.26     0.00  -0.00   0.00
   9   6     0.00   0.00   0.00     0.01   0.01   0.02     0.00   0.00   0.00
  10   6    -0.00  -0.00   0.00    -0.00   0.00   0.00     0.00   0.00  -0.00
  11   6    -0.03   0.00   0.02     0.00  -0.00  -0.00     0.02  -0.00  -0.02
  12   6    -0.02  -0.01  -0.03    -0.00  -0.00  -0.00    -0.00   0.00  -0.01
  13   6     0.23  -0.08   0.10    -0.00  -0.00  -0.00    -0.02   0.06   0.03
  14   6    -0.00  -0.06  -0.04    -0.00   0.00  -0.00    -0.00   0.01   0.01
  15   6    -0.01   0.00  -0.00     0.00  -0.00  -0.00     0.00  -0.00  -0.00
  16   8    -0.00  -0.00  -0.00     0.00  -0.00   0.00    -0.00  -0.00  -0.00
  17   7    -0.00   0.00  -0.00     0.00  -0.00  -0.00     0.00   0.00  -0.00
  18   6    -0.00  -0.00   0.00     0.00  -0.00  -0.00    -0.00  -0.00  -0.00
  19   6     0.00   0.00   0.00    -0.00  -0.00  -0.00    -0.00   0.00   0.00
  20   6    -0.00   0.00  -0.00    -0.00  -0.00  -0.00     0.00   0.00   0.00
  21   6     0.00  -0.00  -0.00     0.00  -0.00  -0.00     0.00   0.00   0.00
  22   6    -0.00   0.00   0.00     0.00  -0.00  -0.00     0.00   0.00   0.00
  23   6     0.00   0.00   0.00     0.00   0.00   0.00    -0.01  -0.01  -0.00
  24   6     0.00   0.00  -0.00     0.00   0.00  -0.00    -0.00  -0.00  -0.00
  25   6    -0.00  -0.00  -0.00    -0.00  -0.00  -0.00    -0.00  -0.00  -0.00
  26   6    -0.01  -0.00   0.01     0.00   0.00  -0.00    -0.01  -0.24   0.08
  27   8     0.00  -0.00   0.00    -0.00   0.00  -0.00     0.00  -0.00   0.00
  28   1     0.00  -0.00   0.00     0.00   0.00   0.00     0.00   0.00   0.00
  29   1     0.00   0.00   0.00    -0.00   0.00   0.00     0.00   0.00   0.00
  30   1     0.00  -0.00  -0.00     0.00  -0.00  -0.00    -0.00   0.00   0.00
  31   1     0.00   0.00   0.00     0.01   0.01   0.01    -0.00  -0.00  -0.00
  32   1    -0.00   0.00   0.00    -0.00   0.01   0.01    -0.00   0.00   0.00
  33   1     0.00   0.00   0.00    -0.00  -0.00  -0.00     0.00   0.00   0.00
  34   1     0.00   0.00   0.00     0.05  -0.27  -0.28     0.00  -0.00  -0.00
  35   1    -0.00   0.00  -0.00    -0.49   0.30  -0.66    -0.00   0.00  -0.00
  36   1    -0.00  -0.00  -0.00    -0.01  -0.03  -0.04    -0.00  -0.00  -0.00
  37   1    -0.00  -0.00  -0.00     0.00   0.00   0.00     0.00   0.00   0.00
  38   1     0.00  -0.00  -0.00    -0.00   0.00   0.00    -0.00   0.00   0.00
  39   1     0.01  -0.00  -0.00     0.00  -0.00  -0.00    -0.00   0.00   0.00
  40   1     0.11  -0.00  -0.10    -0.00   0.00   0.00    -0.08   0.00   0.07
  41   1     0.09   0.02   0.12     0.00   0.00   0.00     0.02   0.01   0.03
  42   1    -0.12   0.24   0.09    -0.00   0.00   0.00     0.15  -0.23  -0.07
  43   1    -0.69   0.04  -0.47     0.00  -0.00   0.00    -0.09   0.01  -0.06
  44   1    -0.11   0.23   0.07     0.00  -0.00  -0.00     0.02  -0.03  -0.01
  45   1     0.13  -0.04   0.08     0.00  -0.00   0.00    -0.00   0.00  -0.00
  46   1    -0.00   0.00  -0.00    -0.00  -0.00   0.00    -0.00  -0.00   0.01
  47   1     0.01  -0.02  -0.01    -0.00   0.00   0.00    -0.01   0.01   0.00
  48   1     0.02  -0.01   0.02    -0.00   0.00  -0.00     0.00  -0.00   0.00
  49   1     0.00  -0.00  -0.00     0.00  -0.00  -0.00    -0.00  -0.00  -0.00
  50   1    -0.00  -0.00  -0.00    -0.00   0.00  -0.00     0.00  -0.00   0.00
  51   1    -0.00   0.00   0.00    -0.00   0.00   0.00     0.00  -0.00  -0.00
  52   1    -0.00  -0.00  -0.00    -0.00   0.00   0.00    -0.00  -0.00  -0.00
  53   1    -0.00  -0.00   0.00    -0.00  -0.00   0.00     0.00  -0.00  -0.00
  54   1     0.00   0.00   0.00     0.00   0.00   0.00     0.00   0.00   0.00
  55   1     0.02  -0.01  -0.01    -0.00   0.00   0.00    -0.05  -0.01   0.04
  56   1     0.00   0.01  -0.00    -0.00  -0.00   0.00     0.09   0.87  -0.11
  57   1    -0.00   0.00  -0.02    -0.00  -0.00   0.00     0.00   0.00  -0.19
  58   1    -0.00   0.00   0.01     0.00   0.00   0.00     0.00  -0.00  -0.01
  59   1     0.00  -0.00   0.00    -0.00   0.00  -0.00    -0.00  -0.00   0.00
  60   8     0.00  -0.00   0.00     0.00   0.00   0.00    -0.00   0.00  -0.00
  61   1    -0.00   0.00  -0.00     0.00  -0.00   0.00    -0.00   0.00  -0.00
  62   1    -0.00   0.00   0.00    -0.00  -0.00  -0.00    -0.00  -0.00   0.00
  63   7     0.00  -0.00   0.00    -0.00  -0.00  -0.00    -0.00   0.00  -0.00
  64   6    -0.00   0.00   0.00    -0.00   0.00   0.00    -0.00  -0.00  -0.00
  65   8     0.00  -0.00  -0.00    -0.00   0.00  -0.00    -0.00   0.00   0.00
  66   6     0.00  -0.00  -0.00    -0.00  -0.00  -0.00    -0.00   0.00   0.00
  67   6    -0.00   0.00  -0.00     0.00   0.00   0.00     0.00  -0.00   0.00
  68   8     0.00  -0.00  -0.00    -0.00  -0.00  -0.00    -0.00   0.00   0.00
  69   1    -0.00  -0.00   0.00     0.00   0.00  -0.00     0.00   0.00  -0.00
  70   1    -0.00   0.00   0.01    -0.00   0.00   0.00     0.00  -0.00  -0.00
  71   1    -0.00   0.00   0.00    -0.00   0.00  -0.00     0.00  -0.00  -0.00
  72   7     0.00   0.00   0.00     0.00  -0.00  -0.00     0.00  -0.00  -0.00
  73   6     0.00   0.00   0.00     0.00  -0.00   0.00     0.00   0.00   0.00
  74   1    -0.00  -0.00  -0.00    -0.01  -0.00  -0.00    -0.00  -0.00  -0.00
  75   1     0.00   0.00  -0.00    -0.00   0.01  -0.01     0.00  -0.00   0.00
  76   1    -0.00   0.00   0.00     0.00  -0.00   0.00     0.00  -0.00  -0.00
                    190                    191                    192
                        a                      a                      a 
 Frequencies --  2990.3634              2990.4695              2991.3458
 Red. masses --     1.6007                 1.6237                 1.6815
 Frc consts  --     0.0000                 0.0000                 0.0000
 IR Inten    --    85.4215                 5.2151                34.0928
 Raman Activ --     0.0000                 0.0000                 0.0000
 Depolar     --     0.0000                 0.0000                 0.0000
 Atom AN      X      Y      Z        X      Y      Z        X      Y      Z
   1   7     0.00   0.00  -0.00    -0.00  -0.00   0.00    -0.00   0.00  -0.00
   2   6     0.00   0.00   0.00     0.00  -0.00  -0.00     0.00  -0.00  -0.00
   3   6    -0.00   0.00   0.00     0.00  -0.00  -0.00     0.00  -0.00  -0.00
   4   6    -0.00  -0.00  -0.00     0.00   0.00   0.00    -0.00   0.00  -0.00
   5   6     0.00   0.00   0.00     0.00  -0.00  -0.00     0.00   0.00   0.00
   6   6    -0.00   0.00   0.00     0.00  -0.00  -0.00    -0.00   0.00   0.00
   7   6     0.00  -0.00  -0.00    -0.00  -0.00  -0.00     0.00   0.00   0.00
   8   6    -0.00   0.00   0.00     0.00  -0.00  -0.00    -0.00   0.00   0.00
   9   6     0.00   0.00   0.00     0.00   0.00   0.00     0.00   0.00   0.00
  10   6    -0.01  -0.00   0.01     0.01   0.00  -0.01    -0.00   0.00   0.00
  11   6    -0.12   0.00   0.12     0.13  -0.00  -0.13    -0.01   0.00   0.04
  12   6    -0.01  -0.00  -0.01     0.00  -0.00  -0.01    -0.10  -0.02  -0.14
  13   6    -0.02  -0.00  -0.02     0.02   0.02   0.03    -0.05   0.13   0.06
  14   6    -0.00   0.01   0.01     0.00  -0.01  -0.00     0.03   0.02   0.04
  15   6     0.00  -0.00   0.00    -0.00   0.00  -0.00    -0.00  -0.01  -0.02
  16   8     0.00   0.00  -0.00    -0.00  -0.00   0.00     0.00  -0.00   0.00
  17   7     0.00  -0.00  -0.00    -0.00  -0.00   0.00    -0.00  -0.00   0.00
  18   6     0.00  -0.00   0.00    -0.00   0.00  -0.00     0.00   0.00  -0.00
  19   6     0.00   0.00   0.00     0.00  -0.00  -0.00     0.00  -0.00   0.00
  20   6    -0.00   0.00  -0.00    -0.00  -0.00   0.00    -0.00  -0.00  -0.01
  21   6    -0.00   0.00   0.00     0.00  -0.00  -0.00    -0.00  -0.00   0.00
  22   6    -0.00   0.00   0.00     0.00  -0.00  -0.00    -0.00   0.00   0.00
  23   6    -0.00  -0.00  -0.00     0.00   0.00   0.00     0.00   0.00   0.00
  24   6    -0.00  -0.00   0.00     0.00   0.00  -0.00    -0.00  -0.00   0.00
  25   6    -0.00  -0.00  -0.00     0.00   0.00   0.00    -0.00  -0.00  -0.00
  26   6    -0.00  -0.02   0.00     0.00   0.03  -0.00    -0.00   0.06  -0.01
  27   8     0.00   0.00  -0.00     0.00  -0.00   0.00     0.00  -0.00   0.00
  28   1    -0.00  -0.00   0.00     0.00   0.00  -0.00     0.00   0.00   0.00
  29   1    -0.00  -0.00  -0.00     0.00   0.00   0.00     0.00   0.00   0.00
  30   1     0.00  -0.00  -0.00    -0.00   0.00   0.00    -0.00   0.00   0.00
  31   1     0.00   0.00   0.00    -0.00  -0.00  -0.00     0.00  -0.00   0.00
  32   1     0.00  -0.00  -0.00    -0.00   0.00   0.00     0.00  -0.00  -0.00
  33   1     0.00   0.00   0.00     0.00   0.00   0.00    -0.00  -0.00  -0.00
  34   1     0.00  -0.00  -0.00    -0.00   0.00   0.00     0.00  -0.01  -0.01
  35   1     0.00  -0.00   0.00    -0.00   0.00  -0.00     0.00   0.00   0.00
  36   1    -0.00  -0.00  -0.00    -0.00  -0.00  -0.00    -0.00  -0.00  -0.00
  37   1    -0.00  -0.00  -0.00     0.00  -0.00   0.00     0.00   0.00  -0.00
  38   1    -0.00   0.01   0.00    -0.00   0.01   0.00     0.00  -0.00  -0.00
  39   1     0.02  -0.00  -0.01    -0.03   0.00   0.02     0.01  -0.00  -0.01
  40   1     0.47  -0.01  -0.42    -0.51   0.01   0.46     0.07  -0.00  -0.06
  41   1     0.02   0.01   0.03     0.01   0.00   0.01     0.36   0.10   0.53
  42   1    -0.01   0.02   0.00     0.05  -0.08  -0.02     0.31  -0.49  -0.14
  43   1     0.09  -0.01   0.06    -0.12   0.01  -0.08    -0.14   0.03  -0.08
  44   1     0.02  -0.05  -0.02    -0.02   0.04   0.01     0.05  -0.10  -0.03
  45   1    -0.02   0.01  -0.01     0.01  -0.00   0.01    -0.16   0.04  -0.10
  46   1     0.00  -0.00  -0.00    -0.00  -0.00   0.01    -0.01  -0.00   0.04
  47   1    -0.00   0.00   0.00    -0.00  -0.00  -0.00    -0.02   0.03   0.01
  48   1    -0.01   0.00  -0.01     0.01  -0.00   0.01     0.05  -0.01   0.03
  49   1    -0.00  -0.00   0.00     0.00   0.00  -0.00     0.00   0.00  -0.00
  50   1     0.00  -0.00  -0.00     0.00   0.00   0.00     0.00   0.00   0.00
  51   1     0.00  -0.00  -0.00    -0.00   0.00   0.00    -0.00   0.00   0.00
  52   1     0.00  -0.00  -0.00    -0.00   0.00   0.00     0.00  -0.00  -0.01
  53   1     0.00   0.00  -0.00    -0.00  -0.00   0.00     0.00   0.00  -0.00
  54   1     0.00   0.00   0.00    -0.00  -0.00  -0.00     0.00   0.00   0.00
  55   1    -0.00  -0.00   0.00     0.01   0.00  -0.01     0.02  -0.00  -0.01
  56   1     0.01   0.09  -0.01    -0.01  -0.12   0.02    -0.02  -0.22   0.03
  57   1     0.00  -0.00  -0.01    -0.00   0.00   0.01    -0.00   0.01   0.01
  58   1    -0.03  -0.00  -0.02     0.03   0.00   0.02    -0.04  -0.00  -0.09
  59   1    -0.00   0.00  -0.00     0.00  -0.00   0.00    -0.00  -0.00  -0.00
  60   8     0.00   0.00   0.00    -0.00  -0.00  -0.00    -0.00   0.00  -0.00
  61   1    -0.00  -0.00   0.00    -0.00   0.00  -0.00    -0.00   0.00  -0.00
  62   1    -0.00  -0.00  -0.00     0.00   0.00   0.00    -0.00  -0.00  -0.00
  63   7    -0.00   0.00   0.00    -0.00   0.00   0.00    -0.00  -0.00   0.00
  64   6     0.00   0.00  -0.00     0.00   0.00  -0.00     0.00  -0.00   0.00
  65   8     0.00  -0.00  -0.00     0.00  -0.00  -0.00    -0.00   0.00   0.00
  66   6    -0.00  -0.00   0.00     0.00   0.00  -0.00    -0.00  -0.00   0.00
  67   6     0.00  -0.00   0.00     0.00  -0.00   0.00     0.00   0.00   0.00
  68   8    -0.00   0.00   0.00     0.00   0.00   0.00    -0.00  -0.00  -0.00
  69   1     0.00   0.00  -0.00    -0.00  -0.00   0.00     0.00   0.00  -0.00
  70   1     0.00  -0.00  -0.00    -0.00   0.00   0.00    -0.00  -0.00   0.00
  71   1    -0.00   0.00   0.00     0.00  -0.00  -0.00    -0.00   0.00   0.00
  72   7    -0.01  -0.01   0.00    -0.01  -0.01   0.00     0.00   0.00  -0.00
  73   6    -0.09  -0.12  -0.02    -0.08  -0.11  -0.02     0.01   0.01   0.00
  74   1     0.40   0.27   0.40     0.36   0.24   0.36    -0.04  -0.02  -0.04
  75   1    -0.04   0.18  -0.32    -0.04   0.16  -0.29     0.00  -0.02   0.03
  76   1    -0.00  -0.03  -0.01    -0.00  -0.03  -0.01     0.00   0.00   0.00
                    193                    194                    195
                        a                      a                      a 
 Frequencies --  2994.5905              2998.5690              3000.2268
 Red. masses --     1.6842                 1.5546                 1.6996
 Frc consts  --     0.0000                 0.0000                 0.0000
 IR Inten    --    32.1188                12.9012                 3.2208
 Raman Activ --     0.0000                 0.0000                 0.0000
 Depolar     --     0.0000                 0.0000                 0.0000
 Atom AN      X      Y      Z        X      Y      Z        X      Y      Z
   1   7    -0.00  -0.00   0.00    -0.00  -0.00  -0.00    -0.00  -0.00  -0.00
   2   6    -0.00   0.00   0.00     0.00  -0.00  -0.00    -0.00   0.00   0.00
   3   6     0.00  -0.00  -0.00     0.00  -0.00  -0.00     0.00  -0.00  -0.00
   4   6     0.00   0.00   0.00    -0.00  -0.00  -0.00     0.00   0.00   0.00
   5   6     0.00  -0.00  -0.00    -0.00   0.00   0.00     0.00  -0.00  -0.00
   6   6     0.00  -0.00  -0.00     0.00  -0.00  -0.01    -0.00  -0.00  -0.00
   7   6    -0.00  -0.00   0.00     0.00   0.00   0.00     0.00   0.00   0.00
   8   6     0.00  -0.00  -0.00    -0.08   0.18   0.10     0.00  -0.00  -0.00
   9   6    -0.00  -0.00  -0.00     0.00   0.01   0.01    -0.00  -0.00  -0.00
  10   6     0.00   0.00  -0.00     0.00  -0.00  -0.00    -0.00   0.00   0.00
  11   6     0.03   0.00  -0.01     0.00  -0.00  -0.00     0.02   0.00   0.02
  12   6    -0.08  -0.03  -0.13    -0.00  -0.00  -0.00    -0.05  -0.01  -0.08
  13   6     0.03  -0.13  -0.07     0.00  -0.00  -0.00    -0.05  -0.00  -0.04
  14   6     0.09  -0.04   0.04    -0.00  -0.00  -0.00    -0.16   0.02  -0.12
  15   6    -0.02   0.02  -0.00    -0.00   0.00   0.00     0.06  -0.02   0.06
  16   8    -0.00  -0.00   0.00    -0.00   0.00  -0.00     0.00  -0.00   0.00
  17   7     0.00   0.00   0.00    -0.00   0.00  -0.00    -0.00   0.00   0.00
  18   6     0.00  -0.00  -0.00    -0.00   0.00   0.00     0.00  -0.00  -0.00
  19   6    -0.00  -0.00   0.00     0.00  -0.00  -0.00    -0.00  -0.00   0.00
  20   6    -0.00  -0.00  -0.00     0.00   0.00  -0.00    -0.00  -0.00  -0.00
  21   6    -0.00   0.00   0.00    -0.00   0.00   0.00    -0.00   0.00   0.00
  22   6    -0.00   0.00   0.00    -0.00   0.00   0.00    -0.00   0.00   0.00
  23   6    -0.00  -0.00  -0.00    -0.00  -0.00  -0.00    -0.00  -0.00   0.00
  24   6    -0.00  -0.00  -0.00    -0.00  -0.00   0.00    -0.00  -0.00   0.00
  25   6    -0.00  -0.00  -0.00    -0.00  -0.00  -0.00    -0.00  -0.00  -0.00
  26   6     0.00  -0.05   0.01    -0.00  -0.00   0.00     0.00  -0.01   0.00
  27   8     0.00  -0.00   0.00     0.00  -0.00   0.00    -0.00  -0.00  -0.00
  28   1     0.00   0.00  -0.00     0.00   0.00  -0.00     0.00   0.00  -0.00
  29   1     0.00   0.00   0.00     0.00  -0.00   0.00     0.00   0.00   0.00
  30   1    -0.00   0.00   0.00    -0.00   0.00   0.00    -0.00   0.00   0.00
  31   1    -0.00  -0.00  -0.00     0.00   0.00   0.00    -0.00  -0.00  -0.00
  32   1    -0.00   0.00   0.00    -0.01   0.01   0.02     0.00   0.00   0.00
  33   1     0.00   0.00   0.00    -0.00  -0.00  -0.00    -0.00  -0.00  -0.00
  34   1    -0.00   0.01   0.01     0.06  -0.56  -0.68    -0.00   0.00   0.00
  35   1    -0.00  -0.00  -0.00     0.22  -0.11   0.33    -0.00  -0.00  -0.00
  36   1     0.00   0.00   0.00    -0.00  -0.02  -0.03     0.00   0.00   0.00
  37   1    -0.00  -0.00   0.00    -0.00   0.00  -0.00     0.00   0.00   0.00
  38   1    -0.00  -0.00  -0.00    -0.00   0.00   0.00    -0.00   0.00  -0.00
  39   1    -0.00   0.00   0.00    -0.00   0.00   0.00     0.00   0.00  -0.00
  40   1    -0.11   0.00   0.10    -0.01   0.00   0.00    -0.03   0.00   0.03
  41   1     0.32   0.08   0.46     0.00   0.00   0.00     0.20   0.05   0.29
  42   1    -0.31   0.48   0.14    -0.00   0.01   0.00    -0.02   0.03   0.00
  43   1     0.21  -0.04   0.13     0.00  -0.00   0.00     0.20  -0.02   0.13
  44   1    -0.02   0.06   0.03    -0.00   0.00   0.00    -0.07   0.11   0.02
  45   1    -0.30   0.07  -0.19     0.00  -0.00   0.00     0.65  -0.16   0.41
  46   1    -0.00   0.00  -0.01    -0.00   0.00  -0.00     0.03   0.00  -0.09
  47   1     0.02  -0.05  -0.02     0.00  -0.00  -0.00     0.00   0.01   0.01
  48   1     0.07  -0.01   0.04     0.00   0.00   0.00    -0.26   0.06  -0.15
  49   1     0.00  -0.00   0.00     0.00  -0.00   0.00    -0.00  -0.00   0.00
  50   1    -0.00  -0.00  -0.00     0.00  -0.00   0.00     0.00   0.00   0.00
  51   1     0.00  -0.00  -0.00     0.00  -0.00  -0.00     0.00  -0.00  -0.00
  52   1     0.00  -0.00  -0.01     0.00  -0.00  -0.00     0.00  -0.00  -0.01
  53   1     0.00  -0.00   0.00     0.00   0.00  -0.00     0.00   0.00   0.00
  54   1     0.00   0.00   0.00     0.00   0.00   0.00     0.00   0.00   0.00
  55   1    -0.03   0.01   0.02    -0.00  -0.00   0.00    -0.01   0.01   0.01
  56   1     0.02   0.17  -0.02     0.00   0.00  -0.00     0.00   0.03  -0.00
  57   1     0.00  -0.00  -0.02     0.00   0.00  -0.00     0.00   0.00  -0.01
  58   1    -0.03  -0.00  -0.08     0.00  -0.00   0.00    -0.04  -0.00  -0.10
  59   1     0.00  -0.00   0.00     0.00  -0.00   0.00     0.00   0.00   0.00
  60   8    -0.00   0.00   0.00    -0.00  -0.00  -0.00    -0.00  -0.00  -0.00
  61   1    -0.00   0.00  -0.00    -0.00   0.00  -0.00    -0.00   0.00  -0.00
  62   1     0.00  -0.00  -0.00     0.00   0.00   0.00    -0.00   0.00   0.00
  63   7     0.00   0.00  -0.00     0.00  -0.00   0.00     0.00  -0.00   0.00
  64   6    -0.00   0.00   0.00    -0.00   0.00   0.00     0.00  -0.00  -0.00
  65   8     0.00  -0.00  -0.00     0.00  -0.00  -0.00    -0.00   0.00   0.00
  66   6     0.00  -0.00  -0.00     0.00  -0.00  -0.00    -0.00   0.00   0.00
  67   6    -0.00  -0.00  -0.00     0.00   0.00   0.00    -0.00  -0.00  -0.00
  68   8     0.00   0.00   0.00    -0.00  -0.00  -0.00     0.00   0.00   0.00
  69   1    -0.00  -0.00   0.00     0.00   0.00  -0.00     0.00   0.00  -0.00
  70   1    -0.00   0.00   0.00    -0.00   0.00   0.00    -0.00   0.00   0.00
  71   1    -0.00   0.00   0.00    -0.00   0.00   0.00     0.00  -0.01  -0.00
  72   7    -0.00  -0.00   0.00     0.00  -0.00  -0.00     0.00  -0.00  -0.00
  73   6    -0.00  -0.00  -0.00     0.00  -0.00  -0.00    -0.00   0.00  -0.00
  74   1     0.01   0.00   0.01     0.00   0.00   0.00    -0.00  -0.00  -0.00
  75   1    -0.00   0.00  -0.01    -0.00   0.00  -0.00     0.00  -0.00   0.00
  76   1    -0.00  -0.00  -0.00    -0.00   0.00   0.00     0.00  -0.00  -0.00
                    196                    197                    198
                        a                      a                      a 
 Frequencies --  3015.4302              3021.6017              3022.5165
 Red. masses --     1.6310                 1.8221                 1.8187
 Frc consts  --     0.0000                 0.0000                 0.0000
 IR Inten    --    36.5171                36.6238                14.9124
 Raman Activ --     0.0000                 0.0000                 0.0000
 Depolar     --     0.0000                 0.0000                 0.0000
 Atom AN      X      Y      Z        X      Y      Z        X      Y      Z
   1   7     0.00  -0.00   0.00     0.00   0.00   0.00     0.00   0.00   0.00
   2   6    -0.00  -0.00  -0.00     0.00  -0.00  -0.00     0.00  -0.00  -0.00
   3   6    -0.00   0.00   0.00    -0.00   0.00   0.00    -0.00   0.00   0.00
   4   6     0.00   0.00   0.00    -0.00  -0.00  -0.00    -0.00  -0.00  -0.00
   5   6    -0.00   0.00  -0.00    -0.00  -0.00  -0.00    -0.00   0.00   0.00
   6   6    -0.00  -0.00  -0.00    -0.00   0.00   0.00     0.00  -0.00  -0.00
   7   6     0.00   0.00   0.00     0.00   0.00   0.00    -0.00  -0.00  -0.00
   8   6    -0.00   0.00  -0.00    -0.00  -0.00  -0.00     0.00   0.00   0.00
   9   6    -0.00  -0.00  -0.00    -0.00  -0.00  -0.00     0.00   0.00   0.00
  10   6    -0.00   0.00  -0.00    -0.00  -0.00  -0.00    -0.00  -0.00  -0.00
  11   6    -0.00  -0.00  -0.02    -0.02  -0.00  -0.05    -0.01  -0.00  -0.04
  12   6    -0.00  -0.00  -0.01    -0.00   0.00  -0.00    -0.00  -0.00  -0.00
  13   6     0.00   0.01   0.00     0.02  -0.00   0.01     0.01  -0.00   0.00
  14   6    -0.00   0.00  -0.00     0.07  -0.02   0.04     0.02  -0.01   0.01
  15   6     0.00  -0.00  -0.00     0.19  -0.07   0.13     0.06  -0.02   0.05
  16   8     0.00  -0.00   0.00    -0.00   0.00   0.00    -0.00  -0.00   0.00
  17   7     0.00   0.00   0.00     0.00  -0.00  -0.00    -0.00  -0.00  -0.00
  18   6    -0.00  -0.00  -0.00     0.00  -0.00  -0.00     0.00   0.00   0.00
  19   6     0.00  -0.00   0.00    -0.00  -0.00  -0.00    -0.00  -0.00  -0.00
  20   6     0.00   0.00   0.00    -0.00  -0.00   0.00    -0.00  -0.00  -0.00
  21   6    -0.00   0.00   0.00     0.00  -0.00  -0.00    -0.00   0.00   0.00
  22   6    -0.00   0.00   0.00     0.00  -0.00  -0.00    -0.00   0.00   0.00
  23   6    -0.00  -0.00  -0.01     0.00   0.00   0.00     0.00   0.00   0.00
  24   6    -0.00  -0.00   0.00     0.00   0.00  -0.00    -0.00  -0.00   0.00
  25   6    -0.00  -0.00  -0.00     0.00   0.00   0.00    -0.00  -0.00  -0.00
  26   6     0.00  -0.00  -0.24    -0.00   0.00   0.00    -0.00   0.00   0.00
  27   8    -0.00  -0.00  -0.00     0.00  -0.00   0.00     0.00  -0.00   0.00
  28   1     0.00   0.00  -0.00    -0.00  -0.00  -0.00    -0.00  -0.00   0.00
  29   1    -0.00   0.00   0.00    -0.00  -0.00  -0.00    -0.00  -0.00  -0.00
  30   1     0.00  -0.00  -0.00     0.00  -0.00  -0.01     0.00  -0.00  -0.00
  31   1    -0.00  -0.00  -0.00     0.00   0.00   0.00     0.00   0.00   0.00
  32   1    -0.00   0.00   0.00     0.00  -0.00  -0.00    -0.00   0.00   0.00
  33   1    -0.00  -0.00  -0.00    -0.00  -0.00  -0.00     0.00   0.00   0.00
  34   1    -0.00   0.00  -0.00    -0.00   0.00   0.00     0.00  -0.00  -0.00
  35   1     0.00  -0.00   0.00     0.00  -0.00   0.00    -0.00   0.00  -0.00
  36   1     0.00   0.00   0.00     0.00   0.00   0.00    -0.00  -0.00  -0.00
  37   1    -0.00  -0.00  -0.00    -0.00   0.00  -0.00     0.00  -0.00   0.00
  38   1     0.00  -0.00  -0.00     0.00  -0.00  -0.00     0.00  -0.00  -0.00
  39   1    -0.00   0.00   0.00    -0.00   0.00   0.00    -0.00   0.00   0.00
  40   1    -0.01   0.00   0.01    -0.00   0.00  -0.01    -0.00   0.00  -0.01
  41   1     0.02   0.00   0.03    -0.00  -0.00   0.00     0.01   0.00   0.01
  42   1     0.01  -0.02  -0.01     0.00  -0.00   0.00     0.00  -0.00   0.00
  43   1    -0.02   0.00  -0.01    -0.06   0.01  -0.04    -0.02   0.00  -0.02
  44   1    -0.00   0.00   0.00     0.00   0.01   0.01    -0.00   0.01   0.00
  45   1     0.01  -0.00   0.01    -0.24   0.06  -0.15    -0.08   0.02  -0.05
  46   1    -0.00  -0.00   0.01     0.05  -0.01  -0.07     0.02   0.00  -0.06
  47   1    -0.00   0.01   0.00    -0.01   0.07   0.05    -0.00   0.02   0.02
  48   1     0.00  -0.00   0.00    -0.69   0.16  -0.42    -0.24   0.05  -0.14
  49   1    -0.00  -0.00  -0.00     0.00   0.00   0.00     0.00   0.00   0.00
  50   1     0.00  -0.00   0.00    -0.00  -0.00  -0.00    -0.00  -0.00  -0.00
  51   1     0.00  -0.00  -0.01    -0.00   0.00   0.00     0.00  -0.00  -0.00
  52   1     0.00  -0.00  -0.00    -0.00   0.00   0.00     0.00  -0.00  -0.00
  53   1     0.00   0.00  -0.00    -0.00  -0.00   0.00     0.00   0.00  -0.00
  54   1     0.00   0.00   0.00    -0.00  -0.00  -0.00     0.00   0.00   0.00
  55   1    -0.01   0.01  -0.02     0.00  -0.00  -0.00     0.00  -0.00  -0.00
  56   1     0.02   0.19  -0.06    -0.00  -0.01   0.00    -0.00  -0.00   0.00
  57   1    -0.01  -0.20   0.92    -0.00   0.00  -0.01     0.00   0.00  -0.00
  58   1     0.02   0.00   0.06     0.07   0.01   0.18     0.05   0.00   0.13
  59   1     0.00   0.00   0.00    -0.00  -0.00  -0.00     0.00  -0.00  -0.00
  60   8    -0.00   0.00  -0.00     0.00   0.00   0.00     0.00   0.00   0.00
  61   1    -0.00   0.00  -0.00    -0.00   0.00  -0.00    -0.00   0.00  -0.00
  62   1     0.00  -0.00   0.00    -0.00  -0.00   0.00     0.00  -0.00   0.00
  63   7     0.00  -0.00   0.00     0.00  -0.00   0.00    -0.00   0.00  -0.00
  64   6    -0.00   0.00   0.00     0.00   0.00  -0.00    -0.00   0.00   0.00
  65   8     0.00  -0.00  -0.00     0.00  -0.00  -0.00     0.00  -0.00  -0.00
  66   6     0.00   0.00  -0.00     0.04  -0.01  -0.09    -0.09   0.03   0.23
  67   6    -0.00   0.00  -0.00    -0.00   0.00  -0.00     0.00   0.00   0.01
  68   8     0.00  -0.00   0.00     0.00   0.00   0.00    -0.00  -0.00  -0.00
  69   1    -0.00  -0.00   0.00    -0.07  -0.04   0.01     0.14   0.09  -0.01
  70   1    -0.00   0.00   0.00    -0.07   0.07   0.31     0.19  -0.19  -0.84
  71   1     0.00  -0.00  -0.00     0.01  -0.01  -0.01    -0.01  -0.01   0.03
  72   7    -0.00   0.00   0.00    -0.00   0.00   0.00    -0.00   0.00  -0.00
  73   6    -0.00  -0.00  -0.00     0.00  -0.00  -0.00     0.00  -0.00   0.00
  74   1     0.00   0.00   0.00     0.00   0.00   0.00     0.00   0.00   0.00
  75   1    -0.00   0.00  -0.00     0.00  -0.00   0.00    -0.00   0.00  -0.00
  76   1    -0.00   0.00   0.00    -0.00   0.00   0.00    -0.00   0.00   0.00
                    199                    200                    201
                        a                      a                      a 
 Frequencies --  3025.3835              3029.3517              3030.7189
 Red. masses --     1.7247                 1.8065                 1.5969
 Frc consts  --     0.0000                 0.0000                 0.0000
 IR Inten    --    34.3957                59.0097                 6.2638
 Raman Activ --     0.0000                 0.0000                 0.0000
 Depolar     --     0.0000                 0.0000                 0.0000
 Atom AN      X      Y      Z        X      Y      Z        X      Y      Z
   1   7     0.00   0.00   0.00     0.00   0.00   0.00     0.00   0.00  -0.00
   2   6    -0.00  -0.00  -0.00     0.00  -0.00  -0.00     0.00   0.00   0.00
   3   6    -0.00   0.01   0.01    -0.00   0.00   0.00     0.00  -0.00  -0.00
   4   6    -0.00  -0.00  -0.00    -0.00  -0.00  -0.00     0.00   0.00   0.00
   5   6    -0.00  -0.00  -0.00     0.00  -0.00   0.00     0.00  -0.00   0.00
   6   6    -0.00   0.00   0.00    -0.00   0.00   0.00     0.00  -0.00  -0.00
   7   6     0.00   0.00   0.00     0.00   0.00   0.00     0.00   0.00   0.00
   8   6    -0.00  -0.00  -0.00    -0.00   0.00   0.00     0.00   0.00   0.00
   9   6    -0.00  -0.00  -0.00    -0.00  -0.00  -0.00     0.00   0.00   0.00
  10   6    -0.00  -0.00  -0.01     0.00  -0.00  -0.00    -0.00   0.00   0.00
  11   6    -0.10  -0.01  -0.22    -0.01  -0.00  -0.02    -0.00   0.00   0.00
  12   6    -0.03  -0.00  -0.04    -0.00  -0.00  -0.01    -0.00   0.00  -0.00
  13   6    -0.02   0.00  -0.01    -0.00  -0.01  -0.01    -0.00   0.00   0.00
  14   6    -0.03   0.01  -0.02    -0.00  -0.01  -0.02    -0.00   0.00   0.00
  15   6    -0.05   0.02  -0.01     0.09  -0.05  -0.24    -0.02  -0.00   0.04
  16   8     0.00  -0.00   0.00    -0.00   0.00   0.00    -0.00   0.00  -0.00
  17   7    -0.00  -0.00  -0.00     0.00   0.00  -0.00     0.00  -0.00  -0.00
  18   6     0.00   0.00  -0.00     0.00  -0.00  -0.00    -0.00   0.00   0.00
  19   6    -0.00  -0.00   0.00    -0.00  -0.00   0.00     0.00   0.00   0.00
  20   6    -0.00  -0.00  -0.00    -0.00   0.00  -0.00     0.00  -0.00  -0.00
  21   6    -0.00   0.00   0.00     0.00  -0.00  -0.00     0.00  -0.00  -0.00
  22   6    -0.00   0.00   0.00    -0.00   0.00   0.00    -0.00   0.00   0.00
  23   6     0.00   0.00   0.00    -0.00  -0.00   0.00    -0.00   0.00   0.00
  24   6    -0.00  -0.00   0.00     0.00   0.00  -0.00     0.00   0.00  -0.00
  25   6     0.00   0.00   0.00     0.00   0.00   0.00    -0.00  -0.00  -0.00
  26   6     0.01  -0.01   0.01     0.00  -0.00   0.00    -0.00   0.00   0.00
  27   8    -0.00  -0.00   0.00    -0.00   0.00  -0.00     0.00  -0.00   0.00
  28   1    -0.00  -0.00  -0.00    -0.00  -0.00  -0.00    -0.00  -0.00  -0.00
  29   1    -0.00  -0.00  -0.00    -0.00  -0.00  -0.00    -0.00  -0.00   0.00
  30   1     0.01  -0.03  -0.04     0.00  -0.00  -0.00    -0.00   0.00   0.00
  31   1     0.00   0.00   0.00     0.00   0.00   0.00    -0.00  -0.00  -0.00
  32   1     0.00  -0.00  -0.00     0.00  -0.00  -0.00    -0.00   0.00   0.00
  33   1    -0.01  -0.01  -0.01    -0.00  -0.00  -0.00    -0.00  -0.00  -0.00
  34   1    -0.00   0.00   0.00     0.00  -0.00  -0.00     0.00  -0.00  -0.00
  35   1     0.00  -0.00   0.00     0.00  -0.00   0.00    -0.00   0.00  -0.00
  36   1     0.00   0.00   0.00    -0.00   0.00   0.00    -0.00  -0.00  -0.00
  37   1    -0.00   0.00  -0.00     0.00  -0.00   0.00     0.00  -0.00   0.00
  38   1    -0.00   0.00   0.00     0.00  -0.00  -0.00     0.00  -0.00  -0.00
  39   1    -0.00   0.00   0.00    -0.00   0.00   0.00     0.00  -0.00  -0.00
  40   1     0.02  -0.00  -0.06     0.00  -0.00  -0.00     0.00  -0.00  -0.00
  41   1     0.09   0.03   0.13     0.01   0.00   0.02     0.00   0.00   0.00
  42   1     0.00  -0.01  -0.00    -0.02   0.04   0.01     0.01  -0.01  -0.00
  43   1     0.06  -0.00   0.04     0.03  -0.00   0.02    -0.00   0.00  -0.00
  44   1    -0.00  -0.00  -0.00    -0.03   0.06   0.02     0.00  -0.01  -0.00
  45   1     0.09  -0.02   0.06     0.05  -0.01   0.03    -0.00   0.00   0.00
  46   1     0.00   0.01  -0.06    -0.18  -0.06   0.87     0.04   0.01  -0.18
  47   1     0.01  -0.04  -0.02    -0.10   0.24   0.05    -0.00  -0.00   0.01
  48   1     0.17  -0.04   0.10    -0.05   0.01  -0.08     0.03  -0.01   0.03
  49   1     0.00   0.00   0.00     0.00  -0.00   0.00    -0.00   0.00   0.00
  50   1     0.00   0.00   0.00    -0.00  -0.00  -0.00    -0.00   0.00   0.00
  51   1     0.00  -0.00  -0.00    -0.00   0.00   0.00    -0.00   0.00   0.00
  52   1     0.00  -0.00  -0.01     0.00  -0.00  -0.00     0.00  -0.00  -0.00
  53   1     0.00   0.00  -0.00    -0.00  -0.00   0.00    -0.00  -0.00  -0.00
  54   1     0.00   0.00   0.00    -0.00  -0.00  -0.00     0.00   0.00   0.00
  55   1    -0.02   0.01   0.02    -0.01   0.01   0.01     0.00  -0.00  -0.00
  56   1    -0.00  -0.01   0.00     0.00   0.00   0.00    -0.00  -0.00   0.00
  57   1     0.00   0.01  -0.06     0.00   0.00  -0.02    -0.00   0.00  -0.00
  58   1     0.34   0.03   0.85     0.03   0.00   0.07    -0.00   0.00   0.00
  59   1     0.00   0.00   0.00     0.00   0.00   0.00     0.00  -0.00  -0.00
  60   8    -0.00  -0.00  -0.00    -0.00  -0.00   0.00     0.00   0.00  -0.00
  61   1    -0.00   0.00  -0.00     0.00  -0.00   0.00    -0.00   0.00  -0.00
  62   1     0.00   0.00   0.00     0.00   0.00   0.00    -0.00  -0.00  -0.00
  63   7     0.00   0.00   0.00    -0.00  -0.00  -0.00    -0.00  -0.00  -0.00
  64   6     0.00  -0.00  -0.00    -0.00   0.00   0.00    -0.00   0.00   0.00
  65   8    -0.00   0.00   0.00     0.00  -0.00  -0.00    -0.00  -0.00  -0.00
  66   6     0.00  -0.01  -0.02     0.03   0.03   0.01     0.20   0.11  -0.02
  67   6    -0.00  -0.00  -0.00     0.00   0.00   0.00     0.01   0.01   0.00
  68   8     0.00   0.00   0.00    -0.00  -0.00  -0.00    -0.00  -0.00  -0.00
  69   1     0.00   0.00  -0.00    -0.15  -0.08   0.05    -0.79  -0.43   0.24
  70   1    -0.02   0.02   0.07     0.02  -0.01  -0.06     0.07  -0.02  -0.19
  71   1     0.00   0.00  -0.00     0.00  -0.01  -0.00     0.02   0.07   0.00
  72   7     0.00  -0.00   0.00    -0.00   0.00   0.00    -0.00   0.00   0.00
  73   6    -0.00   0.00   0.00     0.00  -0.00  -0.00     0.00  -0.01  -0.00
  74   1    -0.00  -0.00  -0.00     0.00   0.00   0.00     0.00  -0.00   0.00
  75   1     0.00  -0.00   0.00     0.00  -0.00  -0.00     0.00  -0.00  -0.00
  76   1     0.00  -0.00  -0.00    -0.00   0.01   0.00    -0.02   0.05   0.01
                    202                    203                    204
                        a                      a                      a 
 Frequencies --  3032.0979              3039.3591              3057.9131
 Red. masses --     1.7265                 1.5180                 1.7788
 Frc consts  --     0.0000                 0.0000                 0.0000
 IR Inten    --     6.7660                41.9638                21.5345
 Raman Activ --     0.0000                 0.0000                 0.0000
 Depolar     --     0.0000                 0.0000                 0.0000
 Atom AN      X      Y      Z        X      Y      Z        X      Y      Z
   1   7    -0.00  -0.00   0.00     0.00  -0.00   0.00     0.00   0.00   0.00
   2   6     0.00   0.00  -0.00    -0.00   0.00  -0.00    -0.01  -0.00  -0.00
   3   6     0.00   0.00   0.00     0.00   0.00   0.00     0.00  -0.00  -0.00
   4   6    -0.00  -0.00  -0.00     0.00   0.00   0.00     0.01   0.00   0.00
   5   6     0.00   0.00   0.00    -0.00   0.00  -0.00    -0.00   0.00   0.00
   6   6     0.00  -0.00  -0.00     0.00  -0.00  -0.00    -0.03   0.09   0.11
   7   6    -0.00  -0.00  -0.00    -0.00  -0.00  -0.00    -0.16  -0.10  -0.11
   8   6    -0.00   0.00   0.00    -0.00   0.00  -0.00    -0.00   0.00   0.00
   9   6    -0.00   0.00   0.00    -0.00  -0.00  -0.00     0.00   0.00   0.00
  10   6     0.00  -0.00  -0.00     0.00   0.00  -0.00     0.00  -0.00  -0.00
  11   6     0.00   0.00   0.00     0.00  -0.00  -0.00    -0.00  -0.00  -0.00
  12   6     0.00   0.00   0.00    -0.00  -0.00  -0.00    -0.00  -0.00  -0.00
  13   6     0.00  -0.00   0.00     0.00  -0.01  -0.01    -0.00  -0.00  -0.00
  14   6     0.00  -0.00   0.00     0.01  -0.02  -0.00    -0.00   0.00  -0.00
  15   6     0.00  -0.00  -0.00     0.05  -0.21  -0.02    -0.00   0.00  -0.00
  16   8    -0.00  -0.00  -0.00    -0.00  -0.00   0.00    -0.00   0.00   0.00
  17   7    -0.00  -0.00  -0.00    -0.00   0.00   0.00     0.00   0.00   0.00
  18   6    -0.00   0.00   0.00     0.00   0.00   0.00     0.00  -0.00  -0.00
  19   6     0.00   0.00  -0.00     0.00   0.00   0.00    -0.00  -0.00   0.00
  20   6     0.00   0.00   0.00     0.00   0.00  -0.00     0.00   0.00  -0.00
  21   6    -0.00   0.00   0.00    -0.00   0.00   0.00    -0.00   0.00   0.00
  22   6    -0.00   0.00   0.00    -0.00   0.00   0.00    -0.00   0.00   0.00
  23   6    -0.00   0.00  -0.00     0.00  -0.00  -0.00     0.00  -0.00  -0.00
  24   6    -0.00  -0.00   0.00    -0.00  -0.00   0.00    -0.00  -0.00   0.00
  25   6    -0.00  -0.00  -0.00    -0.00  -0.00  -0.00     0.00   0.00   0.00
  26   6    -0.00   0.00  -0.00     0.00  -0.00  -0.00     0.00  -0.00  -0.00
  27   8    -0.00  -0.00   0.00    -0.00  -0.00   0.00     0.00  -0.00   0.00
  28   1     0.00   0.00  -0.00     0.00   0.00  -0.00     0.00  -0.00  -0.00
  29   1     0.00   0.00   0.00     0.00   0.00   0.00     0.00  -0.00   0.00
  30   1     0.00  -0.00  -0.00    -0.00   0.00  -0.00    -0.00   0.01   0.01
  31   1     0.00   0.00   0.00    -0.00  -0.00  -0.00    -0.02  -0.01  -0.01
  32   1    -0.00   0.00   0.00    -0.00   0.00   0.00     0.12  -0.34  -0.42
  33   1     0.00   0.00   0.00     0.00   0.00   0.00     0.56   0.38   0.40
  34   1     0.00  -0.00  -0.00    -0.00  -0.00  -0.00     0.00  -0.01  -0.01
  35   1     0.00  -0.00   0.00     0.00  -0.00   0.00    -0.00   0.00   0.00
  36   1    -0.00  -0.00  -0.00     0.00   0.00   0.00    -0.00  -0.00  -0.00
  37   1     0.00  -0.00   0.00    -0.00   0.00  -0.00    -0.00   0.00  -0.00
  38   1    -0.01   0.02   0.01    -0.00  -0.00  -0.00     0.00  -0.00  -0.00
  39   1    -0.00   0.00   0.00    -0.00   0.00   0.00    -0.00   0.00   0.00
  40   1    -0.00   0.00   0.00    -0.00   0.00   0.00     0.00  -0.00  -0.00
  41   1    -0.00  -0.00  -0.00     0.00   0.00   0.00     0.00   0.00   0.00
  42   1    -0.00   0.00   0.00    -0.02   0.03   0.01    -0.00   0.00   0.00
  43   1    -0.00   0.00  -0.00     0.01  -0.00   0.01     0.00  -0.00   0.00
  44   1    -0.00   0.00   0.00    -0.03   0.05   0.02    -0.00   0.00   0.00
  45   1    -0.00   0.00  -0.00    -0.01   0.00  -0.01     0.00  -0.00   0.00
  46   1    -0.00  -0.00   0.00     0.06  -0.01  -0.27     0.00   0.00  -0.00
  47   1    -0.00   0.00   0.00    -0.35   0.80   0.29     0.00  -0.00  -0.00
  48   1    -0.00   0.00  -0.00     0.13  -0.05   0.07     0.00  -0.00   0.00
  49   1    -0.00  -0.00  -0.00    -0.00  -0.00   0.00    -0.00  -0.00  -0.00
  50   1     0.00  -0.00  -0.00    -0.00  -0.00  -0.00    -0.00  -0.00   0.00
  51   1     0.00  -0.00  -0.00     0.00  -0.00  -0.00     0.00  -0.00  -0.00
  52   1     0.00  -0.00  -0.00     0.00  -0.00  -0.00     0.00  -0.00  -0.00
  53   1     0.00   0.00  -0.00     0.00   0.00  -0.00     0.00   0.00  -0.00
  54   1     0.00   0.00   0.00     0.00   0.00   0.00    -0.00  -0.00  -0.00
  55   1     0.00  -0.00  -0.00    -0.01   0.00   0.00    -0.00   0.00   0.00
  56   1    -0.00   0.00  -0.00     0.00   0.00  -0.00     0.00   0.00  -0.00
  57   1    -0.00  -0.00   0.00     0.00   0.00  -0.00     0.00  -0.00   0.00
  58   1    -0.00  -0.00  -0.00     0.00   0.00   0.01     0.00   0.00   0.01
  59   1     0.00   0.00  -0.00     0.00  -0.00   0.00     0.00  -0.00   0.00
  60   8    -0.00   0.00   0.00     0.00  -0.00  -0.00     0.00  -0.00  -0.00
  61   1    -0.00   0.00  -0.00     0.00   0.00  -0.00    -0.00   0.00  -0.00
  62   1     0.00  -0.00   0.00     0.00   0.00   0.00     0.00   0.00   0.00
  63   7    -0.00  -0.00  -0.00     0.00   0.00   0.00     0.00  -0.00   0.00
  64   6    -0.00  -0.00   0.00    -0.00   0.00   0.00     0.00   0.00   0.00
  65   8     0.00   0.00  -0.00     0.00  -0.00  -0.00    -0.00  -0.00  -0.00
  66   6     0.01   0.01  -0.00    -0.01  -0.01  -0.00     0.00  -0.00  -0.00
  67   6     0.00   0.00   0.00    -0.00  -0.00  -0.00     0.00   0.00   0.00
  68   8    -0.00  -0.00  -0.00     0.00   0.00   0.00    -0.00  -0.00  -0.00
  69   1    -0.05  -0.03   0.02     0.05   0.02  -0.01    -0.00  -0.00   0.00
  70   1     0.01  -0.00  -0.02    -0.00   0.00   0.01     0.00  -0.00  -0.00
  71   1     0.00   0.01   0.00    -0.00   0.01   0.00    -0.00   0.01   0.00
  72   7    -0.00  -0.00   0.00    -0.00   0.00   0.00    -0.00  -0.00   0.00
  73   6    -0.08   0.24   0.05    -0.00   0.00   0.00     0.00   0.00   0.00
  74   1    -0.02   0.02  -0.01     0.00   0.00   0.00    -0.00  -0.00  -0.00
  75   1    -0.00   0.03   0.02    -0.00   0.00  -0.00     0.00  -0.00   0.00
  76   1     0.31  -0.89  -0.21     0.00  -0.00  -0.00     0.00  -0.00  -0.00
                    205                    206                    207
                        a                      a                      a 
 Frequencies --  3063.8570              3069.0911              3069.4811
 Red. masses --     1.6825                 1.7527                 1.7786
 Frc consts  --     0.0000                 0.0000                 0.0000
 IR Inten    --    13.8894                 1.9260                18.1611
 Raman Activ --     0.0000                 0.0000                 0.0000
 Depolar     --     0.0000                 0.0000                 0.0000
 Atom AN      X      Y      Z        X      Y      Z        X      Y      Z
   1   7     0.00   0.00   0.00     0.00  -0.00   0.00    -0.00   0.00  -0.00
   2   6     0.00  -0.00  -0.00    -0.00   0.00   0.00     0.00  -0.00  -0.00
   3   6    -0.00   0.00   0.00     0.00  -0.00  -0.00    -0.00   0.00   0.00
   4   6    -0.00  -0.00  -0.00    -0.00  -0.00  -0.00    -0.00  -0.00  -0.00
   5   6    -0.00   0.00   0.00     0.00  -0.00  -0.00    -0.00   0.00   0.00
   6   6    -0.00   0.00   0.00     0.00  -0.01  -0.01    -0.00   0.00   0.00
   7   6     0.00   0.00   0.00    -0.01  -0.01  -0.01     0.00   0.00   0.00
   8   6     0.00  -0.00  -0.00    -0.00   0.00   0.00     0.00  -0.00   0.00
   9   6    -0.00  -0.00  -0.00     0.00  -0.00   0.00     0.00   0.00   0.00
  10   6     0.00  -0.00  -0.00    -0.00   0.00  -0.00     0.00  -0.00  -0.00
  11   6    -0.00   0.00  -0.01    -0.00  -0.00   0.00     0.00   0.00   0.00
  12   6    -0.00  -0.00  -0.00    -0.00  -0.00  -0.00     0.00  -0.00   0.00
  13   6    -0.01  -0.00  -0.01     0.00  -0.00  -0.00     0.00  -0.00   0.00
  14   6    -0.00  -0.00  -0.00    -0.00   0.00   0.00     0.00  -0.00   0.00
  15   6    -0.00  -0.00  -0.00    -0.00  -0.00   0.00     0.00   0.00  -0.00
  16   8     0.00   0.00   0.00     0.00  -0.00   0.00    -0.00   0.00  -0.00
  17   7     0.00   0.00  -0.00    -0.00   0.00   0.00     0.00  -0.00  -0.00
  18   6     0.00   0.00   0.00     0.00   0.00   0.00     0.00   0.00   0.01
  19   6    -0.00  -0.00   0.00    -0.00  -0.00  -0.00    -0.00  -0.00  -0.00
  20   6     0.00  -0.00   0.00    -0.00  -0.00  -0.00    -0.00  -0.00  -0.00
  21   6     0.00  -0.00  -0.00    -0.00   0.00   0.00    -0.08   0.06   0.21
  22   6     0.00  -0.00  -0.00     0.00  -0.00  -0.00    -0.00   0.00   0.01
  23   6    -0.01   0.00   0.00    -0.00   0.00  -0.00    -0.00   0.00   0.00
  24   6    -0.00  -0.00   0.00     0.00   0.00  -0.00     0.11   0.01  -0.02
  25   6    -0.00  -0.00  -0.00    -0.00  -0.00  -0.00    -0.03  -0.02  -0.03
  26   6    -0.20   0.10   0.11    -0.00   0.00   0.00    -0.00   0.00   0.00
  27   8    -0.00   0.00  -0.00    -0.00   0.00  -0.00    -0.00   0.00  -0.00
  28   1    -0.00  -0.00  -0.00     0.00  -0.00  -0.00    -0.00  -0.00   0.00
  29   1    -0.00  -0.00  -0.00     0.00   0.00   0.00     0.00  -0.00  -0.00
  30   1     0.00  -0.00  -0.00    -0.00   0.00   0.00     0.00  -0.00  -0.00
  31   1     0.00   0.00   0.00     0.01   0.00   0.00     0.00   0.00   0.00
  32   1     0.00  -0.00  -0.00    -0.01   0.04   0.05     0.00  -0.00  -0.01
  33   1    -0.00  -0.00  -0.00     0.04   0.03   0.03    -0.00  -0.00  -0.00
  34   1     0.00   0.00   0.00    -0.00  -0.00  -0.00     0.00  -0.00  -0.00
  35   1    -0.00   0.00  -0.00     0.00  -0.00   0.00    -0.00   0.00  -0.00
  36   1     0.00   0.00   0.00    -0.00   0.00  -0.00    -0.00  -0.00  -0.00
  37   1    -0.00  -0.00  -0.00     0.00   0.00   0.00     0.00   0.00  -0.00
  38   1    -0.00   0.00   0.00     0.00  -0.00  -0.00    -0.00   0.00   0.00
  39   1    -0.00   0.00   0.00     0.00  -0.00  -0.00    -0.00  -0.00   0.00
  40   1    -0.00   0.00   0.00     0.00   0.00  -0.00    -0.00   0.00   0.00
  41   1     0.01   0.00   0.01     0.00   0.00   0.00    -0.00  -0.00  -0.00
  42   1    -0.01   0.02   0.00    -0.00   0.00   0.00    -0.00   0.00   0.00
  43   1     0.03  -0.00   0.02    -0.00  -0.00  -0.00    -0.00  -0.00  -0.00
  44   1    -0.00   0.00   0.00     0.00  -0.00  -0.00    -0.00   0.00   0.00
  45   1     0.00  -0.00   0.00    -0.00   0.00  -0.00    -0.00   0.00  -0.00
  46   1    -0.00  -0.00   0.01     0.00   0.00  -0.02    -0.00  -0.00   0.00
  47   1    -0.00   0.01   0.00    -0.00   0.01   0.00     0.00  -0.00  -0.00
  48   1     0.01  -0.00   0.00     0.02  -0.00   0.01    -0.00   0.00  -0.00
  49   1     0.00   0.00   0.00     0.00   0.00  -0.00    -0.00   0.00   0.00
  50   1     0.00  -0.00  -0.00     0.00   0.00  -0.00    -0.00   0.00   0.00
  51   1    -0.00   0.00   0.01     0.00  -0.00  -0.00     0.30  -0.20  -0.76
  52   1    -0.00   0.00   0.00    -0.00   0.00   0.00     0.01  -0.01  -0.03
  53   1     0.01   0.00  -0.00    -0.00  -0.00   0.00    -0.43  -0.05   0.08
  54   1     0.00   0.00   0.00     0.00   0.00   0.00     0.11   0.06   0.12
  55   1     0.75  -0.44  -0.41     0.00  -0.00  -0.00     0.01  -0.01  -0.01
  56   1    -0.02   0.08   0.01    -0.00  -0.00   0.00    -0.00  -0.00   0.00
  57   1    -0.02   0.01   0.02    -0.00   0.00   0.00    -0.00   0.00  -0.01
  58   1     0.01   0.00   0.02     0.00   0.00   0.00    -0.00  -0.00  -0.00
  59   1    -0.00   0.00  -0.00     0.00   0.00   0.00    -0.00  -0.00   0.00
  60   8     0.00   0.00   0.00    -0.00   0.00   0.00     0.00  -0.00  -0.00
  61   1     0.00  -0.00   0.00     0.00  -0.00   0.00     0.00  -0.00   0.00
  62   1    -0.00  -0.00  -0.00     0.00  -0.00  -0.00    -0.00   0.00  -0.00
  63   7     0.00   0.00   0.00    -0.00  -0.00  -0.00    -0.00   0.00   0.00
  64   6     0.00  -0.00  -0.00     0.00   0.00  -0.00     0.00  -0.00  -0.00
  65   8    -0.00   0.00   0.00    -0.00  -0.00  -0.00    -0.00   0.00   0.00
  66   6    -0.00  -0.00  -0.00    -0.02   0.26   0.02     0.00  -0.00  -0.00
  67   6    -0.00  -0.00  -0.00    -0.00   0.01   0.00     0.00   0.00   0.00
  68   8     0.00   0.00   0.00    -0.00  -0.00  -0.00    -0.00  -0.00  -0.00
  69   1     0.00   0.00  -0.00    -0.04   0.01   0.02    -0.00  -0.00   0.00
  70   1    -0.00   0.00   0.00    -0.00   0.03   0.01    -0.00   0.00   0.00
  71   1    -0.00   0.00   0.00     0.10  -0.95  -0.10    -0.00   0.00   0.00
  72   7     0.00  -0.00  -0.00    -0.00   0.00   0.00     0.00  -0.00  -0.00
  73   6     0.00  -0.00  -0.00    -0.00   0.00   0.00     0.00  -0.00   0.00
  74   1    -0.00  -0.00  -0.00    -0.00  -0.00  -0.00    -0.00  -0.00  -0.00
  75   1     0.00  -0.00   0.00     0.00  -0.00   0.00     0.00  -0.00   0.00
  76   1    -0.00   0.00   0.00     0.00  -0.00  -0.00    -0.00   0.00   0.00
                    208                    209                    210
                        a                      a                      a 
 Frequencies --  3071.3289              3076.3686              3082.2412
 Red. masses --     1.8734                 1.7917                 1.8075
 Frc consts  --     0.0000                 0.0000                 0.0000
 IR Inten    --    57.9156                34.1322                19.9632
 Raman Activ --     0.0000                 0.0000                 0.0000
 Depolar     --     0.0000                 0.0000                 0.0000
 Atom AN      X      Y      Z        X      Y      Z        X      Y      Z
   1   7    -0.00  -0.00  -0.00     0.00   0.00   0.00    -0.00  -0.00  -0.00
   2   6     0.01  -0.00  -0.00    -0.00   0.00   0.00    -0.00   0.00   0.00
   3   6    -0.00   0.00   0.00    -0.00   0.00   0.00    -0.01   0.03   0.04
   4   6     0.01   0.01   0.01     0.00   0.00   0.00    -0.19  -0.12  -0.14
   5   6    -0.01   0.00   0.00     0.00  -0.00  -0.00    -0.01  -0.00   0.00
   6   6    -0.05   0.14   0.17     0.00  -0.00  -0.00    -0.00   0.01   0.01
   7   6     0.12   0.08   0.08    -0.00  -0.00  -0.00     0.00   0.00   0.00
   8   6    -0.00   0.00   0.00    -0.00  -0.00  -0.00    -0.00   0.00  -0.00
   9   6     0.00   0.00   0.00    -0.00  -0.00  -0.00    -0.00  -0.00  -0.00
  10   6     0.00  -0.00   0.00     0.00  -0.00  -0.00     0.00  -0.00   0.00
  11   6     0.00   0.00   0.00     0.00  -0.00  -0.00     0.00   0.00   0.00
  12   6     0.00  -0.00   0.00     0.00   0.00   0.00     0.00  -0.00   0.00
  13   6     0.00  -0.00   0.00     0.00  -0.00   0.00     0.00  -0.00  -0.00
  14   6     0.00  -0.00   0.00     0.00  -0.00   0.00    -0.00  -0.00  -0.00
  15   6    -0.00  -0.00   0.00     0.00  -0.00  -0.00    -0.00  -0.00  -0.00
  16   8    -0.00  -0.00  -0.00     0.00   0.00   0.00    -0.00   0.00  -0.00
  17   7    -0.00  -0.00   0.00     0.00   0.00   0.00    -0.00   0.00   0.00
  18   6    -0.00  -0.00  -0.00    -0.00  -0.00  -0.00     0.00  -0.00  -0.00
  19   6     0.00   0.00   0.00    -0.00   0.00   0.00    -0.00   0.00   0.00
  20   6     0.00   0.00  -0.00    -0.00  -0.00  -0.00     0.00   0.00  -0.00
  21   6     0.00  -0.00  -0.00     0.04  -0.02  -0.09    -0.00   0.00   0.00
  22   6    -0.00   0.00   0.00    -0.02   0.01   0.05    -0.00   0.00   0.00
  23   6     0.00  -0.00  -0.00    -0.00   0.00   0.00     0.00  -0.00  -0.00
  24   6    -0.00  -0.00   0.00     0.09   0.01  -0.02    -0.00  -0.00   0.00
  25   6    -0.00  -0.00  -0.00    -0.14  -0.08  -0.15    -0.00  -0.00  -0.00
  26   6     0.00  -0.00  -0.00     0.00  -0.00  -0.00     0.00  -0.00  -0.00
  27   8     0.00  -0.00   0.00    -0.00   0.00  -0.00     0.00  -0.00   0.00
  28   1    -0.00   0.00   0.00    -0.00  -0.00  -0.00     0.00   0.00  -0.00
  29   1    -0.00   0.00   0.00    -0.00   0.00  -0.00     0.00  -0.00   0.00
  30   1     0.00  -0.00  -0.00     0.00  -0.00  -0.00     0.05  -0.12  -0.16
  31   1    -0.05  -0.03  -0.03    -0.00  -0.00  -0.00     0.67   0.42   0.49
  32   1     0.17  -0.48  -0.59    -0.00   0.00   0.00     0.01  -0.04  -0.05
  33   1    -0.39  -0.26  -0.28     0.00   0.00   0.00    -0.01  -0.01  -0.01
  34   1     0.00  -0.01  -0.02    -0.00   0.00   0.00    -0.00   0.00   0.00
  35   1    -0.00   0.00  -0.00     0.00  -0.00   0.00     0.01  -0.00   0.01
  36   1    -0.00  -0.00  -0.00     0.00   0.00   0.00     0.00   0.01   0.01
  37   1    -0.00  -0.00  -0.00     0.00   0.00   0.00     0.00  -0.00   0.00
  38   1    -0.00  -0.00   0.00    -0.00   0.00  -0.00     0.00   0.00  -0.00
  39   1     0.00   0.00  -0.00    -0.00  -0.00   0.00    -0.00   0.00   0.00
  40   1    -0.00  -0.00   0.00    -0.00   0.00   0.00    -0.00  -0.00   0.00
  41   1    -0.00  -0.00  -0.00    -0.00  -0.00  -0.01    -0.00  -0.00  -0.00
  42   1    -0.00   0.00   0.00    -0.00   0.00   0.00    -0.00   0.00   0.00
  43   1    -0.00  -0.00  -0.00    -0.00   0.00  -0.00     0.00  -0.00   0.00
  44   1     0.00   0.00   0.00    -0.00   0.00   0.00    -0.00   0.00   0.00
  45   1    -0.00   0.00  -0.00    -0.00   0.00  -0.00     0.00  -0.00   0.00
  46   1     0.00   0.00  -0.00    -0.00  -0.00   0.00     0.00   0.00  -0.00
  47   1    -0.00   0.00   0.00    -0.00   0.00   0.00    -0.00   0.00   0.00
  48   1     0.00  -0.00   0.00     0.00  -0.00   0.00     0.00  -0.00   0.00
  49   1     0.00  -0.00   0.00     0.00   0.00  -0.00    -0.00  -0.00   0.00
  50   1     0.00  -0.00   0.00    -0.00   0.00  -0.00     0.00  -0.00   0.00
  51   1    -0.00   0.00   0.01    -0.12   0.08   0.31     0.00  -0.00  -0.00
  52   1     0.00  -0.00  -0.00     0.08  -0.06  -0.22     0.00  -0.00  -0.00
  53   1     0.01   0.00  -0.00    -0.32  -0.04   0.06     0.01   0.00  -0.00
  54   1     0.00   0.00   0.00     0.51   0.28   0.56     0.00   0.00   0.00
  55   1    -0.00   0.00   0.00    -0.00   0.00   0.00    -0.00   0.00   0.00
  56   1     0.00   0.00  -0.00     0.00   0.00  -0.00     0.00   0.00  -0.00
  57   1     0.00  -0.00   0.00    -0.00  -0.00   0.00     0.00  -0.00   0.00
  58   1    -0.00  -0.00  -0.01     0.00   0.00   0.00    -0.01  -0.00  -0.02
  59   1    -0.00   0.00  -0.00    -0.00  -0.00   0.00     0.00  -0.00   0.00
  60   8    -0.00   0.00   0.00     0.00  -0.00  -0.00     0.00  -0.00  -0.00
  61   1    -0.00   0.00  -0.00     0.00  -0.00   0.00    -0.00   0.00  -0.00
  62   1     0.00  -0.00  -0.00    -0.00   0.00   0.00     0.00   0.00   0.00
  63   7     0.00   0.00   0.00    -0.00   0.00  -0.00    -0.00   0.00  -0.00
  64   6    -0.00   0.00   0.00    -0.00  -0.00  -0.00     0.00  -0.00  -0.00
  65   8     0.00  -0.00  -0.00    -0.00   0.00   0.00    -0.00   0.00   0.00
  66   6    -0.00   0.02   0.00     0.00  -0.00  -0.00     0.00  -0.00  -0.00
  67   6     0.00   0.00   0.00    -0.00  -0.00  -0.00    -0.00  -0.00  -0.00
  68   8    -0.00  -0.00  -0.00     0.00   0.00   0.00     0.00   0.00   0.00
  69   1    -0.00   0.00   0.00     0.00  -0.00  -0.00    -0.00  -0.00   0.00
  70   1     0.00   0.00  -0.00    -0.00   0.00   0.00    -0.00   0.00   0.00
  71   1     0.01  -0.08  -0.01    -0.00   0.00   0.00    -0.00   0.00   0.00
  72   7    -0.00  -0.00  -0.00     0.00   0.00   0.00    -0.00   0.00   0.00
  73   6    -0.00   0.00   0.00    -0.00  -0.00  -0.00    -0.00   0.00  -0.00
  74   1     0.00   0.00   0.00     0.00   0.00   0.00     0.00   0.00   0.00
  75   1    -0.00   0.00  -0.00     0.00  -0.00   0.00     0.00  -0.00   0.00
  76   1     0.00  -0.00  -0.00    -0.00   0.00   0.00    -0.00   0.00  -0.00
                    211                    212                    213
                        a                      a                      a 
 Frequencies --  3088.6500              3097.7339              3109.6446
 Red. masses --     1.8658                 1.8801                 1.8526
 Frc consts  --     0.0000                 0.0000                 0.0000
 IR Inten    --    90.1270                29.1419                26.1718
 Raman Activ --     0.0000                 0.0000                 0.0000
 Depolar     --     0.0000                 0.0000                 0.0000
 Atom AN      X      Y      Z        X      Y      Z        X      Y      Z
   1   7    -0.00   0.00   0.00    -0.00   0.00  -0.00     0.00  -0.00  -0.00
   2   6     0.00  -0.00  -0.00     0.00   0.00   0.00    -0.01   0.00   0.00
   3   6     0.00  -0.00  -0.00     0.00  -0.00  -0.00    -0.06   0.16   0.21
   4   6     0.00   0.00   0.00    -0.00  -0.00  -0.00     0.05   0.03   0.04
   5   6     0.00  -0.00  -0.00    -0.00   0.00   0.00     0.00  -0.00  -0.00
   6   6     0.00  -0.00  -0.00    -0.00   0.00   0.00     0.00  -0.00  -0.00
   7   6    -0.00  -0.00  -0.00     0.00   0.00   0.00    -0.00  -0.00  -0.00
   8   6     0.00  -0.00   0.00     0.00   0.00   0.00     0.00   0.00   0.00
   9   6    -0.00   0.00   0.00     0.00   0.00   0.00     0.00   0.00   0.00
  10   6     0.00  -0.00  -0.00     0.00   0.00   0.00     0.00   0.00   0.00
  11   6     0.00   0.00   0.00     0.00  -0.00   0.00     0.01   0.00   0.01
  12   6     0.00   0.00   0.00     0.00   0.00   0.00     0.00   0.00   0.00
  13   6     0.00  -0.00   0.00     0.00  -0.00   0.00     0.00  -0.00   0.00
  14   6     0.00  -0.00   0.00     0.00   0.00   0.00     0.00  -0.00   0.00
  15   6     0.00   0.00  -0.00     0.00  -0.00   0.00     0.00  -0.00   0.00
  16   8    -0.00   0.00  -0.00    -0.00   0.00  -0.00    -0.00  -0.00  -0.00
  17   7    -0.00  -0.00   0.00     0.00   0.00   0.00    -0.00   0.00   0.00
  18   6     0.01   0.00   0.00    -0.00  -0.00  -0.00    -0.00   0.00   0.00
  19   6    -0.00  -0.00   0.00    -0.01  -0.00   0.00     0.00  -0.00  -0.00
  20   6     0.00   0.00   0.00    -0.00  -0.00   0.00    -0.00   0.00  -0.00
  21   6    -0.03   0.02   0.09     0.01  -0.01  -0.03     0.00  -0.00  -0.00
  22   6    -0.04   0.03   0.11    -0.08   0.06   0.22    -0.00   0.00   0.00
  23   6    -0.00   0.00   0.00    -0.00   0.00   0.00     0.00  -0.00  -0.00
  24   6    -0.21  -0.03   0.04     0.08   0.01  -0.02     0.00   0.00  -0.00
  25   6    -0.06  -0.03  -0.06     0.08   0.04   0.08     0.00   0.00   0.00
  26   6     0.00   0.00   0.00    -0.00   0.00   0.00    -0.00   0.00  -0.00
  27   8    -0.00   0.00  -0.00    -0.00   0.00  -0.00    -0.00   0.00  -0.00
  28   1    -0.00  -0.00   0.00     0.00   0.00   0.00     0.00   0.00   0.00
  29   1     0.00  -0.00  -0.00     0.00  -0.00  -0.00     0.00   0.00   0.00
  30   1    -0.00   0.00   0.00    -0.00   0.00   0.00     0.22  -0.55  -0.73
  31   1    -0.01  -0.00  -0.00     0.00   0.00   0.00    -0.15  -0.09  -0.11
  32   1    -0.00   0.00   0.00     0.00  -0.00  -0.00    -0.00   0.01   0.01
  33   1     0.00   0.00   0.00    -0.00  -0.00  -0.00     0.01   0.01   0.01
  34   1    -0.00   0.00   0.00     0.00  -0.00  -0.00    -0.00  -0.00  -0.00
  35   1    -0.00   0.00  -0.00    -0.00   0.00  -0.00    -0.00   0.00  -0.00
  36   1    -0.00  -0.00  -0.00    -0.00  -0.00  -0.00    -0.00  -0.00  -0.00
  37   1     0.00   0.00  -0.00    -0.00  -0.00   0.00     0.00   0.00  -0.00
  38   1    -0.00   0.00   0.00     0.00  -0.00  -0.00     0.00  -0.00  -0.00
  39   1    -0.00  -0.00   0.00    -0.00  -0.00   0.00     0.00  -0.00  -0.00
  40   1    -0.00   0.00   0.00    -0.00  -0.00   0.00    -0.00  -0.00   0.01
  41   1    -0.01  -0.00  -0.01    -0.01  -0.00  -0.01    -0.00  -0.00  -0.00
  42   1    -0.00   0.00   0.00    -0.00   0.00   0.00    -0.00   0.00   0.00
  43   1    -0.00   0.00  -0.00    -0.00   0.00  -0.00    -0.00  -0.00  -0.00
  44   1    -0.00   0.00   0.00     0.00  -0.00  -0.00     0.00  -0.00   0.00
  45   1    -0.00   0.00  -0.00    -0.00   0.00  -0.00    -0.00   0.00  -0.00
  46   1    -0.00  -0.00   0.00     0.00   0.00  -0.00     0.00   0.00  -0.00
  47   1     0.00  -0.00  -0.00    -0.00   0.00   0.00     0.00  -0.00  -0.00
  48   1    -0.00   0.00  -0.00    -0.00   0.00  -0.00    -0.00   0.00  -0.00
  49   1    -0.00  -0.00   0.00     0.00  -0.00  -0.00     0.00  -0.00  -0.00
  50   1    -0.00   0.00  -0.00     0.00   0.00  -0.00     0.00   0.00  -0.00
  51   1     0.11  -0.07  -0.28    -0.03   0.02   0.08    -0.00   0.00   0.00
  52   1     0.14  -0.10  -0.38     0.28  -0.20  -0.76     0.00  -0.00  -0.00
  53   1     0.73   0.09  -0.14    -0.26  -0.03   0.05    -0.00  -0.00   0.00
  54   1     0.20   0.11   0.21    -0.24  -0.14  -0.27    -0.00  -0.00  -0.00
  55   1    -0.00   0.00   0.00     0.00  -0.00  -0.00    -0.00   0.00  -0.00
  56   1    -0.00  -0.00   0.00    -0.00   0.00  -0.00     0.00   0.00  -0.00
  57   1    -0.00   0.00  -0.00    -0.00  -0.00   0.00    -0.00  -0.00   0.00
  58   1    -0.00  -0.00  -0.00    -0.00   0.00  -0.00    -0.02  -0.00  -0.04
  59   1     0.00  -0.00   0.00     0.00  -0.00   0.00    -0.00   0.00  -0.00
  60   8     0.00  -0.00   0.00    -0.00  -0.00  -0.00    -0.00   0.00   0.00
  61   1     0.00  -0.00   0.00     0.00  -0.00   0.00     0.00  -0.00   0.00
  62   1     0.00   0.00   0.00     0.00   0.00   0.00     0.00  -0.00  -0.00
  63   7    -0.00  -0.00   0.00     0.00   0.00   0.00     0.00  -0.00   0.00
  64   6     0.00  -0.00  -0.00    -0.00   0.00   0.00     0.00   0.00  -0.00
  65   8    -0.00   0.00   0.00     0.00  -0.00  -0.00    -0.00  -0.00  -0.00
  66   6     0.00  -0.00  -0.00    -0.00   0.00   0.00    -0.00   0.00   0.00
  67   6     0.00  -0.00   0.00     0.00   0.00   0.00     0.00   0.00   0.00
  68   8    -0.00  -0.00  -0.00    -0.00  -0.00  -0.00    -0.00  -0.00  -0.00
  69   1    -0.00  -0.00   0.00     0.00   0.00  -0.00     0.00   0.00   0.00
  70   1    -0.00   0.00   0.00     0.00  -0.00  -0.00     0.00  -0.00  -0.00
  71   1     0.00   0.00   0.00     0.00  -0.00  -0.00     0.00  -0.00  -0.00
  72   7     0.00  -0.00  -0.00    -0.00   0.00   0.00    -0.00   0.00   0.00
  73   6     0.00  -0.00  -0.00    -0.00   0.00   0.00     0.00   0.00   0.00
  74   1    -0.00  -0.00  -0.00    -0.00  -0.00  -0.00    -0.00  -0.00  -0.00
  75   1     0.00  -0.00   0.00    -0.00   0.00  -0.00     0.00  -0.00   0.00
  76   1    -0.00   0.00   0.00     0.00  -0.00  -0.00    -0.00   0.00   0.00
                    214                    215                    216
                        a                      a                      a 
 Frequencies --  3318.8382              3344.6905              3399.9548
 Red. masses --     1.8842                 1.8125                 1.8583
 Frc consts  --     0.0000                 0.0000                 0.0000
 IR Inten    --   132.0537                 5.3792               468.6966
 Raman Activ --     0.0000                 0.0000                 0.0000
 Depolar     --     0.0000                 0.0000                 0.0000
 Atom AN      X      Y      Z        X      Y      Z        X      Y      Z
   1   7     0.00   0.00   0.00     0.13   0.21   0.04     0.00  -0.00   0.00
   2   6     0.00  -0.00  -0.00     0.01   0.00   0.00    -0.00   0.00   0.00
   3   6     0.00  -0.00  -0.00    -0.00  -0.00  -0.00     0.00   0.00  -0.00
   4   6    -0.00   0.00  -0.00    -0.00   0.00   0.00    -0.00  -0.00  -0.00
   5   6     0.00  -0.00   0.00    -0.00  -0.00  -0.00    -0.00   0.00   0.00
   6   6    -0.00   0.00  -0.00     0.00   0.00   0.00    -0.00   0.00   0.00
   7   6    -0.00   0.00   0.00    -0.00   0.00   0.00     0.00  -0.00  -0.00
   8   6    -0.00   0.00   0.00    -0.00   0.00  -0.00     0.00   0.00  -0.00
   9   6     0.00   0.00   0.00    -0.00   0.00   0.00     0.00  -0.00  -0.00
  10   6     0.00  -0.00   0.00     0.00   0.01   0.00    -0.00  -0.00  -0.01
  11   6    -0.00   0.00   0.00    -0.00  -0.00  -0.00     0.00   0.00  -0.00
  12   6    -0.00  -0.00  -0.00     0.00   0.00  -0.00    -0.00  -0.00  -0.00
  13   6    -0.00   0.00  -0.00     0.00  -0.00   0.00     0.00  -0.00   0.00
  14   6    -0.00   0.00   0.00     0.00  -0.00  -0.00     0.00  -0.00   0.00
  15   6    -0.00   0.00   0.00     0.00  -0.00   0.00     0.00  -0.00   0.00
  16   8     0.00   0.00  -0.00     0.00  -0.00   0.00     0.01   0.01   0.01
  17   7     0.00   0.00  -0.00    -0.00  -0.00   0.00    -0.00  -0.00  -0.00
  18   6     0.00  -0.00  -0.00    -0.00   0.00   0.00     0.00  -0.00   0.00
  19   6    -0.00  -0.00   0.00     0.00   0.00  -0.00     0.00   0.00  -0.00
  20   6    -0.00   0.00   0.00     0.00  -0.00  -0.00    -0.00   0.00  -0.00
  21   6    -0.00   0.00   0.00     0.00  -0.00  -0.00     0.00   0.00   0.00
  22   6    -0.00   0.00   0.00    -0.00  -0.00   0.00     0.00   0.00  -0.00
  23   6    -0.00   0.00   0.00     0.00  -0.00  -0.00     0.00  -0.00  -0.00
  24   6    -0.00  -0.00   0.00     0.00  -0.00  -0.00    -0.00  -0.00  -0.00
  25   6    -0.00  -0.00  -0.00     0.00   0.00   0.00     0.00   0.00  -0.00
  26   6    -0.00  -0.00   0.00     0.00  -0.00  -0.00     0.00  -0.00   0.00
  27   8     0.00  -0.00   0.00    -0.00   0.00  -0.00    -0.13   0.11  -0.15
  28   1    -0.00  -0.00  -0.00    -0.53  -0.80  -0.16     0.01   0.01   0.00
  29   1    -0.00  -0.00   0.00    -0.00   0.00  -0.00    -0.02  -0.03  -0.00
  30   1    -0.00   0.00   0.00     0.00  -0.00  -0.00    -0.00   0.00   0.00
  31   1     0.00  -0.00   0.00     0.00   0.00   0.00     0.00   0.00   0.00
  32   1     0.00  -0.00   0.00    -0.00   0.00   0.00     0.00  -0.00  -0.00
  33   1    -0.00  -0.00  -0.00    -0.00  -0.00  -0.00     0.00   0.00   0.00
  34   1     0.00  -0.00  -0.00     0.00  -0.00  -0.00    -0.00  -0.00  -0.00
  35   1    -0.00   0.00  -0.00    -0.00   0.00   0.00     0.00  -0.00   0.00
  36   1     0.00  -0.01  -0.00    -0.00  -0.00  -0.00    -0.00  -0.00  -0.00
  37   1     0.01   0.01   0.00    -0.00  -0.00  -0.00     0.00   0.00   0.00
  38   1     0.45  -0.82  -0.25    -0.00   0.00   0.00     0.00  -0.00  -0.00
  39   1     0.00   0.00  -0.00    -0.00  -0.00   0.00    -0.00  -0.00   0.00
  40   1     0.00  -0.00  -0.00    -0.00  -0.00   0.00    -0.00  -0.00   0.00
  41   1     0.00   0.00   0.00     0.00  -0.00   0.00     0.00  -0.00   0.01
  42   1     0.00  -0.00  -0.00    -0.00   0.00   0.00    -0.00   0.00   0.00
  43   1     0.00   0.00   0.00    -0.00  -0.00  -0.00    -0.00  -0.00  -0.00
  44   1     0.00  -0.00  -0.00    -0.00   0.00   0.00    -0.00   0.00   0.00
  45   1     0.00  -0.00   0.00     0.00   0.00   0.00     0.00   0.00  -0.00
  46   1     0.00   0.00  -0.00     0.00   0.00  -0.00     0.00   0.00  -0.00
  47   1     0.00  -0.00  -0.00    -0.00   0.00   0.00    -0.00   0.00   0.00
  48   1     0.00   0.00   0.00    -0.00  -0.00  -0.00    -0.00   0.00  -0.00
  49   1     0.00  -0.00  -0.00    -0.00   0.00   0.00    -0.00   0.00   0.00
  50   1    -0.00  -0.00  -0.00     0.00   0.00   0.00     0.00   0.01  -0.01
  51   1     0.00  -0.00  -0.00    -0.00   0.00   0.00     0.00  -0.00  -0.00
  52   1     0.00  -0.00  -0.00     0.00   0.00   0.00    -0.00   0.00   0.00
  53   1     0.00   0.00  -0.00    -0.00  -0.00   0.00     0.00  -0.00  -0.00
  54   1     0.00   0.00   0.00    -0.00  -0.00  -0.00    -0.00  -0.00  -0.00
  55   1     0.00  -0.00  -0.00    -0.00   0.00   0.00    -0.00  -0.00   0.00
  56   1    -0.00   0.00   0.00    -0.00  -0.00  -0.00     0.00   0.00  -0.00
  57   1     0.00   0.00  -0.00    -0.00  -0.00   0.00    -0.00  -0.00  -0.00
  58   1    -0.00  -0.00  -0.00    -0.00  -0.00  -0.00     0.00   0.00   0.00
  59   1    -0.00  -0.00  -0.00    -0.00   0.00  -0.00    -0.02   0.01  -0.02
  60   8     0.00  -0.00   0.00    -0.00   0.00   0.00    -0.00   0.07   0.03
  61   1    -0.00   0.00  -0.00     0.01  -0.00   0.01     0.53  -0.43   0.61
  62   1    -0.00   0.00   0.00     0.00  -0.00  -0.00     0.01  -0.30  -0.10
  63   7    -0.00   0.00  -0.00     0.00   0.00   0.00    -0.00   0.00  -0.00
  64   6    -0.00   0.01   0.00    -0.00   0.00   0.00    -0.00  -0.00   0.00
  65   8     0.00  -0.01  -0.00     0.00  -0.00  -0.00     0.00   0.00  -0.00
  66   6     0.00  -0.00   0.00    -0.00  -0.00   0.00    -0.00   0.00  -0.00
  67   6    -0.01  -0.01  -0.00    -0.00   0.00   0.00    -0.00  -0.00   0.00
  68   8     0.01   0.00   0.00    -0.00  -0.00  -0.00     0.00   0.00   0.00
  69   1     0.00   0.00  -0.00     0.00   0.00   0.00     0.00  -0.00   0.00
  70   1     0.00  -0.00   0.00     0.00  -0.00  -0.00     0.00  -0.00  -0.00
  71   1    -0.00   0.00  -0.00    -0.00  -0.00   0.00     0.00   0.00   0.00
  72   7    -0.12   0.22   0.07     0.00  -0.00  -0.00    -0.00   0.00   0.00
  73   6    -0.00   0.01   0.00     0.00   0.00   0.00    -0.00  -0.00   0.00
  74   1     0.01   0.00   0.00    -0.00  -0.00  -0.00     0.00   0.00   0.00
  75   1    -0.00   0.00  -0.01    -0.00   0.00   0.00    -0.00   0.00  -0.00
  76   1     0.01  -0.02  -0.01    -0.00  -0.00  -0.00    -0.00  -0.00   0.00
                    217                    218                    219
                        a                      a                      a 
 Frequencies --  3446.4660              3459.9834              3482.0155
 Red. masses --     1.8677                 1.8459                 1.8601
 Frc consts  --     0.0000                 0.0000                 0.0000
 IR Inten    --   209.6974                13.4342                 7.8869
 Raman Activ --     0.0000                 0.0000                 0.0000
 Depolar     --     0.0000                 0.0000                 0.0000
 Atom AN      X      Y      Z        X      Y      Z        X      Y      Z
   1   7    -0.00   0.00  -0.00     0.00   0.00  -0.00     0.00   0.00   0.00
   2   6     0.00  -0.00  -0.00    -0.00  -0.00  -0.00    -0.00   0.00   0.00
   3   6    -0.00  -0.00  -0.00     0.00   0.00   0.00     0.00  -0.00  -0.00
   4   6     0.00  -0.00  -0.00    -0.00  -0.00   0.00    -0.00  -0.00  -0.00
   5   6     0.00   0.00   0.00     0.00   0.00  -0.00     0.00  -0.00  -0.00
   6   6     0.00  -0.00  -0.00    -0.00   0.00   0.00    -0.00   0.00   0.00
   7   6    -0.00  -0.00  -0.00    -0.00   0.00   0.00     0.00   0.00   0.00
   8   6    -0.00  -0.00  -0.00    -0.00  -0.00   0.00    -0.00   0.00   0.00
   9   6    -0.00  -0.00  -0.00    -0.00  -0.00  -0.00     0.00  -0.00  -0.00
  10   6    -0.00   0.00   0.00    -0.00   0.00   0.00     0.00   0.00  -0.00
  11   6    -0.00   0.00  -0.00    -0.00  -0.00   0.00     0.00  -0.00  -0.00
  12   6     0.00   0.00   0.00    -0.00   0.00  -0.00     0.00   0.00   0.00
  13   6     0.00  -0.00   0.00     0.00  -0.00   0.00     0.00  -0.00  -0.00
  14   6    -0.00  -0.00  -0.00     0.00  -0.00   0.00     0.00   0.00   0.00
  15   6     0.00  -0.00  -0.00     0.00  -0.00  -0.00    -0.00  -0.00  -0.00
  16   8    -0.00  -0.00  -0.00    -0.00  -0.00  -0.00     0.00   0.00   0.00
  17   7     0.00   0.00   0.00    -0.00   0.00   0.00    -0.02   0.08   0.24
  18   6     0.00  -0.00   0.00    -0.00   0.00   0.00    -0.00   0.00   0.00
  19   6    -0.00   0.00   0.00     0.00   0.00   0.00     0.00  -0.00  -0.00
  20   6     0.00   0.00   0.00    -0.00  -0.00  -0.00    -0.00  -0.00  -0.00
  21   6    -0.00   0.00   0.00     0.00  -0.00  -0.00    -0.00  -0.00  -0.00
  22   6    -0.00   0.00   0.00    -0.00  -0.00  -0.00    -0.00  -0.00  -0.00
  23   6    -0.00   0.00   0.00     0.00   0.00   0.00     0.00   0.00   0.01
  24   6    -0.00  -0.00   0.00     0.00   0.00   0.00     0.00   0.00   0.00
  25   6    -0.00  -0.00  -0.00     0.00   0.00   0.00     0.00  -0.00  -0.00
  26   6    -0.00  -0.00   0.00    -0.00   0.00  -0.00    -0.00   0.00  -0.00
  27   8     0.04  -0.04   0.06     0.00  -0.00  -0.00    -0.00   0.00  -0.00
  28   1    -0.00  -0.00   0.00    -0.00  -0.00  -0.00    -0.00  -0.00  -0.00
  29   1     0.00   0.01  -0.00     0.00   0.00   0.00    -0.00  -0.00  -0.00
  30   1    -0.00   0.00   0.00    -0.00   0.00  -0.00    -0.00   0.00   0.00
  31   1    -0.00   0.00   0.00    -0.00  -0.00  -0.00     0.00   0.00   0.00
  32   1    -0.00   0.00   0.00     0.00  -0.00  -0.00     0.00  -0.00  -0.00
  33   1     0.00   0.00   0.00    -0.00  -0.00  -0.00    -0.00  -0.00  -0.00
  34   1    -0.00   0.00   0.00     0.00   0.00   0.00     0.00  -0.00  -0.00
  35   1     0.00  -0.00   0.00     0.00  -0.00   0.00     0.00  -0.00   0.00
  36   1     0.00   0.00   0.00     0.00   0.00   0.01    -0.00   0.00   0.00
  37   1     0.00   0.00   0.00     0.60   0.58   0.49    -0.00  -0.00  -0.00
  38   1    -0.00   0.00  -0.00    -0.00   0.01   0.00    -0.00   0.00   0.00
  39   1     0.00   0.00  -0.00     0.00  -0.00  -0.00    -0.00  -0.00   0.00
  40   1    -0.00   0.00  -0.00     0.00   0.00  -0.00     0.00  -0.00  -0.00
  41   1    -0.00  -0.00  -0.00     0.00   0.00   0.00    -0.00   0.00   0.00
  42   1    -0.00   0.00   0.00    -0.00   0.00   0.00    -0.00   0.00   0.00
  43   1    -0.00   0.00  -0.00    -0.00  -0.00  -0.00     0.00  -0.00   0.00
  44   1    -0.00   0.00   0.00     0.00   0.00   0.00     0.00  -0.00  -0.00
  45   1     0.01  -0.00   0.00    -0.00   0.00  -0.00    -0.00   0.00  -0.00
  46   1    -0.00  -0.00   0.00    -0.00  -0.00   0.00     0.00   0.00  -0.00
  47   1    -0.00   0.00   0.00    -0.00   0.00   0.00    -0.00   0.00   0.00
  48   1    -0.00  -0.00  -0.00    -0.00  -0.00  -0.00     0.00  -0.00   0.00
  49   1     0.00  -0.00  -0.00     0.00  -0.00  -0.00     0.06  -0.31  -0.91
  50   1     0.01   0.03  -0.01    -0.00  -0.00   0.00     0.00  -0.00  -0.00
  51   1     0.00  -0.00  -0.00    -0.00   0.00   0.00     0.00  -0.00  -0.00
  52   1     0.00  -0.00  -0.01     0.00   0.00   0.00     0.00   0.00   0.00
  53   1     0.00  -0.00  -0.00    -0.00  -0.00   0.00    -0.00  -0.00  -0.00
  54   1     0.00   0.00   0.00    -0.00  -0.00  -0.00     0.00   0.00  -0.00
  55   1    -0.00  -0.00   0.00     0.00  -0.00  -0.00     0.00  -0.00  -0.00
  56   1    -0.00   0.00   0.00    -0.00  -0.00   0.00    -0.00  -0.00   0.00
  57   1     0.00   0.00  -0.00    -0.00  -0.00   0.00    -0.00   0.00  -0.00
  58   1     0.00   0.00   0.00    -0.00   0.00   0.00     0.00  -0.00   0.00
  59   1     0.02  -0.00  -0.02    -0.00   0.00   0.00     0.00   0.00  -0.00
  60   8    -0.01   0.21   0.07     0.00  -0.00  -0.00    -0.00  -0.00   0.00
  61   1    -0.18   0.15  -0.22    -0.00   0.00  -0.00     0.00  -0.00   0.00
  62   1     0.04  -0.87  -0.28    -0.00   0.00   0.00    -0.00   0.00   0.00
  63   7    -0.00  -0.00  -0.00    -0.16  -0.15  -0.13     0.00   0.00   0.00
  64   6     0.00  -0.00  -0.00     0.00  -0.00  -0.00    -0.00  -0.00   0.00
  65   8    -0.00   0.00   0.00     0.00   0.00  -0.00     0.00  -0.00  -0.00
  66   6     0.00  -0.00   0.00    -0.00  -0.00  -0.00     0.00   0.00   0.00
  67   6    -0.00  -0.00  -0.00    -0.01  -0.00  -0.01    -0.00  -0.00   0.00
  68   8     0.00   0.00   0.00     0.00   0.00   0.00     0.00   0.00   0.00
  69   1     0.00   0.00  -0.00     0.00   0.00  -0.00    -0.00  -0.00   0.00
  70   1    -0.00   0.00   0.00    -0.00   0.00   0.00     0.00  -0.00  -0.00
  71   1     0.00   0.00  -0.00    -0.00   0.00   0.00     0.00   0.00   0.00
  72   7     0.00  -0.00   0.00     0.00  -0.00  -0.00     0.00  -0.00  -0.00
  73   6    -0.00  -0.00  -0.00    -0.00  -0.00  -0.00    -0.00  -0.00   0.00
  74   1     0.00   0.00   0.00     0.00   0.00   0.00     0.00   0.00   0.00
  75   1    -0.00  -0.00   0.00    -0.00  -0.00   0.00     0.00   0.00  -0.00
  76   1    -0.00   0.00  -0.00    -0.00   0.00   0.00    -0.00   0.00  -0.00
                    220                    221                    222
                        a                      a                      a 
 Frequencies --  3533.6375              3652.7783              3661.2686
 Red. masses --     1.8665                 1.8380                 1.8350
 Frc consts  --     0.0000                 0.0000                 0.0000
 IR Inten    --    12.5623                 8.0886                10.6051
 Raman Activ --     0.0000                 0.0000                 0.0000
 Depolar     --     0.0000                 0.0000                 0.0000
 Atom AN      X      Y      Z        X      Y      Z        X      Y      Z
   1   7     0.00   0.00   0.00     0.00   0.00   0.00     0.00  -0.00   0.00
   2   6    -0.00  -0.00  -0.00     0.00  -0.00  -0.00    -0.00   0.00  -0.00
   3   6     0.00  -0.00  -0.00     0.00  -0.00   0.00    -0.00   0.00   0.00
   4   6     0.00  -0.00  -0.00    -0.00  -0.00  -0.00    -0.00  -0.00  -0.00
   5   6     0.00   0.00   0.00    -0.00   0.00   0.00    -0.00   0.00  -0.00
   6   6    -0.00   0.00   0.00     0.00   0.00   0.00    -0.00   0.00   0.00
   7   6    -0.00  -0.00  -0.00     0.00  -0.00   0.00     0.00  -0.00  -0.00
   8   6    -0.00   0.00  -0.00    -0.00   0.00   0.00     0.00   0.00  -0.00
   9   6     0.00  -0.00  -0.00    -0.00   0.00  -0.00     0.00  -0.00   0.00
  10   6    -0.00  -0.00  -0.00     0.00   0.00  -0.00     0.00   0.00  -0.00
  11   6    -0.00   0.00  -0.00     0.00   0.00   0.00     0.00   0.00  -0.00
  12   6     0.00   0.00   0.00    -0.00  -0.00  -0.00     0.00  -0.00   0.00
  13   6    -0.00   0.00  -0.00    -0.00   0.00  -0.00    -0.00  -0.00  -0.00
  14   6    -0.00   0.00   0.00    -0.00   0.00  -0.00     0.00  -0.00  -0.00
  15   6    -0.00  -0.00  -0.00    -0.00   0.00   0.00     0.00   0.00   0.00
  16   8    -0.15  -0.18  -0.02     0.00   0.00   0.00     0.00   0.00   0.00
  17   7    -0.00   0.00   0.00    -0.00   0.00  -0.00     0.00  -0.00  -0.00
  18   6     0.00  -0.00  -0.00     0.00   0.00   0.00    -0.00   0.00   0.00
  19   6    -0.00  -0.00  -0.00     0.00   0.00   0.00     0.00   0.00  -0.00
  20   6    -0.00   0.00   0.00     0.00  -0.00  -0.00     0.00   0.00   0.00
  21   6    -0.00  -0.00  -0.00    -0.00   0.00   0.00     0.00  -0.00  -0.00
  22   6     0.00   0.00  -0.00     0.00  -0.00  -0.00    -0.00   0.00   0.00
  23   6     0.00  -0.00  -0.00     0.00  -0.00   0.00    -0.00   0.00   0.00
  24   6     0.00  -0.00  -0.00    -0.00  -0.00  -0.00     0.00   0.00   0.00
  25   6     0.00   0.00   0.00    -0.00  -0.00  -0.00     0.00  -0.00  -0.00
  26   6    -0.00   0.00   0.00    -0.00  -0.00  -0.00    -0.00  -0.00  -0.00
  27   8    -0.00   0.00  -0.01     0.01   0.00  -0.02     0.12   0.02  -0.20
  28   1    -0.00   0.00  -0.00    -0.00  -0.00  -0.00     0.00  -0.00  -0.00
  29   1     0.61   0.75   0.11    -0.00  -0.00  -0.00    -0.00  -0.00  -0.00
  30   1    -0.00   0.00   0.00    -0.00   0.00   0.00     0.00   0.00  -0.00
  31   1     0.00   0.00   0.00     0.00   0.00   0.00     0.00   0.00   0.00
  32   1     0.00  -0.00  -0.00    -0.00  -0.00  -0.00     0.00  -0.00  -0.00
  33   1     0.00   0.00   0.00    -0.00   0.00   0.00     0.00   0.00   0.00
  34   1    -0.00  -0.00  -0.00     0.00   0.00   0.00     0.00  -0.00   0.00
  35   1     0.00  -0.00   0.00     0.00   0.00   0.00     0.00  -0.00   0.00
  36   1     0.00   0.00   0.00    -0.00   0.00   0.00     0.00  -0.00   0.00
  37   1    -0.00  -0.00  -0.00    -0.00  -0.00   0.00    -0.00  -0.00   0.00
  38   1     0.00  -0.00  -0.00    -0.00   0.00   0.00     0.00  -0.00   0.00
  39   1     0.00   0.00  -0.00    -0.00  -0.00   0.00    -0.00  -0.00   0.00
  40   1     0.00   0.00  -0.00    -0.00  -0.00   0.00    -0.00   0.00  -0.00
  41   1    -0.00  -0.00  -0.00    -0.00   0.00   0.00     0.00   0.00  -0.00
  42   1    -0.00  -0.00   0.00     0.00  -0.00  -0.00    -0.00   0.00   0.00
  43   1     0.00   0.00   0.00     0.00  -0.00   0.00     0.00  -0.00   0.00
  44   1     0.00  -0.00  -0.00     0.00  -0.00  -0.00    -0.00   0.00   0.00
  45   1    -0.00   0.00  -0.00    -0.00   0.00   0.00     0.00  -0.00  -0.00
  46   1    -0.00  -0.00   0.00     0.00   0.00  -0.00     0.00   0.00   0.00
  47   1    -0.00  -0.00  -0.00    -0.00  -0.00  -0.00     0.00   0.00  -0.00
  48   1     0.00   0.00  -0.00     0.00  -0.00   0.00     0.00   0.00   0.00
  49   1     0.00  -0.00  -0.00    -0.00   0.00   0.00    -0.00  -0.00  -0.00
  50   1     0.00   0.00  -0.00     0.45  -0.05  -0.85    -0.05   0.01   0.10
  51   1    -0.00   0.00   0.00     0.00  -0.00  -0.00     0.00  -0.00  -0.00
  52   1     0.00  -0.00   0.00     0.00   0.00   0.00    -0.00  -0.00  -0.00
  53   1    -0.00  -0.00   0.00     0.00  -0.00   0.00     0.00  -0.00  -0.00
  54   1    -0.00  -0.00  -0.00     0.00   0.00   0.00    -0.00  -0.00  -0.00
  55   1     0.00  -0.00   0.00    -0.00   0.00   0.00     0.00  -0.00  -0.00
  56   1     0.00   0.00   0.00    -0.00  -0.00  -0.00    -0.00  -0.00  -0.00
  57   1     0.00   0.00  -0.00     0.00  -0.00   0.00    -0.00   0.00  -0.00
  58   1     0.00  -0.00   0.00     0.00  -0.00   0.00     0.00   0.00   0.00
  59   1    -0.00  -0.00   0.00    -0.06  -0.01   0.10    -0.48  -0.09   0.83
  60   8    -0.00   0.00   0.00    -0.11   0.01   0.21     0.01   0.01  -0.02
  61   1     0.02  -0.02   0.02    -0.00   0.00  -0.01     0.01   0.01  -0.03
  62   1     0.00  -0.01  -0.00    -0.01   0.02   0.03     0.01  -0.03  -0.01
  63   7     0.00   0.00   0.00     0.00  -0.00  -0.00     0.00   0.00  -0.00
  64   6    -0.00  -0.00   0.00    -0.00   0.00   0.00    -0.00  -0.00   0.00
  65   8     0.00   0.00  -0.00     0.00  -0.00  -0.00     0.00   0.00  -0.00
  66   6     0.00   0.00  -0.00     0.00   0.00  -0.00     0.00   0.00  -0.00
  67   6    -0.00  -0.00  -0.00    -0.00   0.00   0.00     0.00  -0.00   0.00
  68   8     0.00   0.00   0.00    -0.00  -0.00  -0.00     0.00   0.00  -0.00
  69   1    -0.00  -0.00  -0.00    -0.00  -0.00   0.00    -0.00  -0.00   0.00
  70   1    -0.00  -0.00   0.00     0.00  -0.00  -0.00     0.00  -0.00  -0.00
  71   1    -0.00   0.00  -0.00    -0.00   0.00   0.00     0.00   0.00   0.00
  72   7     0.00   0.00   0.00     0.00  -0.00  -0.00    -0.00   0.00  -0.00
  73   6    -0.00  -0.00   0.00     0.00  -0.00   0.00    -0.00  -0.00   0.00
  74   1     0.00  -0.00  -0.00    -0.00   0.00  -0.00     0.00   0.00   0.00
  75   1    -0.00  -0.00  -0.00    -0.00   0.00  -0.00     0.00   0.00   0.00
  76   1    -0.00   0.00   0.00    -0.00   0.00   0.00     0.00  -0.00   0.00
