76
 energy: -110.267322846246 gnorm: 0.000416872004 xtb: 6.7.1pre (5071a88)
N            0.07466251599102        0.02894214151180        0.25145594278632
C            1.45070524233188       -0.16690658617677        0.25419384835811
C            2.28703801166240        0.53273804643356        1.12478834998063
C            3.65467405914656        0.36637442700936        1.06192681768154
C            4.22902328724194       -0.51008862715926        0.14806905582279
C            3.38700673109183       -1.27452242931153       -0.65052420332000
C            2.01663222107179       -1.11542513790546       -0.59622215098733
C            5.71547378167938       -0.52312930685673       -0.06056614149563
C            6.11900321476039        0.75419275247455       -0.80722394349048
C           -0.53551477097591        1.26914701700017        0.23303747663970
C            0.04826651357220        2.46930228983376        0.17725534339509
C           -0.74746569999495        3.74904506326394        0.19206406232849
C            0.09494380505899        4.95334845548646       -0.25931503465939
C            0.57920557095980        4.83576353218415       -1.70331224563885
C            1.35242069893024        6.07507529630180       -2.13761513874628
O           -0.84795178310061       -1.00598413550378       -2.37583736019798
N           -1.65785340591920        4.24688492716094        3.75392584354656
C           -2.87646472049415        4.47156006718120        3.18581033544414
C           -2.72263694372354        4.32165222789925        1.78544211099772
C           -1.34823938053108        3.99776573762511        1.54997135748964
C           -4.09558666223690        4.80500301803951        3.75992369170464
C           -3.82888540742649        4.51253114047368        0.95750374876896
C           -0.73422657484355        3.96604002268669        2.77530665200622
C           -5.16940944418437        4.98918223548374        2.91502357243936
C           -5.03573370088807        4.84372722979178        1.53167136927550
C            0.67567341113651        3.69961842690037        3.16597404718077
O            0.46558336485793        1.45069637583715       -2.79570691637930
H           -0.44162556868260       -0.68671822510346       -0.24556456028195
H           -1.10252040511883       -1.42048070407194       -3.20109817032392
H            1.85372638329093        1.20238969371990        1.85024537212258
H            4.29069083056099        0.93343167202435        1.72656864846883
H            3.81061443724317       -1.99763723258370       -1.33450484859580
H            1.37190055168453       -1.70101971083948       -1.23422437936176
H            6.02564819087567       -1.38693593450493       -0.65053499924611
H            6.25378289272663       -0.55261183724221        0.88745382777035
H            6.00972266467660        1.62996459980367       -0.15488285225585
H            4.76339224336216        0.15332637749435       -2.30736920441621
H            7.34868509922653        2.66946810123507       -1.74352010870221
H           -1.61653585465806        1.20342198003120        0.24556380477235
H            1.12392353217794        2.56253156127554        0.15878327516831
H           -1.58874738501308        3.64585441367693       -0.50500215243029
H           -0.51260939974105        5.85735463516766       -0.16964196852605
H            0.95721266171576        5.06681505229158        0.40064959060369
H            1.22909189906804        3.96432389524818       -1.80521989950954
H           -0.28451232203945        4.69848524057146       -2.36070016920851
H            1.66643421972722        5.98709862918784       -3.17534774580856
H            0.73588190624622        6.96573576868749       -2.03920661030173
H            2.24004824940983        6.20248012977950       -1.52272432437041
H           -1.45203673925834        4.29382414566364        4.73706614937648
H           -0.97394533576711        6.47093527219783        2.03363768546872
H           -4.19525026274725        4.91707080355351        4.82936963826606
H           -3.74231975651719        4.40586225322625       -0.11386034427788
H           -6.13286961198996        5.25059817956765        3.32623920215783
H           -5.90187692644733        4.99611706343017        0.90468794079271
H            1.30720566016787        3.61742743345295        2.28851187883673
H            1.05234767999478        4.50771609304313        3.79367061259615
H            0.74417549117085        2.77037441781496        3.73364689599587
H            0.08235687981970        2.11606303513054       -3.37151812279051
H            0.35057259952588        1.76959263694522       -1.88671827781951
O           -1.36052291874931        7.27100569481713        2.40212892197997
H           -0.33777804335911       -0.21248473028475       -2.60779406359093
H           -2.30955944380234        7.12844391233360        2.42111907710377
N            5.23673015727549        0.96540840221911       -1.94323814475381
C            7.58260559242535        0.70109670997196       -1.29195925201465
O            8.25131910985587       -0.31142283423772       -1.28101324333755
C            3.80369104252043        2.19712074687854       -3.42403095179885
C            4.88913207911704        2.19214490447807       -2.37507920137169
O            5.42938520374423        3.20318222031297       -1.95631463424680
H            4.14159975487515        1.66001583178760       -4.30764377284344
H            3.57358663532348        3.22311722196512       -3.69675601102522
H            2.90742077207201        1.70938464818722       -3.04458158153775
N            8.00804379910175        1.89771080290634       -1.72663310542294
C            9.32152573663119        2.10296876283440       -2.28418677904041
H            9.85081291309937        2.88180286304282       -1.73286983112651
H            9.25603182430057        2.39350617725706       -3.33475742118767
H            9.86806734601741        1.16460501813134       -2.20186628109502
