      -----------------------------------------------------------      
     |                   =====================                   |     
     |                           x T B                           |     
     |                   =====================                   |     
     |                         S. Grimme                         |     
     |          Mulliken Center for Theoretical Chemistry        |     
     |                    University of Bonn                     |     
      -----------------------------------------------------------      

   * xtb version 6.7.1pre (5071a88) compiled by 'Marcel@Raven' on 2024-07-23

   xtb is free software: you can redistribute it and/or modify it under
   the terms of the GNU Lesser General Public License as published by
   the Free Software Foundation, either version 3 of the License, or
   (at your option) any later version.
   
   xtb is distributed in the hope that it will be useful,
   but WITHOUT ANY WARRANTY; without even the implied warranty of
   MERCHANTABILITY or FITNESS FOR A PARTICULAR PURPOSE.  See the
   GNU Lesser General Public License for more details.
   
   Cite this work as:
   * C. Bannwarth, E. Caldeweyher, S. Ehlert, A. Hansen, P. Pracht,
     J. Seibert, S. Spicher, S. Grimme, WIREs Comput. Mol. Sci., 2020, 11,
     e01493. DOI: 10.1002/wcms.1493
   
   for GFN2-xTB:
   * C. Bannwarth, S. Ehlert and S. Grimme., J. Chem. Theory Comput., 2019,
     15, 1652-1671. DOI: 10.1021/acs.jctc.8b01176
   for GFN1-xTB:
   * S. Grimme, C. Bannwarth, P. Shushkov, J. Chem. Theory Comput., 2017,
     13, 1989-2009. DOI: 10.1021/acs.jctc.7b00118
   for GFN0-xTB:
   * P. Pracht, E. Caldeweyher, S. Ehlert, S. Grimme, ChemRxiv, 2019, preprint.
     DOI: 10.26434/chemrxiv.8326202.v1
   for GFN-FF:
   * S. Spicher and S. Grimme, Angew. Chem. Int. Ed., 2020, 59, 15665-15673.
     DOI: 10.1002/anie.202004239
   
   for ALPB and GBSA implicit solvation:
   * S. Ehlert, M. Stahn, S. Spicher, S. Grimme, J. Chem. Theory Comput.,
     2021, 17, 4250-4261. DOI: 10.1021/acs.jctc.1c00471
   
   for ddCOSMO and CPCM-X implicit solvation:
   * M. Stahn, S. Ehlert, S. Grimme, J. Phys. Chem. A,
     2023, XX, XXXX-XXXX. DOI: 10.1021/acs.jpca.3c04382
   
   for DFT-D4:
   * E. Caldeweyher, C. Bannwarth and S. Grimme, J. Chem. Phys., 2017,
     147, 034112. DOI: 10.1063/1.4993215
   * E. Caldeweyher, S. Ehlert, A. Hansen, H. Neugebauer, S. Spicher,
     C. Bannwarth and S. Grimme, J. Chem. Phys., 2019, 150, 154122.
     DOI: 10.1063/1.5090222
   * E. Caldeweyher, J.-M. Mewes, S. Ehlert and S. Grimme, Phys. Chem. Chem. Phys.
     2020, 22, 8499-8512. DOI: 10.1039/D0CP00502A
   
   for sTDA-xTB:
   * S. Grimme and C. Bannwarth, J. Chem. Phys., 2016, 145, 054103.
     DOI: 10.1063/1.4959605
   
   in the mass-spec context:
   * V. Asgeirsson, C. Bauer and S. Grimme, Chem. Sci., 2017, 8, 4879.
     DOI: 10.1039/c7sc00601b
   * J. Koopman and S. Grimme, ACS Omega 2019, 4, 12, 15120-15133.
     DOI: 10.1021/acsomega.9b02011
   
   for metadynamics refer to:
   * S. Grimme, J. Chem. Theory Comput., 2019, 155, 2847-2862
     DOI: 10.1021/acs.jctc.9b00143
   
   for SPH calculations refer to:
   * S. Spicher and S. Grimme, J. Chem. Theory Comput., 2021, 17, 1701-1714
     DOI: 10.1021/acs.jctc.0c01306
   
   for ONIOM refer to:
   * C. Plett, A. Katbashev, S. Ehlert, S. Grimme, M. Bursch,
     Phys. Chem. Chem. Phys., 2023, 25, 17860-17868. DOI: 10.1039/D3CP02178E
   
   for DIPRO refer to:
   * J. Kohn, N. Gildemeister, S. Grimme, D. Fazzi, A. Hansen,
     J. Chem. Phys., 2023, just accepted.
   
   for PTB refer to:
   * S. Grimme, M. Mueller, A. Hansen, J. Chem. Phys., 2023, 158, 124111.
     DOI: 10.1063/5.0137838
   
   with help from (in alphabetical order)
   P. Atkinson, C. Bannwarth, F. Bohle, G. Brandenburg, E. Caldeweyher
   M. Checinski, S. Dohm, S. Ehlert, S. Ehrlich, I. Gerasimov, C. Hölzer
   A. Katbashev, J. Kohn, J. Koopman, C. Lavigne, S. Lehtola, F. März, M. Müller,
   F. Musil, H. Neugebauer, J. Pisarek, C. Plett, P. Pracht, F. Pultar,
   J. Seibert, P. Shushkov, S. Spicher, M. Stahn, M. Steiner, T. Strunk,
   J. Stückrath, T. Rose, and J. Unsleber
   
 * started run on 2026/08/20 at 20:33:20.839     
   ID    Z sym.   atoms
    1    7 N      1, 17, 63, 72
    2    6 C      2-15, 18-26, 64, 66, 67, 73
    3    8 O      16, 27, 60, 65, 68
    4    1 H      28-59, 61, 62, 69-71, 74-76

           -------------------------------------------------
          |                Calculation Setup                |
           -------------------------------------------------

          program call               : C:\Users\Nayanika\Downloads\xtb-6.7.1pre-windows-x86_64\xtb-6.7.1\bin\xtb.exe D:\PhD_Thesis\LmrR_EVB\charges\fast_lmrr_5QM\xtb_preparation\stage2_five_xtb_protocols\GFN2_etemp300\TS2_1a_to_PS2_2\TS2_1a_to_PS2_2_PS_xtbopt.xyz --gfn 2 --chrg 0 --uhf 0 --hess --etemp 300
          coordinate file            : D:\PhD_Thesis\LmrR_EVB\charges\fast_lmrr_5QM\xtb_preparation\stage2_five_xtb_protocols\GFN2_etemp300\TS2_1a_to_PS2_2\TS2_1a_to_PS2_2_PS_xtbopt.xyz
          omp threads                :                     8


molecular fragmentation (1/2 indicates fragments):
111111111111111111111111112111111111111111111111121111111122221111111111
1111
# atoms in fragment 1/2:    70     6
 fragment masses (1/2) :      464.60       36.03
CMA distance (Bohr)    :   9.651
constraining FC (au)   :  0.0500

           -------------------------------------------------
          |                 G F N 2 - x T B                 |
           -------------------------------------------------

        Reference                      10.1021/acs.jctc.8b01176
      * Hamiltonian:
        H0-scaling (s, p, d)           1.850000    2.230000    2.230000
        zeta-weighting                 0.500000
      * Dispersion:
        s8                             2.700000
        a1                             0.520000
        a2                             5.000000
        s9                             5.000000
      * Repulsion:
        kExp                           1.500000    1.000000
        rExp                           1.000000
      * Coulomb:
        alpha                          2.000000
        third order                    shell-resolved
        anisotropic                    true
        a3                             3.000000
        a5                             4.000000
        cn-shift                       1.200000
        cn-exp                         4.000000
        max-rad                        5.000000

q/qsh data taken from xtbrestart
CAMM data taken from xtbrestart

          ...................................................
          :                      SETUP                      :
          :.................................................:
          :  # basis functions                 184          :
          :  # atomic orbitals                 184          :
          :  # shells                          112          :
          :  # electrons                       198          :
          :  max. iterations                   250          :
          :  Hamiltonian                  GFN2-xTB          :
          :  restarted?                       true          :
          :  GBSA solvation                  false          :
          :  PC potential                    false          :
          :  electronic temp.          300.0000000     K    :
          :  accuracy                    1.0000000          :
          :  -> integral cutoff          0.2500000E+02      :
          :  -> integral neglect         0.1000000E-07      :
          :  -> SCF convergence          0.1000000E-05 Eh   :
          :  -> wf. convergence          0.1000000E-03 e    :
          :  Broyden damping             0.4000000          :
          :  net charge                          0          :
          :  unpaired electrons                  0          :
          ...................................................

 iter      E             dE          RMSdq      gap      omega  full diag
   1   -111.8266557 -0.111827E+03  0.614E-07    3.38       0.0  T
   2   -111.8266557 -0.994760E-13  0.411E-07    3.38   27895.8  T
   3   -111.8266557 -0.213163E-12  0.252E-07    3.38   45448.8  T

   *** convergence criteria satisfied after 3 iterations ***

         #    Occupation            Energy/Eh            Energy/eV
      -------------------------------------------------------------
         1        2.0000           -0.7127120             -19.3939
       ...           ...                  ...                  ...
        93        2.0000           -0.4051157             -11.0238
        94        2.0000           -0.4032207             -10.9722
        95        2.0000           -0.3984331             -10.8419
        96        2.0000           -0.3856786             -10.4948
        97        2.0000           -0.3769005             -10.2560
        98        2.0000           -0.3748367             -10.1998
        99        2.0000           -0.3553334              -9.6691 (HOMO)
       100                         -0.2310179              -6.2863 (LUMO)
       101                         -0.2289689              -6.2306
       102                         -0.2253001              -6.1307
       103                         -0.2177952              -5.9265
       104                         -0.2070190              -5.6333
       ...                                ...                  ...
       184                          0.7223619              19.6565
      -------------------------------------------------------------
                  HL-Gap            0.1243155 Eh            3.3828 eV
             Fermi-level           -0.2931756 Eh           -7.9777 eV

 SCC (total)                   0 d,  0 h,  0 min,  0.070 sec
 SCC setup                      ...        0 min,  0.000 sec (  0.000%)
 Dispersion                     ...        0 min,  0.000 sec (  0.000%)
 classical contributions        ...        0 min,  0.000 sec (  0.000%)
 integral evaluation            ...        0 min,  0.011 sec ( 15.714%)
 iterations                     ...        0 min,  0.051 sec ( 72.857%)
 molecular gradient             ...        0 min,  0.008 sec ( 11.429%)
 printout                       ...        0 min,  0.000 sec (  0.000%)

         :::::::::::::::::::::::::::::::::::::::::::::::::::::
         ::                     SUMMARY                     ::
         :::::::::::::::::::::::::::::::::::::::::::::::::::::
         :: total energy            -110.294626168828 Eh    ::
         :: gradient norm              0.000238149477 Eh/a0 ::
         :: HOMO-LUMO gap              3.382796138754 eV    ::
         ::.................................................::
         :: SCC energy              -111.824012525832 Eh    ::
         :: -> isotropic ES            0.184489118490 Eh    ::
         :: -> anisotropic ES          0.006947929084 Eh    ::
         :: -> anisotropic XC          0.040847578950 Eh    ::
         :: -> dispersion             -0.082139477451 Eh    ::
         :: repulsion energy           1.529386357004 Eh    ::
         :: add. restraining           0.000000000000 Eh    ::
         :: total charge               0.000000000000 e     ::
         :::::::::::::::::::::::::::::::::::::::::::::::::::::

           ------------------------------------------------- 
          |                Numerical Hessian                |
           ------------------------------------------------- 
step length          :   0.00500
SCC accuracy         :   0.30000
Hessian scale factor :   1.00000
frozen atoms in %    :   0.00000    0
RMS gradient         :   0.00024
estimated CPU  time     11.19 min
estimated wall time      1.62 min

writing file <hessian>.

 projected vibrational frequencies (cm⁻¹)
eigval :       -0.00    -0.00    -0.00     0.00     0.00     0.00
eigval :        4.10     9.87    18.66    21.99    25.17    27.64
eigval :       35.46    38.68    41.26    48.22    51.73    55.83
eigval :       61.85    64.02    68.39    69.87    71.64    85.05
eigval :       88.82    98.54   109.63   122.76   124.32   125.66
eigval :      141.66   143.30   151.77   165.20   167.11   172.93
eigval :      186.83   188.97   194.16   222.50   237.21   238.42
eigval :      240.02   252.14   270.72   287.08   289.11   291.68
eigval :      304.07   311.44   321.68   347.97   362.09   379.62
eigval :      385.30   398.27   411.11   415.22   420.20   442.40
eigval :      443.90   452.64   462.45   470.02   481.21   489.04
eigval :      495.91   527.70   530.82   543.25   552.83   579.79
eigval :      594.31   601.93   613.19   625.11   631.12   639.11
eigval :      645.82   656.60   689.03   696.38   704.08   725.08
eigval :      751.62   763.18   774.40   787.51   812.65   816.58
eigval :      859.68   864.77   870.07   870.59   872.14   880.01
eigval :      893.68   902.53   912.56   921.45   924.38   927.37
eigval :      932.98   953.14   977.97   991.44   994.03   997.18
eigval :     1005.11  1006.69  1021.47  1029.00  1031.91  1037.83
eigval :     1068.67  1081.22  1086.22  1096.52  1104.80  1110.97
eigval :     1117.25  1121.34  1126.12  1130.63  1140.28  1141.56
eigval :     1164.50  1164.96  1169.04  1177.55  1194.31  1201.91
eigval :     1210.70  1214.16  1218.00  1226.13  1229.47  1238.39
eigval :     1254.07  1258.22  1266.99  1273.53  1277.85  1282.01
eigval :     1288.93  1296.64  1310.12  1317.09  1319.71  1325.81
eigval :     1330.38  1343.62  1344.83  1367.18  1370.54  1373.94
eigval :     1389.58  1393.19  1402.10  1412.81  1415.54  1420.48
eigval :     1430.75  1435.46  1450.58  1456.14  1456.79  1462.54
eigval :     1465.33  1474.89  1474.99  1481.48  1484.65  1492.48
eigval :     1495.20  1496.07  1497.16  1507.89  1509.40  1538.62
eigval :     1566.50  1578.76  1580.55  1595.27  1609.47  1628.82
eigval :     1716.46  1759.52  2872.82  2918.10  2963.13  2971.61
eigval :     2975.01  2983.25  2986.92  2990.36  2990.47  2991.35
eigval :     2994.59  2998.57  3000.23  3015.43  3021.60  3022.52
eigval :     3025.38  3029.35  3030.72  3032.10  3039.36  3057.91
eigval :     3063.86  3069.09  3069.48  3071.33  3076.37  3082.24
eigval :     3088.65  3097.73  3109.64  3318.84  3344.69  3399.95
eigval :     3446.47  3459.98  3482.02  3533.64  3652.78  3661.27
           -------------------------------------------------
          |                Property Printout                |
           -------------------------------------------------

    * Orbital Energies and Occupations

         #    Occupation            Energy/Eh            Energy/eV
      -------------------------------------------------------------
         1        2.0000           -0.7127120             -19.3939
       ...           ...                  ...                  ...
        87        2.0000           -0.4168128             -11.3421
        88        2.0000           -0.4148161             -11.2877
        89        2.0000           -0.4132923             -11.2463
        90        2.0000           -0.4111987             -11.1893
        91        2.0000           -0.4084513             -11.1145
        92        2.0000           -0.4057668             -11.0415
        93        2.0000           -0.4051157             -11.0238
        94        2.0000           -0.4032207             -10.9722
        95        2.0000           -0.3984331             -10.8419
        96        2.0000           -0.3856786             -10.4948
        97        2.0000           -0.3769005             -10.2560
        98        2.0000           -0.3748367             -10.1998
        99        2.0000           -0.3553334              -9.6691 (HOMO)
       100                         -0.2310179              -6.2863 (LUMO)
       101                         -0.2289689              -6.2306
       102                         -0.2253001              -6.1307
       103                         -0.2177952              -5.9265
       104                         -0.2070190              -5.6333
       105                         -0.1926998              -5.2436
       106                         -0.1537984              -4.1851
       107                         -0.1047211              -2.8496
       108                         -0.0668183              -1.8182
       109                          0.0007342               0.0200
       110                          0.0023520               0.0640
       ...                                ...                  ...
       184                          0.7223619              19.6565
      -------------------------------------------------------------
                  HL-Gap            0.1243155 Eh            3.3828 eV
             Fermi-level           -0.2931756 Eh           -7.9777 eV

     #   Z          covCN         q      C6AA      α(0)
     1   7 N        2.685    -0.264    26.831     7.693
     2   6 C        2.907     0.074    26.339     8.415
     3   6 C        2.923    -0.045    29.128     8.851
     4   6 C        2.925    -0.038    28.948     8.823
     5   6 C        2.970     0.005    27.917     8.667
     6   6 C        2.924    -0.043    29.080     8.843
     7   6 C        2.921    -0.051    29.271     8.872
     8   6 C        3.811    -0.071    21.840     6.652
     9   6 C        3.797     0.019    20.253     6.408
    10   6 C        3.663     0.184    17.907     6.070
    11   6 C        3.808    -0.068    21.787     6.645
    12   6 C        3.855    -0.028    21.043     6.524
    13   6 C        3.805    -0.064    21.732     6.637
    14   6 C        3.801    -0.062    21.687     6.630
    15   6 C        3.752    -0.103    22.530     6.769
    16   8 O        1.654    -0.473    22.313     6.377
    17   7 N        2.784    -0.120    23.615     7.217
    18   6 C        3.070     0.041    27.001     8.520
    19   6 C        3.112    -0.025    28.472     8.741
    20   6 C        3.057    -0.050    29.187     8.860
    21   6 C        2.909    -0.055    29.368     8.886
    22   6 C        2.912    -0.049    29.220     8.864
    23   6 C        3.061     0.040    27.045     8.528
    24   6 C        2.924    -0.040    28.982     8.828
    25   6 C        2.919    -0.045    29.116     8.849
    26   6 C        3.754    -0.111    22.689     6.792
    27   8 O        1.610    -0.597    25.113     6.764
    28   1 H        0.860     0.145     1.432     1.875
    29   1 H        0.805     0.292     0.744     1.355
    30   1 H        0.926     0.043     2.410     2.428
    31   1 H        0.926     0.037     2.495     2.470
    32   1 H        0.925     0.031     2.579     2.511
    33   1 H        0.925     0.026     2.638     2.540
    34   1 H        0.924     0.064     2.150     2.293
    35   1 H        0.924     0.060     2.200     2.320
    36   1 H        0.924     0.063     2.165     2.301
    37   1 H        0.860     0.178     1.224     1.733
    38   1 H        0.860     0.206     1.076     1.625
    39   1 H        0.923     0.025     2.661     2.551
    40   1 H        0.924     0.049     2.333     2.388
    41   1 H        0.924     0.063     2.166     2.302
    42   1 H        0.924     0.040     2.451     2.448
    43   1 H        0.924     0.030     2.583     2.513
    44   1 H        0.924     0.021     2.717     2.578
    45   1 H        0.924     0.058     2.217     2.329
    46   1 H        0.925     0.030     2.592     2.517
    47   1 H        0.925     0.035     2.513     2.479
    48   1 H        0.925     0.031     2.578     2.511
    49   1 H        0.860     0.156     1.364     1.829
    50   1 H        0.805     0.274     0.806     1.410
    51   1 H        0.926     0.019     2.747     2.592
    52   1 H        0.926     0.040     2.449     2.447
    53   1 H        0.926     0.024     2.679     2.559
    54   1 H        0.926     0.024     2.668     2.554
    55   1 H        0.925     0.053     2.288     2.365
    56   1 H        0.924     0.051     2.306     2.375
    57   1 H        0.925     0.040     2.442     2.444
    58   1 H        0.925     0.047     2.356     2.400
    59   1 H        0.805     0.283     0.776     1.383
    60   8 O        1.610    -0.600    25.198     6.775
    61   1 H        0.804     0.314     0.681     1.296
    62   1 H        0.804     0.304     0.709     1.323
    63   7 N        2.692    -0.183    24.972     7.422
    64   6 C        2.753     0.263    22.557     7.777
    65   8 O        0.858    -0.436    22.417     6.348
    66   6 C        3.757    -0.143    23.313     6.884
    67   6 C        2.749     0.277    22.305     7.733
    68   8 O        0.859    -0.455    22.812     6.404
    69   1 H        0.925     0.054     2.265     2.354
    70   1 H        0.925     0.061     2.191     2.315
    71   1 H        0.925     0.080     1.983     2.202
    72   7 N        2.686    -0.176    24.808     7.397
    73   6 C        3.690    -0.043    21.529     6.640
    74   1 H        0.924     0.053     2.285     2.364
    75   1 H        0.924     0.050     2.320     2.382
    76   1 H        0.925     0.082     1.955     2.187

 Mol. C6AA /au·bohr⁶  :      55559.873418
 Mol. C8AA /au·bohr⁸  :    1265585.354359
 Mol. α(0) /au        :        361.955592


Wiberg/Mayer (AO) data.
largest (>0.10) Wiberg bond orders for each atom

 ---------------------------------------------------------------------------
     #   Z sym  total        # sym  WBO       # sym  WBO       # sym  WBO
 ---------------------------------------------------------------------------
     1   7 N    3.149 --     2 C    1.045    10 C    0.995    28 H    0.946
     2   6 C    3.974 --     7 C    1.396     3 C    1.378     1 N    1.045
                             5 C    0.101
     3   6 C    3.991 --     4 C    1.465     2 C    1.378    30 H    0.966
                             6 C    0.106
     4   6 C    3.991 --     3 C    1.465     5 C    1.397    31 H    0.968
                             7 C    0.107
     5   6 C    3.987 --     6 C    1.416     4 C    1.397     8 C    1.010
                             2 C    0.101
     6   6 C    3.990 --     7 C    1.442     5 C    1.416    32 H    0.968
                             3 C    0.106
     7   6 C    3.990 --     6 C    1.442     2 C    1.396    33 H    0.968
                             4 C    0.107
     8   6 C    3.991 --     5 C    1.010     9 C    0.984    34 H    0.970
                            35 H    0.961
     9   6 C    3.964 --     8 C    0.984    63 N    0.975    36 H    0.951
                            64 C    0.915
    10   6 C    3.939 --     1 N    0.995    11 C    0.993    39 H    0.956
                            16 O    0.944
    11   6 C    3.991 --    10 C    0.993    12 C    0.980    40 H    0.969
                            58 H    0.967
    12   6 C    3.991 --    20 C    1.005    13 C    0.985    11 C    0.980
                            41 H    0.954
    13   6 C    3.995 --    14 C    1.008    12 C    0.985    42 H    0.977
                            43 H    0.975
    14   6 C    3.995 --    15 C    1.019    13 C    1.008    44 H    0.975
                            45 H    0.972
    15   6 C    3.996 --    14 C    1.019    47 H    0.988    48 H    0.987
                            46 H    0.987
    16   8 O    1.978 --    10 C    0.944    29 H    0.898
    17   7 N    3.527 --    18 C    1.174    23 C    1.172    49 H    0.946
    18   6 C    3.958 --    21 C    1.343    19 C    1.243    17 N    1.174
    19   6 C    3.983 --    22 C    1.331    18 C    1.243    20 C    1.202
    20   6 C    3.971 --    23 C    1.551    19 C    1.202    12 C    1.005
    21   6 C    3.988 --    24 C    1.487    18 C    1.343    51 H    0.969
                            22 C    0.111
    22   6 C    3.989 --    25 C    1.501    19 C    1.331    52 H    0.963
                            21 C    0.111
    23   6 C    3.950 --    20 C    1.551    17 N    1.172    26 C    1.029
    24   6 C    3.988 --    21 C    1.487    25 C    1.374    53 H    0.972
    25   6 C    3.990 --    22 C    1.501    24 C    1.374    54 H    0.972
    26   6 C    3.995 --    23 C    1.029    57 H    0.979    55 H    0.976
                            56 H    0.967
    27   8 O    1.855 --    59 H    0.918    61 H    0.859
    28   1 H    0.978 --     1 N    0.946
    29   1 H    0.914 --    16 O    0.898
    30   1 H    0.998 --     3 C    0.966
    31   1 H    0.998 --     4 C    0.968
    32   1 H    0.999 --     6 C    0.968
    33   1 H    0.999 --     7 C    0.968
    34   1 H    0.996 --     8 C    0.970
    35   1 H    0.995 --     8 C    0.961
    36   1 H    0.996 --     9 C    0.951
    37   1 H    0.968 --    63 N    0.937
    38   1 H    0.958 --    72 N    0.907
    39   1 H    0.999 --    10 C    0.956
    40   1 H    0.997 --    11 C    0.969
    41   1 H    0.996 --    12 C    0.954
    42   1 H    0.998 --    13 C    0.977
    43   1 H    0.999 --    13 C    0.975
    44   1 H    1.000 --    14 C    0.975
    45   1 H    0.996 --    14 C    0.972
    46   1 H    0.999 --    15 C    0.987
    47   1 H    0.999 --    15 C    0.988
    48   1 H    0.999 --    15 C    0.987
    49   1 H    0.975 --    17 N    0.946
    50   1 H    0.925 --    60 O    0.922
    51   1 H    0.999 --    21 C    0.969
    52   1 H    0.998 --    22 C    0.963
    53   1 H    0.999 --    24 C    0.972
    54   1 H    0.999 --    25 C    0.972
    55   1 H    0.996 --    26 C    0.976
    56   1 H    0.993 --    26 C    0.967
    57   1 H    0.997 --    26 C    0.979
    58   1 H    0.998 --    11 C    0.967
    59   1 H    0.920 --    27 O    0.918
    60   8 O    1.824 --    50 H    0.922    62 H    0.871
    61   1 H    0.901 --    27 O    0.859
    62   1 H    0.908 --    60 O    0.871
    63   7 N    3.448 --    67 C    1.266     9 C    0.975    37 H    0.937
                            68 O    0.191
    64   6 C    3.956 --    65 O    1.678    72 N    1.292     9 C    0.915
    65   8 O    2.010 --    64 C    1.678    72 N    0.212
    66   6 C    3.992 --    67 C    0.985    71 H    0.980    69 H    0.974
                            70 H    0.966
    67   6 C    3.949 --    68 O    1.650    63 N    1.266    66 C    0.985
    68   8 O    1.992 --    67 C    1.650    63 N    0.191
    69   1 H    0.997 --    66 C    0.974
    70   1 H    0.996 --    66 C    0.966
    71   1 H    0.993 --    66 C    0.980
    72   7 N    3.467 --    64 C    1.292    73 C    1.006    38 H    0.907
                            65 O    0.212
    73   6 C    3.965 --    72 N    1.006    74 H    0.977    76 H    0.977
                            75 H    0.976
    74   1 H    0.997 --    73 C    0.977
    75   1 H    0.997 --    73 C    0.976
    76   1 H    0.993 --    73 C    0.977
 ---------------------------------------------------------------------------

Topologies differ in total number of bonds
Writing topology from bond orders to xtbtopo.mol

molecular dipole:
                 x           y           z       tot (Debye)
 q only:       -0.004      -0.384       0.831
   full:       -0.427      -0.771       0.962       3.315
molecular quadrupole (traceless):
                xx          xy          yy          xz          yz          zz
 q only:      -15.186      21.146      -8.958      -5.130      15.174      24.144
  q+dip:      -21.521      25.130     -15.081      -8.228      27.780      36.602
   full:      -23.431      24.606     -12.573      -8.469      23.883      36.004

           -------------------------------------------------
          |               Frequency Printout                |
           -------------------------------------------------
 projected vibrational frequencies (cm⁻¹)
eigval :       -0.00    -0.00    -0.00     0.00     0.00     0.00
eigval :        4.10     9.87    18.66    21.99    25.17    27.64
eigval :       35.46    38.68    41.26    48.22    51.73    55.83
eigval :       61.85    64.02    68.39    69.87    71.64    85.05
eigval :       88.82    98.54   109.63   122.76   124.32   125.66
eigval :      141.66   143.30   151.77   165.20   167.11   172.93
eigval :      186.83   188.97   194.16   222.50   237.21   238.42
eigval :      240.02   252.14   270.72   287.08   289.11   291.68
eigval :      304.07   311.44   321.68   347.97   362.09   379.62
eigval :      385.30   398.27   411.11   415.22   420.20   442.40
eigval :      443.90   452.64   462.45   470.02   481.21   489.04
eigval :      495.91   527.70   530.82   543.25   552.83   579.79
eigval :      594.31   601.93   613.19   625.11   631.12   639.11
eigval :      645.82   656.60   689.03   696.38   704.08   725.08
eigval :      751.62   763.18   774.40   787.51   812.65   816.58
eigval :      859.68   864.77   870.07   870.59   872.14   880.01
eigval :      893.68   902.53   912.56   921.45   924.38   927.37
eigval :      932.98   953.14   977.97   991.44   994.03   997.18
eigval :     1005.11  1006.69  1021.47  1029.00  1031.91  1037.83
eigval :     1068.67  1081.22  1086.22  1096.52  1104.80  1110.97
eigval :     1117.25  1121.34  1126.12  1130.63  1140.28  1141.56
eigval :     1164.50  1164.96  1169.04  1177.55  1194.31  1201.91
eigval :     1210.70  1214.16  1218.00  1226.13  1229.47  1238.39
eigval :     1254.07  1258.22  1266.99  1273.53  1277.85  1282.01
eigval :     1288.93  1296.64  1310.12  1317.09  1319.71  1325.81
eigval :     1330.38  1343.62  1344.83  1367.18  1370.54  1373.94
eigval :     1389.58  1393.19  1402.10  1412.81  1415.54  1420.48
eigval :     1430.75  1435.46  1450.58  1456.14  1456.79  1462.54
eigval :     1465.33  1474.89  1474.99  1481.48  1484.65  1492.48
eigval :     1495.20  1496.07  1497.16  1507.89  1509.40  1538.62
eigval :     1566.50  1578.76  1580.55  1595.27  1609.47  1628.82
eigval :     1716.46  1759.52  2872.82  2918.10  2963.13  2971.61
eigval :     2975.01  2983.25  2986.92  2990.36  2990.47  2991.35
eigval :     2994.59  2998.57  3000.23  3015.43  3021.60  3022.52
eigval :     3025.38  3029.35  3030.72  3032.10  3039.36  3057.91
eigval :     3063.86  3069.09  3069.48  3071.33  3076.37  3082.24
eigval :     3088.65  3097.73  3109.64  3318.84  3344.69  3399.95
eigval :     3446.47  3459.98  3482.02  3533.64  3652.78  3661.27
 reduced masses (amu)
   1: 12.17   2: 12.16   3: 12.07   4: 12.01   5: 11.73   6: 11.53   7: 11.41   8: 11.76
   9: 12.44  10: 11.27  11: 11.01  12: 12.13  13: 12.41  14: 11.80  15: 11.47  16: 11.31
  17: 13.08  18:  7.80  19: 12.63  20: 10.90  21: 11.49  22:  6.96  23: 12.18  24:  6.71
  25:  7.72  26: 10.93  27:  5.59  28:  9.96  29:  9.84  30:  2.65  31: 10.39  32: 11.52
  33: 10.87  34: 11.22  35:  8.93  36:  5.63  37: 11.42  38:  7.38  39:  5.71  40: 11.33
  41: 12.27  42:  5.93  43:  9.13  44:  8.28  45:  8.79  46:  5.86  47:  7.16  48: 11.86
  49:  8.61  50:  9.79  51: 12.00  52: 10.26  53:  9.16  54:  7.35  55:  8.38  56:  7.42
  57:  9.54  58:  9.36  59:  9.22  60:  4.69  61:  7.97  62:  4.23  63:  9.50  64:  9.19
  65:  6.56  66: 10.99  67: 10.57  68:  5.15  69:  9.72  70:  7.14  71:  7.61  72:  8.22
  73: 11.01  74: 10.69  75: 10.96  76:  9.76  77:  3.04  78: 10.22  79:  8.75  80: 10.72
  81:  6.05  82: 10.50  83: 11.55  84: 11.06  85:  9.63  86: 10.51  87:  3.52  88:  2.52
  89:  5.71  90:  6.90  91:  9.42  92: 11.06  93:  6.69  94:  3.50  95:  6.61  96:  9.14
  97:  4.12  98:  3.80  99:  2.89 100:  9.09 101:  2.91 102:  4.31 103:  8.71 104:  6.65
 105: 10.72 106:  5.98 107:  5.23 108:  7.50 109:  5.43 110:  9.52 111:  6.31 112:  9.09
 113:  4.40 114:  8.48 115:  6.28 116:  6.99 117:  9.25 118:  6.93 119:  3.75 120:  8.44
 121:  7.83 122:  7.72 123:  7.40 124:  6.78 125:  5.78 126:  5.01 127:  4.78 128:  5.36
 129:  4.85 130:  2.59 131:  2.49 132:  4.99 133:  5.31 134:  5.87 135:  4.63 136:  5.95
 137:  4.51 138:  4.38 139:  4.35 140:  4.04 141:  3.35 142:  7.22 143:  4.30 144:  5.58
 145:  2.48 146:  4.55 147:  6.54 148:  9.28 149:  5.65 150:  4.74 151:  6.48 152:  6.56
 153:  6.66 154:  9.26 155:  6.71 156:  3.64 157:  6.85 158:  2.63 159:  4.98 160:  7.55
 161:  3.33 162:  9.86 163:  8.13 164:  8.54 165: 10.99 166:  1.72 167:  1.99 168:  1.57
 169:  1.61 170:  1.73 171:  2.09 172:  1.98 173:  2.53 174:  2.06 175:  2.01 176: 10.29
 177:  9.59 178:  1.55 179:  1.58 180:  2.10 181:  2.11 182: 11.45 183: 11.49 184: 11.71
 185: 11.54 186: 11.67 187: 13.15 188: 13.19 189:  1.72 190:  1.75 191:  1.79 192:  1.92
 193:  1.83 194:  1.92 195:  1.80 196:  1.60 197:  1.62 198:  1.68 199:  1.68 200:  1.55
 201:  1.70 202:  1.63 203:  1.82 204:  1.82 205:  1.72 206:  1.81 207:  1.60 208:  1.73
 209:  1.52 210:  1.78 211:  1.68 212:  1.75 213:  1.78 214:  1.87 215:  1.79 216:  1.81
 217:  1.87 218:  1.88 219:  1.85 220:  1.88 221:  1.81 222:  1.86 223:  1.87 224:  1.85
 225:  1.86 226:  1.87 227:  1.84 228:  1.83
 IR intensities (km·mol⁻¹)
   1:  0.02   2:  0.01   3:  0.09   4:  0.02   5:  0.05   6:  0.02   7:  0.67   8:  0.30
   9:  0.63  10:  0.16  11:  0.76  12:  0.54  13:  5.04  14:  0.25  15:  0.46  16:  1.32
  17:  1.96  18:  0.54  19:  4.60  20:  2.38  21:  3.20  22:  9.14  23:  0.33  24:  1.91
  25:  1.80  26: 12.04  27:  1.51  28:  0.81  29:  2.91  30:  1.23  31:  0.53  32:  4.19
  33:  7.76  34:  3.74  35: 39.96  36: 54.74  37:  7.30  38: 53.17  39: 61.37  40: 45.71
  41:  7.12  42:  0.75  43:  3.83  44:  8.14  45: 13.63  46:121.01  47: 79.34  48:  2.58
  49:  2.22  50:  1.19  51: 11.42  52:  4.40  53:  4.73  54:  9.76  55: 24.51  56: 30.62
  57: 23.10  58:  2.52  59:  7.09  60:134.63  61:  2.72  62:100.80  63:  8.65  64:  5.79
  65:101.53  66:  0.54  67:  2.17  68: 78.13  69: 18.91  70: 81.95  71: 14.00  72:  4.03
  73:  5.78  74: 25.50  75:  8.48  76:  9.28  77:256.96  78:  9.38  79: 57.62  80:  8.85
  81: 40.09  82:  6.23  83:  0.67  84:  2.34  85:  4.65  86: 36.87  87: 28.87  88: 21.60
  89: 38.94  90: 41.28  91: 18.39  92:  0.30  93:  1.23  94:  0.65  95: 12.57  96: 12.02
  97:  6.77  98:  1.05  99:  0.20 100:  0.68 101:  0.64 102:  0.33 103:  1.01 104: 17.36
 105: 19.00 106:  9.92 107:  1.91 108: 14.42 109: 27.53 110: 30.84 111: 13.01 112: 42.68
 113:  8.67 114: 29.14 115:  0.54 116: 23.20 117:  7.22 118: 59.18 119:  0.35 120:  2.02
 121:  3.94 122: 33.10 123: 10.31 124: 17.68 125:  2.01 126:  1.50 127:  3.60 128:  2.67
 129: 11.99 130:  5.70 131: 14.67 132:  2.28 133:  5.88 134: 34.18 135:  9.16 136: 16.20
 137:  6.90 138: 84.52 139: 41.89 140: 28.77 141:  1.68 142: 28.71 143:  4.83 144: 47.31
 145:  0.59 146:  2.13 147: 26.04 148: 36.46 149:  5.70 150:  0.50 151:  4.07 152: 34.85
 153: 21.96 154: 13.35 155:  2.06 156: 19.14 157: 16.50 158:  2.71 159: 10.31 160: 13.22
 161:  2.74 162:246.96 163: 27.76 164:211.19 165: 58.73 166:  4.78 167:  2.32 168:  9.97
 169: 14.63 170:  4.28 171:  0.24 172:  3.33 173: 27.43 174:  1.19 175:  2.33 176: 10.00
 177: 78.13 178:  2.20 179:  1.68 180:129.99 181:159.22 182:  5.17 183:  0.36 184:  7.04
 185: 13.32 186: 16.65 187:299.15 188:576.87 189: 53.52 190: 13.00 191: 27.74 192: 28.07
 193: 31.37 194: 16.38 195: 10.87 196: 85.42 197:  5.22 198: 34.09 199: 32.12 200: 12.90
 201:  3.22 202: 36.52 203: 36.62 204: 14.91 205: 34.40 206: 59.01 207:  6.26 208:  6.77
 209: 41.96 210: 21.53 211: 13.89 212:  1.93 213: 18.16 214: 57.92 215: 34.13 216: 19.96
 217: 90.13 218: 29.14 219: 26.17 220:132.05 221:  5.38 222:468.70 223:209.70 224: 13.43
 225:  7.89 226: 12.56 227:  8.09 228: 10.61
 Raman intensities (Ä⁴*amu⁻¹)
   1:  0.00   2:  0.00   3:  0.00   4:  0.00   5:  0.00   6:  0.00   7:  0.00   8:  0.00
   9:  0.00  10:  0.00  11:  0.00  12:  0.00  13:  0.00  14:  0.00  15:  0.00  16:  0.00
  17:  0.00  18:  0.00  19:  0.00  20:  0.00  21:  0.00  22:  0.00  23:  0.00  24:  0.00
  25:  0.00  26:  0.00  27:  0.00  28:  0.00  29:  0.00  30:  0.00  31:  0.00  32:  0.00
  33:  0.00  34:  0.00  35:  0.00  36:  0.00  37:  0.00  38:  0.00  39:  0.00  40:  0.00
  41:  0.00  42:  0.00  43:  0.00  44:  0.00  45:  0.00  46:  0.00  47:  0.00  48:  0.00
  49:  0.00  50:  0.00  51:  0.00  52:  0.00  53:  0.00  54:  0.00  55:  0.00  56:  0.00
  57:  0.00  58:  0.00  59:  0.00  60:  0.00  61:  0.00  62:  0.00  63:  0.00  64:  0.00
  65:  0.00  66:  0.00  67:  0.00  68:  0.00  69:  0.00  70:  0.00  71:  0.00  72:  0.00
  73:  0.00  74:  0.00  75:  0.00  76:  0.00  77:  0.00  78:  0.00  79:  0.00  80:  0.00
  81:  0.00  82:  0.00  83:  0.00  84:  0.00  85:  0.00  86:  0.00  87:  0.00  88:  0.00
  89:  0.00  90:  0.00  91:  0.00  92:  0.00  93:  0.00  94:  0.00  95:  0.00  96:  0.00
  97:  0.00  98:  0.00  99:  0.00 100:  0.00 101:  0.00 102:  0.00 103:  0.00 104:  0.00
 105:  0.00 106:  0.00 107:  0.00 108:  0.00 109:  0.00 110:  0.00 111:  0.00 112:  0.00
 113:  0.00 114:  0.00 115:  0.00 116:  0.00 117:  0.00 118:  0.00 119:  0.00 120:  0.00
 121:  0.00 122:  0.00 123:  0.00 124:  0.00 125:  0.00 126:  0.00 127:  0.00 128:  0.00
 129:  0.00 130:  0.00 131:  0.00 132:  0.00 133:  0.00 134:  0.00 135:  0.00 136:  0.00
 137:  0.00 138:  0.00 139:  0.00 140:  0.00 141:  0.00 142:  0.00 143:  0.00 144:  0.00
 145:  0.00 146:  0.00 147:  0.00 148:  0.00 149:  0.00 150:  0.00 151:  0.00 152:  0.00
 153:  0.00 154:  0.00 155:  0.00 156:  0.00 157:  0.00 158:  0.00 159:  0.00 160:  0.00
 161:  0.00 162:  0.00 163:  0.00 164:  0.00 165:  0.00 166:  0.00 167:  0.00 168:  0.00
 169:  0.00 170:  0.00 171:  0.00 172:  0.00 173:  0.00 174:  0.00 175:  0.00 176:  0.00
 177:  0.00 178:  0.00 179:  0.00 180:  0.00 181:  0.00 182:  0.00 183:  0.00 184:  0.00
 185:  0.00 186:  0.00 187:  0.00 188:  0.00 189:  0.00 190:  0.00 191:  0.00 192:  0.00
 193:  0.00 194:  0.00 195:  0.00 196:  0.00 197:  0.00 198:  0.00 199:  0.00 200:  0.00
 201:  0.00 202:  0.00 203:  0.00 204:  0.00 205:  0.00 206:  0.00 207:  0.00 208:  0.00
 209:  0.00 210:  0.00 211:  0.00 212:  0.00 213:  0.00 214:  0.00 215:  0.00 216:  0.00
 217:  0.00 218:  0.00 219:  0.00 220:  0.00 221:  0.00 222:  0.00 223:  0.00 224:  0.00
 225:  0.00 226:  0.00 227:  0.00 228:  0.00
 output can be read by thermo (or use thermo option).
 writing <g98.out> molden fake output.
 recommended (thermochemical) frequency scaling factor: 1.0
           -------------------------------------------------
          |             Thermodynamic Functions             |
           -------------------------------------------------

Refinement of some symmetry elements was terminated before convergence was reached.
Some symmetry elements may remain unidentified.
Molecule has no symmetry elements
It seems to be the C1 point group
c1  symmetry found (for desy threshold:  0.10E+00) used in thermo

          ...................................................
          :                      SETUP                      :
          :.................................................:
          :  # frequencies                         222      :
          :  # imaginary freq.                       0      :
          :  linear?                             false      :
          :  only rotor calc.                    false      :
          :  symmetry                               c1      :
          :  rotational number                       1      :
          :  scaling factor                  1.0000000      :
          :  rotor cutoff                   50.0000000 cm⁻¹ :
          :  imag. cutoff                  -20.0000000 cm⁻¹ :
          :.................................................:

    mode    ω/cm⁻¹     T·S(HO)/kcal·mol⁻¹    T·S(FR)/kcal·mol⁻¹   T·S(vib)
   ------------------------------------------------------------------------
       1      4.10    -2.91683 (  0.00%)    -1.79738 (100.00%)    -1.79743
       2      9.87    -2.39650 (  0.15%)    -1.53727 ( 99.85%)    -1.53857
       3     18.66    -2.01892 (  1.90%)    -1.34844 ( 98.10%)    -1.36121
       4     21.99    -1.92183 (  3.61%)    -1.29987 ( 96.39%)    -1.32230
       5     25.17    -1.84182 (  6.04%)    -1.25982 ( 93.96%)    -1.29496
       6     27.64    -1.78642 (  8.55%)    -1.23209 ( 91.45%)    -1.27946
       7     35.46    -1.63926 ( 20.18%)    -1.15837 ( 79.82%)    -1.25542
       8     38.68    -1.58780 ( 26.37%)    -1.13257 ( 73.63%)    -1.25263
       9     41.26    -1.54972 ( 31.67%)    -1.11347 ( 68.33%)    -1.25165
      10     48.22    -1.45766 ( 46.39%)    -1.06726 ( 53.61%)    -1.24835
      11     51.73    -1.41626 ( 53.39%)    -1.04647 ( 46.61%)    -1.24392
      12     55.83    -1.37131 ( 60.85%)    -1.02387 ( 39.15%)    -1.23530
      13     61.85    -1.31108 ( 70.07%)    -0.99355 ( 29.93%)    -1.21604
      14     64.02    -1.29076 ( 72.88%)    -0.98331 ( 27.12%)    -1.20740
      15     68.39    -1.25194 ( 77.78%)    -0.96374 ( 22.22%)    -1.18791
      16     69.87    -1.23945 ( 79.22%)    -0.95743 ( 20.78%)    -1.18084
      17     71.64    -1.22475 ( 80.82%)    -0.95001 ( 19.18%)    -1.17206
      18     85.05    -1.12428 ( 89.33%)    -0.89918 ( 10.67%)    -1.10026
      19     88.82    -1.09894 ( 90.87%)    -0.88632 (  9.13%)    -1.07953
      20     98.54    -1.03843 ( 93.78%)    -0.85555 (  6.22%)    -1.02706
      21    109.63    -0.97656 ( 95.85%)    -0.82396 (  4.15%)    -0.97023
      22    122.76    -0.91129 ( 97.32%)    -0.79046 (  2.68%)    -0.90806
      23    124.32    -0.90400 ( 97.45%)    -0.78671 (  2.55%)    -0.90101
      24    125.66    -0.89787 ( 97.55%)    -0.78355 (  2.45%)    -0.89508
      25    141.66    -0.82924 ( 98.47%)    -0.74803 (  1.53%)    -0.82800
      26    143.30    -0.82271 ( 98.54%)    -0.74464 (  1.46%)    -0.82157
      27    151.77    -0.79006 ( 98.84%)    -0.72761 (  1.16%)    -0.78933
      28    165.20    -0.74221 ( 99.17%)    -0.70249 (  0.83%)    -0.74188
      29    167.11    -0.73574 ( 99.21%)    -0.69908 (  0.79%)    -0.73545
      30    172.93    -0.71656 ( 99.31%)    -0.68894 (  0.69%)    -0.71637
      31    186.83    -0.67353 ( 99.49%)    -0.66604 (  0.51%)    -0.67349
      32    188.97    -0.66724 ( 99.51%)    -0.66268 (  0.49%)    -0.66721
      33    194.16    -0.65229 ( 99.56%)    -0.65466 (  0.44%)    -0.65230
      34    222.50    -0.57801 ( 99.75%)    -0.61429 (  0.25%)    -0.57810
      35    237.21    -0.54374 ( 99.80%)    -0.59532 (  0.20%)    -0.54384
      36    238.42    -0.54103 ( 99.81%)    -0.59382 (  0.19%)    -0.54114
      37    240.02    -0.53749 ( 99.81%)    -0.59183 (  0.19%)    -0.53759
      38    252.14    -0.51149 ( 99.85%)    -0.57724 (  0.15%)    -0.51160
      39    270.72    -0.47453 ( 99.88%)    -0.55617 (  0.12%)    -0.47462
      40    287.08    -0.44457 ( 99.91%)    -0.53879 (  0.09%)    -0.44466
      41    289.11    -0.44101 ( 99.91%)    -0.53671 (  0.09%)    -0.44109
      42    291.68    -0.43656 ( 99.91%)    -0.53409 (  0.09%)    -0.43664
   ------------------------------------------------------------------------

   temp. (K)  partition function   enthalpy   heat capacity  entropy
                                   cal/mol     cal/K/mol   cal/K/mol   J/K/mol
 298.15  VIB  0.242E+23            25195.843    138.828    165.975
         ROT  0.419E+08              888.752      2.981     37.858
         INT  0.102E+31            26084.595    141.809    203.833
         TR   0.108E+29             1481.254      4.968     44.499
         TOT                       27565.8491   146.7773   248.3320  1039.0211

       T/K    H(0)-H(T)+PV         H(T)/Eh          T*S/Eh         G(T)/Eh
   ------------------------------------------------------------------------
    298.15    0.439290E-01    0.671334E+00    0.117991E+00    0.553343E+00
   ------------------------------------------------------------------------

         :::::::::::::::::::::::::::::::::::::::::::::::::::::
         ::                  THERMODYNAMIC                  ::
         :::::::::::::::::::::::::::::::::::::::::::::::::::::
         :: total free energy        -109.741282690625 Eh   ::
         ::.................................................::
         :: total energy             -110.294626168828 Eh   ::
         :: zero point energy           0.627405045584 Eh   ::
         :: G(RRHO) w/o ZPVE           -0.074061567382 Eh   ::
         :: G(RRHO) contrib.            0.553343478203 Eh   ::
         :::::::::::::::::::::::::::::::::::::::::::::::::::::

           -------------------------------------------------
          | TOTAL ENERGY             -110.294626168828 Eh   |
          | TOTAL ENTHALPY           -109.623292146461 Eh   |
          | TOTAL FREE ENERGY        -109.741282690625 Eh   |
          | GRADIENT NORM               0.000238150842 Eh/α |
          | HOMO-LUMO GAP               3.382796142516 eV   |
           -------------------------------------------------

------------------------------------------------------------------------
 * finished run on 2026/08/20 at 20:33:32.898     
------------------------------------------------------------------------
 total:
 * wall-time:     0 d,  0 h,  0 min, 12.059 sec
 *  cpu-time:     0 d,  0 h,  1 min, 21.547 sec
 * ratio c/w:     6.762 speedup
 SCF:
 * wall-time:     0 d,  0 h,  0 min,  0.070 sec
 *  cpu-time:     0 d,  0 h,  0 min,  0.109 sec
 * ratio c/w:     1.562 speedup
 analytical hessian:
 * wall-time:     0 d,  0 h,  0 min, 11.924 sec
 *  cpu-time:     0 d,  0 h,  1 min, 21.391 sec
 * ratio c/w:     6.826 speedup



===== STDERR =====

normal termination of xtb
