76
 energy: -110.294626168817 gnorm: 0.000238211430 xtb: 6.7.1pre (5071a88)
N            0.36125440590488        0.08820435904265        1.05565027062738
C            1.71080037165542       -0.12708271941110        0.67884025946117
C            2.73080104771333        0.49674294119335        1.39186057824840
C            4.05107783774947        0.29534075567718        1.04686257380680
C            4.39612915946396       -0.53241820559122       -0.01624561285108
C            3.37929852859197       -1.18215037678246       -0.70157692456960
C            2.05350639462054       -0.99183015246313       -0.35462299143341
C            5.83249332208520       -0.67587425736936       -0.43367810304813
C            6.40341686188770        0.67083406515151       -0.88372933974248
C           -0.32176617903385        1.24391357353827        0.51797728879826
C            0.48538260218702        2.52770142732120        0.66412452329802
C           -0.37218192244619        3.78277795044044        0.43413052229508
C            0.51770886100757        5.00562931785936        0.15737026717685
C            0.90123414791878        5.10602411852562       -1.31833107418495
C            1.91926798225969        6.21282243247518       -1.56259603443780
O           -0.61398303829556        1.08083469343636       -0.87351852077089
N           -2.19516421339858        4.49161331204761        3.58091489667720
C           -3.23549376741486        4.04122892366983        2.82338974934013
C           -2.71537236140338        3.71205353721641        1.54859240226176
C           -1.31201402679034        3.99388567390713        1.58370543589113
C           -4.57921622503365        3.88721368790252        3.13453111984475
C           -3.58119241095601        3.21372987489734        0.57339575180137
C           -1.03604813136665        4.46191798855902        2.84168030573774
C           -5.40948308638072        3.39535977121056        2.15012028447325
C           -4.91377065944372        3.06334009292226        0.88678978755865
C            0.23259441768434        4.93045699693738        3.46469787024066
O           -1.98176979723052        2.69196553185672       -2.70691963317670
H           -0.18795261914465       -0.74545340183595        0.86274825592668
H           -1.22088265327984        0.33890337252895       -0.98137883434979
H            2.48116897920406        1.12599569944250        2.23054372477639
H            4.82776347560158        0.78427423197705        1.61624031059349
H            3.62415578099220       -1.84820196241589       -1.51757950647728
H            1.27718215780032       -1.51207975595949       -0.89968941546879
H            5.92943682470768       -1.38751955363628       -1.25562636864777
H            6.44063603832491       -1.04485861242094        0.39435367060686
H            6.52184660279633        1.35098215506401       -0.03158423105597
H            4.85859103809325        0.71519972893205       -2.32015762123533
H            7.93234444071048        2.52515775917241       -1.43974714242651
H           -1.26840695344784        1.33689037091849        1.07193167832023
H            1.30559441191562        2.49721566087659       -0.05428634594348
H           -0.98435662879851        3.62171344326557       -0.45487200027734
H           -0.02248736516596        5.91100613337518        0.43802222714959
H            1.42315771040384        4.95370202375841        0.76449255167946
H            1.31836444097892        4.15367869705655       -1.65457264844600
H            0.00152894047556        5.30873314928041       -1.90140965654140
H            2.15535902203143        6.28921066242106       -2.62184046836707
H            1.52207636549796        7.17026628413558       -1.23384643481946
H            2.84066649438549        6.01828561171294       -1.01603140822036
H           -2.25923037187749        4.80998110250822        4.53286107031758
H           -2.90236088245857        5.42269439466562       -1.20837264173659
H           -4.95764484711669        4.14489675137946        4.11314411311992
H           -3.22069935132255        2.94726730035694       -0.40864526224773
H           -6.46137882440999        3.26310909566499        2.35576975516729
H           -5.59628083943680        2.68132912669714        0.14169468944569
H            1.09066201594806        4.44143268590256        3.01495127731303
H            0.35099268647614        6.00703363304756        3.33375427722118
H            0.22888337561301        4.71713151347736        4.53295117169799
H            0.89866536168052        2.55321940825168        1.66989822713932
H           -1.48653989401062        2.77458036438005       -3.52351398826701
O           -2.45007031108694        5.40345109053086       -2.05394441775332
H           -1.40430821617667        2.23320098789989       -2.07419256154260
H           -2.41731139326794        4.47091510610560       -2.31902528628691
N            5.48494618811899        1.31504033928766       -1.80737404595688
C            7.78620405341250        0.50073650749082       -1.55055208188809
O            8.22638865877464       -0.57634627711000       -1.89566543075080
C            4.25980647049542        3.12271144834611       -2.80736208371959
C            5.38318398239817        2.65392006933749       -1.91439409540908
O            6.15089251927188        3.40811861614700       -1.34097686261632
H            3.33115051058912        2.62270168857982       -2.54220714596474
H            4.49760342880064        2.89312945080582       -3.84432255843378
H            4.13956352835054        4.19678002340821       -2.70247020598308
N            8.42075447523678        1.67332735132259       -1.69858948033652
C            9.70812263862139        1.78751391565762       -2.33796702953279
H           10.42141661617173        2.27066674133867       -1.66840779666633
H            9.63408105730294        2.37008317314653       -3.25835251135310
H           10.05421073850301        0.78203737959188       -2.57281508515402
