      -----------------------------------------------------------      
     |                   =====================                   |     
     |                           x T B                           |     
     |                   =====================                   |     
     |                         S. Grimme                         |     
     |          Mulliken Center for Theoretical Chemistry        |     
     |                    University of Bonn                     |     
      -----------------------------------------------------------      

   * xtb version 6.7.1pre (5071a88) compiled by 'Marcel@Raven' on 2024-07-23

   xtb is free software: you can redistribute it and/or modify it under
   the terms of the GNU Lesser General Public License as published by
   the Free Software Foundation, either version 3 of the License, or
   (at your option) any later version.
   
   xtb is distributed in the hope that it will be useful,
   but WITHOUT ANY WARRANTY; without even the implied warranty of
   MERCHANTABILITY or FITNESS FOR A PARTICULAR PURPOSE.  See the
   GNU Lesser General Public License for more details.
   
   Cite this work as:
   * C. Bannwarth, E. Caldeweyher, S. Ehlert, A. Hansen, P. Pracht,
     J. Seibert, S. Spicher, S. Grimme, WIREs Comput. Mol. Sci., 2020, 11,
     e01493. DOI: 10.1002/wcms.1493
   
   for GFN2-xTB:
   * C. Bannwarth, S. Ehlert and S. Grimme., J. Chem. Theory Comput., 2019,
     15, 1652-1671. DOI: 10.1021/acs.jctc.8b01176
   for GFN1-xTB:
   * S. Grimme, C. Bannwarth, P. Shushkov, J. Chem. Theory Comput., 2017,
     13, 1989-2009. DOI: 10.1021/acs.jctc.7b00118
   for GFN0-xTB:
   * P. Pracht, E. Caldeweyher, S. Ehlert, S. Grimme, ChemRxiv, 2019, preprint.
     DOI: 10.26434/chemrxiv.8326202.v1
   for GFN-FF:
   * S. Spicher and S. Grimme, Angew. Chem. Int. Ed., 2020, 59, 15665-15673.
     DOI: 10.1002/anie.202004239
   
   for ALPB and GBSA implicit solvation:
   * S. Ehlert, M. Stahn, S. Spicher, S. Grimme, J. Chem. Theory Comput.,
     2021, 17, 4250-4261. DOI: 10.1021/acs.jctc.1c00471
   
   for ddCOSMO and CPCM-X implicit solvation:
   * M. Stahn, S. Ehlert, S. Grimme, J. Phys. Chem. A,
     2023, XX, XXXX-XXXX. DOI: 10.1021/acs.jpca.3c04382
   
   for DFT-D4:
   * E. Caldeweyher, C. Bannwarth and S. Grimme, J. Chem. Phys., 2017,
     147, 034112. DOI: 10.1063/1.4993215
   * E. Caldeweyher, S. Ehlert, A. Hansen, H. Neugebauer, S. Spicher,
     C. Bannwarth and S. Grimme, J. Chem. Phys., 2019, 150, 154122.
     DOI: 10.1063/1.5090222
   * E. Caldeweyher, J.-M. Mewes, S. Ehlert and S. Grimme, Phys. Chem. Chem. Phys.
     2020, 22, 8499-8512. DOI: 10.1039/D0CP00502A
   
   for sTDA-xTB:
   * S. Grimme and C. Bannwarth, J. Chem. Phys., 2016, 145, 054103.
     DOI: 10.1063/1.4959605
   
   in the mass-spec context:
   * V. Asgeirsson, C. Bauer and S. Grimme, Chem. Sci., 2017, 8, 4879.
     DOI: 10.1039/c7sc00601b
   * J. Koopman and S. Grimme, ACS Omega 2019, 4, 12, 15120-15133.
     DOI: 10.1021/acsomega.9b02011
   
   for metadynamics refer to:
   * S. Grimme, J. Chem. Theory Comput., 2019, 155, 2847-2862
     DOI: 10.1021/acs.jctc.9b00143
   
   for SPH calculations refer to:
   * S. Spicher and S. Grimme, J. Chem. Theory Comput., 2021, 17, 1701-1714
     DOI: 10.1021/acs.jctc.0c01306
   
   for ONIOM refer to:
   * C. Plett, A. Katbashev, S. Ehlert, S. Grimme, M. Bursch,
     Phys. Chem. Chem. Phys., 2023, 25, 17860-17868. DOI: 10.1039/D3CP02178E
   
   for DIPRO refer to:
   * J. Kohn, N. Gildemeister, S. Grimme, D. Fazzi, A. Hansen,
     J. Chem. Phys., 2023, just accepted.
   
   for PTB refer to:
   * S. Grimme, M. Mueller, A. Hansen, J. Chem. Phys., 2023, 158, 124111.
     DOI: 10.1063/5.0137838
   
   with help from (in alphabetical order)
   P. Atkinson, C. Bannwarth, F. Bohle, G. Brandenburg, E. Caldeweyher
   M. Checinski, S. Dohm, S. Ehlert, S. Ehrlich, I. Gerasimov, C. Hölzer
   A. Katbashev, J. Kohn, J. Koopman, C. Lavigne, S. Lehtola, F. März, M. Müller,
   F. Musil, H. Neugebauer, J. Pisarek, C. Plett, P. Pracht, F. Pultar,
   J. Seibert, P. Shushkov, S. Spicher, M. Stahn, M. Steiner, T. Strunk,
   J. Stückrath, T. Rose, and J. Unsleber
   
 * started run on 2026/08/20 at 01:00:27.714     
   ID    Z sym.   atoms
    1    7 N      1, 17, 63, 72
    2    6 C      2-15, 18-26, 64, 66, 67, 73
    3    8 O      16, 27, 60, 65, 68
    4    1 H      28-59, 61, 62, 69-71, 74-76

           -------------------------------------------------
          |                Calculation Setup                |
           -------------------------------------------------

          program call               : C:\Users\Nayanika\Downloads\xtb-6.7.1pre-windows-x86_64\xtb-6.7.1\bin\xtb.exe D:\PhD_Thesis\LmrR_EVB\charges\fast_lmrr_evb_qm\pdb_preserving_xtb_qm_inputs\TS2_1a_to_PS2_2\TS2_1a_to_PS2_2_TS_xtbopt.xyz --gfn 2 --hess --chrg 0 --uhf 0 --temper 298 --scf normal --etemp 500
          coordinate file            : D:\PhD_Thesis\LmrR_EVB\charges\fast_lmrr_evb_qm\pdb_preserving_xtb_qm_inputs\TS2_1a_to_PS2_2\TS2_1a_to_PS2_2_TS_xtbopt.xyz
          omp threads                :                     1


molecular fragmentation (1/2 indicates fragments):
111111111111111211111111112121111111111111111111121111111222221111111111
1111
# atoms in fragment 1/2:    67     9
 fragment masses (1/2) :      446.59       54.05
CMA distance (Bohr)    :   5.088
constraining FC (au)   :  0.0500
########################################################################
[WARNING] Please study the warnings concerning your input carefully
-2- prog_main_parseArguments: Unknown option '--scf' provided
-1- prog_main_parseArguments: Unknown option '--temper' provided
########################################################################

           -------------------------------------------------
          |                 G F N 2 - x T B                 |
           -------------------------------------------------

        Reference                      10.1021/acs.jctc.8b01176
      * Hamiltonian:
        H0-scaling (s, p, d)           1.850000    2.230000    2.230000
        zeta-weighting                 0.500000
      * Dispersion:
        s8                             2.700000
        a1                             0.520000
        a2                             5.000000
        s9                             5.000000
      * Repulsion:
        kExp                           1.500000    1.000000
        rExp                           1.000000
      * Coulomb:
        alpha                          2.000000
        third order                    shell-resolved
        anisotropic                    true
        a3                             3.000000
        a5                             4.000000
        cn-shift                       1.200000
        cn-exp                         4.000000
        max-rad                        5.000000

q/qsh data taken from xtbrestart
CAMM data taken from xtbrestart

          ...................................................
          :                      SETUP                      :
          :.................................................:
          :  # basis functions                 184          :
          :  # atomic orbitals                 184          :
          :  # shells                          112          :
          :  # electrons                       198          :
          :  max. iterations                   250          :
          :  Hamiltonian                  GFN2-xTB          :
          :  restarted?                       true          :
          :  GBSA solvation                  false          :
          :  PC potential                    false          :
          :  electronic temp.          500.0000000     K    :
          :  accuracy                    1.0000000          :
          :  -> integral cutoff          0.2500000E+02      :
          :  -> integral neglect         0.1000000E-07      :
          :  -> SCF convergence          0.1000000E-05 Eh   :
          :  -> wf. convergence          0.1000000E-03 e    :
          :  Broyden damping             0.4000000          :
          :  net charge                          0          :
          :  unpaired electrons                  0          :
          ...................................................

 iter      E             dE          RMSdq      gap      omega  full diag
   1   -111.8429549 -0.111843E+03  0.232E+00    3.09       0.0  T
   2   -111.8464267 -0.347180E-02  0.137E+00    3.01       1.0  T
   3   -111.8418828  0.454388E-02  0.292E-01    2.98       1.0  T
   4   -111.8479342 -0.605137E-02  0.778E-02    2.97       1.0  T
   5   -111.8480477 -0.113534E-03  0.423E-02    2.97       1.0  T
   6   -111.8480646 -0.168982E-04  0.196E-02    2.97       1.0  T
   7   -111.8480792 -0.146194E-04  0.672E-03    2.97       1.7  T
   8   -111.8480800 -0.745565E-06  0.292E-03    2.97       3.9  T
   9   -111.8480802 -0.204689E-06  0.121E-03    2.97       9.4  T
  10   -111.8480802 -0.348231E-07  0.561E-04    2.97      20.5  T
  11   -111.8480802 -0.910843E-08  0.191E-04    2.97      60.0  T

   *** convergence criteria satisfied after 11 iterations ***

         #    Occupation            Energy/Eh            Energy/eV
      -------------------------------------------------------------
         1        2.0000           -0.7111141             -19.3504
       ...           ...                  ...                  ...
        93        2.0000           -0.4055528             -11.0357
        94        2.0000           -0.3988827             -10.8542
        95        2.0000           -0.3933048             -10.7024
        96        2.0000           -0.3871459             -10.5348
        97        2.0000           -0.3776666             -10.2768
        98        2.0000           -0.3577114              -9.7338
        99        2.0000           -0.3372267              -9.1764 (HOMO)
       100                         -0.2280525              -6.2056 (LUMO)
       101                         -0.2235799              -6.0839
       102                         -0.2201035              -5.9893
       103                         -0.2129305              -5.7941
       104                         -0.2097180              -5.7067
       ...                                ...                  ...
       184                          0.7174459              19.5227
      -------------------------------------------------------------
                  HL-Gap            0.1091743 Eh            2.9708 eV
             Fermi-level           -0.2826396 Eh           -7.6910 eV

 SCC (total)                   0 d,  0 h,  0 min,  0.128 sec
 SCC setup                      ...        0 min,  0.000 sec (  0.000%)
 Dispersion                     ...        0 min,  0.001 sec (  0.781%)
 classical contributions        ...        0 min,  0.001 sec (  0.781%)
 integral evaluation            ...        0 min,  0.012 sec (  9.375%)
 iterations                     ...        0 min,  0.061 sec ( 47.656%)
 molecular gradient             ...        0 min,  0.053 sec ( 41.406%)
 printout                       ...        0 min,  0.000 sec (  0.000%)

         :::::::::::::::::::::::::::::::::::::::::::::::::::::
         ::                     SUMMARY                     ::
         :::::::::::::::::::::::::::::::::::::::::::::::::::::
         :: total energy            -110.273366238936 Eh    ::
         :: gradient norm              0.000240516215 Eh/a0 ::
         :: HOMO-LUMO gap              2.970782997252 eV    ::
         ::.................................................::
         :: SCC energy              -111.846027612496 Eh    ::
         :: -> isotropic ES            0.187669659645 Eh    ::
         :: -> anisotropic ES          0.003571470377 Eh    ::
         :: -> anisotropic XC          0.041137304775 Eh    ::
         :: -> dispersion             -0.085365712666 Eh    ::
         :: repulsion energy           1.572661373559 Eh    ::
         :: add. restraining           0.000000000000 Eh    ::
         :: total charge              -0.000000000000 e     ::
         :::::::::::::::::::::::::::::::::::::::::::::::::::::

           ------------------------------------------------- 
          |                Numerical Hessian                |
           ------------------------------------------------- 
step length          :   0.00500
SCC accuracy         :   0.30000
Hessian scale factor :   1.00000
frozen atoms in %    :   0.00000    0
RMS gradient         :   0.00024
estimated CPU  time      1.49 min
estimated wall time      2.67 min

writing file <hessian>.

 projected vibrational frequencies (cm⁻¹)
eigval :       -0.00    -0.00    -0.00     0.00     0.00     0.00
eigval :       -5.58     8.83    10.40    14.34    16.78    26.64
eigval :       28.75    31.70    37.96    43.75    51.55    57.87
eigval :       59.36    64.09    69.80    71.35    84.26    84.99
eigval :       95.69    96.21    96.59   107.34   114.11   116.07
eigval :      123.33   126.50   129.42   130.83   136.31   151.72
eigval :      155.55   167.58   173.11   185.01   202.65   218.17
eigval :      229.77   234.52   244.03   257.53   266.16   269.79
eigval :      272.78   290.59   292.21   296.68   315.76   328.11
eigval :      336.68   354.44   369.64   374.28   394.71   408.51
eigval :      417.23   420.79   438.01   449.26   459.84   475.37
eigval :      483.14   488.61   493.37   508.07   526.17   529.32
eigval :      552.24   554.90   555.72   583.92   596.63   605.67
eigval :      612.94   624.55   655.75   659.24   676.16   682.52
eigval :      696.01   702.32   726.30   734.19   743.22   769.62
eigval :      773.46   786.40   806.38   818.14   863.24   864.22
eigval :      865.40   875.07   890.67   894.32   896.04   916.39
eigval :      918.79   924.14   926.26   928.66   948.60   980.04
eigval :      990.94  1000.61  1003.34  1008.48  1012.54  1022.60
eigval :     1023.53  1034.91  1066.50  1070.97  1081.08  1101.75
eigval :     1106.39  1107.58  1118.12  1123.21  1125.91  1138.89
eigval :     1141.99  1155.30  1161.71  1170.24  1174.92  1191.62
eigval :     1195.10  1199.89  1212.91  1219.31  1220.52  1224.15
eigval :     1239.49  1247.04  1264.95  1267.45  1273.37  1283.70
eigval :     1294.78  1302.66  1308.25  1317.18  1321.40  1329.22
eigval :     1331.01  1353.12  1365.00  1366.61  1376.22  1393.57
eigval :     1396.23  1398.63  1409.16  1416.50  1419.98  1425.94
eigval :     1446.89  1449.19  1450.22  1461.97  1465.33  1473.26
eigval :     1474.75  1479.62  1482.14  1494.06  1495.27  1496.70
eigval :     1503.96  1507.22  1507.70  1543.44  1545.45  1565.77
eigval :     1575.78  1578.24  1594.54  1613.74  1629.49  1692.08
eigval :     1705.05  1760.20  2913.05  2931.80  2965.34  2973.48
eigval :     2978.32  2981.82  2985.93  2989.45  2991.94  2992.65
eigval :     3003.94  3007.97  3019.08  3029.63  3033.45  3036.02
eigval :     3036.35  3037.93  3044.85  3053.02  3058.01  3069.44
eigval :     3072.68  3075.24  3082.58  3083.60  3090.77  3093.38
eigval :     3093.60  3119.85  3249.86  3331.64  3393.97  3444.44
eigval :     3454.00  3485.96  3556.55  3562.75  3654.14  3670.68
           -------------------------------------------------
          |                Property Printout                |
           -------------------------------------------------

    * Orbital Energies and Occupations

         #    Occupation            Energy/Eh            Energy/eV
      -------------------------------------------------------------
         1        2.0000           -0.7111122             -19.3503
       ...           ...                  ...                  ...
        87        2.0000           -0.4199797             -11.4282
        88        2.0000           -0.4152364             -11.2992
        89        2.0000           -0.4138818             -11.2623
        90        2.0000           -0.4124190             -11.2225
        91        2.0000           -0.4110413             -11.1850
        92        2.0000           -0.4088815             -11.1262
        93        2.0000           -0.4055529             -11.0357
        94        2.0000           -0.3988818             -10.8541
        95        2.0000           -0.3933047             -10.7024
        96        2.0000           -0.3871459             -10.5348
        97        2.0000           -0.3776674             -10.2769
        98        2.0000           -0.3577116              -9.7338
        99        2.0000           -0.3372270              -9.1764 (HOMO)
       100                         -0.2280530              -6.2056 (LUMO)
       101                         -0.2235786              -6.0839
       102                         -0.2201023              -5.9893
       103                         -0.2129311              -5.7942
       104                         -0.2097176              -5.7067
       105                         -0.1963119              -5.3419
       106                         -0.1704373              -4.6378
       107                         -0.1539203              -4.1884
       108                         -0.0817266              -2.2239
       109                         -0.0705382              -1.9194
       110                         -0.0077226              -0.2101
       ...                                ...                  ...
       184                          0.7174460              19.5227
      -------------------------------------------------------------
                  HL-Gap            0.1091741 Eh            2.9708 eV
             Fermi-level           -0.2826400 Eh           -7.6910 eV

     #   Z          covCN         q      C6AA      α(0)
     1   7 N        2.692    -0.152    24.280     7.318
     2   6 C        2.905     0.069    26.455     8.434
     3   6 C        2.921    -0.056    29.388     8.890
     4   6 C        2.925    -0.038    28.951     8.824
     5   6 C        2.975    -0.005    28.150     8.703
     6   6 C        2.924    -0.042    29.041     8.837
     7   6 C        2.926    -0.064    29.585     8.920
     8   6 C        3.810    -0.065    21.744     6.638
     9   6 C        3.802     0.017    20.294     6.414
    10   6 C        2.826     0.011    27.766     8.634
    11   6 C        2.894    -0.087    30.190     9.009
    12   6 C        3.859    -0.019    20.867     6.497
    13   6 C        3.807    -0.065    21.736     6.637
    14   6 C        3.800    -0.055    21.556     6.610
    15   6 C        3.752    -0.103    22.531     6.769
    16   8 O        1.608    -0.616    25.575     6.825
    17   7 N        2.784    -0.120    23.615     7.217
    18   6 C        3.068     0.041    27.002     8.521
    19   6 C        3.112    -0.030    28.587     8.759
    20   6 C        3.058    -0.048    29.131     8.851
    21   6 C        2.908    -0.055    29.365     8.886
    22   6 C        2.911    -0.042    29.036     8.836
    23   6 C        3.062     0.042    26.997     8.520
    24   6 C        2.924    -0.041    29.008     8.833
    25   6 C        2.919    -0.046    29.139     8.852
    26   6 C        3.754    -0.110    22.665     6.788
    27   8 O        1.609    -0.612    25.479     6.813
    28   1 H        0.860     0.186     1.178     1.700
    29   1 H        0.806     0.266     0.834     1.434
    30   1 H        0.926     0.038     2.481     2.463
    31   1 H        0.926     0.026     2.642     2.542
    32   1 H        0.925     0.019     2.751     2.594
    33   1 H        0.926     0.046     2.371     2.408
    34   1 H        0.924     0.050     2.314     2.379
    35   1 H        0.925     0.057     2.240     2.341
    36   1 H        0.924     0.075     2.034     2.230
    37   1 H        0.860     0.176     1.237     1.742
    38   1 H        0.860     0.174     1.250     1.751
    39   1 H        0.925     0.030     2.583     2.513
    40   1 H        0.926     0.034     2.527     2.486
    41   1 H        0.924     0.036     2.498     2.472
    42   1 H        0.924     0.043     2.406     2.426
    43   1 H        0.924     0.031     2.569     2.506
    44   1 H        0.924     0.034     2.531     2.488
    45   1 H        0.924     0.029     2.606     2.525
    46   1 H        0.925     0.032     2.559     2.501
    47   1 H        0.925     0.036     2.501     2.473
    48   1 H        0.925     0.032     2.558     2.501
    49   1 H        0.860     0.158     1.347     1.818
    50   1 H        0.805     0.288     0.757     1.367
    51   1 H        0.926     0.022     2.710     2.574
    52   1 H        0.926     0.027     2.635     2.538
    53   1 H        0.926     0.024     2.667     2.554
    54   1 H        0.926     0.023     2.684     2.562
    55   1 H        0.925     0.059     2.215     2.327
    56   1 H        0.925     0.044     2.391     2.418
    57   1 H        0.924     0.046     2.372     2.408
    58   1 H        0.803     0.318     0.669     1.285
    59   1 H        0.805     0.287     0.762     1.371
    60   8 O        1.610    -0.580    24.703     6.708
    61   1 H        0.803     0.316     0.676     1.292
    62   1 H        0.805     0.277     0.794     1.399
    63   7 N        2.691    -0.183    24.969     7.421
    64   6 C        2.754     0.264    22.556     7.777
    65   8 O        0.858    -0.422    22.118     6.305
    66   6 C        3.757    -0.154    23.525     6.915
    67   6 C        2.749     0.283    22.214     7.718
    68   8 O        0.859    -0.461    22.943     6.422
    69   1 H        0.925     0.096     1.821     2.110
    70   1 H        0.925     0.047     2.353     2.399
    71   1 H        0.925     0.081     1.972     2.196
    72   7 N        2.687    -0.169    24.660     7.375
    73   6 C        3.689    -0.046    21.592     6.650
    74   1 H        0.924     0.054     2.273     2.358
    75   1 H        0.924     0.052     2.298     2.371
    76   1 H        0.925     0.089     1.889     2.149

 Mol. C6AA /au·bohr⁶  :      56214.227734
 Mol. C8AA /au·bohr⁸  :    1284618.678450
 Mol. α(0) /au        :        366.096804


Wiberg/Mayer (AO) data.
largest (>0.10) Wiberg bond orders for each atom

 ---------------------------------------------------------------------------
     #   Z sym  total        # sym  WBO       # sym  WBO       # sym  WBO
 ---------------------------------------------------------------------------
     1   7 N    3.442 --     2 C    1.128    10 C    1.125    28 H    0.925
     2   6 C    3.971 --     3 C    1.346     7 C    1.345     1 N    1.128
     3   6 C    3.989 --     4 C    1.467     2 C    1.346    30 H    0.964
     4   6 C    3.991 --     3 C    1.467     5 C    1.398    31 H    0.969
                             7 C    0.101
     5   6 C    3.971 --     4 C    1.398     6 C    1.394     8 C    1.012
     6   6 C    3.991 --     7 C    1.468     5 C    1.394    32 H    0.969
     7   6 C    3.986 --     6 C    1.468     2 C    1.345    33 H    0.963
                             4 C    0.101
     8   6 C    3.991 --     5 C    1.012    34 H    0.972    35 H    0.968
                             9 C    0.965
     9   6 C    3.961 --    63 N    0.977     8 C    0.965    36 H    0.948
                            64 C    0.928
    10   6 C    3.967 --    11 C    1.794     1 N    1.125    39 H    0.961
    11   6 C    3.963 --    10 C    1.794    12 C    0.999    40 H    0.957
    12   6 C    3.994 --    11 C    0.999    20 C    0.987    13 C    0.982
                            41 H    0.955
    13   6 C    3.994 --    14 C    1.007    12 C    0.982    43 H    0.975
                            42 H    0.973
    14   6 C    3.997 --    15 C    1.018    13 C    1.007    45 H    0.978
                            44 H    0.974
    15   6 C    3.996 --    14 C    1.018    48 H    0.988    47 H    0.988
                            46 H    0.987
    16   8 O    1.814 --    29 H    0.927    61 H    0.844
    17   7 N    3.529 --    18 C    1.178    23 C    1.170    49 H    0.945
    18   6 C    3.959 --    21 C    1.343    19 C    1.236    17 N    1.178
    19   6 C    3.983 --    22 C    1.328    18 C    1.236    20 C    1.199
    20   6 C    3.970 --    23 C    1.551    19 C    1.199    12 C    0.987
    21   6 C    3.989 --    24 C    1.487    18 C    1.343    51 H    0.969
                            22 C    0.111
    22   6 C    3.989 --    25 C    1.501    19 C    1.328    52 H    0.967
                            21 C    0.111
    23   6 C    3.950 --    20 C    1.551    17 N    1.170    26 C    1.030
    24   6 C    3.988 --    21 C    1.487    25 C    1.373    53 H    0.972
    25   6 C    3.989 --    22 C    1.501    24 C    1.373    54 H    0.972
    26   6 C    3.995 --    23 C    1.030    55 H    0.976    56 H    0.974
                            57 H    0.968
    27   8 O    1.864 --    59 H    0.897    58 H    0.850
    28   1 H    0.964 --     1 N    0.925
    29   1 H    0.929 --    16 O    0.927
    30   1 H    0.998 --     3 C    0.964
    31   1 H    0.999 --     4 C    0.969
    32   1 H    0.999 --     6 C    0.969
    33   1 H    0.998 --     7 C    0.963
    34   1 H    0.997 --     8 C    0.972
    35   1 H    0.996 --     8 C    0.968
    36   1 H    0.994 --     9 C    0.948
    37   1 H    0.969 --    63 N    0.938
    38   1 H    0.970 --    72 N    0.942
    39   1 H    0.998 --    10 C    0.961
    40   1 H    0.999 --    11 C    0.957
    41   1 H    0.998 --    12 C    0.955
    42   1 H    0.998 --    13 C    0.973
    43   1 H    0.999 --    13 C    0.975
    44   1 H    0.999 --    14 C    0.974
    45   1 H    0.999 --    14 C    0.978
    46   1 H    0.998 --    15 C    0.987
    47   1 H    0.999 --    15 C    0.988
    48   1 H    0.999 --    15 C    0.988
    49   1 H    0.974 --    17 N    0.945
    50   1 H    0.917 --    60 O    0.897
    51   1 H    0.999 --    21 C    0.969
    52   1 H    0.999 --    22 C    0.967
    53   1 H    0.999 --    24 C    0.972
    54   1 H    0.999 --    25 C    0.972
    55   1 H    0.996 --    26 C    0.976
    56   1 H    0.996 --    26 C    0.974
    57   1 H    0.995 --    26 C    0.968
    58   1 H    0.899 --    27 O    0.850
    59   1 H    0.918 --    27 O    0.897
    60   8 O    1.832 --    62 H    0.922    50 H    0.897
    61   1 H    0.900 --    16 O    0.844
    62   1 H    0.923 --    60 O    0.922
    63   7 N    3.437 --    67 C    1.256     9 C    0.977    37 H    0.938
                            68 O    0.179
    64   6 C    3.953 --    65 O    1.696    72 N    1.262     9 C    0.928
    65   8 O    2.021 --    64 C    1.696    72 N    0.207
    66   6 C    3.990 --    67 C    0.994    70 H    0.982    71 H    0.972
                            69 H    0.950
    67   6 C    3.945 --    68 O    1.639    63 N    1.256    66 C    0.994
    68   8 O    2.000 --    67 C    1.639    63 N    0.179
    69   1 H    0.991 --    66 C    0.950
    70   1 H    0.998 --    66 C    0.982
    71   1 H    0.993 --    66 C    0.972
    72   7 N    3.451 --    64 C    1.262    73 C    1.004    38 H    0.942
                            65 O    0.207
    73   6 C    3.961 --    72 N    1.004    75 H    0.977    74 H    0.977
                            76 H    0.975
    74   1 H    0.997 --    73 C    0.977
    75   1 H    0.997 --    73 C    0.977
    76   1 H    0.992 --    73 C    0.975
 ---------------------------------------------------------------------------

Topologies differ in total number of bonds
Writing topology from bond orders to xtbtopo.mol

molecular dipole:
                 x           y           z       tot (Debye)
 q only:        0.745      -0.229      -0.466
   full:        0.449      -0.299      -0.562       1.980
molecular quadrupole (traceless):
                xx          xy          yy          xz          yz          zz
 q only:        9.829      21.441     -27.039     -22.865      -2.217      17.210
  q+dip:        9.443      20.133     -38.113     -27.797       0.389      28.671
   full:        7.443      21.638     -35.292     -28.814      -0.827      27.849

           -------------------------------------------------
          |               Frequency Printout                |
           -------------------------------------------------
 projected vibrational frequencies (cm⁻¹)
eigval :       -0.00    -0.00    -0.00     0.00     0.00     0.00
eigval :       -5.58     8.83    10.40    14.34    16.78    26.64
eigval :       28.75    31.70    37.96    43.75    51.55    57.87
eigval :       59.36    64.09    69.80    71.35    84.26    84.99
eigval :       95.69    96.21    96.59   107.34   114.11   116.07
eigval :      123.33   126.50   129.42   130.83   136.31   151.72
eigval :      155.55   167.58   173.11   185.01   202.65   218.17
eigval :      229.77   234.52   244.03   257.53   266.16   269.79
eigval :      272.78   290.59   292.21   296.68   315.76   328.11
eigval :      336.68   354.44   369.64   374.28   394.71   408.51
eigval :      417.23   420.79   438.01   449.26   459.84   475.37
eigval :      483.14   488.61   493.37   508.07   526.17   529.32
eigval :      552.24   554.90   555.72   583.92   596.63   605.67
eigval :      612.94   624.55   655.75   659.24   676.16   682.52
eigval :      696.01   702.32   726.30   734.19   743.22   769.62
eigval :      773.46   786.40   806.38   818.14   863.24   864.22
eigval :      865.40   875.07   890.67   894.32   896.04   916.39
eigval :      918.79   924.14   926.26   928.66   948.60   980.04
eigval :      990.94  1000.61  1003.34  1008.48  1012.54  1022.60
eigval :     1023.53  1034.91  1066.50  1070.97  1081.08  1101.75
eigval :     1106.39  1107.58  1118.12  1123.21  1125.91  1138.89
eigval :     1141.99  1155.30  1161.71  1170.24  1174.92  1191.62
eigval :     1195.10  1199.89  1212.91  1219.31  1220.52  1224.15
eigval :     1239.49  1247.04  1264.95  1267.45  1273.37  1283.70
eigval :     1294.78  1302.66  1308.25  1317.18  1321.40  1329.22
eigval :     1331.01  1353.12  1365.00  1366.61  1376.22  1393.57
eigval :     1396.23  1398.63  1409.16  1416.50  1419.98  1425.94
eigval :     1446.89  1449.19  1450.22  1461.97  1465.33  1473.26
eigval :     1474.75  1479.62  1482.14  1494.06  1495.27  1496.70
eigval :     1503.96  1507.22  1507.70  1543.44  1545.45  1565.77
eigval :     1575.78  1578.24  1594.54  1613.74  1629.49  1692.08
eigval :     1705.05  1760.20  2913.05  2931.80  2965.34  2973.48
eigval :     2978.32  2981.82  2985.93  2989.45  2991.94  2992.65
eigval :     3003.94  3007.97  3019.08  3029.63  3033.45  3036.02
eigval :     3036.35  3037.93  3044.85  3053.02  3058.01  3069.44
eigval :     3072.68  3075.24  3082.58  3083.60  3090.77  3093.38
eigval :     3093.60  3119.85  3249.86  3331.64  3393.97  3444.44
eigval :     3454.00  3485.96  3556.55  3562.75  3654.14  3670.68
 reduced masses (amu)
   1: 12.03   2: 11.76   3: 11.85   4: 11.84   5: 12.04   6: 11.97   7: 11.15   8: 11.38
   9: 11.83  10: 12.28  11: 13.37  12: 13.36  13: 13.17  14: 11.61  15: 11.49  16: 11.12
  17:  8.08  18: 10.14  19: 10.70  20: 10.10  21: 10.85  22: 11.14  23:  4.85  24:  6.82
  25: 11.57  26: 12.00  27:  7.66  28: 13.00  29: 10.45  30:  7.77  31:  6.80  32:  8.08
  33:  3.87  34:  4.76  35:  8.87  36:  9.94  37: 11.62  38:  9.47  39:  9.96  40:  3.90
  41: 11.56  42: 10.16  43:  5.97  44:  6.29  45: 10.18  46: 10.64  47:  5.53  48: 10.33
  49:  9.59  50: 10.09  51: 10.52  52: 12.21  53:  9.92  54:  1.89  55: 10.34  56: 10.52
  57: 10.03  58: 10.33  59:  9.35  60:  9.25  61:  9.35  62:  9.49  63:  2.58  64: 10.51
  65:  2.14  66:  8.60  67:  6.74  68: 10.88  69:  9.19  70:  4.52  71:  8.01  72:  9.37
  73:  7.07  74:  7.76  75:  7.16  76:  7.59  77: 11.10  78: 10.70  79:  9.77  80: 10.28
  81: 10.77  82: 10.36  83:  8.74  84:  4.80  85: 10.73  86: 11.15  87: 10.92  88:  6.99
  89:  2.42  90:  3.69  91:  8.02  92:  4.78  93:  9.56  94:  5.12  95:  3.68  96:  7.09
  97: 10.15  98:  7.41  99:  4.14 100:  6.89 101:  3.89 102:  2.91 103:  2.98 104:  8.60
 105:  8.59 106:  5.95 107:  6.40 108: 10.09 109:  5.12 110:  5.50 111:  6.77 112:  3.44
 113:  7.35 114:  6.00 115:  7.03 116:  4.36 117:  6.24 118:  7.12 119:  9.40 120:  7.00
 121:  8.56 122:  4.58 123:  7.94 124:  8.01 125:  7.56 126:  5.26 127:  5.94 128:  6.20
 129:  4.93 130:  5.33 131:  3.61 132:  4.70 133:  5.12 134:  2.38 135:  5.31 136:  5.33
 137:  4.73 138:  5.74 139:  4.41 140:  5.67 141:  4.26 142:  3.56 143:  5.54 144:  2.24
 145:  4.42 146:  4.85 147:  4.81 148:  9.91 149:  5.75 150:  6.72 151:  5.02 152:  9.82
 153: 11.08 154:  5.28 155:  3.29 156:  2.59 157:  4.96 158:  9.39 159:  7.99 160:  3.17
 161:  8.69 162:  8.88 163:  3.22 164:  6.93 165: 11.33 166:  1.56 167:  2.09 168:  1.73
 169:  2.18 170:  1.67 171:  2.30 172:  3.46 173:  9.09 174:  1.84 175:  1.53 176:  1.74
 177: 10.10 178:  2.17 179:  2.06 180:  2.19 181: 11.34 182: 11.51 183: 11.65 184: 11.53
 185: 11.64 186: 11.62 187: 13.13 188: 13.26 189:  1.74 190:  1.74 191:  1.89 192:  1.95
 193:  1.93 194:  1.85 195:  1.54 196:  1.44 197:  1.86 198:  1.56 199:  1.57 200:  1.63
 201:  1.78 202:  1.94 203:  1.94 204:  1.79 205:  1.73 206:  1.28 207:  1.51 208:  1.88
 209:  1.81 210:  1.81 211:  1.75 212:  1.80 213:  1.72 214:  1.85 215:  1.85 216:  1.86
 217:  1.88 218:  1.83 219:  1.88 220:  1.91 221:  1.83 222:  1.84 223:  1.84 224:  1.86
 225:  1.81 226:  1.86 227:  1.83 228:  1.84
 IR intensities (km·mol⁻¹)
   1:  0.01   2:  0.02   3:  0.01   4:  0.08   5:  0.01   6:  0.04   7:  0.57   8:  1.01
   9:  0.87  10:  3.55  11:  7.40  12:  4.49  13:  2.50  14:  0.84  15:  0.43  16:  1.10
  17:  3.70  18:  2.25  19:  2.09  20:  0.46  21:  0.34  22:  2.07  23: 34.14  24:  6.78
  25:  6.30  26:  1.51  27: 19.38  28:  1.85  29:  0.50  30:  1.12  31:  3.82  32:  4.33
  33: 12.89  34: 58.63  35:  1.81  36:  4.88  37:  4.21  38:  2.08  39:  6.69  40: 95.41
  41: 26.84  42: 16.48  43:  1.74  44:  0.22  45:  7.53  46:  7.22  47:128.48  48: 32.02
  49: 14.23  50: 12.62  51:  7.66  52:  5.97  53:  4.13  54:120.35  55:  6.24  56:  4.21
  57:  1.04  58:  7.79  59:  1.77  60:  2.51  61: 12.80  62: 13.33  63:104.79  64:  2.34
  65: 21.40  66: 36.30  67: 47.23  68:  1.16  69: 12.22  70: 49.75  71: 42.03  72:  6.90
  73: 54.89  74:155.30  75: 59.22  76: 12.07  77:  4.78  78:  9.10  79: 41.70  80:  0.39
  81:  5.87  82:  8.63  83: 76.07  84: 78.17  85:  1.53  86:  1.07  87: 28.42  88: 17.06
  89:176.57  90: 25.00  91: 21.74  92:  1.78  93: 15.50  94: 12.31  95:  0.16  96:  0.96
  97:  0.27  98:  0.05  99:  1.22 100:  1.75 101:  0.28 102:  4.14 103:  0.01 104:  0.98
 105:  3.57 106:  1.00 107:  4.01 108: 10.91 109:  1.83 110:  9.52 111: 37.95 112:  8.05
 113:  2.88 114: 10.75 115:  7.91 116:  6.53 117:  0.09 118: 38.78 119:  1.23 120:  9.51
 121: 10.66 122:  6.39 123:  7.49 124: 33.84 125:  0.51 126:  2.08 127:  5.47 128:  7.60
 129:  4.55 130:  5.61 131:  3.53 132:  3.99 133:  6.50 134:  8.85 135: 34.16 136: 23.22
 137:  1.21 138: 13.44 139: 51.68 140: 39.29 141:  9.42 142:  3.27 143: 28.33 144:  3.17
 145: 11.58 146:  3.41 147:  8.63 148: 41.16 149:  6.91 150: 22.31 151: 18.12 152: 31.57
 153: 20.28 154:  0.25 155: 46.19 156:  3.26 157:  7.34 158:186.60 159: 13.16 160:  0.47
 161:200.27 162:169.29 163: 32.47 164: 59.75 165: 57.93 166: 12.18 167: 10.80 168:  2.20
 169:  0.16 170:  5.65 171: 20.56 172:  1.75 173: 10.07 174:  1.17 175:  2.26 176:  3.56
 177:299.67 178:112.67 179: 84.01 180:179.87 181:  2.72 182:  0.24 183:  7.29 184:111.83
 185: 20.12 186:125.75 187:591.99 188:475.84 189: 21.12 190:  7.65 191:  4.39 192: 28.71
 193: 58.84 194: 28.74 195:  8.28 196: 46.30 197: 24.05 198: 59.55 199: 29.48 200: 20.65
 201:  0.91 202: 48.84 203: 58.38 204: 43.41 205:  2.09 206: 35.18 207: 13.87 208:  3.66
 209: 60.87 210: 33.00 211:  8.09 212: 13.14 213:  1.55 214: 88.23 215: 13.59 216:123.65
 217:  6.84 218: 16.92 219:575.33 220:452.76 221: 37.44 222:  6.49 223:  7.32 224:  9.62
 225: 91.26 226:127.37 227:  7.82 228:  3.83
 Raman intensities (Ä⁴*amu⁻¹)
   1:  0.00   2:  0.00   3:  0.00   4:  0.00   5:  0.00   6:  0.00   7:  0.00   8:  0.00
   9:  0.00  10:  0.00  11:  0.00  12:  0.00  13:  0.00  14:  0.00  15:  0.00  16:  0.00
  17:  0.00  18:  0.00  19:  0.00  20:  0.00  21:  0.00  22:  0.00  23:  0.00  24:  0.00
  25:  0.00  26:  0.00  27:  0.00  28:  0.00  29:  0.00  30:  0.00  31:  0.00  32:  0.00
  33:  0.00  34:  0.00  35:  0.00  36:  0.00  37:  0.00  38:  0.00  39:  0.00  40:  0.00
  41:  0.00  42:  0.00  43:  0.00  44:  0.00  45:  0.00  46:  0.00  47:  0.00  48:  0.00
  49:  0.00  50:  0.00  51:  0.00  52:  0.00  53:  0.00  54:  0.00  55:  0.00  56:  0.00
  57:  0.00  58:  0.00  59:  0.00  60:  0.00  61:  0.00  62:  0.00  63:  0.00  64:  0.00
  65:  0.00  66:  0.00  67:  0.00  68:  0.00  69:  0.00  70:  0.00  71:  0.00  72:  0.00
  73:  0.00  74:  0.00  75:  0.00  76:  0.00  77:  0.00  78:  0.00  79:  0.00  80:  0.00
  81:  0.00  82:  0.00  83:  0.00  84:  0.00  85:  0.00  86:  0.00  87:  0.00  88:  0.00
  89:  0.00  90:  0.00  91:  0.00  92:  0.00  93:  0.00  94:  0.00  95:  0.00  96:  0.00
  97:  0.00  98:  0.00  99:  0.00 100:  0.00 101:  0.00 102:  0.00 103:  0.00 104:  0.00
 105:  0.00 106:  0.00 107:  0.00 108:  0.00 109:  0.00 110:  0.00 111:  0.00 112:  0.00
 113:  0.00 114:  0.00 115:  0.00 116:  0.00 117:  0.00 118:  0.00 119:  0.00 120:  0.00
 121:  0.00 122:  0.00 123:  0.00 124:  0.00 125:  0.00 126:  0.00 127:  0.00 128:  0.00
 129:  0.00 130:  0.00 131:  0.00 132:  0.00 133:  0.00 134:  0.00 135:  0.00 136:  0.00
 137:  0.00 138:  0.00 139:  0.00 140:  0.00 141:  0.00 142:  0.00 143:  0.00 144:  0.00
 145:  0.00 146:  0.00 147:  0.00 148:  0.00 149:  0.00 150:  0.00 151:  0.00 152:  0.00
 153:  0.00 154:  0.00 155:  0.00 156:  0.00 157:  0.00 158:  0.00 159:  0.00 160:  0.00
 161:  0.00 162:  0.00 163:  0.00 164:  0.00 165:  0.00 166:  0.00 167:  0.00 168:  0.00
 169:  0.00 170:  0.00 171:  0.00 172:  0.00 173:  0.00 174:  0.00 175:  0.00 176:  0.00
 177:  0.00 178:  0.00 179:  0.00 180:  0.00 181:  0.00 182:  0.00 183:  0.00 184:  0.00
 185:  0.00 186:  0.00 187:  0.00 188:  0.00 189:  0.00 190:  0.00 191:  0.00 192:  0.00
 193:  0.00 194:  0.00 195:  0.00 196:  0.00 197:  0.00 198:  0.00 199:  0.00 200:  0.00
 201:  0.00 202:  0.00 203:  0.00 204:  0.00 205:  0.00 206:  0.00 207:  0.00 208:  0.00
 209:  0.00 210:  0.00 211:  0.00 212:  0.00 213:  0.00 214:  0.00 215:  0.00 216:  0.00
 217:  0.00 218:  0.00 219:  0.00 220:  0.00 221:  0.00 222:  0.00 223:  0.00 224:  0.00
 225:  0.00 226:  0.00 227:  0.00 228:  0.00
 output can be read by thermo (or use thermo option).
 writing <g98.out> molden fake output.
 recommended (thermochemical) frequency scaling factor: 1.0
           -------------------------------------------------
          |             Thermodynamic Functions             |
           -------------------------------------------------

Refinement of some symmetry elements was terminated before convergence was reached.
Some symmetry elements may remain unidentified.
Molecule has no symmetry elements
It seems to be the C1 point group
c1  symmetry found (for desy threshold:  0.10E+00) used in thermo
 inverting freq            1   5.57935542698960     

          ...................................................
          :                      SETUP                      :
          :.................................................:
          :  # frequencies                         222      :
          :  # imaginary freq.                       0      :
          :  linear?                             false      :
          :  only rotor calc.                    false      :
          :  symmetry                               c1      :
          :  rotational number                       1      :
          :  scaling factor                  1.0000000      :
          :  rotor cutoff                   50.0000000 cm⁻¹ :
          :  imag. cutoff                  -20.0000000 cm⁻¹ :
          :.................................................:

    mode    ω/cm⁻¹     T·S(HO)/kcal·mol⁻¹    T·S(FR)/kcal·mol⁻¹   T·S(vib)
   ------------------------------------------------------------------------
       1      5.58    -2.73417 (  0.02%)    -1.70609 ( 99.98%)    -1.70625
       2      8.83    -2.46245 (  0.10%)    -1.57025 ( 99.90%)    -1.57112
       3     10.40    -2.36529 (  0.19%)    -1.52167 ( 99.81%)    -1.52325
       4     14.34    -2.17518 (  0.67%)    -1.42661 ( 99.33%)    -1.43163
       5     16.78    -2.08200 (  1.25%)    -1.38000 ( 98.75%)    -1.38879
       6     26.64    -1.80831 (  7.46%)    -1.24304 ( 92.54%)    -1.28520
       7     28.75    -1.76317 (  9.86%)    -1.22044 ( 90.14%)    -1.27394
       8     31.70    -1.70543 ( 13.91%)    -1.19152 ( 86.09%)    -1.26301
       9     37.96    -1.59894 ( 24.93%)    -1.13816 ( 75.07%)    -1.25305
      10     43.75    -1.51510 ( 36.95%)    -1.09610 ( 63.05%)    -1.25093
      11     51.55    -1.41833 ( 53.05%)    -1.04751 ( 46.95%)    -1.24421
      12     57.87    -1.35021 ( 64.21%)    -1.01325 ( 35.79%)    -1.22961
      13     59.36    -1.33521 ( 66.52%)    -1.00570 ( 33.48%)    -1.22488
      14     64.09    -1.29009 ( 72.97%)    -0.98297 ( 27.03%)    -1.20709
      15     69.80    -1.24002 ( 79.15%)    -0.95772 ( 20.85%)    -1.18118
      16     71.35    -1.22709 ( 80.57%)    -0.95119 ( 19.43%)    -1.17349
      17     84.26    -1.12970 ( 88.97%)    -0.90193 ( 11.03%)    -1.10458
      18     84.99    -1.12470 ( 89.30%)    -0.89939 ( 10.70%)    -1.10060
      19     95.69    -1.05554 ( 93.06%)    -0.86426 (  6.94%)    -1.04227
      20     96.21    -1.05240 ( 93.20%)    -0.86266 (  6.80%)    -1.03949
      21     96.59    -1.05010 ( 93.30%)    -0.86149 (  6.70%)    -1.03746
      22    107.34    -0.98881 ( 95.50%)    -0.83023 (  4.50%)    -0.98168
      23    114.11    -0.95340 ( 96.45%)    -0.81210 (  3.55%)    -0.94837
      24    116.07    -0.94358 ( 96.67%)    -0.80706 (  3.33%)    -0.93904
      25    123.33    -0.90859 ( 97.37%)    -0.78907 (  2.63%)    -0.90545
      26    126.50    -0.89404 ( 97.62%)    -0.78157 (  2.38%)    -0.89136
      27    129.42    -0.88091 ( 97.82%)    -0.77480 (  2.18%)    -0.87860
      28    130.83    -0.87470 ( 97.91%)    -0.77159 (  2.09%)    -0.87254
      29    136.31    -0.85121 ( 98.22%)    -0.75943 (  1.78%)    -0.84957
      30    151.72    -0.79025 ( 98.83%)    -0.72771 (  1.17%)    -0.78952
      31    155.55    -0.77616 ( 98.94%)    -0.72034 (  1.06%)    -0.77557
      32    167.58    -0.73417 ( 99.21%)    -0.69826 (  0.79%)    -0.73389
      33    173.11    -0.71598 ( 99.31%)    -0.68864 (  0.69%)    -0.71579
      34    185.01    -0.67896 ( 99.47%)    -0.66895 (  0.53%)    -0.67890
      35    202.65    -0.62877 ( 99.63%)    -0.64197 (  0.37%)    -0.62882
      36    218.17    -0.58860 ( 99.72%)    -0.62010 (  0.28%)    -0.58869
      37    229.77    -0.56075 ( 99.78%)    -0.60477 (  0.22%)    -0.56085
      38    234.52    -0.54981 ( 99.79%)    -0.59870 (  0.21%)    -0.54991
      39    244.03    -0.52872 ( 99.82%)    -0.58693 (  0.18%)    -0.52882
      40    257.53    -0.50042 ( 99.86%)    -0.57097 (  0.14%)    -0.50052
      41    266.16    -0.48331 ( 99.88%)    -0.56121 (  0.12%)    -0.48341
      42    269.79    -0.47631 ( 99.88%)    -0.55720 (  0.12%)    -0.47641
      43    272.78    -0.47064 ( 99.89%)    -0.55394 (  0.11%)    -0.47074
      44    290.59    -0.43843 ( 99.91%)    -0.53519 (  0.09%)    -0.43852
      45    292.21    -0.43563 ( 99.91%)    -0.53354 (  0.09%)    -0.43571
      46    296.68    -0.42802 ( 99.92%)    -0.52905 (  0.08%)    -0.42810
   ------------------------------------------------------------------------

   temp. (K)  partition function   enthalpy   heat capacity  entropy
                                   cal/mol     cal/K/mol   cal/K/mol   J/K/mol
 298.15  VIB  0.159E+25            26535.631    143.439    176.336
         ROT  0.437E+08              888.752      2.981     37.944
         INT  0.697E+32            27424.383    146.420    214.280
         TR   0.108E+29             1481.254      4.968     44.499
         TOT                       28905.6371   151.3885   258.7792  1082.7321

       T/K    H(0)-H(T)+PV         H(T)/Eh          T*S/Eh         G(T)/Eh
   ------------------------------------------------------------------------
    298.15    0.460641E-01    0.668631E+00    0.122954E+00    0.545677E+00
   ------------------------------------------------------------------------

         :::::::::::::::::::::::::::::::::::::::::::::::::::::
         ::                  THERMODYNAMIC                  ::
         :::::::::::::::::::::::::::::::::::::::::::::::::::::
         :: total free energy        -109.727689337279 Eh   ::
         ::.................................................::
         :: total energy             -110.273366239731 Eh   ::
         :: zero point energy           0.622567181520 Eh   ::
         :: G(RRHO) w/o ZPVE           -0.076890279069 Eh   ::
         :: G(RRHO) contrib.            0.545676902452 Eh   ::
         :::::::::::::::::::::::::::::::::::::::::::::::::::::
imag cut-off (cm-1) :    5.00
 found            1  significant imaginary frequency
 writing imag mode distorted coords to xtbhess.xyz
 for further optimization.

           -------------------------------------------------
          | TOTAL ENERGY             -110.273366239731 Eh   |
          | TOTAL ENTHALPY           -109.604734993405 Eh   |
          | TOTAL FREE ENERGY        -109.727689337279 Eh   |
          | GRADIENT NORM               0.000240415701 Eh/α |
          | HOMO-LUMO GAP               2.970778079304 eV   |
           -------------------------------------------------

------------------------------------------------------------------------
 * finished run on 2026/08/20 at 01:02:46.966     
------------------------------------------------------------------------
 total:
 * wall-time:     0 d,  0 h,  2 min, 19.252 sec
 *  cpu-time:     0 d,  0 h,  1 min, 39.281 sec
 * ratio c/w:     0.713 speedup
 SCF:
 * wall-time:     0 d,  0 h,  0 min,  0.128 sec
 *  cpu-time:     0 d,  0 h,  0 min,  0.141 sec
 * ratio c/w:     1.099 speedup
 analytical hessian:
 * wall-time:     0 d,  0 h,  2 min, 18.969 sec
 *  cpu-time:     0 d,  0 h,  1 min, 39.047 sec
 * ratio c/w:     0.713 speedup

