      -----------------------------------------------------------      
     |                   =====================                   |     
     |                           x T B                           |     
     |                   =====================                   |     
     |                         S. Grimme                         |     
     |          Mulliken Center for Theoretical Chemistry        |     
     |                    University of Bonn                     |     
      -----------------------------------------------------------      

   * xtb version 6.7.1pre (5071a88) compiled by 'Marcel@Raven' on 2024-07-23

   xtb is free software: you can redistribute it and/or modify it under
   the terms of the GNU Lesser General Public License as published by
   the Free Software Foundation, either version 3 of the License, or
   (at your option) any later version.
   
   xtb is distributed in the hope that it will be useful,
   but WITHOUT ANY WARRANTY; without even the implied warranty of
   MERCHANTABILITY or FITNESS FOR A PARTICULAR PURPOSE.  See the
   GNU Lesser General Public License for more details.
   
   Cite this work as:
   * C. Bannwarth, E. Caldeweyher, S. Ehlert, A. Hansen, P. Pracht,
     J. Seibert, S. Spicher, S. Grimme, WIREs Comput. Mol. Sci., 2020, 11,
     e01493. DOI: 10.1002/wcms.1493
   
   for GFN2-xTB:
   * C. Bannwarth, S. Ehlert and S. Grimme., J. Chem. Theory Comput., 2019,
     15, 1652-1671. DOI: 10.1021/acs.jctc.8b01176
   for GFN1-xTB:
   * S. Grimme, C. Bannwarth, P. Shushkov, J. Chem. Theory Comput., 2017,
     13, 1989-2009. DOI: 10.1021/acs.jctc.7b00118
   for GFN0-xTB:
   * P. Pracht, E. Caldeweyher, S. Ehlert, S. Grimme, ChemRxiv, 2019, preprint.
     DOI: 10.26434/chemrxiv.8326202.v1
   for GFN-FF:
   * S. Spicher and S. Grimme, Angew. Chem. Int. Ed., 2020, 59, 15665-15673.
     DOI: 10.1002/anie.202004239
   
   for ALPB and GBSA implicit solvation:
   * S. Ehlert, M. Stahn, S. Spicher, S. Grimme, J. Chem. Theory Comput.,
     2021, 17, 4250-4261. DOI: 10.1021/acs.jctc.1c00471
   
   for ddCOSMO and CPCM-X implicit solvation:
   * M. Stahn, S. Ehlert, S. Grimme, J. Phys. Chem. A,
     2023, XX, XXXX-XXXX. DOI: 10.1021/acs.jpca.3c04382
   
   for DFT-D4:
   * E. Caldeweyher, C. Bannwarth and S. Grimme, J. Chem. Phys., 2017,
     147, 034112. DOI: 10.1063/1.4993215
   * E. Caldeweyher, S. Ehlert, A. Hansen, H. Neugebauer, S. Spicher,
     C. Bannwarth and S. Grimme, J. Chem. Phys., 2019, 150, 154122.
     DOI: 10.1063/1.5090222
   * E. Caldeweyher, J.-M. Mewes, S. Ehlert and S. Grimme, Phys. Chem. Chem. Phys.
     2020, 22, 8499-8512. DOI: 10.1039/D0CP00502A
   
   for sTDA-xTB:
   * S. Grimme and C. Bannwarth, J. Chem. Phys., 2016, 145, 054103.
     DOI: 10.1063/1.4959605
   
   in the mass-spec context:
   * V. Asgeirsson, C. Bauer and S. Grimme, Chem. Sci., 2017, 8, 4879.
     DOI: 10.1039/c7sc00601b
   * J. Koopman and S. Grimme, ACS Omega 2019, 4, 12, 15120-15133.
     DOI: 10.1021/acsomega.9b02011
   
   for metadynamics refer to:
   * S. Grimme, J. Chem. Theory Comput., 2019, 155, 2847-2862
     DOI: 10.1021/acs.jctc.9b00143
   
   for SPH calculations refer to:
   * S. Spicher and S. Grimme, J. Chem. Theory Comput., 2021, 17, 1701-1714
     DOI: 10.1021/acs.jctc.0c01306
   
   for ONIOM refer to:
   * C. Plett, A. Katbashev, S. Ehlert, S. Grimme, M. Bursch,
     Phys. Chem. Chem. Phys., 2023, 25, 17860-17868. DOI: 10.1039/D3CP02178E
   
   for DIPRO refer to:
   * J. Kohn, N. Gildemeister, S. Grimme, D. Fazzi, A. Hansen,
     J. Chem. Phys., 2023, just accepted.
   
   for PTB refer to:
   * S. Grimme, M. Mueller, A. Hansen, J. Chem. Phys., 2023, 158, 124111.
     DOI: 10.1063/5.0137838
   
   with help from (in alphabetical order)
   P. Atkinson, C. Bannwarth, F. Bohle, G. Brandenburg, E. Caldeweyher
   M. Checinski, S. Dohm, S. Ehlert, S. Ehrlich, I. Gerasimov, C. Hölzer
   A. Katbashev, J. Kohn, J. Koopman, C. Lavigne, S. Lehtola, F. März, M. Müller,
   F. Musil, H. Neugebauer, J. Pisarek, C. Plett, P. Pracht, F. Pultar,
   J. Seibert, P. Shushkov, S. Spicher, M. Stahn, M. Steiner, T. Strunk,
   J. Stückrath, T. Rose, and J. Unsleber
   
 * started run on 2026/08/20 at 20:23:33.670     
   ID    Z sym.   atoms
    1    7 N      1, 17, 63, 72
    2    6 C      2-15, 18-26, 64, 66, 67, 73
    3    8 O      16, 27, 60, 65, 68
    4    1 H      28-59, 61, 62, 69-71, 74-76

           -------------------------------------------------
          |                Calculation Setup                |
           -------------------------------------------------

          program call               : C:\Users\Nayanika\Downloads\xtb-6.7.1pre-windows-x86_64\xtb-6.7.1\bin\xtb.exe D:\PhD_Thesis\LmrR_EVB\charges\fast_lmrr_5QM\xtb_preparation\stage2_five_xtb_protocols\GFN1_tight\TS2_1a_to_PS2_2\TS2_1a_to_PS2_2_RS_xtbopt.xyz --gfn 1 --chrg 0 --uhf 0 --hess --etemp 0
          coordinate file            : D:\PhD_Thesis\LmrR_EVB\charges\fast_lmrr_5QM\xtb_preparation\stage2_five_xtb_protocols\GFN1_tight\TS2_1a_to_PS2_2\TS2_1a_to_PS2_2_RS_xtbopt.xyz
          omp threads                :                     8


molecular fragmentation (1/2 indicates fragments):
111111111111111211111111112121111111111111111111121111111222221111111111
1111
# atoms in fragment 1/2:    67     9
 fragment masses (1/2) :      446.59       54.05
CMA distance (Bohr)    :   4.712
constraining FC (au)   :  0.0500

           -------------------------------------------------
          |                 G F N 1 - x T B                 |
           -------------------------------------------------

        Reference                      10.1021/acs.jctc.7b00118
      * Hamiltonian:
        H0-scaling (s, p, d)           1.850000    2.250000    2.000000
        zeta-weighting                 0.000000
      * Dispersion:
        s8                             2.400000
        a1                             0.630000
        a2                             5.000000
        s9                             0.000000
      * Repulsion:
        kExp                           1.500000
        rExp                           1.000000
      * Coulomb:
        alpha                          2.000000
        third order                    atomic
        anisotropic                    false
      * Halogen bond correction:
        rad-scale                      1.300000
        damping                        0.440000

q/qsh data taken from xtbrestart

          ...................................................
          :                      SETUP                      :
          :.................................................:
          :  # basis functions                 224          :
          :  # atomic orbitals                 224          :
          :  # shells                          152          :
          :  # electrons                       198          :
          :  # halogen bonds                     0          :
          :  max. iterations                   250          :
          :  Hamiltonian                  GFN1-xTB          :
          :  restarted?                       true          :
          :  GBSA solvation                  false          :
          :  PC potential                    false          :
          :  electronic temp.            0.0000000     K    :
          :  accuracy                    1.0000000          :
          :  -> integral cutoff          0.2500000E+02      :
          :  -> integral neglect         0.1000000E-07      :
          :  -> SCF convergence          0.1000000E-05 Eh   :
          :  -> wf. convergence          0.2000000E-04 e    :
          :  Broyden damping             0.4000000          :
          :  net charge                          0          :
          :  unpaired electrons                  0          :
          ...................................................

 iter      E             dE          RMSdq      gap      omega  full diag
   1   -116.4351681 -0.116435E+03  0.456E-08    3.21       0.0  T
   2   -116.4351681  0.113687E-12  0.230E-08    3.21  100000.0  T
   3   -116.4351681 -0.596856E-12  0.135E-08    3.21  100000.0  T

   *** convergence criteria satisfied after 3 iterations ***

         #    Occupation            Energy/Eh            Energy/eV
      -------------------------------------------------------------
         1        2.0000           -0.8108648             -22.0648
       ...           ...                  ...                  ...
        93        2.0000           -0.4404789             -11.9860
        94        2.0000           -0.4347783             -11.8309
        95        2.0000           -0.4323189             -11.7640
        96        2.0000           -0.4219609             -11.4821
        97        2.0000           -0.4083644             -11.1122
        98        2.0000           -0.3919765             -10.6662
        99        2.0000           -0.3817583             -10.3882 (HOMO)
       100                         -0.2637684              -7.1775 (LUMO)
       101                         -0.2563749              -6.9763
       102                         -0.2554483              -6.9511
       103                         -0.2461115              -6.6970
       104                         -0.2399195              -6.5285
       ...                                ...                  ...
       224                          0.7125953              19.3907
      -------------------------------------------------------------
                  HL-Gap            0.1179899 Eh            3.2107 eV
             Fermi-level            0.0000000 Eh            0.0000 eV

 SCC (total)                   0 d,  0 h,  0 min,  0.110 sec
 SCC setup                      ...        0 min,  0.000 sec (  0.000%)
 Dispersion                     ...        0 min,  0.000 sec (  0.000%)
 classical contributions        ...        0 min,  0.000 sec (  0.000%)
 integral evaluation            ...        0 min,  0.018 sec ( 16.364%)
 iterations                     ...        0 min,  0.067 sec ( 60.909%)
 molecular gradient             ...        0 min,  0.023 sec ( 20.909%)
 printout                       ...        0 min,  0.002 sec (  1.818%)

         :::::::::::::::::::::::::::::::::::::::::::::::::::::
         ::                     SUMMARY                     ::
         :::::::::::::::::::::::::::::::::::::::::::::::::::::
         :: total energy            -114.990954323535 Eh    ::
         :: gradient norm              0.000278549003 Eh/a0 ::
         :: HOMO-LUMO gap              3.210667262631 eV    ::
         ::.................................................::
         :: SCC energy              -116.435168133664 Eh    ::
         :: -> electrostatic           0.307189053901 Eh    ::
         :: repulsion energy           1.502630130558 Eh    ::
         :: dispersion energy         -0.058416320428 Eh    ::
         :: halogen bond corr.         0.000000000000 Eh    ::
         :: add. restraining           0.000000000000 Eh    ::
         :: total charge               0.000000000000 e     ::
         :::::::::::::::::::::::::::::::::::::::::::::::::::::

           ------------------------------------------------- 
          |                Numerical Hessian                |
           ------------------------------------------------- 
step length          :   0.00500
SCC accuracy         :   0.30000
Hessian scale factor :   1.00000
frozen atoms in %    :   0.00000    0
RMS gradient         :   0.00028
estimated CPU  time     22.66 min
estimated wall time      3.32 min

writing file <hessian>.

 projected vibrational frequencies (cm⁻¹)
eigval :       -0.00    -0.00    -0.00    -0.00     0.00     0.00
eigval :        4.54     6.89    20.98    23.90    28.45    31.00
eigval :       31.92    37.40    41.16    49.38    51.69    53.27
eigval :       54.51    65.37    69.24    69.98    72.94    76.52
eigval :       85.86    96.88   104.18   110.41   111.03   114.47
eigval :      115.68   117.61   124.47   128.62   133.31   138.92
eigval :      142.88   148.76   155.38   159.72   163.21   170.78
eigval :      174.35   194.47   202.93   209.25   214.69   230.56
eigval :      236.22   243.65   262.84   266.78   286.18   289.56
eigval :      297.09   305.32   317.03   331.45   357.96   361.94
eigval :      372.25   383.52   394.87   397.91   407.97   427.85
eigval :      438.60   446.44   451.03   467.06   479.63   485.87
eigval :      508.81   521.08   535.33   543.78   564.29   571.95
eigval :      593.37   600.81   605.17   606.72   644.74   651.17
eigval :      671.38   690.70   698.86   720.66   731.80   743.95
eigval :      751.80   784.18   797.62   804.79   840.08   844.55
eigval :      859.73   866.96   876.54   882.41   884.16   899.37
eigval :      908.99   915.71   916.63   918.14   935.64   968.91
eigval :      971.66   978.49   987.02   995.55  1007.31  1013.93
eigval :     1020.28  1027.99  1050.78  1063.47  1068.66  1083.83
eigval :     1100.73  1107.07  1112.59  1115.33  1119.07  1120.50
eigval :     1130.59  1134.97  1143.91  1154.93  1158.20  1161.76
eigval :     1178.22  1185.10  1203.58  1210.19  1213.62  1219.17
eigval :     1223.67  1242.79  1251.70  1258.43  1271.64  1272.77
eigval :     1279.33  1293.31  1294.26  1300.43  1302.84  1316.41
eigval :     1322.82  1327.52  1348.47  1350.84  1359.10  1370.18
eigval :     1381.68  1385.60  1394.38  1397.53  1402.15  1423.15
eigval :     1430.74  1432.86  1433.05  1438.31  1440.93  1444.64
eigval :     1447.69  1449.12  1453.37  1453.74  1457.74  1463.94
eigval :     1474.11  1475.82  1480.13  1482.20  1488.39  1492.95
eigval :     1579.62  1584.86  1585.47  1603.35  1621.46  1687.94
eigval :     1747.34  1755.37  2958.66  2983.48  2987.37  3000.57
eigval :     3015.24  3021.19  3023.77  3024.63  3029.89  3041.34
eigval :     3045.07  3047.02  3052.67  3058.76  3071.60  3079.34
eigval :     3081.28  3085.73  3089.76  3090.68  3093.43  3102.29
eigval :     3103.55  3107.73  3110.01  3115.23  3115.56  3116.25
eigval :     3120.20  3120.40  3451.66  3495.29  3509.29  3539.34
eigval :     3582.36  3633.11  3649.54  3668.31  3750.98  3756.29
           -------------------------------------------------
          |                Property Printout                |
           -------------------------------------------------

    * Orbital Energies and Occupations

         #    Occupation            Energy/Eh            Energy/eV
      -------------------------------------------------------------
         1        2.0000           -0.8108648             -22.0648
       ...           ...                  ...                  ...
        87        2.0000           -0.4622982             -12.5798
        88        2.0000           -0.4615957             -12.5607
        89        2.0000           -0.4600311             -12.5181
        90        2.0000           -0.4530961             -12.3294
        91        2.0000           -0.4504332             -12.2569
        92        2.0000           -0.4432896             -12.0625
        93        2.0000           -0.4404789             -11.9860
        94        2.0000           -0.4347783             -11.8309
        95        2.0000           -0.4323189             -11.7640
        96        2.0000           -0.4219609             -11.4821
        97        2.0000           -0.4083644             -11.1122
        98        2.0000           -0.3919765             -10.6662
        99        2.0000           -0.3817583             -10.3882 (HOMO)
       100                         -0.2637684              -7.1775 (LUMO)
       101                         -0.2563749              -6.9763
       102                         -0.2554483              -6.9511
       103                         -0.2461115              -6.6970
       104                         -0.2399195              -6.5285
       105                         -0.2334130              -6.3515
       106                         -0.2223118              -6.0494
       107                         -0.1951685              -5.3108
       108                         -0.1855405              -5.0488
       109                         -0.1546451              -4.2081
       110                         -0.1468407              -3.9957
       ...                                ...                  ...
       224                          0.7125953              19.3907
      -------------------------------------------------------------
                  HL-Gap            0.1179899 Eh            3.2107 eV
             Fermi-level            0.0000000 Eh            0.0000 eV

  Mulliken/CM5 charges         n(s)   n(p)   n(d)
     1N    -0.34633 -0.69804   1.443  3.904  0.000
     2C     0.14198  0.19128   1.045  2.813  0.000
     3C    -0.04971 -0.09927   1.057  2.993  0.000
     4C    -0.03070 -0.08419   1.057  2.973  0.000
     5C    -0.00684 -0.02034   1.080  2.927  0.000
     6C    -0.03995 -0.09280   1.058  2.982  0.000
     7C    -0.05614 -0.10532   1.060  2.996  0.000
     8C    -0.05265 -0.14789   1.035  3.018  0.000
     9C     0.08471  0.08936   1.049  2.867  0.000
    10C     0.10242  0.10572   1.025  2.873  0.000
    11C    -0.11547 -0.17213   1.066  3.050  0.000
    12C     0.00524 -0.05451   1.049  2.946  0.000
    13C    -0.05197 -0.16054   1.040  3.012  0.000
    14C    -0.03431 -0.14740   1.030  3.005  0.000
    15C    -0.08265 -0.23423   1.007  3.076  0.000
    16O    -0.68523 -1.02988   1.708  4.978  0.000
    17N    -0.28247 -0.64083   1.419  3.864  0.000
    18C     0.11344  0.17541   1.034  2.853  0.000
    19C    -0.03420 -0.03168   1.074  2.960  0.000
    20C    -0.08680 -0.08753   1.078  3.009  0.000
    21C    -0.06623 -0.11495   1.051  3.015  0.000
    22C    -0.04267 -0.09531   1.054  2.989  0.000
    23C     0.11405  0.16526   1.053  2.833  0.000
    24C    -0.03711 -0.09241   1.053  2.984  0.000
    25C    -0.04716 -0.10264   1.052  2.995  0.000
    26C    -0.09634 -0.23719   1.008  3.088  0.000
    27O    -0.66790 -1.02235   1.697  4.971  0.000
    28H     0.21604  0.41063   0.784  0.000  0.000
    29H     0.34368  0.52167   0.656  0.000  0.000
    30H     0.03471  0.09508   0.965  0.000  0.000
    31H     0.03063  0.08780   0.969  0.000  0.000
    32H     0.02102  0.07918   0.979  0.000  0.000
    33H     0.03931  0.10089   0.961  0.000  0.000
    34H     0.03503  0.09523   0.965  0.000  0.000
    35H     0.05523  0.11543   0.945  0.000  0.000
    36H     0.07122  0.15026   0.929  0.000  0.000
    37H     0.22077  0.41891   0.779  0.000  0.000
    38H     0.22509  0.42815   0.775  0.000  0.000
    39H     0.01965  0.08724   0.980  0.000  0.000
    40H     0.04534  0.11074   0.955  0.000  0.000
    41H     0.01261  0.07682   0.987  0.000  0.000
    42H     0.01426  0.07147   0.986  0.000  0.000
    43H     0.02888  0.08786   0.971  0.000  0.000
    44H     0.03375  0.09571   0.966  0.000  0.000
    45H     0.00423  0.06020   0.996  0.000  0.000
    46H     0.02423  0.07587   0.976  0.000  0.000
    47H     0.01922  0.07102   0.981  0.000  0.000
    48H     0.03985  0.09467   0.960  0.000  0.000
    49H     0.23298  0.42802   0.767  0.000  0.000
    50H     0.32961  0.50206   0.670  0.000  0.000
    51H     0.02893  0.08657   0.971  0.000  0.000
    52H     0.01555  0.07221   0.984  0.000  0.000
    53H     0.02558  0.08147   0.974  0.000  0.000
    54H     0.02320  0.07907   0.977  0.000  0.000
    55H     0.04478  0.10021   0.955  0.000  0.000
    56H     0.04837  0.10534   0.952  0.000  0.000
    57H     0.03868  0.09241   0.961  0.000  0.000
    58H     0.33982  0.50850   0.660  0.000  0.000
    59H     0.34287  0.51125   0.657  0.000  0.000
    60O    -0.67026 -1.01101   1.695  4.975  0.000
    61H     0.32302  0.50036   0.677  0.000  0.000
    62H     0.33440  0.50280   0.666  0.000  0.000
    63N    -0.37068 -0.73423   1.438  3.933  0.000
    64C     0.46113  0.56318   0.993  2.546  0.000
    65O    -0.55436 -0.60280   1.723  4.832  0.000
    66C    -0.13428 -0.27290   1.023  3.111  0.000
    67C     0.48299  0.57146   0.998  2.519  0.000
    68O    -0.54825 -0.60498   1.724  4.824  0.000
    69H     0.03584  0.09186   0.964  0.000  0.000
    70H     0.06252  0.12072   0.937  0.000  0.000
    71H     0.06917  0.12868   0.931  0.000  0.000
    72N    -0.34279 -0.70863   1.418  3.925  0.000
    73C     0.06692 -0.02187   0.979  2.954  0.000
    74H     0.03334  0.09391   0.967  0.000  0.000
    75H     0.02974  0.09034   0.970  0.000  0.000
    76H     0.06742  0.13555   0.933  0.000  0.000

Wiberg/Mayer (AO) data.
largest (>0.10) Wiberg bond orders for each atom

 ---------------------------------------------------------------------------
     #   Z sym  total        # sym  WBO       # sym  WBO       # sym  WBO
 ---------------------------------------------------------------------------
     1   7 N    3.234 --    10 C    1.059     2 C    1.036    28 H    0.921
                            11 C    0.103
     2   6 C    3.958 --     7 C    1.385     3 C    1.374     1 N    1.036
     3   6 C    3.994 --     4 C    1.461     2 C    1.374    30 H    0.971
                             6 C    0.103
     4   6 C    3.995 --     3 C    1.461     5 C    1.402    31 H    0.973
                             7 C    0.104
     5   6 C    3.988 --     6 C    1.410     4 C    1.402     8 C    1.012
     6   6 C    3.995 --     7 C    1.449     5 C    1.410    32 H    0.972
                             3 C    0.103
     7   6 C    3.992 --     6 C    1.449     2 C    1.385    33 H    0.970
                             4 C    0.104
     8   6 C    3.993 --     5 C    1.012    34 H    0.976    35 H    0.968
                             9 C    0.966
     9   6 C    3.941 --     8 C    0.966    36 H    0.948    63 N    0.943
                            64 C    0.943
    10   6 C    3.957 --    11 C    1.813     1 N    1.059    39 H    0.970
    11   6 C    3.981 --    10 C    1.813    12 C    0.999    40 H    0.960
                             1 N    0.103
    12   6 C    3.995 --    11 C    0.999    20 C    0.988    13 C    0.978
                            41 H    0.960
    13   6 C    3.996 --    14 C    1.004    12 C    0.978    42 H    0.978
                            43 H    0.974
    14   6 C    3.996 --    15 C    1.015    13 C    1.004    45 H    0.975
                            44 H    0.970
    15   6 C    3.996 --    14 C    1.015    47 H    0.988    46 H    0.987
                            48 H    0.985
    16   8 O    1.817 --    61 H    0.875    29 H    0.862
    17   7 N    3.423 --    23 C    1.145    18 C    1.140    49 H    0.912
    18   6 C    3.939 --    21 C    1.347    19 C    1.253    17 N    1.140
    19   6 C    3.985 --    22 C    1.337    18 C    1.253    20 C    1.201
    20   6 C    3.968 --    23 C    1.547    19 C    1.201    12 C    0.988
    21   6 C    3.992 --    24 C    1.488    18 C    1.347    51 H    0.973
                            22 C    0.110
    22   6 C    3.993 --    25 C    1.499    19 C    1.337    52 H    0.971
                            21 C    0.110
    23   6 C    3.932 --    20 C    1.547    17 N    1.145    26 C    1.025
    24   6 C    3.992 --    21 C    1.488    25 C    1.376    53 H    0.975
    25   6 C    3.993 --    22 C    1.499    24 C    1.376    54 H    0.974
    26   6 C    3.994 --    23 C    1.025    55 H    0.980    56 H    0.972
                            57 H    0.971
    27   8 O    1.826 --    59 H    0.881    58 H    0.879
    28   1 H    0.969 --     1 N    0.921
    29   1 H    0.903 --    16 O    0.862
    30   1 H    1.005 --     3 C    0.971
    31   1 H    1.001 --     4 C    0.973
    32   1 H    1.005 --     6 C    0.972
    33   1 H    1.009 --     7 C    0.970
    34   1 H    1.004 --     8 C    0.976
    35   1 H    1.010 --     8 C    0.968
    36   1 H    1.013 --     9 C    0.948
    37   1 H    0.961 --    63 N    0.921
    38   1 H    0.961 --    72 N    0.912
    39   1 H    1.006 --    10 C    0.970
    40   1 H    1.009 --    11 C    0.960
    41   1 H    1.016 --    12 C    0.960
    42   1 H    1.011 --    13 C    0.978
    43   1 H    1.009 --    13 C    0.974
    44   1 H    1.024 --    14 C    0.970
    45   1 H    1.010 --    14 C    0.975
    46   1 H    1.006 --    15 C    0.987
    47   1 H    1.005 --    15 C    0.988
    48   1 H    1.013 --    15 C    0.985
    49   1 H    0.947 --    17 N    0.912
    50   1 H    0.909 --    60 O    0.883
    51   1 H    1.000 --    21 C    0.973
    52   1 H    1.006 --    22 C    0.971
    53   1 H    1.004 --    24 C    0.975
    54   1 H    1.004 --    25 C    0.974
    55   1 H    1.010 --    26 C    0.980
    56   1 H    1.013 --    26 C    0.972
    57   1 H    1.004 --    26 C    0.971
    58   1 H    0.901 --    27 O    0.879
    59   1 H    0.894 --    27 O    0.881
    60   8 O    1.805 --    62 H    0.891    50 H    0.883
    61   1 H    0.922 --    16 O    0.875
    62   1 H    0.899 --    60 O    0.891
    63   7 N    3.286 --    67 C    1.190     9 C    0.943    37 H    0.921
                            68 O    0.147
    64   6 C    3.901 --    65 O    1.634    72 N    1.252     9 C    0.943
    65   8 O    1.935 --    64 C    1.634    72 N    0.170
    66   6 C    3.992 --    67 C    0.989    69 H    0.979    70 H    0.978
                            71 H    0.958
    67   6 C    3.885 --    68 O    1.648    63 N    1.190    66 C    0.989
    68   8 O    1.955 --    67 C    1.648    63 N    0.147
    69   1 H    1.002 --    66 C    0.979
    70   1 H    1.015 --    66 C    0.978
    71   1 H    1.017 --    66 C    0.958
    72   7 N    3.325 --    64 C    1.252    73 C    0.954    38 H    0.912
                            65 O    0.170
    73   6 C    3.947 --    75 H    0.987    74 H    0.986    76 H    0.981
                            72 N    0.954
    74   1 H    1.005 --    73 C    0.986
    75   1 H    1.006 --    73 C    0.987
    76   1 H    1.008 --    73 C    0.981
 ---------------------------------------------------------------------------

Topologies differ in total number of bonds
Writing topology from bond orders to xtbtopo.mol

 dipole moment from electron density (au)
     X       Y       Z   
  -0.7154   0.7350  -1.7883  total (Debye):    5.240

           -------------------------------------------------
          |               Frequency Printout                |
           -------------------------------------------------
 projected vibrational frequencies (cm⁻¹)
eigval :       -0.00    -0.00    -0.00    -0.00     0.00     0.00
eigval :        4.54     6.89    20.98    23.90    28.45    31.00
eigval :       31.92    37.40    41.16    49.38    51.69    53.27
eigval :       54.51    65.37    69.24    69.98    72.94    76.52
eigval :       85.86    96.88   104.18   110.41   111.03   114.47
eigval :      115.68   117.61   124.47   128.62   133.31   138.92
eigval :      142.88   148.76   155.38   159.72   163.21   170.78
eigval :      174.35   194.47   202.93   209.25   214.69   230.56
eigval :      236.22   243.65   262.84   266.78   286.18   289.56
eigval :      297.09   305.32   317.03   331.45   357.96   361.94
eigval :      372.25   383.52   394.87   397.91   407.97   427.85
eigval :      438.60   446.44   451.03   467.06   479.63   485.87
eigval :      508.81   521.08   535.33   543.78   564.29   571.95
eigval :      593.37   600.81   605.17   606.72   644.74   651.17
eigval :      671.38   690.70   698.86   720.66   731.80   743.95
eigval :      751.80   784.18   797.62   804.79   840.08   844.55
eigval :      859.73   866.96   876.54   882.41   884.16   899.37
eigval :      908.99   915.71   916.63   918.14   935.64   968.91
eigval :      971.66   978.49   987.02   995.55  1007.31  1013.93
eigval :     1020.28  1027.99  1050.78  1063.47  1068.66  1083.83
eigval :     1100.73  1107.07  1112.59  1115.33  1119.07  1120.50
eigval :     1130.59  1134.97  1143.91  1154.93  1158.20  1161.76
eigval :     1178.22  1185.10  1203.58  1210.19  1213.62  1219.17
eigval :     1223.67  1242.79  1251.70  1258.43  1271.64  1272.77
eigval :     1279.33  1293.31  1294.26  1300.43  1302.84  1316.41
eigval :     1322.82  1327.52  1348.47  1350.84  1359.10  1370.18
eigval :     1381.68  1385.60  1394.38  1397.53  1402.15  1423.15
eigval :     1430.74  1432.86  1433.05  1438.31  1440.93  1444.64
eigval :     1447.69  1449.12  1453.37  1453.74  1457.74  1463.94
eigval :     1474.11  1475.82  1480.13  1482.20  1488.39  1492.95
eigval :     1579.62  1584.86  1585.47  1603.35  1621.46  1687.94
eigval :     1747.34  1755.37  2958.66  2983.48  2987.37  3000.57
eigval :     3015.24  3021.19  3023.77  3024.63  3029.89  3041.34
eigval :     3045.07  3047.02  3052.67  3058.76  3071.60  3079.34
eigval :     3081.28  3085.73  3089.76  3090.68  3093.43  3102.29
eigval :     3103.55  3107.73  3110.01  3115.23  3115.56  3116.25
eigval :     3120.20  3120.40  3451.66  3495.29  3509.29  3539.34
eigval :     3582.36  3633.11  3649.54  3668.31  3750.98  3756.29
 reduced masses (amu)
   1: 11.96   2: 11.87   3: 11.93   4: 12.03   5: 11.88   6: 11.99   7: 12.07   8: 11.68
   9: 12.15  10: 11.80  11: 12.43  12: 12.67  13: 12.78  14: 11.90  15: 11.83  16: 12.05
  17: 11.65  18: 12.38  19: 11.62  20: 11.13  21:  9.58  22: 10.25  23: 11.84  24:  7.88
  25:  9.40  26: 10.14  27: 10.79  28:  8.18  29:  9.40  30:  6.61  31:  6.40  32:  5.02
  33:  3.27  34:  6.72  35:  2.45  36:  7.41  37:  9.42  38:  9.38  39:  3.71  40:  7.18
  41:  6.68  42:  8.79  43: 10.68  44:  8.55  45:  7.62  46:  2.30  47:  3.55  48:  9.50
  49:  9.70  50:  7.57  51: 10.49  52: 11.01  53:  9.72  54:  9.55  55: 10.72  56:  4.15
  57:  8.20  58:  9.60  59: 10.22  60: 10.54  61:  9.76  62:  8.10  63:  8.91  64:  9.06
  65:  9.73  66:  4.28  67:  6.23  68:  6.12  69:  6.40  70:  8.32  71: 10.97  72:  9.42
  73:  8.93  74:  9.23  75:  9.23  76:  8.49  77:  8.51  78:  8.56  79: 11.04  80: 10.18
  81: 10.35  82: 10.94  83: 10.26  84: 10.61  85: 10.14  86: 11.51  87: 10.25  88:  7.95
  89:  9.42  90:  3.81  91:  3.31  92:  9.61  93:  7.24  94:  8.26  95:  3.49  96:  3.52
  97: 11.10  98:  9.13  99:  6.01 100:  5.67 101:  3.90 102:  2.87 103:  2.98 104:  9.07
 105:  4.05 106:  9.74 107:  6.35 108: 11.09 109:  2.21 110:  5.28 111:  5.01 112:  5.97
 113:  5.83 114:  7.99 115:  8.25 116:  4.26 117:  6.16 118:  9.09 119:  7.53 120:  8.03
 121:  7.74 122:  7.21 123:  4.10 124:  5.88 125:  7.19 126:  3.73 127:  7.20 128:  5.91
 129:  3.55 130:  5.54 131:  2.18 132:  5.26 133:  6.61 134:  4.77 135:  5.76 136:  6.47
 137:  5.45 138:  5.87 139:  5.68 140:  5.11 141:  6.13 142:  3.41 143:  5.23 144:  4.61
 145:  2.09 146:  3.96 147:  5.94 148:  9.49 149:  6.38 150:  9.82 151:  5.94 152:  6.79
 153:  3.55 154: 11.19 155:  5.66 156:  7.16 157:  4.10 158:  3.26 159:  3.56 160:  7.33
 161:  9.01 162:  2.16 163:  7.82 164:  7.86 165:  3.16 166:  1.64 167: 10.90 168:  1.70
 169:  1.49 170:  2.33 171:  1.60 172:  2.27 173:  1.73 174:  1.81 175:  2.93 176:  1.91
 177:  1.52 178:  1.75 179: 10.37 180:  9.65 181: 11.49 182: 11.64 183: 11.42 184: 11.49
 185: 11.60 186: 11.38 187: 13.22 188: 13.32 189:  1.76 190:  1.66 191:  1.77 192:  1.54
 193:  1.26 194:  1.55 195:  1.44 196:  1.90 197:  1.30 198:  1.85 199:  1.30 200:  2.00
 201:  2.00 202:  1.94 203:  1.99 204:  1.83 205:  1.99 206:  1.97 207:  1.99 208:  1.81
 209:  1.83 210:  1.82 211:  1.81 212:  1.92 213:  1.87 214:  1.98 215:  1.85 216:  1.87
 217:  1.93 218:  1.89 219:  1.85 220:  1.86 221:  1.87 222:  1.89 223:  1.60 224:  1.60
 225:  1.58 226:  2.11 227:  2.11 228:  2.13
 IR intensities (km·mol⁻¹)
   1:  0.11   2:  0.02   3:  0.22   4:  0.03   5:  0.06   6:  0.09   7:  0.04   8:  0.51
   9:  8.46  10:  1.23  11:  3.90  12:  1.65  13: 13.90  14:  2.95  15:  2.65  16:  0.56
  17:  0.88  18:  7.67  19:  1.70  20:  4.72  21: 10.83  22:  5.97  23: 53.46  24:  6.73
  25:  5.44  26: 11.05  27: 17.92  28: 12.90  29:  3.09  30:  4.34  31: 10.77  32: 25.47
  33: 83.24  34: 83.60  35:167.35  36: 42.01  37:  7.57  38: 74.57  39:145.69  40: 24.48
  41:163.42  42:198.15  43: 54.51  44:112.00  45: 40.80  46:248.73  47: 12.18  48:  1.83
  49:  8.82  50: 47.84  51:  4.55  52:  4.30  53: 10.00  54: 16.23  55: 16.14  56: 38.19
  57:  6.63  58:  0.67  59:  2.39  60: 17.48  61: 19.22  62: 47.59  63:  6.32  64:  2.68
  65: 24.06  66: 71.73  67:139.60  68:143.94  69:305.69  70: 15.78  71:  0.93  72: 12.90
  73: 54.03  74: 21.69  75: 10.26  76:161.51  77: 10.21  78: 86.22  79:  5.26  80: 34.36
  81: 12.96  82:  3.56  83:  9.43  84:  3.44  85: 43.08  86:  0.47  87: 18.72  88: 16.65
  89:108.26  90: 51.82  91: 23.86  92:  2.53  93: 45.09  94:  4.99  95:  0.13  96:  0.50
  97:  0.01  98:  1.51  99:  4.34 100:  1.29 101:  0.85 102:  2.10 103:  0.02 104:  2.39
 105:  0.05 106:  7.17 107:  7.00 108:  9.07 109: 35.42 110:  9.70 111:  2.13 112: 52.39
 113:  4.63 114:  6.75 115: 15.68 116: 16.78 117:  7.47 118:  5.40 119: 35.38 120: 11.60
 121:  0.64 122: 27.20 123: 11.63 124: 12.88 125: 18.23 126:  1.34 127: 38.97 128:  7.32
 129:  3.81 130:  3.01 131:  3.56 132: 20.50 133:  9.10 134: 15.12 135: 13.04 136: 39.76
 137: 28.94 138:  9.28 139:109.75 140:  5.85 141:  3.96 142:  7.68 143: 72.42 144: 17.89
 145:  1.64 146:  1.02 147: 29.35 148: 35.62 149: 10.25 150: 39.71 151: 12.53 152: 48.55
 153: 63.79 154:  9.22 155:  1.55 156:127.80 157:  7.08 158:  5.90 159:  9.92 160:337.32
 161: 21.28 162:240.80 163:258.27 164: 59.10 165:235.43 166: 13.17 167: 89.73 168: 24.22
 169: 18.80 170:246.78 171: 10.74 172:  0.89 173:  7.16 174:  4.98 175: 73.92 176:  2.02
 177: 10.69 178: 10.33 179:  3.86 180:195.19 181:  1.31 182: 11.98 183:  6.70 184: 33.99
 185: 25.37 186:135.22 187:622.12 188:474.31 189: 24.26 190: 42.31 191:  3.44 192: 29.28
 193: 28.05 194: 14.70 195:  5.22 196: 35.67 197: 14.37 198: 18.39 199:  3.87 200: 16.99
 201:  8.09 202:  5.38 203: 28.22 204: 25.57 205: 15.09 206:  1.92 207:  3.37 208: 13.05
 209: 17.36 210:  9.74 211:  3.71 212:  5.89 213: 26.51 214:  5.11 215: 12.05 216:  9.04
 217: 25.22 218:  4.46 219:  6.05 220: 10.17 221: 19.08 222: 30.38 223:124.53 224: 82.65
 225: 48.97 226:136.46 227: 56.17 228: 66.03
 Raman intensities (Ä⁴*amu⁻¹)
   1:  0.00   2:  0.00   3:  0.00   4:  0.00   5:  0.00   6:  0.00   7:  0.00   8:  0.00
   9:  0.00  10:  0.00  11:  0.00  12:  0.00  13:  0.00  14:  0.00  15:  0.00  16:  0.00
  17:  0.00  18:  0.00  19:  0.00  20:  0.00  21:  0.00  22:  0.00  23:  0.00  24:  0.00
  25:  0.00  26:  0.00  27:  0.00  28:  0.00  29:  0.00  30:  0.00  31:  0.00  32:  0.00
  33:  0.00  34:  0.00  35:  0.00  36:  0.00  37:  0.00  38:  0.00  39:  0.00  40:  0.00
  41:  0.00  42:  0.00  43:  0.00  44:  0.00  45:  0.00  46:  0.00  47:  0.00  48:  0.00
  49:  0.00  50:  0.00  51:  0.00  52:  0.00  53:  0.00  54:  0.00  55:  0.00  56:  0.00
  57:  0.00  58:  0.00  59:  0.00  60:  0.00  61:  0.00  62:  0.00  63:  0.00  64:  0.00
  65:  0.00  66:  0.00  67:  0.00  68:  0.00  69:  0.00  70:  0.00  71:  0.00  72:  0.00
  73:  0.00  74:  0.00  75:  0.00  76:  0.00  77:  0.00  78:  0.00  79:  0.00  80:  0.00
  81:  0.00  82:  0.00  83:  0.00  84:  0.00  85:  0.00  86:  0.00  87:  0.00  88:  0.00
  89:  0.00  90:  0.00  91:  0.00  92:  0.00  93:  0.00  94:  0.00  95:  0.00  96:  0.00
  97:  0.00  98:  0.00  99:  0.00 100:  0.00 101:  0.00 102:  0.00 103:  0.00 104:  0.00
 105:  0.00 106:  0.00 107:  0.00 108:  0.00 109:  0.00 110:  0.00 111:  0.00 112:  0.00
 113:  0.00 114:  0.00 115:  0.00 116:  0.00 117:  0.00 118:  0.00 119:  0.00 120:  0.00
 121:  0.00 122:  0.00 123:  0.00 124:  0.00 125:  0.00 126:  0.00 127:  0.00 128:  0.00
 129:  0.00 130:  0.00 131:  0.00 132:  0.00 133:  0.00 134:  0.00 135:  0.00 136:  0.00
 137:  0.00 138:  0.00 139:  0.00 140:  0.00 141:  0.00 142:  0.00 143:  0.00 144:  0.00
 145:  0.00 146:  0.00 147:  0.00 148:  0.00 149:  0.00 150:  0.00 151:  0.00 152:  0.00
 153:  0.00 154:  0.00 155:  0.00 156:  0.00 157:  0.00 158:  0.00 159:  0.00 160:  0.00
 161:  0.00 162:  0.00 163:  0.00 164:  0.00 165:  0.00 166:  0.00 167:  0.00 168:  0.00
 169:  0.00 170:  0.00 171:  0.00 172:  0.00 173:  0.00 174:  0.00 175:  0.00 176:  0.00
 177:  0.00 178:  0.00 179:  0.00 180:  0.00 181:  0.00 182:  0.00 183:  0.00 184:  0.00
 185:  0.00 186:  0.00 187:  0.00 188:  0.00 189:  0.00 190:  0.00 191:  0.00 192:  0.00
 193:  0.00 194:  0.00 195:  0.00 196:  0.00 197:  0.00 198:  0.00 199:  0.00 200:  0.00
 201:  0.00 202:  0.00 203:  0.00 204:  0.00 205:  0.00 206:  0.00 207:  0.00 208:  0.00
 209:  0.00 210:  0.00 211:  0.00 212:  0.00 213:  0.00 214:  0.00 215:  0.00 216:  0.00
 217:  0.00 218:  0.00 219:  0.00 220:  0.00 221:  0.00 222:  0.00 223:  0.00 224:  0.00
 225:  0.00 226:  0.00 227:  0.00 228:  0.00
 output can be read by thermo (or use thermo option).
 writing <g98.out> molden fake output.
 recommended (thermochemical) frequency scaling factor: 1.0
           -------------------------------------------------
          |             Thermodynamic Functions             |
           -------------------------------------------------

Refinement of some symmetry elements was terminated before convergence was reached.
Some symmetry elements may remain unidentified.
Molecule has no symmetry elements
It seems to be the C1 point group
c1  symmetry found (for desy threshold:  0.10E+00) used in thermo

          ...................................................
          :                      SETUP                      :
          :.................................................:
          :  # frequencies                         222      :
          :  # imaginary freq.                       0      :
          :  linear?                             false      :
          :  only rotor calc.                    false      :
          :  symmetry                               c1      :
          :  rotational number                       1      :
          :  scaling factor                  1.0000000      :
          :  rotor cutoff                   50.0000000 cm⁻¹ :
          :  imag. cutoff                  -20.0000000 cm⁻¹ :
          :.................................................:

    mode    ω/cm⁻¹     T·S(HO)/kcal·mol⁻¹    T·S(FR)/kcal·mol⁻¹   T·S(vib)
   ------------------------------------------------------------------------
       1      4.54    -2.85627 (  0.01%)    -1.76709 ( 99.99%)    -1.76717
       2      6.89    -2.60924 (  0.04%)    -1.64362 ( 99.96%)    -1.64397
       3     20.98    -1.94963 (  3.01%)    -1.31377 ( 96.99%)    -1.33289
       4     23.90    -1.87254 (  4.96%)    -1.27519 ( 95.04%)    -1.30483
       5     28.45    -1.76937 (  9.49%)    -1.22355 ( 90.51%)    -1.27535
       6     31.00    -1.71872 ( 12.87%)    -1.19818 ( 87.13%)    -1.26517
       7     31.92    -1.70132 ( 14.25%)    -1.18947 ( 85.75%)    -1.26239
       8     37.40    -1.60773 ( 23.84%)    -1.14256 ( 76.16%)    -1.25345
       9     41.16    -1.55116 ( 31.46%)    -1.11420 ( 68.54%)    -1.25168
      10     49.38    -1.44361 ( 48.76%)    -1.06021 ( 51.24%)    -1.24716
      11     51.69    -1.41669 ( 53.32%)    -1.04668 ( 46.68%)    -1.24398
      12     53.27    -1.39898 ( 56.30%)    -1.03778 ( 43.70%)    -1.24113
      13     54.51    -1.38543 ( 58.55%)    -1.03097 ( 41.45%)    -1.23849
      14     65.37    -1.27848 ( 74.50%)    -0.97712 ( 25.50%)    -1.20165
      15     69.24    -1.24474 ( 78.62%)    -0.96010 ( 21.38%)    -1.18388
      16     69.98    -1.23851 ( 79.32%)    -0.95696 ( 20.68%)    -1.18030
      17     72.94    -1.21418 ( 81.91%)    -0.94467 ( 18.09%)    -1.16543
      18     76.52    -1.18611 ( 84.58%)    -0.93049 ( 15.42%)    -1.14670
      19     85.86    -1.11874 ( 89.69%)    -0.89637 ( 10.31%)    -1.09580
      20     96.88    -1.04834 ( 93.38%)    -0.86059 (  6.62%)    -1.03590
      21    104.18    -1.00610 ( 94.96%)    -0.83906 (  5.04%)    -0.99769
      22    110.41    -0.97249 ( 95.96%)    -0.82188 (  4.04%)    -0.96641
      23    111.03    -0.96923 ( 96.05%)    -0.82021 (  3.95%)    -0.96334
      24    114.47    -0.95158 ( 96.49%)    -0.81116 (  3.51%)    -0.94665
      25    115.68    -0.94554 ( 96.63%)    -0.80807 (  3.37%)    -0.94091
      26    117.61    -0.93596 ( 96.84%)    -0.80315 (  3.16%)    -0.93176
      27    124.47    -0.90331 ( 97.46%)    -0.78635 (  2.54%)    -0.90034
      28    128.62    -0.88447 ( 97.77%)    -0.77664 (  2.23%)    -0.88206
      29    133.31    -0.86396 ( 98.06%)    -0.76603 (  1.94%)    -0.86206
      30    138.92    -0.84038 ( 98.35%)    -0.75382 (  1.65%)    -0.83895
      31    142.88    -0.82436 ( 98.52%)    -0.74549 (  1.48%)    -0.82319
      32    148.76    -0.80145 ( 98.74%)    -0.73356 (  1.26%)    -0.80059
      33    155.38    -0.77676 ( 98.94%)    -0.72065 (  1.06%)    -0.77616
      34    159.72    -0.76122 ( 99.05%)    -0.71250 (  0.95%)    -0.76075
      35    163.21    -0.74902 ( 99.13%)    -0.70608 (  0.87%)    -0.74864
      36    170.78    -0.72359 ( 99.27%)    -0.69266 (  0.73%)    -0.72336
      37    174.35    -0.71199 ( 99.33%)    -0.68652 (  0.67%)    -0.71182
      38    194.47    -0.65138 ( 99.56%)    -0.65417 (  0.44%)    -0.65139
      39    202.93    -0.62803 ( 99.63%)    -0.64157 (  0.37%)    -0.62808
      40    209.25    -0.61127 ( 99.68%)    -0.63247 (  0.32%)    -0.61134
      41    214.69    -0.59732 ( 99.71%)    -0.62487 (  0.29%)    -0.59740
      42    230.56    -0.55890 ( 99.78%)    -0.60374 (  0.22%)    -0.55899
      43    236.22    -0.54597 ( 99.80%)    -0.59656 (  0.20%)    -0.54607
      44    243.65    -0.52953 ( 99.82%)    -0.58738 (  0.18%)    -0.52963
      45    262.84    -0.48981 ( 99.87%)    -0.56493 (  0.13%)    -0.48991
      46    266.78    -0.48210 ( 99.88%)    -0.56052 (  0.12%)    -0.48220
      47    286.18    -0.44617 ( 99.91%)    -0.53972 (  0.09%)    -0.44625
      48    289.56    -0.44023 ( 99.91%)    -0.53625 (  0.09%)    -0.44031
      49    297.09    -0.42731 ( 99.92%)    -0.52864 (  0.08%)    -0.42739
   ------------------------------------------------------------------------

   temp. (K)  partition function   enthalpy   heat capacity  entropy
                                   cal/mol     cal/K/mol   cal/K/mol   J/K/mol
 298.15  VIB  0.553E+25            27862.966    148.425    185.482
         ROT  0.376E+08              888.752      2.981     37.644
         INT  0.208E+33            28751.718    151.406    223.126
         TR   0.108E+29             1481.254      4.968     44.499
         TOT                       30232.9718   156.3744   267.6247  1119.7416

       T/K    H(0)-H(T)+PV         H(T)/Eh          T*S/Eh         G(T)/Eh
   ------------------------------------------------------------------------
    298.15    0.481793E-01    0.667957E+00    0.127157E+00    0.540800E+00
   ------------------------------------------------------------------------

         :::::::::::::::::::::::::::::::::::::::::::::::::::::
         ::                  THERMODYNAMIC                  ::
         :::::::::::::::::::::::::::::::::::::::::::::::::::::
         :: total free energy        -114.450154715909 Eh   ::
         ::.................................................::
         :: total energy             -114.990954323554 Eh   ::
         :: zero point energy           0.619777411209 Eh   ::
         :: G(RRHO) w/o ZPVE           -0.078977803565 Eh   ::
         :: G(RRHO) contrib.            0.540799607645 Eh   ::
         :::::::::::::::::::::::::::::::::::::::::::::::::::::

           -------------------------------------------------
          | TOTAL ENERGY             -114.990954323554 Eh   |
          | TOTAL ENTHALPY           -114.322997605045 Eh   |
          | TOTAL FREE ENERGY        -114.450154715909 Eh   |
          | GRADIENT NORM               0.000278489379 Eh/α |
          | HOMO-LUMO GAP               3.210667260737 eV   |
           -------------------------------------------------

------------------------------------------------------------------------
 * finished run on 2026/08/20 at 20:23:57.716     
------------------------------------------------------------------------
 total:
 * wall-time:     0 d,  0 h,  0 min, 24.045 sec
 *  cpu-time:     0 d,  0 h,  2 min, 43.391 sec
 * ratio c/w:     6.795 speedup
 SCF:
 * wall-time:     0 d,  0 h,  0 min,  0.110 sec
 *  cpu-time:     0 d,  0 h,  0 min,  0.281 sec
 * ratio c/w:     2.557 speedup
 analytical hessian:
 * wall-time:     0 d,  0 h,  0 min, 23.825 sec
 *  cpu-time:     0 d,  0 h,  2 min, 43.000 sec
 * ratio c/w:     6.842 speedup



===== STDERR =====

normal termination of xtb
