      -----------------------------------------------------------      
     |                   =====================                   |     
     |                           x T B                           |     
     |                   =====================                   |     
     |                         S. Grimme                         |     
     |          Mulliken Center for Theoretical Chemistry        |     
     |                    University of Bonn                     |     
      -----------------------------------------------------------      

   * xtb version 6.7.1pre (5071a88) compiled by 'Marcel@Raven' on 2024-07-23

   xtb is free software: you can redistribute it and/or modify it under
   the terms of the GNU Lesser General Public License as published by
   the Free Software Foundation, either version 3 of the License, or
   (at your option) any later version.
   
   xtb is distributed in the hope that it will be useful,
   but WITHOUT ANY WARRANTY; without even the implied warranty of
   MERCHANTABILITY or FITNESS FOR A PARTICULAR PURPOSE.  See the
   GNU Lesser General Public License for more details.
   
   Cite this work as:
   * C. Bannwarth, E. Caldeweyher, S. Ehlert, A. Hansen, P. Pracht,
     J. Seibert, S. Spicher, S. Grimme, WIREs Comput. Mol. Sci., 2020, 11,
     e01493. DOI: 10.1002/wcms.1493
   
   for GFN2-xTB:
   * C. Bannwarth, S. Ehlert and S. Grimme., J. Chem. Theory Comput., 2019,
     15, 1652-1671. DOI: 10.1021/acs.jctc.8b01176
   for GFN1-xTB:
   * S. Grimme, C. Bannwarth, P. Shushkov, J. Chem. Theory Comput., 2017,
     13, 1989-2009. DOI: 10.1021/acs.jctc.7b00118
   for GFN0-xTB:
   * P. Pracht, E. Caldeweyher, S. Ehlert, S. Grimme, ChemRxiv, 2019, preprint.
     DOI: 10.26434/chemrxiv.8326202.v1
   for GFN-FF:
   * S. Spicher and S. Grimme, Angew. Chem. Int. Ed., 2020, 59, 15665-15673.
     DOI: 10.1002/anie.202004239
   
   for ALPB and GBSA implicit solvation:
   * S. Ehlert, M. Stahn, S. Spicher, S. Grimme, J. Chem. Theory Comput.,
     2021, 17, 4250-4261. DOI: 10.1021/acs.jctc.1c00471
   
   for ddCOSMO and CPCM-X implicit solvation:
   * M. Stahn, S. Ehlert, S. Grimme, J. Phys. Chem. A,
     2023, XX, XXXX-XXXX. DOI: 10.1021/acs.jpca.3c04382
   
   for DFT-D4:
   * E. Caldeweyher, C. Bannwarth and S. Grimme, J. Chem. Phys., 2017,
     147, 034112. DOI: 10.1063/1.4993215
   * E. Caldeweyher, S. Ehlert, A. Hansen, H. Neugebauer, S. Spicher,
     C. Bannwarth and S. Grimme, J. Chem. Phys., 2019, 150, 154122.
     DOI: 10.1063/1.5090222
   * E. Caldeweyher, J.-M. Mewes, S. Ehlert and S. Grimme, Phys. Chem. Chem. Phys.
     2020, 22, 8499-8512. DOI: 10.1039/D0CP00502A
   
   for sTDA-xTB:
   * S. Grimme and C. Bannwarth, J. Chem. Phys., 2016, 145, 054103.
     DOI: 10.1063/1.4959605
   
   in the mass-spec context:
   * V. Asgeirsson, C. Bauer and S. Grimme, Chem. Sci., 2017, 8, 4879.
     DOI: 10.1039/c7sc00601b
   * J. Koopman and S. Grimme, ACS Omega 2019, 4, 12, 15120-15133.
     DOI: 10.1021/acsomega.9b02011
   
   for metadynamics refer to:
   * S. Grimme, J. Chem. Theory Comput., 2019, 155, 2847-2862
     DOI: 10.1021/acs.jctc.9b00143
   
   for SPH calculations refer to:
   * S. Spicher and S. Grimme, J. Chem. Theory Comput., 2021, 17, 1701-1714
     DOI: 10.1021/acs.jctc.0c01306
   
   for ONIOM refer to:
   * C. Plett, A. Katbashev, S. Ehlert, S. Grimme, M. Bursch,
     Phys. Chem. Chem. Phys., 2023, 25, 17860-17868. DOI: 10.1039/D3CP02178E
   
   for DIPRO refer to:
   * J. Kohn, N. Gildemeister, S. Grimme, D. Fazzi, A. Hansen,
     J. Chem. Phys., 2023, just accepted.
   
   for PTB refer to:
   * S. Grimme, M. Mueller, A. Hansen, J. Chem. Phys., 2023, 158, 124111.
     DOI: 10.1063/5.0137838
   
   with help from (in alphabetical order)
   P. Atkinson, C. Bannwarth, F. Bohle, G. Brandenburg, E. Caldeweyher
   M. Checinski, S. Dohm, S. Ehlert, S. Ehrlich, I. Gerasimov, C. Hölzer
   A. Katbashev, J. Kohn, J. Koopman, C. Lavigne, S. Lehtola, F. März, M. Müller,
   F. Musil, H. Neugebauer, J. Pisarek, C. Plett, P. Pracht, F. Pultar,
   J. Seibert, P. Shushkov, S. Spicher, M. Stahn, M. Steiner, T. Strunk,
   J. Stückrath, T. Rose, and J. Unsleber
   
 * started run on 2026/08/20 at 20:23:06.729     
   ID    Z sym.   atoms
    1    7 N      1, 17, 63, 72
    2    6 C      2-15, 18-26, 64, 66, 67, 73
    3    8 O      16, 27, 60, 65, 68
    4    1 H      28-59, 61, 62, 69-71, 74-76

           -------------------------------------------------
          |                Calculation Setup                |
           -------------------------------------------------

          program call               : C:\Users\Nayanika\Downloads\xtb-6.7.1pre-windows-x86_64\xtb-6.7.1\bin\xtb.exe D:\PhD_Thesis\LmrR_EVB\charges\fast_lmrr_5QM\xtb_preparation\TS2_1a_to_PS2_2\TS2_1a_to_PS2_2_RS.xyz --gfn 1 --opt tight --chrg 0 --uhf 0 --etemp 0
          coordinate file            : D:\PhD_Thesis\LmrR_EVB\charges\fast_lmrr_5QM\xtb_preparation\TS2_1a_to_PS2_2\TS2_1a_to_PS2_2_RS.xyz
          omp threads                :                     8


molecular fragmentation (1/2 indicates fragments):
111111111111111211111111112121111111111111111111111111111222221111111111
1111
# atoms in fragment 1/2:    68     8
 fragment masses (1/2) :      447.59       53.04
CMA distance (Bohr)    :   6.028
constraining FC (au)   :  0.0500

           -------------------------------------------------
          |                 G F N 1 - x T B                 |
           -------------------------------------------------

        Reference                      10.1021/acs.jctc.7b00118
      * Hamiltonian:
        H0-scaling (s, p, d)           1.850000    2.250000    2.000000
        zeta-weighting                 0.000000
      * Dispersion:
        s8                             2.400000
        a1                             0.630000
        a2                             5.000000
        s9                             0.000000
      * Repulsion:
        kExp                           1.500000
        rExp                           1.000000
      * Coulomb:
        alpha                          2.000000
        third order                    atomic
        anisotropic                    false
      * Halogen bond correction:
        rad-scale                      1.300000
        damping                        0.440000


          ...................................................
          :                      SETUP                      :
          :.................................................:
          :  # basis functions                 224          :
          :  # atomic orbitals                 224          :
          :  # shells                          152          :
          :  # electrons                       198          :
          :  # halogen bonds                     0          :
          :  max. iterations                   250          :
          :  Hamiltonian                  GFN1-xTB          :
          :  restarted?                      false          :
          :  GBSA solvation                  false          :
          :  PC potential                    false          :
          :  electronic temp.            0.0000000     K    :
          :  accuracy                    1.0000000          :
          :  -> integral cutoff          0.2500000E+02      :
          :  -> integral neglect         0.1000000E-07      :
          :  -> SCF convergence          0.1000000E-05 Eh   :
          :  -> wf. convergence          0.2000000E-04 e    :
          :  Broyden damping             0.4000000          :
          :  net charge                          0          :
          :  unpaired electrons                  0          :
          ...................................................

 iter      E             dE          RMSdq      gap      omega  full diag
   1   -115.7337827 -0.115734E+03  0.860E+00    2.37       0.0  T
   2   -116.0256472 -0.291864E+00  0.515E+00    1.05       1.0  T
   3   -115.2294889  0.796158E+00  0.229E+00    0.14       1.0  T
   4   -115.9703911 -0.740902E+00  0.937E-01    2.37       1.0  T
   5   -116.0313921 -0.610010E-01  0.483E-01    1.91       1.0  T
   6   -116.0423492 -0.109571E-01  0.313E-01    1.64       1.0  T
   7   -116.0477649 -0.541563E-02  0.207E-01    1.12       1.0  T
   8   -116.0511110 -0.334609E-02  0.713E-02    0.44       1.0  T
   9   -116.0515081 -0.397175E-03  0.151E-02    0.26       1.0  T
  10   -116.0515102 -0.206403E-05  0.649E-03    0.26       1.8  T
  11   -116.0515113 -0.109573E-05  0.224E-03    0.25       5.1  T
  12   -116.0515104  0.915391E-06  0.332E-03    0.26       3.5  T
  13   -116.0515117 -0.134364E-05  0.834E-04    0.25      13.8  T
  14   -116.0515118 -0.822304E-07  0.383E-04    0.25      29.9  T
  15   -116.0515118 -0.168182E-07  0.167E-04    0.25      68.5  T
  16   -116.0515118 -0.290900E-08  0.707E-05    0.25     162.4  T

   *** convergence criteria satisfied after 16 iterations ***

         #    Occupation            Energy/Eh            Energy/eV
      -------------------------------------------------------------
         1        2.0000           -0.8149195             -22.1751
       ...           ...                  ...                  ...
        93        2.0000           -0.4152451             -11.2994
        94        2.0000           -0.4128639             -11.2346
        95        2.0000           -0.3982570             -10.8371
        96        2.0000           -0.3910989             -10.6423
        97        2.0000           -0.3433320              -9.3425
        98        2.0000           -0.3363633              -9.1529
        99        2.0000           -0.2962140              -8.0604 (HOMO)
       100                         -0.2869683              -7.8088 (LUMO)
       101                         -0.2541146              -6.9148
       102                         -0.2496212              -6.7925
       103                         -0.2443754              -6.6498
       104                         -0.2409046              -6.5553
       ...                                ...                  ...
       224                          0.7167975              19.5051
      -------------------------------------------------------------
                  HL-Gap            0.0092457 Eh            0.2516 eV
             Fermi-level            0.0000000 Eh            0.0000 eV

 SCC (total)                   0 d,  0 h,  0 min,  0.300 sec
 SCC setup                      ...        0 min,  0.000 sec (  0.000%)
 Dispersion                     ...        0 min,  0.000 sec (  0.000%)
 classical contributions        ...        0 min,  0.002 sec (  0.667%)
 integral evaluation            ...        0 min,  0.010 sec (  3.333%)
 iterations                     ...        0 min,  0.267 sec ( 89.000%)
 molecular gradient             ...        0 min,  0.021 sec (  7.000%)
 printout                       ...        0 min,  0.000 sec (  0.000%)

         :::::::::::::::::::::::::::::::::::::::::::::::::::::
         ::                     SUMMARY                     ::
         :::::::::::::::::::::::::::::::::::::::::::::::::::::
         :: total energy            -114.617675602531 Eh    ::
         :: gradient norm              0.239026841199 Eh/a0 ::
         :: HOMO-LUMO gap              0.251588138679 eV    ::
         ::.................................................::
         :: SCC energy              -116.051511818634 Eh    ::
         :: -> electrostatic           0.400391953274 Eh    ::
         :: repulsion energy           1.491132458671 Eh    ::
         :: dispersion energy         -0.057296242568 Eh    ::
         :: halogen bond corr.         0.000000000000 Eh    ::
         :: add. restraining           0.000000000000 Eh    ::
         :: total charge               0.000000000000 e     ::
         :::::::::::::::::::::::::::::::::::::::::::::::::::::

      ----------------------------------------------------------- 
     |                   =====================                   |
     |                        A N C O P T                        |
     |                   =====================                   |
     |               Approximate Normal Coordinate               |
     |                Rational Function Optimizer                |
      ----------------------------------------------------------- 
      ----------------------------------------------------------- 
     |                   =====================                   |
     |                        A N C O P T                        |
     |                   =====================                   |
     |               Approximate Normal Coordinate               |
     |                Rational Function Optimizer                |
      ----------------------------------------------------------- 

          ...................................................
          :                      SETUP                      :
          :.................................................:
          :   optimization level             tight          :
          :   max. optcycles                   380          :
          :   ANC micro-cycles                  20          :
          :   degrees of freedom               222          :
          :.................................................:
          :   RF solver                   davidson          :
          :   write xtbopt.log                true          :
          :   linear?                        false          :
          :   energy convergence         0.1000000E-05 Eh   :
          :   grad. convergence          0.8000000E-03 Eh/α :
          :   maxmium RF displ.          1.0000000          :
          :   Hlow (freq-cutoff)         0.1000000E-01      :
          :   Hmax (freq-cutoff)         5.0000000          :
          :   S6 in model hess.         20.0000000          :
          ...................................................

generating ANC from exact Hessian ...
Using Lindh-Hessian (1995)
 Shifting diagonal of input Hessian by   1.110501674307605E-002
 Lowest  eigenvalues of input Hessian
    0.010000    0.011011    0.011056    0.000000    0.000000    0.000000
    0.000000    0.000000    0.000000    0.011179    0.011314    0.011366
    0.011468    0.011783    0.012037    0.012134    0.012290    0.012401
 Highest eigenvalues
    2.003633    2.034951    2.036673    2.135224    2.237963    2.250138
 

........................................................................
.............................. CYCLE    1 ..............................
........................................................................

 iter      E             dE          RMSdq      gap      omega  full diag
   1   -116.0515118 -0.116052E+03  0.141E-05    0.25       0.0  T
   2   -116.0515118 -0.648015E-11  0.105E-05    0.25    1090.7  T
   3   -116.0515118 -0.173230E-10  0.226E-06    0.25    5075.1  T
     SCC iter.                  ...        0 min,  0.044 sec
     gradient                   ...        0 min,  0.019 sec
 * total energy  :  -114.6176756 Eh     change       -0.8591314E-09 Eh
   gradient norm :     0.2390245 Eh/α   predicted     0.0000000E+00 (-100.00%)
   displ. norm   :     0.6372912 α      lambda       -0.1184700E+00
   maximum displ.:     0.1891485 α      in ANC's #120, #83, #142, ...

........................................................................
.............................. CYCLE    2 ..............................
........................................................................

 iter      E             dE          RMSdq      gap      omega  full diag
   1   -116.1401203 -0.116140E+03  0.108E-01    0.75       0.0  T
   2   -116.1408423 -0.722088E-03  0.514E-02    0.86       1.0  T
   3   -116.1409394 -0.970957E-04  0.250E-02    0.85       1.0  T
   4   -116.1409535 -0.140116E-04  0.948E-03    0.86       1.2  T
   5   -116.1409557 -0.224450E-05  0.299E-03    0.86       3.8  T
   6   -116.1409559 -0.187355E-06  0.128E-03    0.86       8.9  T
   7   -116.1409560 -0.764890E-07  0.356E-04    0.86      32.2  T
   8   -116.1409560 -0.488394E-08  0.102E-04    0.86     112.0  T
   9   -116.1409560 -0.289702E-09  0.247E-05    0.86     464.8  T
     SCC iter.                  ...        0 min,  0.153 sec
     gradient                   ...        0 min,  0.025 sec
 * total energy  :  -114.6997546 Eh     change       -0.8207896E-01 Eh
   gradient norm :     0.1794475 Eh/α   predicted    -0.8331877E-01 (   1.51%)
   displ. norm   :     0.7634075 α      lambda       -0.1112767E+00
   maximum displ.:     0.2735236 α      in ANC's #110, #142, #146, ...

........................................................................
.............................. CYCLE    3 ..............................
........................................................................

 iter      E             dE          RMSdq      gap      omega  full diag
   1   -116.2363651 -0.116236E+03  0.180E-01    1.50       0.0  T
   2   -116.2389079 -0.254277E-02  0.741E-02    1.96       1.0  T
   3   -116.2391896 -0.281761E-03  0.359E-02    1.95       1.0  T
   4   -116.2392240 -0.343661E-04  0.138E-02    1.97       1.0  T
   5   -116.2392258 -0.176551E-05  0.396E-03    1.97       2.9  T
   6   -116.2392262 -0.430668E-06  0.160E-03    1.97       7.2  T
   7   -116.2392263 -0.865012E-07  0.459E-04    1.97      25.0  T
   8   -116.2392263 -0.726477E-08  0.150E-04    1.97      76.4  T
   9   -116.2392263 -0.753360E-09  0.409E-05    1.97     280.7  T
     SCC iter.                  ...        0 min,  0.158 sec
     gradient                   ...        0 min,  0.020 sec
 * total energy  :  -114.7828338 Eh     change       -0.8307922E-01 Eh
   gradient norm :     0.1479918 Eh/α   predicted    -0.8806392E-01 (   6.00%)
   displ. norm   :     0.6939898 α      lambda       -0.6823941E-01
   maximum displ.:     0.2059076 α      in ANC's #110, #142, #102, ...

........................................................................
.............................. CYCLE    4 ..............................
........................................................................

 iter      E             dE          RMSdq      gap      omega  full diag
   1   -116.2828302 -0.116283E+03  0.204E-01    2.33       0.0  T
   2   -116.2862041 -0.337385E-02  0.856E-02    2.43       1.0  T
   3   -116.2866262 -0.422081E-03  0.341E-02    2.41       1.0  T
   4   -116.2866628 -0.366214E-04  0.154E-02    2.42       1.0  T
   5   -116.2866666 -0.379888E-05  0.381E-03    2.42       3.0  T
   6   -116.2866674 -0.818108E-06  0.101E-03    2.42      11.3  T
   7   -116.2866674 -0.303118E-07  0.429E-04    2.42      26.8  T
   8   -116.2866674 -0.330128E-08  0.145E-04    2.42      79.2  T
   9   -116.2866674 -0.799432E-09  0.344E-05    2.42     333.7  T
     SCC iter.                  ...        0 min,  0.154 sec
     gradient                   ...        0 min,  0.020 sec
 * total energy  :  -114.8419425 Eh     change       -0.5910872E-01 Eh
   gradient norm :     0.1492999 Eh/α   predicted    -0.5055259E-01 ( -14.48%)
   displ. norm   :     0.7276174 α      lambda       -0.6796758E-01
   maximum displ.:     0.1945679 α      in ANC's #172, #110, #142, ...

........................................................................
.............................. CYCLE    5 ..............................
........................................................................

 iter      E             dE          RMSdq      gap      omega  full diag
   1   -116.3376538 -0.116338E+03  0.157E-01    2.65       0.0  T
   2   -116.3395581 -0.190433E-02  0.733E-02    2.70       1.0  T
   3   -116.3398226 -0.264526E-03  0.328E-02    2.70       1.0  T
   4   -116.3398528 -0.301571E-04  0.184E-02    2.71       1.0  T
   5   -116.3398595 -0.670139E-05  0.512E-03    2.71       2.2  T
   6   -116.3398602 -0.737045E-06  0.953E-04    2.71      12.0  T
   7   -116.3398602 -0.281879E-07  0.411E-04    2.71      27.9  T
   8   -116.3398602 -0.298976E-08  0.171E-04    2.71      66.9  T
   9   -116.3398602 -0.901110E-09  0.402E-05    2.71     285.4  T
     SCC iter.                  ...        0 min,  0.208 sec
     gradient                   ...        0 min,  0.021 sec
 * total energy  :  -114.8882717 Eh     change       -0.4632914E-01 Eh
   gradient norm :     0.1365420 Eh/α   predicted    -0.5197574E-01 (  12.19%)
   displ. norm   :     0.5961949 α      lambda       -0.4415604E-01
   maximum displ.:     0.1566252 α      in ANC's #24, #172, #57, ...

........................................................................
.............................. CYCLE    6 ..............................
........................................................................

 iter      E             dE          RMSdq      gap      omega  full diag
   1   -116.3458037 -0.116346E+03  0.117E-01    2.80       0.0  T
   2   -116.3459971 -0.193346E-03  0.581E-02    2.78       1.0  T
   3   -116.3460086 -0.115321E-04  0.185E-02    2.78       1.0  T
   4   -116.3460146 -0.596614E-05  0.633E-03    2.77       1.8  T
   5   -116.3460156 -0.102304E-05  0.185E-03    2.78       6.2  T
   6   -116.3460157 -0.134159E-06  0.355E-04    2.78      32.3  T
   7   -116.3460157 -0.555470E-08  0.127E-04    2.78      90.5  T
   8   -116.3460157 -0.854882E-09  0.359E-05    2.78     319.6  T
     SCC iter.                  ...        0 min,  0.142 sec
     gradient                   ...        0 min,  0.028 sec
 * total energy  :  -114.9096804 Eh     change       -0.2140875E-01 Eh
   gradient norm :     0.1149954 Eh/α   predicted    -0.2992561E-01 (  39.78%)
   displ. norm   :     0.5458248 α      lambda       -0.2734390E-01
   maximum displ.:     0.1763299 α      in ANC's #24, #31, #42, ...

........................................................................
.............................. CYCLE    7 ..............................
........................................................................

 iter      E             dE          RMSdq      gap      omega  full diag
   1   -116.3815481 -0.116382E+03  0.839E-02    2.81       0.0  T
   2   -116.3816279 -0.797795E-04  0.493E-02    2.82       1.0  T
   3   -116.3816263  0.160740E-05  0.233E-02    2.83       1.0  T
   4   -116.3816471 -0.208131E-04  0.283E-03    2.83       4.1  T
   5   -116.3816473 -0.217380E-06  0.107E-03    2.83      10.8  T
   6   -116.3816473 -0.437157E-07  0.334E-04    2.83      34.3  T
   7   -116.3816473 -0.326258E-08  0.108E-04    2.83     106.2  T
   8   -116.3816473 -0.252584E-09  0.363E-05    2.83     315.9  T
     SCC iter.                  ...        0 min,  0.145 sec
     gradient                   ...        0 min,  0.017 sec
 * total energy  :  -114.9265288 Eh     change       -0.1684835E-01 Eh
   gradient norm :     0.1003594 Eh/α   predicted    -0.1774519E-01 (   5.32%)
   displ. norm   :     0.6630735 α      lambda       -0.3459078E-01
   maximum displ.:     0.1785033 α      in ANC's #24, #45, #172, ...

........................................................................
.............................. CYCLE    8 ..............................
........................................................................

 iter      E             dE          RMSdq      gap      omega  full diag
   1   -116.3908121 -0.116391E+03  0.117E-01    2.90       0.0  T
   2   -116.3911309 -0.318793E-03  0.522E-02    2.89       1.0  T
   3   -116.3911549 -0.239563E-04  0.202E-02    2.90       1.0  T
   4   -116.3911620 -0.711251E-05  0.856E-03    2.89       1.3  T
   5   -116.3911630 -0.107801E-05  0.127E-03    2.90       9.0  T
   6   -116.3911632 -0.113353E-06  0.273E-04    2.90      42.0  T
   7   -116.3911632 -0.245646E-08  0.120E-04    2.90      95.5  T
   8   -116.3911632 -0.325826E-09  0.305E-05    2.90     376.0  T
     SCC iter.                  ...        0 min,  0.148 sec
     gradient                   ...        0 min,  0.017 sec
 * total energy  :  -114.9313817 Eh     change       -0.4852912E-02 Eh
   gradient norm :     0.1565947 Eh/α   predicted    -0.2489960E-01 ( 413.09%)
   displ. norm   :     0.3669405 α      lambda       -0.2562606E-01
   maximum displ.:     0.1089282 α      in ANC's #23, #31, #22, ...

........................................................................
.............................. CYCLE    9 ..............................
........................................................................

 iter      E             dE          RMSdq      gap      omega  full diag
   1   -116.3903799 -0.116390E+03  0.305E-02    2.89       0.0  T
   2   -116.3904404 -0.604795E-04  0.158E-02    2.89       1.0  T
   3   -116.3904506 -0.102209E-04  0.740E-03    2.89       1.5  T
   4   -116.3904518 -0.117001E-05  0.270E-03    2.89       4.3  T
   5   -116.3904519 -0.140753E-06  0.997E-04    2.89      11.5  T
   6   -116.3904519 -0.128159E-07  0.274E-04    2.89      41.9  T
   7   -116.3904519 -0.164522E-08  0.803E-05    2.89     142.8  T
   8   -116.3904519 -0.134207E-09  0.182E-05    2.89     630.0  T
     SCC iter.                  ...        0 min,  0.145 sec
     gradient                   ...        0 min,  0.020 sec
 * total energy  :  -114.9467351 Eh     change       -0.1535340E-01 Eh
   gradient norm :     0.0480581 Eh/α   predicted    -0.1453825E-01 (  -5.31%)
   displ. norm   :     0.5515974 α      lambda       -0.1096367E-01
   maximum displ.:     0.1819826 α      in ANC's #15, #31, #24, ...

........................................................................
.............................. CYCLE   10 ..............................
........................................................................

 iter      E             dE          RMSdq      gap      omega  full diag
   1   -116.4042984 -0.116404E+03  0.397E-02    2.90       0.0  T
   2   -116.4043219 -0.235194E-04  0.212E-02    2.91       1.0  T
   3   -116.4043228 -0.842326E-06  0.862E-03    2.91       1.3  T
   4   -116.4043245 -0.169318E-05  0.175E-03    2.91       6.6  T
   5   -116.4043246 -0.733878E-07  0.558E-04    2.91      20.5  T
   6   -116.4043246 -0.103998E-07  0.171E-04    2.91      66.9  T
   7   -116.4043246 -0.173176E-08  0.483E-05    2.91     237.7  T
     SCC iter.                  ...        0 min,  0.125 sec
     gradient                   ...        0 min,  0.019 sec
 * total energy  :  -114.9542933 Eh     change       -0.7558241E-02 Eh
   gradient norm :     0.0412214 Eh/α   predicted    -0.7149725E-02 (  -5.40%)
   displ. norm   :     0.6360554 α      lambda       -0.8483920E-02
   maximum displ.:     0.2240030 α      in ANC's #15, #31, #24, ...

........................................................................
.............................. CYCLE   11 ..............................
........................................................................

 iter      E             dE          RMSdq      gap      omega  full diag
   1   -116.4055922 -0.116406E+03  0.331E-02    2.94       0.0  T
   2   -116.4056330 -0.407828E-04  0.150E-02    2.95       1.0  T
   3   -116.4056370 -0.395180E-05  0.749E-03    2.94       1.5  T
   4   -116.4056379 -0.961331E-06  0.232E-03    2.94       5.0  T
   5   -116.4056380 -0.659618E-07  0.718E-04    2.94      16.0  T
   6   -116.4056380 -0.228006E-07  0.144E-04    2.94      79.4  T
   7   -116.4056380 -0.114579E-08  0.364E-05    2.94     314.7  T
     SCC iter.                  ...        0 min,  0.130 sec
     gradient                   ...        0 min,  0.019 sec
 * total energy  :  -114.9612662 Eh     change       -0.6972931E-02 Eh
   gradient norm :     0.0324525 Eh/α   predicted    -0.5958101E-02 ( -14.55%)
   displ. norm   :     0.7036706 α      lambda       -0.7984996E-02
   maximum displ.:     0.2530105 α      in ANC's #15, #31, #45, ...

........................................................................
.............................. CYCLE   12 ..............................
........................................................................

 iter      E             dE          RMSdq      gap      omega  full diag
   1   -116.4164474 -0.116416E+03  0.382E-02    2.98       0.0  T
   2   -116.4164857 -0.382738E-04  0.179E-02    2.98       1.0  T
   3   -116.4164884 -0.267831E-05  0.816E-03    2.98       1.4  T
   4   -116.4164895 -0.114001E-05  0.253E-03    2.98       4.5  T
   5   -116.4164896 -0.769703E-07  0.601E-04    2.98      19.1  T
   6   -116.4164896 -0.202750E-07  0.149E-04    2.98      76.9  T
   7   -116.4164896 -0.155917E-08  0.417E-05    2.98     275.1  T
     SCC iter.                  ...        0 min,  0.125 sec
     gradient                   ...        0 min,  0.016 sec
 * total energy  :  -114.9666204 Eh     change       -0.5354185E-02 Eh
   gradient norm :     0.0396816 Eh/α   predicted    -0.5969394E-02 (  11.49%)
   displ. norm   :     0.6944395 α      lambda       -0.7251670E-02
   maximum displ.:     0.2121522 α      in ANC's #15, #24, #12, ...

........................................................................
.............................. CYCLE   13 ..............................
........................................................................

 iter      E             dE          RMSdq      gap      omega  full diag
   1   -116.4167628 -0.116417E+03  0.465E-02    3.01       0.0  T
   2   -116.4168015 -0.387282E-04  0.239E-02    3.02       1.0  T
   3   -116.4168039 -0.245632E-05  0.117E-02    3.01       1.0  T
   4   -116.4168070 -0.301512E-05  0.257E-03    3.01       4.5  T
   5   -116.4168071 -0.126934E-06  0.636E-04    3.01      18.0  T
   6   -116.4168071 -0.253254E-07  0.148E-04    3.01      77.7  T
   7   -116.4168071 -0.120613E-08  0.469E-05    3.01     244.4  T
     SCC iter.                  ...        0 min,  0.129 sec
     gradient                   ...        0 min,  0.019 sec
 * total energy  :  -114.9702865 Eh     change       -0.3666067E-02 Eh
   gradient norm :     0.0398585 Eh/α   predicted    -0.5374375E-02 (  46.60%)
   displ. norm   :     0.5267089 α      lambda       -0.4113792E-02
   maximum displ.:     0.2324146 α      in ANC's #15, #19, #16, ...

........................................................................
.............................. CYCLE   14 ..............................
........................................................................

 iter      E             dE          RMSdq      gap      omega  full diag
   1   -116.4113693 -0.116411E+03  0.349E-02    3.06       0.0  T
   2   -116.4113920 -0.227356E-04  0.180E-02    3.05       1.0  T
   3   -116.4113934 -0.134868E-05  0.847E-03    3.05       1.4  T
   4   -116.4113947 -0.137956E-05  0.219E-03    3.05       5.2  T
   5   -116.4113949 -0.125818E-06  0.522E-04    3.05      22.0  T
   6   -116.4113949 -0.129799E-07  0.967E-05    3.05     118.6  T
   7   -116.4113949 -0.466585E-09  0.336E-05    3.05     341.7  T
     SCC iter.                  ...        0 min,  0.122 sec
     gradient                   ...        0 min,  0.024 sec
 * total energy  :  -114.9724596 Eh     change       -0.2173118E-02 Eh
   gradient norm :     0.0346046 Eh/α   predicted    -0.2627527E-02 (  20.91%)
   displ. norm   :     0.5123694 α      lambda       -0.3967749E-02
   maximum displ.:     0.2146714 α      in ANC's #15, #16, #12, ...

........................................................................
.............................. CYCLE   15 ..............................
........................................................................

 iter      E             dE          RMSdq      gap      omega  full diag
   1   -116.4305098 -0.116431E+03  0.442E-02    3.06       0.0  T
   2   -116.4305292 -0.194414E-04  0.232E-02    3.05       1.0  T
   3   -116.4305301 -0.881088E-06  0.700E-03    3.05       1.6  T
   4   -116.4305312 -0.110489E-05  0.238E-03    3.05       4.8  T
   5   -116.4305313 -0.141995E-06  0.510E-04    3.05      22.5  T
   6   -116.4305314 -0.164454E-07  0.925E-05    3.05     124.0  T
   7   -116.4305314 -0.389278E-09  0.335E-05    3.05     342.3  T
     SCC iter.                  ...        0 min,  0.129 sec
     gradient                   ...        0 min,  0.019 sec
 * total energy  :  -114.9734314 Eh     change       -0.9717834E-03 Eh
   gradient norm :     0.0414096 Eh/α   predicted    -0.2504689E-02 ( 157.74%)
   displ. norm   :     0.3402762 α      lambda       -0.2787319E-02
   maximum displ.:     0.1097561 α      in ANC's #33, #15, #17, ...

........................................................................
.............................. CYCLE   16 ..............................
........................................................................

 iter      E             dE          RMSdq      gap      omega  full diag
   1   -116.4220491 -0.116422E+03  0.266E-02    3.08       0.0  T
   2   -116.4220710 -0.218625E-04  0.136E-02    3.08       1.0  T
   3   -116.4220720 -0.100845E-05  0.667E-03    3.08       1.7  T
   4   -116.4220722 -0.208830E-06  0.152E-03    3.08       7.6  T
   5   -116.4220723 -0.801978E-07  0.491E-04    3.08      23.4  T
   6   -116.4220723 -0.990977E-08  0.855E-05    3.08     134.1  T
   7   -116.4220723 -0.281517E-09  0.308E-05    3.08     372.3  T
     SCC iter.                  ...        0 min,  0.123 sec
     gradient                   ...        0 min,  0.023 sec
 * total energy  :  -114.9749113 Eh     change       -0.1479876E-02 Eh
   gradient norm :     0.0227890 Eh/α   predicted    -0.1555031E-02 (   5.08%)
   displ. norm   :     0.3492773 α      lambda       -0.1881901E-02
   maximum displ.:     0.1593165 α      in ANC's #15, #17, #16, ...

........................................................................
.............................. CYCLE   17 ..............................
........................................................................

 iter      E             dE          RMSdq      gap      omega  full diag
   1   -116.4236088 -0.116424E+03  0.352E-02    3.09       0.0  T
   2   -116.4236558 -0.470172E-04  0.167E-02    3.08       1.0  T
   3   -116.4236577 -0.188890E-05  0.880E-03    3.08       1.3  T
   4   -116.4236580 -0.314924E-06  0.196E-03    3.08       5.9  T
   5   -116.4236582 -0.172777E-06  0.651E-04    3.08      17.6  T
   6   -116.4236582 -0.151209E-07  0.126E-04    3.08      90.7  T
   7   -116.4236582 -0.818972E-09  0.396E-05    3.08     289.8  T
     SCC iter.                  ...        0 min,  0.127 sec
     gradient                   ...        0 min,  0.020 sec
 * total energy  :  -114.9747626 Eh     change        0.1487152E-03 Eh
   gradient norm :     0.0422004 Eh/α   predicted    -0.1055744E-02 (-809.91%)
   displ. norm   :     0.2323411 α      lambda       -0.2371795E-02
   maximum displ.:     0.0950724 α      in ANC's #15, #17, #33, ...

........................................................................
.............................. CYCLE   18 ..............................
........................................................................

 iter      E             dE          RMSdq      gap      omega  full diag
   1   -116.4224243 -0.116422E+03  0.253E-02    3.09       0.0  T
   2   -116.4224308 -0.647609E-05  0.133E-02    3.09       1.0  T
   3   -116.4224309 -0.156876E-06  0.423E-03    3.09       2.7  T
   4   -116.4224314 -0.463274E-06  0.117E-03    3.09       9.8  T
   5   -116.4224314 -0.322834E-07  0.280E-04    3.09      41.0  T
   6   -116.4224314 -0.399625E-08  0.671E-05    3.09     170.9  T
   7   -116.4224314 -0.174836E-09  0.227E-05    3.09     506.4  T
     SCC iter.                  ...        0 min,  0.122 sec
     gradient                   ...        0 min,  0.020 sec
 * total energy  :  -114.9758441 Eh     change       -0.1081573E-02 Eh
   gradient norm :     0.0219569 Eh/α   predicted    -0.1249918E-02 (  15.56%)
   displ. norm   :     0.2279059 α      lambda       -0.1448770E-02
   maximum displ.:     0.0830171 α      in ANC's #10, #17, #21, ...

........................................................................
.............................. CYCLE   19 ..............................
........................................................................

 iter      E             dE          RMSdq      gap      omega  full diag
   1   -116.4274368 -0.116427E+03  0.347E-02    3.10       0.0  T
   2   -116.4275525 -0.115699E-03  0.145E-02    3.10       1.0  T
   3   -116.4275571 -0.459795E-05  0.759E-03    3.10       1.5  T
   4   -116.4275571 -0.409444E-07  0.194E-03    3.10       5.9  T
   5   -116.4275572 -0.953796E-07  0.515E-04    3.10      22.3  T
   6   -116.4275572 -0.110534E-07  0.122E-04    3.10      93.9  T
   7   -116.4275572 -0.737558E-09  0.315E-05    3.10     363.6  T
     SCC iter.                  ...        0 min,  0.128 sec
     gradient                   ...        0 min,  0.018 sec
 * total energy  :  -114.9758294 Eh     change        0.1471985E-04 Eh
   gradient norm :     0.0354822 Eh/α   predicted    -0.7620157E-03 (*******%)
   displ. norm   :     0.1862894 α      lambda       -0.1355822E-02
   maximum displ.:     0.0848295 α      in ANC's #15, #17, #1, ...

........................................................................
.............................. CYCLE   20 ..............................
........................................................................

 iter      E             dE          RMSdq      gap      omega  full diag
   1   -116.4285141 -0.116429E+03  0.256E-02    3.09       0.0  T
   2   -116.4285668 -0.526494E-04  0.956E-03    3.09       1.2  T
   3   -116.4285685 -0.172635E-05  0.534E-03    3.09       2.1  T
   4   -116.4285685 -0.182601E-07  0.127E-03    3.09       9.1  T
   5   -116.4285686 -0.421228E-07  0.282E-04    3.09      40.6  T
   6   -116.4285686 -0.369147E-08  0.674E-05    3.09     170.3  T
   7   -116.4285686 -0.179327E-09  0.172E-05    3.09     668.0  T
     SCC iter.                  ...        0 min,  0.130 sec
     gradient                   ...        0 min,  0.017 sec
 * total energy  :  -114.9766080 Eh     change       -0.7785576E-03 Eh
   gradient norm :     0.0111864 Eh/α   predicted    -0.7014399E-03 (  -9.91%)
   displ. norm   :     0.3152575 α      lambda       -0.8157311E-03
   maximum displ.:     0.1518215 α      in ANC's #15, #17, #20, ...
 * RMSD in coord.:     0.8547319 α      energy gain  -0.3589324E+00 Eh

generating ANC from exact Hessian ...
Using Lindh-Hessian (1995)
 Shifting diagonal of input Hessian by   1.066850126654407E-002
 Lowest  eigenvalues of input Hessian
    0.010000    0.010340    0.010372    0.010601    0.010625    0.000000
    0.000000    0.000000    0.000000    0.000000    0.000000    0.010735
    0.010753    0.010817    0.010883    0.010931    0.010995    0.011118
 Highest eigenvalues
    2.039970    2.054890    2.109281    2.178372    2.299350    2.324489
 

........................................................................
.............................. CYCLE   21 ..............................
........................................................................

 iter      E             dE          RMSdq      gap      omega  full diag
   1   -116.4184712 -0.116418E+03  0.184E-02    3.10       0.0  T
   2   -116.4184756 -0.436223E-05  0.895E-03    3.10       1.3  T
   3   -116.4184758 -0.175260E-06  0.382E-03    3.10       3.0  T
   4   -116.4184760 -0.230178E-06  0.874E-04    3.10      13.1  T
   5   -116.4184760 -0.128513E-07  0.233E-04    3.10      49.3  T
   6   -116.4184760 -0.262311E-08  0.523E-05    3.10     219.5  T
   7   -116.4184760 -0.146443E-09  0.179E-05    3.10     641.6  T
     SCC iter.                  ...        0 min,  0.149 sec
     gradient                   ...        0 min,  0.023 sec
 * total energy  :  -114.9766359 Eh     change       -0.2789734E-04 Eh
   gradient norm :     0.0252080 Eh/α   predicted     0.0000000E+00 (-100.00%)
   displ. norm   :     0.1502029 α      lambda       -0.1021571E-02
   maximum displ.:     0.0501798 α      in ANC's #37, #15, #32, ...

........................................................................
.............................. CYCLE   22 ..............................
........................................................................

 iter      E             dE          RMSdq      gap      omega  full diag
   1   -116.4254087 -0.116425E+03  0.113E-02    3.09       0.0  T
   2   -116.4254123 -0.358842E-05  0.552E-03    3.09       2.1  T
   3   -116.4254126 -0.319570E-06  0.282E-03    3.09       4.1  T
   4   -116.4254128 -0.196491E-06  0.748E-04    3.09      15.3  T
   5   -116.4254128 -0.631945E-08  0.232E-04    3.09      49.4  T
   6   -116.4254128 -0.204976E-08  0.437E-05    3.09     262.2  T
   7   -116.4254128 -0.738680E-10  0.129E-05    3.09     890.5  T
     SCC iter.                  ...        0 min,  0.152 sec
     gradient                   ...        0 min,  0.028 sec
 * total energy  :  -114.9773551 Eh     change       -0.7191883E-03 Eh
   gradient norm :     0.0070749 Eh/α   predicted    -0.5223216E-03 ( -27.37%)
   displ. norm   :     0.2232266 α      lambda       -0.5098179E-03
   maximum displ.:     0.0812210 α      in ANC's #37, #15, #16, ...

........................................................................
.............................. CYCLE   23 ..............................
........................................................................

 iter      E             dE          RMSdq      gap      omega  full diag
   1   -116.4284665 -0.116428E+03  0.718E-03    3.09       0.0  T
   2   -116.4284693 -0.280065E-05  0.355E-03    3.09       3.2  T
   3   -116.4284697 -0.400690E-06  0.169E-03    3.09       6.8  T
   4   -116.4284698 -0.545647E-07  0.495E-04    3.09      23.2  T
   5   -116.4284698 -0.159115E-08  0.183E-04    3.09      62.7  T
   6   -116.4284698 -0.104006E-08  0.445E-05    3.09     257.9  T
     SCC iter.                  ...        0 min,  0.134 sec
     gradient                   ...        0 min,  0.023 sec
 * total energy  :  -114.9777237 Eh     change       -0.3686297E-03 Eh
   gradient norm :     0.0060901 Eh/α   predicted    -0.2676264E-03 ( -27.40%)
   displ. norm   :     0.3263762 α      lambda       -0.4390083E-03
   maximum displ.:     0.1104865 α      in ANC's #37, #22, #15, ...

........................................................................
.............................. CYCLE   24 ..............................
........................................................................

 iter      E             dE          RMSdq      gap      omega  full diag
   1   -116.4279123 -0.116428E+03  0.772E-03    3.08       0.0  T
   2   -116.4279165 -0.414659E-05  0.388E-03    3.09       3.0  T
   3   -116.4279171 -0.588123E-06  0.175E-03    3.09       6.6  T
   4   -116.4279171 -0.467520E-07  0.528E-04    3.09      21.7  T
   5   -116.4279171 -0.185281E-08  0.205E-04    3.09      55.9  T
   6   -116.4279171 -0.134587E-08  0.537E-05    3.09     213.5  T
   7   -116.4279171 -0.668763E-10  0.140E-05    3.09     821.3  T
     SCC iter.                  ...        0 min,  0.163 sec
     gradient                   ...        0 min,  0.023 sec
 * total energy  :  -114.9780614 Eh     change       -0.3377457E-03 Eh
   gradient norm :     0.0110424 Eh/α   predicted    -0.2429265E-03 ( -28.07%)
   displ. norm   :     0.4715234 α      lambda       -0.5579168E-03
   maximum displ.:     0.1738346 α      in ANC's #22, #37, #32, ...

........................................................................
.............................. CYCLE   25 ..............................
........................................................................

 iter      E             dE          RMSdq      gap      omega  full diag
   1   -116.4266887 -0.116427E+03  0.755E-03    3.10       0.0  T
   2   -116.4266924 -0.364963E-05  0.322E-03    3.09       3.6  T
   3   -116.4266927 -0.297706E-06  0.152E-03    3.10       7.6  T
   4   -116.4266927 -0.451232E-07  0.512E-04    3.10      22.4  T
   5   -116.4266927 -0.297622E-08  0.180E-04    3.10      63.7  T
   6   -116.4266927 -0.991349E-09  0.526E-05    3.10     218.0  T
     SCC iter.                  ...        0 min,  0.136 sec
     gradient                   ...        0 min,  0.022 sec
 * total energy  :  -114.9784639 Eh     change       -0.4024365E-03 Eh
   gradient norm :     0.0081966 Eh/α   predicted    -0.3409867E-03 ( -15.27%)
   displ. norm   :     0.4842965 α      lambda       -0.4864587E-03
   maximum displ.:     0.1899274 α      in ANC's #22, #8, #17, ...

........................................................................
.............................. CYCLE   26 ..............................
........................................................................

 iter      E             dE          RMSdq      gap      omega  full diag
   1   -116.4233956 -0.116423E+03  0.125E-02    3.10       0.0  T
   2   -116.4233993 -0.366178E-05  0.637E-03    3.10       1.8  T
   3   -116.4233995 -0.258083E-06  0.290E-03    3.10       4.0  T
   4   -116.4233997 -0.209507E-06  0.716E-04    3.10      16.0  T
   5   -116.4233998 -0.926349E-08  0.216E-04    3.10      53.1  T
   6   -116.4233998 -0.163706E-08  0.559E-05    3.10     205.1  T
   7   -116.4233998 -0.130470E-09  0.163E-05    3.10     705.4  T
     SCC iter.                  ...        0 min,  0.154 sec
     gradient                   ...        0 min,  0.023 sec
 * total energy  :  -114.9786997 Eh     change       -0.2358609E-03 Eh
   gradient norm :     0.0166988 Eh/α   predicted    -0.3002877E-03 (  27.32%)
   displ. norm   :     0.4030055 α      lambda       -0.7788377E-03
   maximum displ.:     0.1672520 α      in ANC's #22, #8, #16, ...

........................................................................
.............................. CYCLE   27 ..............................
........................................................................

 iter      E             dE          RMSdq      gap      omega  full diag
   1   -116.4270634 -0.116427E+03  0.176E-02    3.12       0.0  T
   2   -116.4270734 -0.998124E-05  0.912E-03    3.11       1.3  T
   3   -116.4270747 -0.134942E-05  0.472E-03    3.11       2.4  T
   4   -116.4270752 -0.445256E-06  0.114E-03    3.11      10.0  T
   5   -116.4270752 -0.170612E-07  0.350E-04    3.11      32.8  T
   6   -116.4270752 -0.481791E-08  0.602E-05    3.11     190.6  T
   7   -116.4270752 -0.131365E-09  0.171E-05    3.11     669.3  T
     SCC iter.                  ...        0 min,  0.151 sec
     gradient                   ...        0 min,  0.022 sec
 * total energy  :  -114.9790414 Eh     change       -0.3416637E-03 Eh
   gradient norm :     0.0129657 Eh/α   predicted    -0.4526664E-03 (  32.49%)
   displ. norm   :     0.2773472 α      lambda       -0.3559804E-03
   maximum displ.:     0.1097534 α      in ANC's #22, #8, #1, ...

........................................................................
.............................. CYCLE   28 ..............................
........................................................................

 iter      E             dE          RMSdq      gap      omega  full diag
   1   -116.4254945 -0.116425E+03  0.908E-03    3.10       0.0  T
   2   -116.4254962 -0.164275E-05  0.459E-03    3.10       2.5  T
   3   -116.4254962 -0.864772E-07  0.203E-03    3.10       5.6  T
   4   -116.4254963 -0.104760E-06  0.541E-04    3.10      21.2  T
   5   -116.4254964 -0.544685E-08  0.144E-04    3.10      79.6  T
   6   -116.4254964 -0.533234E-09  0.338E-05    3.10     339.1  T
     SCC iter.                  ...        0 min,  0.131 sec
     gradient                   ...        0 min,  0.025 sec
 * total energy  :  -114.9792924 Eh     change       -0.2510529E-03 Eh
   gradient norm :     0.0098660 Eh/α   predicted    -0.1916849E-03 ( -23.65%)
   displ. norm   :     0.4208047 α      lambda       -0.6725646E-03
   maximum displ.:     0.1643229 α      in ANC's #1, #22, #8, ...

........................................................................
.............................. CYCLE   29 ..............................
........................................................................

 iter      E             dE          RMSdq      gap      omega  full diag
   1   -116.4312511 -0.116431E+03  0.208E-02    3.09       0.0  T
   2   -116.4312642 -0.130322E-04  0.104E-02    3.09       1.1  T
   3   -116.4312659 -0.169915E-05  0.550E-03    3.09       2.1  T
   4   -116.4312664 -0.493878E-06  0.121E-03    3.09       9.5  T
   5   -116.4312664 -0.146151E-07  0.362E-04    3.09      31.7  T
   6   -116.4312664 -0.435666E-08  0.769E-05    3.09     149.1  T
   7   -116.4312664 -0.433772E-09  0.185E-05    3.09     618.5  T
     SCC iter.                  ...        0 min,  0.174 sec
     gradient                   ...        0 min,  0.023 sec
 * total energy  :  -114.9794664 Eh     change       -0.1739666E-03 Eh
   gradient norm :     0.0218046 Eh/α   predicted    -0.3958313E-03 ( 127.53%)
   displ. norm   :     0.2668857 α      lambda       -0.5219250E-03
   maximum displ.:     0.0992783 α      in ANC's #22, #8, #1, ...

........................................................................
.............................. CYCLE   30 ..............................
........................................................................

 iter      E             dE          RMSdq      gap      omega  full diag
   1   -116.4286008 -0.116429E+03  0.925E-03    3.09       0.0  T
   2   -116.4286030 -0.222317E-05  0.476E-03    3.09       2.4  T
   3   -116.4286031 -0.157314E-06  0.234E-03    3.09       4.9  T
   4   -116.4286032 -0.473493E-07  0.474E-04    3.09      24.2  T
   5   -116.4286032 -0.363711E-08  0.142E-04    3.09      80.9  T
   6   -116.4286032 -0.971738E-09  0.327E-05    3.09     350.5  T
     SCC iter.                  ...        0 min,  0.134 sec
     gradient                   ...        0 min,  0.020 sec
 * total energy  :  -114.9798309 Eh     change       -0.3644859E-03 Eh
   gradient norm :     0.0081760 Eh/α   predicted    -0.2795512E-03 ( -23.30%)
   displ. norm   :     0.4354061 α      lambda       -0.4210507E-03
   maximum displ.:     0.1703995 α      in ANC's #8, #1, #22, ...

........................................................................
.............................. CYCLE   31 ..............................
........................................................................

 iter      E             dE          RMSdq      gap      omega  full diag
   1   -116.4270669 -0.116427E+03  0.107E-02    3.08       0.0  T
   2   -116.4270712 -0.433774E-05  0.513E-03    3.08       2.2  T
   3   -116.4270719 -0.643119E-06  0.273E-03    3.08       4.2  T
   4   -116.4270720 -0.113045E-06  0.653E-04    3.08      17.6  T
   5   -116.4270720 -0.532137E-08  0.215E-04    3.08      53.2  T
   6   -116.4270720 -0.103972E-08  0.600E-05    3.08     191.0  T
   7   -116.4270720 -0.175959E-09  0.159E-05    3.08     720.0  T
     SCC iter.                  ...        0 min,  0.153 sec
     gradient                   ...        0 min,  0.022 sec
 * total energy  :  -114.9801180 Eh     change       -0.2871082E-03 Eh
   gradient norm :     0.0097850 Eh/α   predicted    -0.2504369E-03 ( -12.77%)
   displ. norm   :     0.4818391 α      lambda       -0.4373800E-03
   maximum displ.:     0.1962362 α      in ANC's #8, #1, #22, ...

........................................................................
.............................. CYCLE   32 ..............................
........................................................................

 iter      E             dE          RMSdq      gap      omega  full diag
   1   -116.4284695 -0.116428E+03  0.103E-02    3.07       0.0  T
   2   -116.4284750 -0.546177E-05  0.483E-03    3.08       2.4  T
   3   -116.4284759 -0.971833E-06  0.222E-03    3.08       5.2  T
   4   -116.4284760 -0.479274E-07  0.564E-04    3.08      20.4  T
   5   -116.4284760 -0.600605E-08  0.211E-04    3.08      54.5  T
   6   -116.4284760 -0.116802E-08  0.620E-05    3.08     185.0  T
   7   -116.4284760 -0.105246E-09  0.132E-05    3.08     866.4  T
     SCC iter.                  ...        0 min,  0.164 sec
     gradient                   ...        0 min,  0.026 sec
 * total energy  :  -114.9804180 Eh     change       -0.2999892E-03 Eh
   gradient norm :     0.0091705 Eh/α   predicted    -0.2694680E-03 ( -10.17%)
   displ. norm   :     0.5620919 α      lambda       -0.5331226E-03
   maximum displ.:     0.2395146 α      in ANC's #1, #8, #50, ...

........................................................................
.............................. CYCLE   33 ..............................
........................................................................

 iter      E             dE          RMSdq      gap      omega  full diag
   1   -116.4246442 -0.116425E+03  0.153E-02    3.06       0.0  T
   2   -116.4246545 -0.103043E-04  0.723E-03    3.07       1.6  T
   3   -116.4246562 -0.165903E-05  0.382E-03    3.07       3.0  T
   4   -116.4246565 -0.285914E-06  0.982E-04    3.07      11.7  T
   5   -116.4246565 -0.666530E-08  0.320E-04    3.07      35.8  T
   6   -116.4246565 -0.186668E-08  0.867E-05    3.07     132.3  T
   7   -116.4246565 -0.375351E-09  0.222E-05    3.07     516.3  T
     SCC iter.                  ...        0 min,  0.166 sec
     gradient                   ...        0 min,  0.024 sec
 * total energy  :  -114.9807733 Eh     change       -0.3552650E-03 Eh
   gradient norm :     0.0133083 Eh/α   predicted    -0.3507839E-03 (  -1.26%)
   displ. norm   :     0.4023270 α      lambda       -0.5488084E-03
   maximum displ.:     0.1378287 α      in ANC's #8, #1, #50, ...

........................................................................
.............................. CYCLE   34 ..............................
........................................................................

 iter      E             dE          RMSdq      gap      omega  full diag
   1   -116.4348443 -0.116435E+03  0.128E-02    3.06       0.0  T
   2   -116.4348507 -0.642265E-05  0.599E-03    3.06       1.9  T
   3   -116.4348512 -0.480864E-06  0.318E-03    3.06       3.6  T
   4   -116.4348513 -0.122703E-06  0.892E-04    3.06      12.9  T
   5   -116.4348514 -0.263187E-07  0.241E-04    3.06      47.6  T
   6   -116.4348514 -0.114956E-08  0.553E-05    3.06     207.5  T
   7   -116.4348514 -0.123222E-09  0.139E-05    3.06     826.1  T
     SCC iter.                  ...        0 min,  0.136 sec
     gradient                   ...        0 min,  0.018 sec
 * total energy  :  -114.9810383 Eh     change       -0.2650507E-03 Eh
   gradient norm :     0.0148568 Eh/α   predicted    -0.3188243E-03 (  20.29%)
   displ. norm   :     0.5516355 α      lambda       -0.8457708E-03
   maximum displ.:     0.2363476 α      in ANC's #8, #1, #50, ...

........................................................................
.............................. CYCLE   35 ..............................
........................................................................

 iter      E             dE          RMSdq      gap      omega  full diag
   1   -116.4272759 -0.116427E+03  0.174E-02    3.07       0.0  T
   2   -116.4272816 -0.573323E-05  0.911E-03    3.07       1.3  T
   3   -116.4272820 -0.324732E-06  0.415E-03    3.07       2.8  T
   4   -116.4272824 -0.437147E-06  0.993E-04    3.07      11.5  T
   5   -116.4272824 -0.192069E-07  0.307E-04    3.07      37.3  T
   6   -116.4272824 -0.432068E-08  0.690E-05    3.07     166.3  T
   7   -116.4272824 -0.163467E-09  0.202E-05    3.07     568.7  T
     SCC iter.                  ...        0 min,  0.132 sec
     gradient                   ...        0 min,  0.020 sec
 * total energy  :  -114.9812744 Eh     change       -0.2361291E-03 Eh
   gradient norm :     0.0254512 Eh/α   predicted    -0.5515700E-03 ( 133.59%)
   displ. norm   :     0.2911549 α      lambda       -0.8512476E-03
   maximum displ.:     0.1181482 α      in ANC's #8, #1, #50, ...

........................................................................
.............................. CYCLE   36 ..............................
........................................................................

 iter      E             dE          RMSdq      gap      omega  full diag
   1   -116.4263688 -0.116426E+03  0.120E-02    3.07       0.0  T
   2   -116.4263707 -0.191396E-05  0.623E-03    3.07       1.8  T
   3   -116.4263708 -0.102441E-06  0.205E-03    3.07       5.6  T
   4   -116.4263709 -0.866473E-07  0.652E-04    3.07      17.6  T
   5   -116.4263709 -0.892273E-08  0.172E-04    3.07      66.9  T
   6   -116.4263709 -0.136757E-08  0.431E-05    3.07     266.3  T
     SCC iter.                  ...        0 min,  0.105 sec
     gradient                   ...        0 min,  0.025 sec
 * total energy  :  -114.9818100 Eh     change       -0.5355684E-03 Eh
   gradient norm :     0.0110081 Eh/α   predicted    -0.4617061E-03 ( -13.79%)
   displ. norm   :     0.4091120 α      lambda       -0.6167066E-03
   maximum displ.:     0.1585826 α      in ANC's #8, #2, #5, ...

........................................................................
.............................. CYCLE   37 ..............................
........................................................................

 iter      E             dE          RMSdq      gap      omega  full diag
   1   -116.4276337 -0.116428E+03  0.115E-02    3.09       0.0  T
   2   -116.4276389 -0.526830E-05  0.582E-03    3.08       2.0  T
   3   -116.4276395 -0.548899E-06  0.294E-03    3.08       3.9  T
   4   -116.4276396 -0.868168E-07  0.747E-04    3.08      15.4  T
   5   -116.4276396 -0.955814E-08  0.246E-04    3.08      46.6  T
   6   -116.4276396 -0.226140E-08  0.632E-05    3.08     181.4  T
   7   -116.4276396 -0.140616E-09  0.137E-05    3.08     834.5  T
     SCC iter.                  ...        0 min,  0.129 sec
     gradient                   ...        0 min,  0.019 sec
 * total energy  :  -114.9822042 Eh     change       -0.3942415E-03 Eh
   gradient norm :     0.0137374 Eh/α   predicted    -0.3599663E-03 (  -8.69%)
   displ. norm   :     0.5770399 α      lambda       -0.6335429E-03
   maximum displ.:     0.2347104 α      in ANC's #8, #50, #2, ...

........................................................................
.............................. CYCLE   38 ..............................
........................................................................

 iter      E             dE          RMSdq      gap      omega  full diag
   1   -116.4276263 -0.116428E+03  0.109E-02    3.09       0.0  T
   2   -116.4276332 -0.685876E-05  0.525E-03    3.09       2.2  T
   3   -116.4276337 -0.571459E-06  0.259E-03    3.09       4.4  T
   4   -116.4276338 -0.491795E-07  0.808E-04    3.09      14.2  T
   5   -116.4276338 -0.156660E-07  0.247E-04    3.09      46.5  T
   6   -116.4276338 -0.172294E-08  0.602E-05    3.09     190.5  T
   7   -116.4276338 -0.142506E-09  0.147E-05    3.09     780.5  T
     SCC iter.                  ...        0 min,  0.130 sec
     gradient                   ...        0 min,  0.020 sec
 * total energy  :  -114.9826878 Eh     change       -0.4835139E-03 Eh
   gradient norm :     0.0161683 Eh/α   predicted    -0.4222500E-03 ( -12.67%)
   displ. norm   :     0.5569802 α      lambda       -0.9711193E-03
   maximum displ.:     0.2001731 α      in ANC's #3, #14, #24, ...

........................................................................
.............................. CYCLE   39 ..............................
........................................................................

 iter      E             dE          RMSdq      gap      omega  full diag
   1   -116.4421693 -0.116442E+03  0.255E-02    3.13       0.0  T
   2   -116.4421867 -0.173605E-04  0.137E-02    3.11       1.0  T
   3   -116.4421888 -0.210988E-05  0.717E-03    3.11       1.6  T
   4   -116.4421896 -0.851879E-06  0.144E-03    3.11       7.9  T
   5   -116.4421897 -0.343293E-07  0.406E-04    3.11      28.3  T
   6   -116.4421897 -0.614567E-08  0.834E-05    3.11     137.6  T
   7   -116.4421897 -0.352713E-09  0.252E-05    3.11     456.0  T
     SCC iter.                  ...        0 min,  0.121 sec
     gradient                   ...        0 min,  0.020 sec
 * total energy  :  -114.9827726 Eh     change       -0.8486785E-04 Eh
   gradient norm :     0.0242696 Eh/α   predicted    -0.6361957E-03 ( 649.63%)
   displ. norm   :     0.4872818 α      lambda       -0.1347342E-02
   maximum displ.:     0.1887832 α      in ANC's #8, #1, #2, ...

........................................................................
.............................. CYCLE   40 ..............................
........................................................................

 iter      E             dE          RMSdq      gap      omega  full diag
   1   -116.4280461 -0.116428E+03  0.220E-02    3.11       0.0  T
   2   -116.4280563 -0.102554E-04  0.112E-02    3.11       1.0  T
   3   -116.4280569 -0.576274E-06  0.518E-03    3.11       2.2  T
   4   -116.4280574 -0.487838E-06  0.134E-03    3.11       8.5  T
   5   -116.4280574 -0.418390E-07  0.417E-04    3.11      27.5  T
   6   -116.4280574 -0.747346E-08  0.741E-05    3.11     154.9  T
   7   -116.4280574 -0.243233E-09  0.201E-05    3.11     571.2  T
     SCC iter.                  ...        0 min,  0.127 sec
     gradient                   ...        0 min,  0.019 sec
 * total energy  :  -114.9835201 Eh     change       -0.7474421E-03 Eh
   gradient norm :     0.0147505 Eh/α   predicted    -0.8336354E-03 (  11.53%)
   displ. norm   :     0.4328485 α      lambda       -0.6190141E-03
   maximum displ.:     0.1800720 α      in ANC's #8, #2, #5, ...

........................................................................
.............................. CYCLE   41 ..............................
........................................................................

 iter      E             dE          RMSdq      gap      omega  full diag
   1   -116.4252724 -0.116425E+03  0.152E-02    3.12       0.0  T
   2   -116.4252799 -0.743636E-05  0.771E-03    3.12       1.5  T
   3   -116.4252807 -0.812466E-06  0.399E-03    3.12       2.9  T
   4   -116.4252810 -0.285979E-06  0.947E-04    3.12      12.1  T
   5   -116.4252810 -0.136392E-07  0.303E-04    3.12      37.9  T
   6   -116.4252810 -0.297065E-08  0.657E-05    3.12     174.6  T
   7   -116.4252810 -0.157854E-09  0.174E-05    3.12     660.5  T
     SCC iter.                  ...        0 min,  0.125 sec
     gradient                   ...        0 min,  0.018 sec
 * total energy  :  -114.9837866 Eh     change       -0.2665801E-03 Eh
   gradient norm :     0.0183140 Eh/α   predicted    -0.3674973E-03 (  37.86%)
   displ. norm   :     0.3359817 α      lambda       -0.7832887E-03
   maximum displ.:     0.1118450 α      in ANC's #10, #8, #5, ...

........................................................................
.............................. CYCLE   42 ..............................
........................................................................

 iter      E             dE          RMSdq      gap      omega  full diag
   1   -116.4336324 -0.116434E+03  0.142E-02    3.11       0.0  T
   2   -116.4336414 -0.905608E-05  0.741E-03    3.12       1.5  T
   3   -116.4336432 -0.171741E-05  0.388E-03    3.12       3.0  T
   4   -116.4336433 -0.117121E-06  0.750E-04    3.12      15.3  T
   5   -116.4336433 -0.131724E-07  0.226E-04    3.12      50.8  T
   6   -116.4336433 -0.198325E-08  0.524E-05    3.12     219.0  T
   7   -116.4336433 -0.112223E-09  0.142E-05    3.12     805.9  T
     SCC iter.                  ...        0 min,  0.114 sec
     gradient                   ...        0 min,  0.031 sec
 * total energy  :  -114.9841721 Eh     change       -0.3854992E-03 Eh
   gradient norm :     0.0179221 Eh/α   predicted    -0.4358581E-03 (  13.06%)
   displ. norm   :     0.4768309 α      lambda       -0.8525046E-03
   maximum displ.:     0.1628879 α      in ANC's #5, #8, #2, ...
 * RMSD in coord.:     0.8173966 α      energy gain  -0.7564183E-02 Eh

generating ANC from exact Hessian ...
Using Lindh-Hessian (1995)
 Shifting diagonal of input Hessian by   1.101500500207896E-002
 Lowest  eigenvalues of input Hessian
    0.010000    0.010838    0.010936    0.010954    0.000000    0.000000
    0.000000    0.000000    0.000000    0.000000    0.011086    0.011106
    0.011160    0.011272    0.011381    0.011410    0.011450    0.011529
 Highest eigenvalues
    2.044959    2.054315    2.107594    2.180528    2.310109    2.323590
 

........................................................................
.............................. CYCLE   43 ..............................
........................................................................

 iter      E             dE          RMSdq      gap      omega  full diag
   1   -116.4326094 -0.116433E+03  0.189E-02    3.13       0.0  T
   2   -116.4326258 -0.163663E-04  0.869E-03    3.12       1.3  T
   3   -116.4326272 -0.142121E-05  0.450E-03    3.12       2.6  T
   4   -116.4326274 -0.202799E-06  0.123E-03    3.12       9.3  T
   5   -116.4326274 -0.452559E-07  0.390E-04    3.12      29.4  T
   6   -116.4326274 -0.347150E-08  0.694E-05    3.12     165.3  T
   7   -116.4326274 -0.165215E-09  0.221E-05    3.12     520.2  T
     SCC iter.                  ...        0 min,  0.107 sec
     gradient                   ...        0 min,  0.018 sec
 * total energy  :  -114.9844046 Eh     change       -0.2324599E-03 Eh
   gradient norm :     0.0167082 Eh/α   predicted     0.0000000E+00 (-100.00%)
   displ. norm   :     0.1622173 α      lambda       -0.7216213E-03
   maximum displ.:     0.0660535 α      in ANC's #23, #34, #8, ...

........................................................................
.............................. CYCLE   44 ..............................
........................................................................

 iter      E             dE          RMSdq      gap      omega  full diag
   1   -116.4325581 -0.116433E+03  0.143E-02    3.13       0.0  T
   2   -116.4325686 -0.104651E-04  0.732E-03    3.13       1.6  T
   3   -116.4325701 -0.154695E-05  0.364E-03    3.13       3.2  T
   4   -116.4325702 -0.110043E-06  0.820E-04    3.13      14.0  T
   5   -116.4325702 -0.116203E-07  0.332E-04    3.13      34.5  T
   6   -116.4325703 -0.393821E-08  0.717E-05    3.13     160.0  T
   7   -116.4325703 -0.142634E-09  0.153E-05    3.13     747.7  T
     SCC iter.                  ...        0 min,  0.122 sec
     gradient                   ...        0 min,  0.022 sec
 * total energy  :  -114.9848461 Eh     change       -0.4414456E-03 Eh
   gradient norm :     0.0070638 Eh/α   predicted    -0.3703114E-03 ( -16.11%)
   displ. norm   :     0.1383187 α      lambda       -0.2452939E-03
   maximum displ.:     0.0561219 α      in ANC's #8, #30, #6, ...

........................................................................
.............................. CYCLE   45 ..............................
........................................................................

 iter      E             dE          RMSdq      gap      omega  full diag
   1   -116.4330800 -0.116433E+03  0.971E-03    3.12       0.0  T
   2   -116.4330833 -0.330327E-05  0.483E-03    3.12       2.4  T
   3   -116.4330837 -0.443244E-06  0.246E-03    3.12       4.7  T
   4   -116.4330838 -0.118632E-06  0.627E-04    3.12      18.3  T
   5   -116.4330838 -0.425520E-08  0.208E-04    3.12      55.1  T
   6   -116.4330838 -0.145909E-08  0.406E-05    3.12     282.5  T
   7   -116.4330838 -0.570566E-10  0.120E-05    3.12     952.7  T
     SCC iter.                  ...        0 min,  0.127 sec
     gradient                   ...        0 min,  0.019 sec
 * total energy  :  -114.9849937 Eh     change       -0.1476310E-03 Eh
   gradient norm :     0.0074858 Eh/α   predicted    -0.1249938E-03 ( -15.33%)
   displ. norm   :     0.1631303 α      lambda       -0.1799226E-03
   maximum displ.:     0.0664001 α      in ANC's #8, #17, #6, ...

........................................................................
.............................. CYCLE   46 ..............................
........................................................................

 iter      E             dE          RMSdq      gap      omega  full diag
   1   -116.4330341 -0.116433E+03  0.485E-03    3.13       0.0  T
   2   -116.4330360 -0.194506E-05  0.242E-03    3.12       4.7  T
   3   -116.4330363 -0.331790E-06  0.972E-04    3.12      11.8  T
   4   -116.4330364 -0.169666E-07  0.310E-04    3.12      37.1  T
   5   -116.4330364 -0.769319E-09  0.117E-04    3.12      98.4  T
   6   -116.4330364 -0.321279E-09  0.277E-05    3.12     414.4  T
     SCC iter.                  ...        0 min,  0.105 sec
     gradient                   ...        0 min,  0.021 sec
 * total energy  :  -114.9851506 Eh     change       -0.1569248E-03 Eh
   gradient norm :     0.0083052 Eh/α   predicted    -0.9236397E-04 ( -41.14%)
   displ. norm   :     0.5156424 α      lambda       -0.5582107E-03
   maximum displ.:     0.2057925 α      in ANC's #8, #6, #32, ...

........................................................................
.............................. CYCLE   47 ..............................
........................................................................

 iter      E             dE          RMSdq      gap      omega  full diag
   1   -116.4322010 -0.116432E+03  0.138E-02    3.13       0.0  T
   2   -116.4322133 -0.122572E-04  0.663E-03    3.13       1.7  T
   3   -116.4322151 -0.178517E-05  0.314E-03    3.13       3.7  T
   4   -116.4322152 -0.148722E-06  0.993E-04    3.13      11.5  T
   5   -116.4322152 -0.100380E-07  0.361E-04    3.13      31.8  T
   6   -116.4322152 -0.319510E-08  0.722E-05    3.13     158.8  T
   7   -116.4322152 -0.155993E-09  0.214E-05    3.13     534.8  T
     SCC iter.                  ...        0 min,  0.128 sec
     gradient                   ...        0 min,  0.018 sec
 * total energy  :  -114.9855270 Eh     change       -0.3763895E-03 Eh
   gradient norm :     0.0080540 Eh/α   predicted    -0.3533176E-03 (  -6.13%)
   displ. norm   :     0.4537725 α      lambda       -0.3763884E-03
   maximum displ.:     0.1911297 α      in ANC's #8, #6, #17, ...

........................................................................
.............................. CYCLE   48 ..............................
........................................................................

 iter      E             dE          RMSdq      gap      omega  full diag
   1   -116.4290331 -0.116429E+03  0.131E-02    3.14       0.0  T
   2   -116.4290393 -0.622249E-05  0.682E-03    3.14       1.7  T
   3   -116.4290400 -0.741690E-06  0.353E-03    3.14       3.3  T
   4   -116.4290403 -0.261686E-06  0.784E-04    3.13      14.6  T
   5   -116.4290403 -0.783061E-08  0.277E-04    3.13      41.4  T
   6   -116.4290403 -0.228160E-08  0.712E-05    3.13     161.2  T
   7   -116.4290403 -0.171227E-09  0.170E-05    3.13     674.4  T
     SCC iter.                  ...        0 min,  0.127 sec
     gradient                   ...        0 min,  0.019 sec
 * total energy  :  -114.9856570 Eh     change       -0.1300120E-03 Eh
   gradient norm :     0.0152229 Eh/α   predicted    -0.2269454E-03 (  74.56%)
   displ. norm   :     0.2119949 α      lambda       -0.4337367E-03
   maximum displ.:     0.0884444 α      in ANC's #10, #11, #32, ...

........................................................................
.............................. CYCLE   49 ..............................
........................................................................

 iter      E             dE          RMSdq      gap      omega  full diag
   1   -116.4347869 -0.116435E+03  0.127E-02    3.13       0.0  T
   2   -116.4347899 -0.298110E-05  0.667E-03    3.13       1.7  T
   3   -116.4347901 -0.212138E-06  0.324E-03    3.13       3.5  T
   4   -116.4347903 -0.183312E-06  0.651E-04    3.13      17.6  T
   5   -116.4347903 -0.965539E-08  0.209E-04    3.13      55.0  T
   6   -116.4347903 -0.246784E-08  0.313E-05    3.13     366.1  T
   7   -116.4347903 -0.475495E-10  0.108E-05    3.13    1059.2  T
     SCC iter.                  ...        0 min,  0.127 sec
     gradient                   ...        0 min,  0.017 sec
 * total energy  :  -114.9858447 Eh     change       -0.1876404E-03 Eh
   gradient norm :     0.0117675 Eh/α   predicted    -0.2266217E-03 (  20.77%)
   displ. norm   :     0.3085176 α      lambda       -0.4073535E-03
   maximum displ.:     0.1143069 α      in ANC's #8, #6, #32, ...

........................................................................
.............................. CYCLE   50 ..............................
........................................................................

 iter      E             dE          RMSdq      gap      omega  full diag
   1   -116.4320848 -0.116432E+03  0.180E-02    3.13       0.0  T
   2   -116.4320971 -0.122421E-04  0.896E-03    3.13       1.3  T
   3   -116.4320986 -0.155661E-05  0.467E-03    3.13       2.5  T
   4   -116.4320990 -0.416941E-06  0.123E-03    3.13       9.3  T
   5   -116.4320991 -0.125915E-07  0.347E-04    3.13      33.1  T
   6   -116.4320991 -0.506715E-08  0.635E-05    3.13     180.5  T
   7   -116.4320991 -0.220865E-09  0.209E-05    3.13     550.0  T
     SCC iter.                  ...        0 min,  0.134 sec
     gradient                   ...        0 min,  0.020 sec
 * total energy  :  -114.9859662 Eh     change       -0.1215735E-03 Eh
   gradient norm :     0.0149585 Eh/α   predicted    -0.2230657E-03 (  83.48%)
   displ. norm   :     0.1977681 α      lambda       -0.3977709E-03
   maximum displ.:     0.0801715 α      in ANC's #6, #8, #2, ...

........................................................................
.............................. CYCLE   51 ..............................
........................................................................

 iter      E             dE          RMSdq      gap      omega  full diag
   1   -116.4341658 -0.116434E+03  0.112E-02    3.14       0.0  T
   2   -116.4341683 -0.245836E-05  0.575E-03    3.14       2.0  T
   3   -116.4341684 -0.136846E-06  0.250E-03    3.14       4.6  T
   4   -116.4341686 -0.126302E-06  0.628E-04    3.14      18.3  T
   5   -116.4341686 -0.524223E-08  0.154E-04    3.14      74.5  T
   6   -116.4341686 -0.148555E-08  0.373E-05    3.14     307.8  T
     SCC iter.                  ...        0 min,  0.112 sec
     gradient                   ...        0 min,  0.022 sec
 * total energy  :  -114.9862014 Eh     change       -0.2352105E-03 Eh
   gradient norm :     0.0055674 Eh/α   predicted    -0.2066674E-03 ( -12.14%)
   displ. norm   :     0.4009418 α      lambda       -0.3188026E-03
   maximum displ.:     0.1549508 α      in ANC's #6, #8, #32, ...

........................................................................
.............................. CYCLE   52 ..............................
........................................................................

 iter      E             dE          RMSdq      gap      omega  full diag
   1   -116.4307635 -0.116431E+03  0.179E-02    3.14       0.0  T
   2   -116.4307711 -0.756339E-05  0.894E-03    3.14       1.3  T
   3   -116.4307719 -0.831090E-06  0.459E-03    3.14       2.5  T
   4   -116.4307723 -0.388681E-06  0.107E-03    3.14      10.8  T
   5   -116.4307723 -0.164019E-07  0.340E-04    3.14      33.7  T
   6   -116.4307723 -0.564683E-08  0.625E-05    3.14     183.6  T
   7   -116.4307723 -0.102688E-09  0.184E-05    3.14     623.2  T
     SCC iter.                  ...        0 min,  0.124 sec
     gradient                   ...        0 min,  0.018 sec
 * total energy  :  -114.9861991 Eh     change        0.2336674E-05 Eh
   gradient norm :     0.0192984 Eh/α   predicted    -0.1850294E-03 (*******%)
   displ. norm   :     0.2032788 α      lambda       -0.5133705E-03
   maximum displ.:     0.0753986 α      in ANC's #6, #32, #2, ...

........................................................................
.............................. CYCLE   53 ..............................
........................................................................

 iter      E             dE          RMSdq      gap      omega  full diag
   1   -116.4327322 -0.116433E+03  0.141E-02    3.14       0.0  T
   2   -116.4327351 -0.290381E-05  0.744E-03    3.14       1.5  T
   3   -116.4327351 -0.142980E-07  0.283E-03    3.14       4.1  T
   4   -116.4327355 -0.386005E-06  0.817E-04    3.14      14.0  T
   5   -116.4327355 -0.940236E-08  0.183E-04    3.14      62.6  T
   6   -116.4327355 -0.115062E-08  0.377E-05    3.14     304.3  T
     SCC iter.                  ...        0 min,  0.109 sec
     gradient                   ...        0 min,  0.020 sec
 * total energy  :  -114.9864738 Eh     change       -0.2747427E-03 Eh
   gradient norm :     0.0086546 Eh/α   predicted    -0.2672927E-03 (  -2.71%)
   displ. norm   :     0.2153248 α      lambda       -0.1965337E-03
   maximum displ.:     0.0897432 α      in ANC's #6, #32, #10, ...

........................................................................
.............................. CYCLE   54 ..............................
........................................................................

 iter      E             dE          RMSdq      gap      omega  full diag
   1   -116.4359615 -0.116436E+03  0.707E-03    3.14       0.0  T
   2   -116.4359639 -0.238570E-05  0.340E-03    3.14       3.4  T
   3   -116.4359641 -0.172563E-06  0.179E-03    3.14       6.4  T
   4   -116.4359641 -0.206041E-07  0.463E-04    3.14      24.8  T
   5   -116.4359641 -0.738999E-08  0.154E-04    3.14      74.6  T
   6   -116.4359641 -0.699160E-09  0.277E-05    3.14     413.6  T
     SCC iter.                  ...        0 min,  0.173 sec
     gradient                   ...        0 min,  0.021 sec
 * total energy  :  -114.9865854 Eh     change       -0.1115298E-03 Eh
   gradient norm :     0.0062615 Eh/α   predicted    -0.1028271E-03 (  -7.80%)
   displ. norm   :     0.5756470 α      lambda       -0.2702676E-03
   maximum displ.:     0.2427421 α      in ANC's #6, #32, #8, ...

........................................................................
.............................. CYCLE   55 ..............................
........................................................................

 iter      E             dE          RMSdq      gap      omega  full diag
   1   -116.4299612 -0.116430E+03  0.107E-02    3.14       0.0  T
   2   -116.4299682 -0.692870E-05  0.491E-03    3.14       2.3  T
   3   -116.4299690 -0.826137E-06  0.244E-03    3.14       4.7  T
   4   -116.4299691 -0.748695E-07  0.740E-04    3.14      15.5  T
   5   -116.4299691 -0.817325E-08  0.266E-04    3.14      43.1  T
   6   -116.4299691 -0.192276E-08  0.716E-05    3.14     160.2  T
   7   -116.4299691 -0.176584E-09  0.190E-05    3.14     605.2  T
     SCC iter.                  ...        0 min,  0.133 sec
     gradient                   ...        0 min,  0.019 sec
 * total energy  :  -114.9867584 Eh     change       -0.1730190E-03 Eh
   gradient norm :     0.0090992 Eh/α   predicted    -0.1799162E-03 (   3.99%)
   displ. norm   :     0.3493061 α      lambda       -0.3271739E-03
   maximum displ.:     0.1579945 α      in ANC's #6, #32, #10, ...

........................................................................
.............................. CYCLE   56 ..............................
........................................................................

 iter      E             dE          RMSdq      gap      omega  full diag
   1   -116.4332832 -0.116433E+03  0.970E-03    3.14       0.0  T
   2   -116.4332869 -0.373393E-05  0.423E-03    3.14       2.7  T
   3   -116.4332871 -0.223459E-06  0.214E-03    3.14       5.4  T
   4   -116.4332872 -0.366596E-07  0.538E-04    3.14      21.3  T
   5   -116.4332872 -0.533173E-08  0.198E-04    3.14      57.9  T
   6   -116.4332872 -0.118887E-08  0.434E-05    3.14     264.0  T
     SCC iter.                  ...        0 min,  0.098 sec
     gradient                   ...        0 min,  0.034 sec
 * total energy  :  -114.9869077 Eh     change       -0.1493258E-03 Eh
   gradient norm :     0.0123549 Eh/α   predicted    -0.1835500E-03 (  22.92%)
   displ. norm   :     0.3354853 α      lambda       -0.3214774E-03
   maximum displ.:     0.1500951 α      in ANC's #6, #32, #10, ...

........................................................................
.............................. CYCLE   57 ..............................
........................................................................

 iter      E             dE          RMSdq      gap      omega  full diag
   1   -116.4333416 -0.116433E+03  0.831E-03    3.15       0.0  T
   2   -116.4333454 -0.375747E-05  0.402E-03    3.15       2.9  T
   3   -116.4333457 -0.286454E-06  0.206E-03    3.15       5.6  T
   4   -116.4333457 -0.369870E-07  0.587E-04    3.15      19.5  T
   5   -116.4333457 -0.503823E-08  0.203E-04    3.15      56.6  T
   6   -116.4333457 -0.137136E-08  0.473E-05    3.15     242.4  T
   7   -116.4333457 -0.819682E-10  0.139E-05    3.15     828.2  T
     SCC iter.                  ...        0 min,  0.131 sec
     gradient                   ...        0 min,  0.022 sec
 * total energy  :  -114.9870787 Eh     change       -0.1710150E-03 Eh
   gradient norm :     0.0104309 Eh/α   predicted    -0.1788329E-03 (   4.57%)
   displ. norm   :     0.3588630 α      lambda       -0.3460350E-03
   maximum displ.:     0.1799210 α      in ANC's #6, #32, #10, ...

........................................................................
.............................. CYCLE   58 ..............................
........................................................................

 iter      E             dE          RMSdq      gap      omega  full diag
   1   -116.4332815 -0.116433E+03  0.109E-02    3.14       0.0  T
   2   -116.4332876 -0.608629E-05  0.510E-03    3.14       2.3  T
   3   -116.4332879 -0.329037E-06  0.257E-03    3.14       4.5  T
   4   -116.4332880 -0.330425E-07  0.683E-04    3.14      16.8  T
   5   -116.4332880 -0.110683E-07  0.244E-04    3.14      47.0  T
   6   -116.4332880 -0.166118E-08  0.439E-05    3.14     261.2  T
   7   -116.4332880 -0.829914E-10  0.136E-05    3.14     843.0  T
     SCC iter.                  ...        0 min,  0.123 sec
     gradient                   ...        0 min,  0.027 sec
 * total energy  :  -114.9872111 Eh     change       -0.1323561E-03 Eh
   gradient norm :     0.0119883 Eh/α   predicted    -0.1953009E-03 (  47.56%)
   displ. norm   :     0.2872862 α      lambda       -0.2453969E-03
   maximum displ.:     0.1419842 α      in ANC's #6, #32, #10, ...

........................................................................
.............................. CYCLE   59 ..............................
........................................................................

 iter      E             dE          RMSdq      gap      omega  full diag
   1   -116.4320707 -0.116432E+03  0.495E-03    3.14       0.0  T
   2   -116.4320729 -0.225920E-05  0.216E-03    3.14       5.3  T
   3   -116.4320732 -0.210934E-06  0.100E-03    3.14      11.4  T
   4   -116.4320732 -0.124501E-07  0.368E-04    3.14      31.2  T
   5   -116.4320732 -0.276371E-08  0.124E-04    3.14      92.2  T
   6   -116.4320732 -0.228880E-09  0.391E-05    3.14     293.5  T
     SCC iter.                  ...        0 min,  0.112 sec
     gradient                   ...        0 min,  0.018 sec
 * total energy  :  -114.9873881 Eh     change       -0.1770440E-03 Eh
   gradient norm :     0.0079164 Eh/α   predicted    -0.1328286E-03 ( -24.97%)
   displ. norm   :     0.3665305 α      lambda       -0.3750262E-03
   maximum displ.:     0.1531511 α      in ANC's #6, #13, #32, ...

........................................................................
.............................. CYCLE   60 ..............................
........................................................................

 iter      E             dE          RMSdq      gap      omega  full diag
   1   -116.4396326 -0.116440E+03  0.141E-02    3.13       0.0  T
   2   -116.4396441 -0.115242E-04  0.669E-03    3.14       1.7  T
   3   -116.4396450 -0.907331E-06  0.354E-03    3.14       3.2  T
   4   -116.4396451 -0.123935E-06  0.106E-03    3.14      10.8  T
   5   -116.4396451 -0.267138E-07  0.283E-04    3.14      40.6  T
   6   -116.4396452 -0.194565E-08  0.531E-05    3.14     215.8  T
   7   -116.4396452 -0.202618E-09  0.152E-05    3.14     754.2  T
     SCC iter.                  ...        0 min,  0.122 sec
     gradient                   ...        0 min,  0.018 sec
 * total energy  :  -114.9875486 Eh     change       -0.1604929E-03 Eh
   gradient norm :     0.0100521 Eh/α   predicted    -0.2127052E-03 (  32.53%)
   displ. norm   :     0.6404221 α      lambda       -0.3646840E-03
   maximum displ.:     0.3231784 α      in ANC's #6, #32, #10, ...

........................................................................
.............................. CYCLE   61 ..............................
........................................................................

 iter      E             dE          RMSdq      gap      omega  full diag
   1   -116.4257442 -0.116426E+03  0.161E-02    3.13       0.0  T
   2   -116.4257557 -0.114689E-04  0.798E-03    3.13       1.4  T
   3   -116.4257567 -0.102531E-05  0.430E-03    3.13       2.7  T
   4   -116.4257569 -0.158433E-06  0.104E-03    3.13      11.0  T
   5   -116.4257569 -0.194399E-07  0.351E-04    3.13      32.6  T
   6   -116.4257569 -0.491123E-08  0.834E-05    3.13     137.5  T
   7   -116.4257569 -0.252200E-09  0.238E-05    3.13     482.0  T
     SCC iter.                  ...        0 min,  0.125 sec
     gradient                   ...        0 min,  0.020 sec
 * total energy  :  -114.9875849 Eh     change       -0.3629490E-04 Eh
   gradient norm :     0.0194287 Eh/α   predicted    -0.2571299E-03 ( 608.45%)
   displ. norm   :     0.1909986 α      lambda       -0.6554124E-03
   maximum displ.:     0.0714632 α      in ANC's #6, #11, #2, ...

........................................................................
.............................. CYCLE   62 ..............................
........................................................................

 iter      E             dE          RMSdq      gap      omega  full diag
   1   -116.4300833 -0.116430E+03  0.194E-02    3.14       0.0  T
   2   -116.4301036 -0.203206E-04  0.932E-03    3.13       1.2  T
   3   -116.4301048 -0.119343E-05  0.521E-03    3.13       2.2  T
   4   -116.4301048 -0.304270E-07  0.106E-03    3.13      10.8  T
   5   -116.4301049 -0.702257E-07  0.299E-04    3.13      38.4  T
   6   -116.4301049 -0.424843E-08  0.572E-05    3.13     200.5  T
   7   -116.4301049 -0.128296E-09  0.181E-05    3.13     635.3  T
     SCC iter.                  ...        0 min,  0.130 sec
     gradient                   ...        0 min,  0.019 sec
 * total energy  :  -114.9877111 Eh     change       -0.1261644E-03 Eh
   gradient norm :     0.0173819 Eh/α   predicted    -0.3396619E-03 ( 169.22%)
   displ. norm   :     0.1350790 α      lambda       -0.4904967E-03
   maximum displ.:     0.0492832 α      in ANC's #2, #13, #22, ...

........................................................................
.............................. CYCLE   63 ..............................
........................................................................

 iter      E             dE          RMSdq      gap      omega  full diag
   1   -116.4368468 -0.116437E+03  0.156E-02    3.13       0.0  T
   2   -116.4368601 -0.133564E-04  0.671E-03    3.13       1.7  T
   3   -116.4368605 -0.406739E-06  0.372E-03    3.13       3.1  T
   4   -116.4368605 -0.156365E-07  0.668E-04    3.13      17.2  T
   5   -116.4368606 -0.225251E-07  0.184E-04    3.13      62.2  T
   6   -116.4368606 -0.152397E-08  0.464E-05    3.13     247.5  T
     SCC iter.                  ...        0 min,  0.098 sec
     gradient                   ...        0 min,  0.030 sec
 * total energy  :  -114.9878877 Eh     change       -0.1766339E-03 Eh
   gradient norm :     0.0096923 Eh/α   predicted    -0.2497242E-03 (  41.38%)
   displ. norm   :     0.3083387 α      lambda       -0.2690653E-03
   maximum displ.:     0.1664709 α      in ANC's #6, #32, #10, ...

........................................................................
.............................. CYCLE   64 ..............................
........................................................................

 iter      E             dE          RMSdq      gap      omega  full diag
   1   -116.4336351 -0.116434E+03  0.111E-02    3.13       0.0  T
   2   -116.4336387 -0.352364E-05  0.523E-03    3.13       2.2  T
   3   -116.4336389 -0.228232E-06  0.276E-03    3.13       4.2  T
   4   -116.4336390 -0.885572E-07  0.684E-04    3.13      16.8  T
   5   -116.4336390 -0.116603E-07  0.191E-04    3.13      60.1  T
   6   -116.4336390 -0.145654E-08  0.453E-05    3.13     253.5  T
     SCC iter.                  ...        0 min,  0.109 sec
     gradient                   ...        0 min,  0.018 sec
 * total energy  :  -114.9880019 Eh     change       -0.1141967E-03 Eh
   gradient norm :     0.0083611 Eh/α   predicted    -0.1473273E-03 (  29.01%)
   displ. norm   :     0.3728519 α      lambda       -0.2026958E-03
   maximum displ.:     0.2158248 α      in ANC's #6, #32, #10, ...

........................................................................
.............................. CYCLE   65 ..............................
........................................................................

 iter      E             dE          RMSdq      gap      omega  full diag
   1   -116.4285647 -0.116429E+03  0.950E-03    3.13       0.0  T
   2   -116.4285703 -0.564603E-05  0.482E-03    3.13       2.4  T
   3   -116.4285709 -0.538735E-06  0.256E-03    3.13       4.5  T
   4   -116.4285709 -0.421878E-07  0.746E-04    3.13      15.4  T
   5   -116.4285709 -0.128396E-07  0.191E-04    3.13      60.0  T
   6   -116.4285709 -0.109949E-08  0.467E-05    3.13     245.8  T
     SCC iter.                  ...        0 min,  0.102 sec
     gradient                   ...        0 min,  0.029 sec
 * total energy  :  -114.9881062 Eh     change       -0.1042380E-03 Eh
   gradient norm :     0.0097537 Eh/α   predicted    -0.1154417E-03 (  10.75%)
   displ. norm   :     0.2034004 α      lambda       -0.1891439E-03
   maximum displ.:     0.1164241 α      in ANC's #6, #2, #13, ...

........................................................................
.............................. CYCLE   66 ..............................
........................................................................

 iter      E             dE          RMSdq      gap      omega  full diag
   1   -116.4331072 -0.116433E+03  0.717E-03    3.14       0.0  T
   2   -116.4331107 -0.354294E-05  0.331E-03    3.13       3.5  T
   3   -116.4331110 -0.267043E-06  0.176E-03    3.13       6.5  T
   4   -116.4331110 -0.150088E-08  0.523E-04    3.13      21.9  T
   5   -116.4331110 -0.103230E-07  0.119E-04    3.13      96.4  T
   6   -116.4331110 -0.724057E-09  0.284E-05    3.13     403.7  T
     SCC iter.                  ...        0 min,  0.107 sec
     gradient                   ...        0 min,  0.018 sec
 * total energy  :  -114.9882283 Eh     change       -0.1221823E-03 Eh
   gradient norm :     0.0057043 Eh/α   predicted    -0.9848628E-04 ( -19.39%)
   displ. norm   :     0.4767739 α      lambda       -0.1889905E-03
   maximum displ.:     0.2994524 α      in ANC's #6, #26, #32, ...
 * RMSD in coord.:     0.6809613 α      energy gain  -0.4056186E-02 Eh

generating ANC from exact Hessian ...
Using Lindh-Hessian (1995)
 Shifting diagonal of input Hessian by   1.061757087405219E-002
 Lowest  eigenvalues of input Hessian
    0.010000    0.010382    0.010520    0.010554    0.000000    0.000000
    0.000000    0.000000    0.000000    0.000000    0.010741    0.010760
    0.010802    0.010853    0.010985    0.011110    0.011183    0.011214
 Highest eigenvalues
    2.034641    2.052558    2.087280    2.179518    2.300365    2.340340
 

........................................................................
.............................. CYCLE   67 ..............................
........................................................................

 iter      E             dE          RMSdq      gap      omega  full diag
   1   -116.4330741 -0.116433E+03  0.746E-03    3.14       0.0  T
   2   -116.4330780 -0.389281E-05  0.385E-03    3.14       3.0  T
   3   -116.4330785 -0.518738E-06  0.181E-03    3.14       6.3  T
   4   -116.4330786 -0.221827E-07  0.580E-04    3.14      19.8  T
   5   -116.4330786 -0.515523E-08  0.160E-04    3.14      71.7  T
   6   -116.4330786 -0.639545E-09  0.498E-05    3.14     230.4  T
     SCC iter.                  ...        0 min,  0.092 sec
     gradient                   ...        0 min,  0.020 sec
 * total energy  :  -114.9883646 Eh     change       -0.1362840E-03 Eh
   gradient norm :     0.0043537 Eh/α   predicted     0.0000000E+00 (-100.00%)
   displ. norm   :     0.0628331 α      lambda       -0.7205351E-04
   maximum displ.:     0.0231131 α      in ANC's #27, #7, #14, ...

........................................................................
.............................. CYCLE   68 ..............................
........................................................................

 iter      E             dE          RMSdq      gap      omega  full diag
   1   -116.4344087 -0.116434E+03  0.387E-03    3.14       0.0  T
   2   -116.4344097 -0.101096E-05  0.198E-03    3.14       5.8  T
   3   -116.4344099 -0.204773E-06  0.824E-04    3.14      13.9  T
   4   -116.4344099 -0.745329E-08  0.198E-04    3.14      57.9  T
   5   -116.4344099 -0.461768E-09  0.854E-05    3.14     134.4  T
     SCC iter.                  ...        0 min,  0.089 sec
     gradient                   ...        0 min,  0.019 sec
 * total energy  :  -114.9884218 Eh     change       -0.5721368E-04 Eh
   gradient norm :     0.0016757 Eh/α   predicted    -0.3680602E-04 ( -35.67%)
   displ. norm   :     0.2380420 α      lambda       -0.1102219E-03
   maximum displ.:     0.1023020 α      in ANC's #7, #14, #5, ...

........................................................................
.............................. CYCLE   69 ..............................
........................................................................

 iter      E             dE          RMSdq      gap      omega  full diag
   1   -116.4356392 -0.116436E+03  0.819E-03    3.14       0.0  T
   2   -116.4356437 -0.450003E-05  0.432E-03    3.14       2.7  T
   3   -116.4356445 -0.826891E-06  0.200E-03    3.14       5.7  T
   4   -116.4356446 -0.591323E-07  0.460E-04    3.14      24.9  T
   5   -116.4356446 -0.213848E-08  0.199E-04    3.14      57.5  T
   6   -116.4356446 -0.733877E-09  0.529E-05    3.14     216.7  T
     SCC iter.                  ...        0 min,  0.100 sec
     gradient                   ...        0 min,  0.029 sec
 * total energy  :  -114.9884950 Eh     change       -0.7314543E-04 Eh
   gradient norm :     0.0086704 Eh/α   predicted    -0.5650095E-04 ( -22.76%)
   displ. norm   :     0.0813586 α      lambda       -0.8055021E-04
   maximum displ.:     0.0409728 α      in ANC's #7, #5, #6, ...

........................................................................
.............................. CYCLE   70 ..............................
........................................................................

 iter      E             dE          RMSdq      gap      omega  full diag
   1   -116.4364177 -0.116436E+03  0.372E-03    3.14       0.0  T
   2   -116.4364179 -0.175389E-06  0.194E-03    3.14       5.9  T
   3   -116.4364179 -0.396668E-08  0.692E-04    3.14      16.6  T
   4   -116.4364179 -0.165167E-07  0.210E-04    3.14      54.6  T
   5   -116.4364179 -0.903512E-09  0.426E-05    3.14     269.5  T
   6   -116.4364179 -0.868567E-10  0.848E-06    3.14    1352.9  T
     SCC iter.                  ...        0 min,  0.110 sec
     gradient                   ...        0 min,  0.020 sec
 * total energy  :  -114.9885578 Eh     change       -0.6281892E-04 Eh
   gradient norm :     0.0049725 Eh/α   predicted    -0.4054407E-04 ( -35.46%)
   displ. norm   :     0.2498246 α      lambda       -0.1467406E-03
   maximum displ.:     0.1232456 α      in ANC's #7, #5, #6, ...

........................................................................
.............................. CYCLE   71 ..............................
........................................................................

 iter      E             dE          RMSdq      gap      omega  full diag
   1   -116.4357510 -0.116436E+03  0.543E-03    3.14       0.0  T
   2   -116.4357528 -0.185111E-05  0.274E-03    3.14       4.2  T
   3   -116.4357531 -0.303936E-06  0.132E-03    3.14       8.7  T
   4   -116.4357531 -0.166452E-07  0.365E-04    3.14      31.5  T
   5   -116.4357531 -0.161980E-08  0.113E-04    3.14     101.6  T
   6   -116.4357531 -0.339668E-09  0.211E-05    3.14     544.6  T
     SCC iter.                  ...        0 min,  0.099 sec
     gradient                   ...        0 min,  0.029 sec
 * total energy  :  -114.9886706 Eh     change       -0.1128183E-03 Eh
   gradient norm :     0.0023193 Eh/α   predicted    -0.7795202E-04 ( -30.90%)
   displ. norm   :     0.3871707 α      lambda       -0.1519323E-03
   maximum displ.:     0.1895568 α      in ANC's #7, #5, #6, ...

........................................................................
.............................. CYCLE   72 ..............................
........................................................................

 iter      E             dE          RMSdq      gap      omega  full diag
   1   -116.4330658 -0.116433E+03  0.782E-03    3.15       0.0  T
   2   -116.4330704 -0.465169E-05  0.405E-03    3.15       2.8  T
   3   -116.4330713 -0.879971E-06  0.177E-03    3.15       6.5  T
   4   -116.4330713 -0.340006E-07  0.504E-04    3.15      22.8  T
   5   -116.4330713 -0.164974E-08  0.174E-04    3.15      66.0  T
   6   -116.4330713 -0.622521E-09  0.362E-05    3.15     316.8  T
     SCC iter.                  ...        0 min,  0.111 sec
     gradient                   ...        0 min,  0.019 sec
 * total energy  :  -114.9887828 Eh     change       -0.1122013E-03 Eh
   gradient norm :     0.0042159 Eh/α   predicted    -0.8735395E-04 ( -22.15%)
   displ. norm   :     0.3186432 α      lambda       -0.9820608E-04
   maximum displ.:     0.1672603 α      in ANC's #7, #5, #6, ...

........................................................................
.............................. CYCLE   73 ..............................
........................................................................

 iter      E             dE          RMSdq      gap      omega  full diag
   1   -116.4324524 -0.116432E+03  0.513E-03    3.15       0.0  T
   2   -116.4324547 -0.234747E-05  0.265E-03    3.15       4.3  T
   3   -116.4324551 -0.438998E-06  0.102E-03    3.15      11.2  T
   4   -116.4324552 -0.116965E-07  0.339E-04    3.15      33.9  T
   5   -116.4324552 -0.665523E-09  0.110E-04    3.15     104.4  T
   6   -116.4324552 -0.252143E-09  0.249E-05    3.15     461.0  T
     SCC iter.                  ...        0 min,  0.112 sec
     gradient                   ...        0 min,  0.021 sec
 * total energy  :  -114.9888576 Eh     change       -0.7478686E-04 Eh
   gradient norm :     0.0058711 Eh/α   predicted    -0.5408888E-04 ( -27.68%)
   displ. norm   :     0.3270830 α      lambda       -0.1398369E-03
   maximum displ.:     0.1798908 α      in ANC's #7, #5, #6, ...

........................................................................
.............................. CYCLE   74 ..............................
........................................................................

 iter      E             dE          RMSdq      gap      omega  full diag
   1   -116.4345953 -0.116435E+03  0.550E-03    3.16       0.0  T
   2   -116.4345969 -0.163826E-05  0.284E-03    3.16       4.0  T
   3   -116.4345971 -0.250833E-06  0.141E-03    3.16       8.1  T
   4   -116.4345972 -0.246865E-07  0.398E-04    3.16      28.8  T
   5   -116.4345972 -0.121091E-08  0.106E-04    3.16     107.8  T
   6   -116.4345972 -0.342851E-09  0.211E-05    3.16     543.6  T
     SCC iter.                  ...        0 min,  0.102 sec
     gradient                   ...        0 min,  0.028 sec
 * total energy  :  -114.9889517 Eh     change       -0.9405975E-04 Eh
   gradient norm :     0.0033134 Eh/α   predicted    -0.7739937E-04 ( -17.71%)
   displ. norm   :     0.4362183 α      lambda       -0.1336593E-03
   maximum displ.:     0.2346625 α      in ANC's #7, #5, #6, ...

........................................................................
.............................. CYCLE   75 ..............................
........................................................................

 iter      E             dE          RMSdq      gap      omega  full diag
   1   -116.4343881 -0.116434E+03  0.733E-03    3.16       0.0  T
   2   -116.4343906 -0.252696E-05  0.375E-03    3.16       3.1  T
   3   -116.4343909 -0.302951E-06  0.188E-03    3.16       6.1  T
   4   -116.4343910 -0.803271E-07  0.528E-04    3.16      21.7  T
   5   -116.4343910 -0.264396E-08  0.169E-04    3.16      68.1  T
   6   -116.4343910 -0.546478E-09  0.331E-05    3.16     346.3  T
     SCC iter.                  ...        0 min,  0.113 sec
     gradient                   ...        0 min,  0.018 sec
 * total energy  :  -114.9890398 Eh     change       -0.8811337E-04 Eh
   gradient norm :     0.0058470 Eh/α   predicted    -0.7954659E-04 (  -9.72%)
   displ. norm   :     0.3363318 α      lambda       -0.1154560E-03
   maximum displ.:     0.1831572 α      in ANC's #7, #5, #6, ...

........................................................................
.............................. CYCLE   76 ..............................
........................................................................

 iter      E             dE          RMSdq      gap      omega  full diag
   1   -116.4353295 -0.116435E+03  0.414E-03    3.17       0.0  T
   2   -116.4353308 -0.128818E-05  0.203E-03    3.16       5.7  T
   3   -116.4353309 -0.192087E-06  0.868E-04    3.16      13.2  T
   4   -116.4353310 -0.883738E-08  0.278E-04    3.16      41.3  T
   5   -116.4353310 -0.910688E-09  0.946E-05    3.16     121.2  T
   6   -116.4353310 -0.263867E-09  0.228E-05    3.16     502.6  T
     SCC iter.                  ...        0 min,  0.099 sec
     gradient                   ...        0 min,  0.033 sec
 * total energy  :  -114.9891335 Eh     change       -0.9376385E-04 Eh
   gradient norm :     0.0044211 Eh/α   predicted    -0.6426059E-04 ( -31.47%)
   displ. norm   :     0.4168900 α      lambda       -0.1664482E-03
   maximum displ.:     0.2164537 α      in ANC's #7, #5, #6, ...

........................................................................
.............................. CYCLE   77 ..............................
........................................................................

 iter      E             dE          RMSdq      gap      omega  full diag
   1   -116.4369091 -0.116437E+03  0.598E-03    3.17       0.0  T
   2   -116.4369108 -0.164342E-05  0.290E-03    3.16       4.0  T
   3   -116.4369110 -0.243913E-06  0.149E-03    3.16       7.7  T
   4   -116.4369110 -0.335134E-07  0.397E-04    3.16      28.9  T
   5   -116.4369110 -0.161211E-08  0.122E-04    3.16      94.0  T
   6   -116.4369110 -0.571902E-09  0.229E-05    3.16     500.6  T
     SCC iter.                  ...        0 min,  0.108 sec
     gradient                   ...        0 min,  0.021 sec
 * total energy  :  -114.9892563 Eh     change       -0.1227700E-03 Eh
   gradient norm :     0.0040024 Eh/α   predicted    -0.9768945E-04 ( -20.43%)
   displ. norm   :     0.5880369 α      lambda       -0.1692566E-03
   maximum displ.:     0.3107230 α      in ANC's #7, #5, #6, ...

........................................................................
.............................. CYCLE   78 ..............................
........................................................................

 iter      E             dE          RMSdq      gap      omega  full diag
   1   -116.4338203 -0.116434E+03  0.676E-03    3.17       0.0  T
   2   -116.4338228 -0.243641E-05  0.317E-03    3.17       3.6  T
   3   -116.4338231 -0.349019E-06  0.152E-03    3.17       7.6  T
   4   -116.4338232 -0.431268E-07  0.450E-04    3.17      25.5  T
   5   -116.4338232 -0.143673E-08  0.154E-04    3.17      74.6  T
   6   -116.4338232 -0.764715E-09  0.377E-05    3.17     304.2  T
     SCC iter.                  ...        0 min,  0.112 sec
     gradient                   ...        0 min,  0.019 sec
 * total energy  :  -114.9893631 Eh     change       -0.1068009E-03 Eh
   gradient norm :     0.0060832 Eh/α   predicted    -0.1138938E-03 (   6.64%)
   displ. norm   :     0.3247552 α      lambda       -0.1389082E-03
   maximum displ.:     0.1495662 α      in ANC's #7, #5, #4, ...

........................................................................
.............................. CYCLE   79 ..............................
........................................................................

 iter      E             dE          RMSdq      gap      omega  full diag
   1   -116.4338561 -0.116434E+03  0.405E-03    3.16       0.0  T
   2   -116.4338573 -0.117858E-05  0.172E-03    3.16       6.7  T
   3   -116.4338575 -0.147685E-06  0.769E-04    3.16      14.9  T
   4   -116.4338575 -0.137121E-07  0.275E-04    3.16      41.7  T
   5   -116.4338575 -0.523002E-09  0.934E-05    3.16     122.8  T
   6   -116.4338575 -0.165358E-09  0.306E-05    3.16     375.0  T
     SCC iter.                  ...        0 min,  0.111 sec
     gradient                   ...        0 min,  0.021 sec
 * total energy  :  -114.9894530 Eh     change       -0.8985235E-04 Eh
   gradient norm :     0.0042070 Eh/α   predicted    -0.7678113E-04 ( -14.55%)
   displ. norm   :     0.3624267 α      lambda       -0.1165301E-03
   maximum displ.:     0.1852218 α      in ANC's #7, #5, #6, ...

........................................................................
.............................. CYCLE   80 ..............................
........................................................................

 iter      E             dE          RMSdq      gap      omega  full diag
   1   -116.4338886 -0.116434E+03  0.518E-03    3.16       0.0  T
   2   -116.4338898 -0.119031E-05  0.240E-03    3.16       4.8  T
   3   -116.4338899 -0.953658E-07  0.114E-03    3.16      10.0  T
   4   -116.4338899 -0.367419E-07  0.383E-04    3.16      30.0  T
   5   -116.4338899 -0.129728E-08  0.124E-04    3.16      92.5  T
   6   -116.4338899 -0.257430E-09  0.367E-05    3.16     312.7  T
     SCC iter.                  ...        0 min,  0.104 sec
     gradient                   ...        0 min,  0.030 sec
 * total energy  :  -114.9895277 Eh     change       -0.7478752E-04 Eh
   gradient norm :     0.0036693 Eh/α   predicted    -0.6591990E-04 ( -11.86%)
   displ. norm   :     0.3400684 α      lambda       -0.1190401E-03
   maximum displ.:     0.1681350 α      in ANC's #7, #4, #5, ...

........................................................................
.............................. CYCLE   81 ..............................
........................................................................

 iter      E             dE          RMSdq      gap      omega  full diag
   1   -116.4334287 -0.116433E+03  0.579E-03    3.17       0.0  T
   2   -116.4334319 -0.315466E-05  0.301E-03    3.17       3.8  T
   3   -116.4334324 -0.550322E-06  0.999E-04    3.17      11.5  T
   4   -116.4334324 -0.187302E-07  0.321E-04    3.17      35.7  T
   5   -116.4334324 -0.800412E-09  0.122E-04    3.17      93.9  T
   6   -116.4334324 -0.426880E-09  0.431E-05    3.17     266.1  T
     SCC iter.                  ...        0 min,  0.114 sec
     gradient                   ...        0 min,  0.023 sec
 * total energy  :  -114.9896211 Eh     change       -0.9336142E-04 Eh
   gradient norm :     0.0034291 Eh/α   predicted    -0.6640774E-04 ( -28.87%)
   displ. norm   :     0.3776857 α      lambda       -0.1489243E-03
   maximum displ.:     0.1770290 α      in ANC's #7, #4, #5, ...

........................................................................
.............................. CYCLE   82 ..............................
........................................................................

 iter      E             dE          RMSdq      gap      omega  full diag
   1   -116.4342896 -0.116434E+03  0.630E-03    3.18       0.0  T
   2   -116.4342931 -0.349539E-05  0.332E-03    3.18       3.5  T
   3   -116.4342938 -0.632382E-06  0.117E-03    3.18       9.8  T
   4   -116.4342938 -0.197765E-07  0.373E-04    3.18      30.7  T
   5   -116.4342938 -0.122178E-08  0.136E-04    3.18      84.3  T
   6   -116.4342938 -0.466358E-09  0.458E-05    3.18     250.6  T
     SCC iter.                  ...        0 min,  0.109 sec
     gradient                   ...        0 min,  0.020 sec
 * total energy  :  -114.9897268 Eh     change       -0.1056473E-03 Eh
   gradient norm :     0.0040312 Eh/α   predicted    -0.8508640E-04 ( -19.46%)
   displ. norm   :     0.5217605 α      lambda       -0.1226160E-03
   maximum displ.:     0.2700637 α      in ANC's #7, #4, #5, ...

........................................................................
.............................. CYCLE   83 ..............................
........................................................................

 iter      E             dE          RMSdq      gap      omega  full diag
   1   -116.4314335 -0.116431E+03  0.723E-03    3.19       0.0  T
   2   -116.4314360 -0.256348E-05  0.362E-03    3.19       3.2  T
   3   -116.4314364 -0.393305E-06  0.176E-03    3.19       6.5  T
   4   -116.4314365 -0.356391E-07  0.490E-04    3.19      23.4  T
   5   -116.4314365 -0.238713E-08  0.160E-04    3.19      71.5  T
   6   -116.4314365 -0.993921E-09  0.417E-05    3.19     275.4  T
     SCC iter.                  ...        0 min,  0.116 sec
     gradient                   ...        0 min,  0.021 sec
 * total energy  :  -114.9898008 Eh     change       -0.7406174E-04 Eh
   gradient norm :     0.0066800 Eh/α   predicted    -0.7800420E-04 (   5.32%)
   displ. norm   :     0.3176558 α      lambda       -0.1791340E-03
   maximum displ.:     0.1090844 α      in ANC's #26, #4, #7, ...

........................................................................
.............................. CYCLE   84 ..............................
........................................................................

 iter      E             dE          RMSdq      gap      omega  full diag
   1   -116.4368368 -0.116437E+03  0.761E-03    3.20       0.0  T
   2   -116.4368382 -0.147448E-05  0.361E-03    3.19       3.2  T
   3   -116.4368383 -0.868249E-07  0.149E-03    3.19       7.7  T
   4   -116.4368384 -0.308603E-07  0.436E-04    3.19      26.3  T
   5   -116.4368384 -0.395526E-08  0.141E-04    3.19      81.6  T
   6   -116.4368384 -0.590845E-09  0.323E-05    3.19     355.6  T
     SCC iter.                  ...        0 min,  0.104 sec
     gradient                   ...        0 min,  0.031 sec
 * total energy  :  -114.9898623 Eh     change       -0.6146328E-04 Eh
   gradient norm :     0.0063748 Eh/α   predicted    -0.9861018E-04 (  60.44%)
   displ. norm   :     0.3368918 α      lambda       -0.1237715E-03
   maximum displ.:     0.1719017 α      in ANC's #7, #5, #4, ...

........................................................................
.............................. CYCLE   85 ..............................
........................................................................

 iter      E             dE          RMSdq      gap      omega  full diag
   1   -116.4339864 -0.116434E+03  0.663E-03    3.19       0.0  T
   2   -116.4339872 -0.835278E-06  0.328E-03    3.19       3.5  T
   3   -116.4339873 -0.499617E-07  0.124E-03    3.19       9.2  T
   4   -116.4339873 -0.403899E-07  0.404E-04    3.19      28.4  T
   5   -116.4339873 -0.333586E-08  0.110E-04    3.19     104.4  T
   6   -116.4339873 -0.337906E-09  0.245E-05    3.19     468.8  T
     SCC iter.                  ...        0 min,  0.114 sec
     gradient                   ...        0 min,  0.022 sec
 * total energy  :  -114.9899444 Eh     change       -0.8206858E-04 Eh
   gradient norm :     0.0058291 Eh/α   predicted    -0.6891245E-04 ( -16.03%)
   displ. norm   :     0.2881734 α      lambda       -0.1495046E-03
   maximum displ.:     0.1247312 α      in ANC's #7, #4, #2, ...

........................................................................
.............................. CYCLE   86 ..............................
........................................................................

 iter      E             dE          RMSdq      gap      omega  full diag
   1   -116.4328658 -0.116433E+03  0.652E-03    3.19       0.0  T
   2   -116.4328671 -0.131958E-05  0.317E-03    3.19       3.6  T
   3   -116.4328672 -0.125956E-06  0.165E-03    3.19       7.0  T
   4   -116.4328673 -0.561061E-07  0.413E-04    3.19      27.8  T
   5   -116.4328673 -0.209344E-08  0.125E-04    3.19      91.8  T
   6   -116.4328673 -0.595520E-09  0.280E-05    3.19     409.9  T
     SCC iter.                  ...        0 min,  0.111 sec
     gradient                   ...        0 min,  0.021 sec
 * total energy  :  -114.9900092 Eh     change       -0.6481552E-04 Eh
   gradient norm :     0.0067600 Eh/α   predicted    -0.8096360E-04 (  24.91%)
   displ. norm   :     0.2734593 α      lambda       -0.1083248E-03
   maximum displ.:     0.1290495 α      in ANC's #7, #4, #6, ...

........................................................................
.............................. CYCLE   87 ..............................
........................................................................

 iter      E             dE          RMSdq      gap      omega  full diag
   1   -116.4328334 -0.116433E+03  0.479E-03    3.20       0.0  T
   2   -116.4328345 -0.112261E-05  0.232E-03    3.19       4.9  T
   3   -116.4328346 -0.140999E-06  0.117E-03    3.19       9.8  T
   4   -116.4328346 -0.204366E-07  0.297E-04    3.19      38.6  T
   5   -116.4328346 -0.106473E-08  0.103E-04    3.19     111.6  T
   6   -116.4328346 -0.247454E-09  0.281E-05    3.19     408.9  T
     SCC iter.                  ...        0 min,  0.115 sec
     gradient                   ...        0 min,  0.019 sec
 * total energy  :  -114.9900853 Eh     change       -0.7608693E-04 Eh
   gradient norm :     0.0047654 Eh/α   predicted    -0.5821606E-04 ( -23.49%)
   displ. norm   :     0.2819788 α      lambda       -0.1171874E-03
   maximum displ.:     0.1131902 α      in ANC's #4, #26, #7, ...

........................................................................
.............................. CYCLE   88 ..............................
........................................................................

 iter      E             dE          RMSdq      gap      omega  full diag
   1   -116.4347723 -0.116435E+03  0.539E-03    3.20       0.0  T
   2   -116.4347736 -0.126913E-05  0.272E-03    3.20       4.2  T
   3   -116.4347737 -0.135622E-06  0.133E-03    3.20       8.6  T
   4   -116.4347738 -0.294083E-07  0.325E-04    3.20      35.3  T
   5   -116.4347738 -0.168039E-08  0.115E-04    3.20     100.0  T
   6   -116.4347738 -0.286889E-09  0.318E-05    3.20     361.0  T
     SCC iter.                  ...        0 min,  0.115 sec
     gradient                   ...        0 min,  0.021 sec
 * total energy  :  -114.9901588 Eh     change       -0.7355151E-04 Eh
   gradient norm :     0.0042516 Eh/α   predicted    -0.6325631E-04 ( -14.00%)
   displ. norm   :     0.2085039 α      lambda       -0.9886593E-04
   maximum displ.:     0.0732243 α      in ANC's #4, #26, #9, ...

........................................................................
.............................. CYCLE   89 ..............................
........................................................................

 iter      E             dE          RMSdq      gap      omega  full diag
   1   -116.4373608 -0.116437E+03  0.502E-03    3.20       0.0  T
   2   -116.4373621 -0.121859E-05  0.254E-03    3.20       4.5  T
   3   -116.4373622 -0.128363E-06  0.129E-03    3.20       8.9  T
   4   -116.4373622 -0.221752E-07  0.339E-04    3.20      33.9  T
   5   -116.4373622 -0.136993E-08  0.982E-05    3.20     116.8  T
   6   -116.4373622 -0.293525E-09  0.295E-05    3.20     388.5  T
     SCC iter.                  ...        0 min,  0.115 sec
     gradient                   ...        0 min,  0.021 sec
 * total energy  :  -114.9902120 Eh     change       -0.5319025E-04 Eh
   gradient norm :     0.0050125 Eh/α   predicted    -0.5158542E-04 (  -3.02%)
   displ. norm   :     0.4170613 α      lambda       -0.1073070E-03
   maximum displ.:     0.1796243 α      in ANC's #4, #7, #26, ...

........................................................................
.............................. CYCLE   90 ..............................
........................................................................

 iter      E             dE          RMSdq      gap      omega  full diag
   1   -116.4330470 -0.116433E+03  0.711E-03    3.22       0.0  T
   2   -116.4330484 -0.137971E-05  0.369E-03    3.21       3.1  T
   3   -116.4330485 -0.105452E-06  0.177E-03    3.21       6.5  T
   4   -116.4330486 -0.990435E-07  0.388E-04    3.21      29.6  T
   5   -116.4330486 -0.247780E-08  0.137E-04    3.21      83.9  T
   6   -116.4330486 -0.503348E-09  0.351E-05    3.21     326.4  T
     SCC iter.                  ...        0 min,  0.103 sec
     gradient                   ...        0 min,  0.032 sec
 * total energy  :  -114.9902414 Eh     change       -0.2940616E-04 Eh
   gradient norm :     0.0055167 Eh/α   predicted    -0.6298823E-04 ( 114.20%)
   displ. norm   :     0.2663795 α      lambda       -0.1663828E-03
   maximum displ.:     0.1191099 α      in ANC's #7, #5, #6, ...

........................................................................
.............................. CYCLE   91 ..............................
........................................................................

 iter      E             dE          RMSdq      gap      omega  full diag
   1   -116.4366603 -0.116437E+03  0.919E-03    3.21       0.0  T
   2   -116.4366616 -0.132124E-05  0.478E-03    3.21       2.4  T
   3   -116.4366617 -0.577289E-07  0.221E-03    3.21       5.2  T
   4   -116.4366618 -0.129490E-06  0.473E-04    3.21      24.2  T
   5   -116.4366618 -0.359182E-08  0.128E-04    3.21      89.8  T
   6   -116.4366618 -0.834589E-09  0.251E-05    3.21     457.4  T
     SCC iter.                  ...        0 min,  0.108 sec
     gradient                   ...        0 min,  0.025 sec
 * total energy  :  -114.9902533 Eh     change       -0.1187184E-04 Eh
   gradient norm :     0.0091252 Eh/α   predicted    -0.8909520E-04 ( 650.48%)
   displ. norm   :     0.1024006 α      lambda       -0.1603798E-03
   maximum displ.:     0.0316507 α      in ANC's #14, #7, #10, ...

........................................................................
.............................. CYCLE   92 ..............................
........................................................................

 iter      E             dE          RMSdq      gap      omega  full diag
   1   -116.4366666 -0.116437E+03  0.807E-03    3.21       0.0  T
   2   -116.4366679 -0.126893E-05  0.429E-03    3.21       2.7  T
   3   -116.4366679 -0.337088E-07  0.190E-03    3.21       6.0  T
   4   -116.4366681 -0.142242E-06  0.461E-04    3.21      24.9  T
   5   -116.4366681 -0.295702E-08  0.130E-04    3.21      88.5  T
   6   -116.4366681 -0.459636E-09  0.253E-05    3.21     453.9  T
     SCC iter.                  ...        0 min,  0.112 sec
     gradient                   ...        0 min,  0.020 sec
 * total energy  :  -114.9903201 Eh     change       -0.6686346E-04 Eh
   gradient norm :     0.0052350 Eh/α   predicted    -0.8103623E-04 (  21.20%)
   displ. norm   :     0.1305327 α      lambda       -0.6929031E-04
   maximum displ.:     0.0541815 α      in ANC's #4, #26, #10, ...
 * RMSD in coord.:     0.6989591 α      energy gain  -0.2091804E-02 Eh

generating ANC from exact Hessian ...
Using Lindh-Hessian (1995)
 Shifting diagonal of input Hessian by   1.057802879433671E-002
 Lowest  eigenvalues of input Hessian
    0.010000    0.010446    0.010469    0.000000    0.000000    0.000000
    0.000000    0.000000    0.000000    0.010650    0.010715    0.010797
    0.010834    0.010957    0.011006    0.011084    0.011192    0.011298
 Highest eigenvalues
    2.025721    2.053164    2.074641    2.179811    2.303539    2.340220
 

........................................................................
.............................. CYCLE   93 ..............................
........................................................................

 iter      E             dE          RMSdq      gap      omega  full diag
   1   -116.4349895 -0.116435E+03  0.536E-03    3.21       0.0  T
   2   -116.4349906 -0.111085E-05  0.267E-03    3.21       4.3  T
   3   -116.4349907 -0.126184E-06  0.140E-03    3.21       8.2  T
   4   -116.4349908 -0.349510E-07  0.315E-04    3.21      36.4  T
   5   -116.4349908 -0.987555E-09  0.109E-04    3.21     105.2  T
   6   -116.4349908 -0.328129E-09  0.283E-05    3.21     405.5  T
     SCC iter.                  ...        0 min,  0.112 sec
     gradient                   ...        0 min,  0.020 sec
 * total energy  :  -114.9903392 Eh     change       -0.1904784E-04 Eh
   gradient norm :     0.0053432 Eh/α   predicted     0.0000000E+00 (-100.00%)
   displ. norm   :     0.0302522 α      lambda       -0.3737034E-04
   maximum displ.:     0.0113164 α      in ANC's #34, #2, #10, ...

........................................................................
.............................. CYCLE   94 ..............................
........................................................................

 iter      E             dE          RMSdq      gap      omega  full diag
   1   -116.4353473 -0.116435E+03  0.236E-03    3.21       0.0  T
   2   -116.4353476 -0.272386E-06  0.125E-03    3.21       9.2  T
   3   -116.4353477 -0.515191E-07  0.624E-04    3.21      18.4  T
   4   -116.4353477 -0.326251E-08  0.133E-04    3.21      86.5  T
   5   -116.4353477 -0.202903E-09  0.483E-05    3.21     237.4  T
     SCC iter.                  ...        0 min,  0.083 sec
     gradient                   ...        0 min,  0.023 sec
 * total energy  :  -114.9903671 Eh     change       -0.2786849E-04 Eh
   gradient norm :     0.0013066 Eh/α   predicted    -0.2005644E-04 ( -28.03%)
   displ. norm   :     0.0720920 α      lambda       -0.2087382E-04
   maximum displ.:     0.0229566 α      in ANC's #35, #28, #10, ...

........................................................................
.............................. CYCLE   95 ..............................
........................................................................

 iter      E             dE          RMSdq      gap      omega  full diag
   1   -116.4355338 -0.116436E+03  0.278E-03    3.21       0.0  T
   2   -116.4355345 -0.645418E-06  0.148E-03    3.21       7.8  T
   3   -116.4355346 -0.112686E-06  0.601E-04    3.21      19.1  T
   4   -116.4355346 -0.356492E-08  0.184E-04    3.21      62.2  T
   5   -116.4355346 -0.230756E-09  0.644E-05    3.21     178.0  T
     SCC iter.                  ...        0 min,  0.095 sec
     gradient                   ...        0 min,  0.021 sec
 * total energy  :  -114.9903858 Eh     change       -0.1870004E-04 Eh
   gradient norm :     0.0026628 Eh/α   predicted    -0.1046114E-04 ( -44.06%)
   displ. norm   :     0.0567566 α      lambda       -0.1544576E-04
   maximum displ.:     0.0189182 α      in ANC's #35, #10, #28, ...

........................................................................
.............................. CYCLE   96 ..............................
........................................................................

 iter      E             dE          RMSdq      gap      omega  full diag
   1   -116.4354379 -0.116435E+03  0.145E-03    3.21       0.0  T
   2   -116.4354381 -0.215423E-06  0.733E-04    3.21      15.7  T
   3   -116.4354381 -0.320642E-07  0.250E-04    3.21      45.8  T
   4   -116.4354381 -0.138662E-08  0.925E-05    3.21     124.0  T
   5   -116.4354381 -0.751896E-10  0.336E-05    3.21     341.9  T
     SCC iter.                  ...        0 min,  0.084 sec
     gradient                   ...        0 min,  0.026 sec
 * total energy  :  -114.9903998 Eh     change       -0.1407035E-04 Eh
   gradient norm :     0.0023940 Eh/α   predicted    -0.7813846E-05 ( -44.47%)
   displ. norm   :     0.2569014 α      lambda       -0.6228428E-04
   maximum displ.:     0.0843312 α      in ANC's #35, #28, #10, ...

........................................................................
.............................. CYCLE   97 ..............................
........................................................................

 iter      E             dE          RMSdq      gap      omega  full diag
   1   -116.4341869 -0.116434E+03  0.586E-03    3.21       0.0  T
   2   -116.4341898 -0.285685E-05  0.286E-03    3.21       4.0  T
   3   -116.4341901 -0.367680E-06  0.120E-03    3.21       9.5  T
   4   -116.4341902 -0.309877E-07  0.444E-04    3.21      25.9  T
   5   -116.4341902 -0.121071E-08  0.149E-04    3.21      76.9  T
   6   -116.4341902 -0.430916E-09  0.450E-05    3.21     255.1  T
     SCC iter.                  ...        0 min,  0.117 sec
     gradient                   ...        0 min,  0.023 sec
 * total energy  :  -114.9904297 Eh     change       -0.2991966E-04 Eh
   gradient norm :     0.0031340 Eh/α   predicted    -0.3320054E-04 (  10.97%)
   displ. norm   :     0.0366386 α      lambda       -0.2128330E-04
   maximum displ.:     0.0152009 α      in ANC's #26, #23, #7, ...

........................................................................
.............................. CYCLE   98 ..............................
........................................................................

 iter      E             dE          RMSdq      gap      omega  full diag
   1   -116.4352079 -0.116435E+03  0.343E-03    3.21       0.0  T
   2   -116.4352084 -0.417997E-06  0.170E-03    3.21       6.7  T
   3   -116.4352084 -0.597268E-07  0.894E-04    3.21      12.8  T
   4   -116.4352084 -0.132168E-07  0.218E-04    3.21      52.7  T
   5   -116.4352084 -0.423597E-09  0.584E-05    3.21     196.5  T
   6   -116.4352084 -0.216474E-09  0.911E-06    3.21    1259.3  T
     SCC iter.                  ...        0 min,  0.111 sec
     gradient                   ...        0 min,  0.023 sec
 * total energy  :  -114.9904431 Eh     change       -0.1335883E-04 Eh
   gradient norm :     0.0012401 Eh/α   predicted    -0.1066220E-04 ( -20.19%)
   displ. norm   :     0.1409362 α      lambda       -0.1605393E-04
   maximum displ.:     0.0464765 α      in ANC's #28, #26, #8, ...

........................................................................
.............................. CYCLE   99 ..............................
........................................................................

 iter      E             dE          RMSdq      gap      omega  full diag
   1   -116.4358193 -0.116436E+03  0.280E-03    3.21       0.0  T
   2   -116.4358197 -0.407242E-06  0.124E-03    3.21       9.3  T
   3   -116.4358198 -0.606991E-07  0.621E-04    3.21      18.5  T
   4   -116.4358198 -0.420822E-08  0.177E-04    3.21      64.8  T
   5   -116.4358198 -0.591754E-09  0.567E-05    3.21     202.5  T
     SCC iter.                  ...        0 min,  0.097 sec
     gradient                   ...        0 min,  0.020 sec
 * total energy  :  -114.9904606 Eh     change       -0.1752131E-04 Eh
   gradient norm :     0.0016161 Eh/α   predicted    -0.8100973E-05 ( -53.77%)
   displ. norm   :     0.2030243 α      lambda       -0.2062051E-04
   maximum displ.:     0.0670795 α      in ANC's #8, #28, #25, ...

........................................................................
.............................. CYCLE  100 ..............................
........................................................................

 iter      E             dE          RMSdq      gap      omega  full diag
   1   -116.4355414 -0.116436E+03  0.315E-03    3.20       0.0  T
   2   -116.4355421 -0.674693E-06  0.137E-03    3.20       8.4  T
   3   -116.4355422 -0.873209E-07  0.588E-04    3.20      19.5  T
   4   -116.4355422 -0.489696E-08  0.209E-04    3.20      54.9  T
   5   -116.4355422 -0.926136E-09  0.701E-05    3.20     163.5  T
   6   -116.4355422 -0.696758E-10  0.237E-05    3.20     484.7  T
     SCC iter.                  ...        0 min,  0.117 sec
     gradient                   ...        0 min,  0.021 sec
 * total energy  :  -114.9904831 Eh     change       -0.2246293E-04 Eh
   gradient norm :     0.0012895 Eh/α   predicted    -0.1050042E-04 ( -53.25%)
   displ. norm   :     0.2115925 α      lambda       -0.1910318E-04
   maximum displ.:     0.0739077 α      in ANC's #8, #25, #3, ...

........................................................................
.............................. CYCLE  101 ..............................
........................................................................

 iter      E             dE          RMSdq      gap      omega  full diag
   1   -116.4355824 -0.116436E+03  0.307E-03    3.20       0.0  T
   2   -116.4355830 -0.602272E-06  0.149E-03    3.20       7.7  T
   3   -116.4355831 -0.100772E-06  0.656E-04    3.20      17.5  T
   4   -116.4355831 -0.510249E-08  0.193E-04    3.20      59.5  T
   5   -116.4355831 -0.701249E-09  0.649E-05    3.20     176.8  T
     SCC iter.                  ...        0 min,  0.094 sec
     gradient                   ...        0 min,  0.022 sec
 * total energy  :  -114.9905018 Eh     change       -0.1876153E-04 Eh
   gradient norm :     0.0014548 Eh/α   predicted    -0.9743197E-05 ( -48.07%)
   displ. norm   :     0.2305037 α      lambda       -0.1488662E-04
   maximum displ.:     0.0817923 α      in ANC's #8, #3, #25, ...

........................................................................
.............................. CYCLE  102 ..............................
........................................................................

 iter      E             dE          RMSdq      gap      omega  full diag
   1   -116.4342568 -0.116434E+03  0.357E-03    3.20       0.0  T
   2   -116.4342574 -0.607944E-06  0.168E-03    3.20       6.8  T
   3   -116.4342575 -0.650627E-07  0.868E-04    3.20      13.2  T
   4   -116.4342575 -0.151710E-07  0.247E-04    3.20      46.5  T
   5   -116.4342575 -0.949541E-09  0.886E-05    3.20     129.4  T
   6   -116.4342575 -0.119897E-09  0.229E-05    3.20     501.0  T
     SCC iter.                  ...        0 min,  0.108 sec
     gradient                   ...        0 min,  0.028 sec
 * total energy  :  -114.9905109 Eh     change       -0.9008507E-05 Eh
   gradient norm :     0.0029277 Eh/α   predicted    -0.7621887E-05 ( -15.39%)
   displ. norm   :     0.0895389 α      lambda       -0.2466927E-04
   maximum displ.:     0.0306390 α      in ANC's #3, #7, #8, ...

........................................................................
.............................. CYCLE  103 ..............................
........................................................................

 iter      E             dE          RMSdq      gap      omega  full diag
   1   -116.4358885 -0.116436E+03  0.252E-03    3.20       0.0  T
   2   -116.4358888 -0.289621E-06  0.121E-03    3.20       9.5  T
   3   -116.4358888 -0.472226E-07  0.631E-04    3.20      18.2  T
   4   -116.4358889 -0.776029E-08  0.161E-04    3.20      71.2  T
   5   -116.4358889 -0.220311E-09  0.453E-05    3.20     253.4  T
     SCC iter.                  ...        0 min,  0.092 sec
     gradient                   ...        0 min,  0.023 sec
 * total energy  :  -114.9905264 Eh     change       -0.1552272E-04 Eh
   gradient norm :     0.0025211 Eh/α   predicted    -0.1243633E-04 ( -19.88%)
   displ. norm   :     0.7735571 α      lambda       -0.2081445E-03
   maximum displ.:     0.2741682 α      in ANC's #3, #7, #8, ...

........................................................................
.............................. CYCLE  104 ..............................
........................................................................

 iter      E             dE          RMSdq      gap      omega  full diag
   1   -116.4431409 -0.116443E+03  0.203E-02    3.21       0.0  T
   2   -116.4431590 -0.180664E-04  0.958E-03    3.21       1.2  T
   3   -116.4431618 -0.279790E-05  0.504E-03    3.21       2.3  T
   4   -116.4431623 -0.515195E-06  0.130E-03    3.20       8.8  T
   5   -116.4431623 -0.175059E-07  0.386E-04    3.20      29.7  T
   6   -116.4431623 -0.359772E-08  0.109E-04    3.20     105.6  T
   7   -116.4431623 -0.315936E-09  0.246E-05    3.20     467.1  T
     SCC iter.                  ...        0 min,  0.139 sec
     gradient                   ...        0 min,  0.021 sec
 * total energy  :  -114.9900931 Eh     change        0.4332440E-03 Eh
   gradient norm :     0.0180880 Eh/α   predicted    -0.1663502E-03 (-138.40%)
   displ. norm   :     0.3047960 α      lambda       -0.6739724E-03
   maximum displ.:     0.1029998 α      in ANC's #35, #16, #7, ...

........................................................................
.............................. CYCLE  105 ..............................
........................................................................

 iter      E             dE          RMSdq      gap      omega  full diag
   1   -116.4374460 -0.116437E+03  0.140E-02    3.19       0.0  T
   2   -116.4374523 -0.629537E-05  0.671E-03    3.20       1.7  T
   3   -116.4374531 -0.812262E-06  0.358E-03    3.20       3.2  T
   4   -116.4374534 -0.266396E-06  0.866E-04    3.20      13.2  T
   5   -116.4374534 -0.114035E-07  0.247E-04    3.20      46.5  T
   6   -116.4374534 -0.173662E-08  0.575E-05    3.20     199.6  T
   7   -116.4374534 -0.108187E-09  0.141E-05    3.20     811.1  T
     SCC iter.                  ...        0 min,  0.134 sec
     gradient                   ...        0 min,  0.020 sec
 * total energy  :  -114.9905017 Eh     change       -0.4085591E-03 Eh
   gradient norm :     0.0046022 Eh/α   predicted    -0.3682953E-03 (  -9.86%)
   displ. norm   :     0.3083672 α      lambda       -0.1002889E-03
   maximum displ.:     0.1042252 α      in ANC's #8, #3, #25, ...

........................................................................
.............................. CYCLE  106 ..............................
........................................................................

 iter      E             dE          RMSdq      gap      omega  full diag
   1   -116.4364923 -0.116436E+03  0.590E-03    3.20       0.0  T
   2   -116.4364944 -0.213962E-05  0.288E-03    3.20       4.0  T
   3   -116.4364948 -0.411748E-06  0.138E-03    3.20       8.3  T
   4   -116.4364949 -0.283915E-07  0.369E-04    3.20      31.1  T
   5   -116.4364949 -0.100441E-08  0.108E-04    3.20     106.2  T
   6   -116.4364949 -0.287741E-09  0.355E-05    3.20     323.2  T
     SCC iter.                  ...        0 min,  0.116 sec
     gradient                   ...        0 min,  0.019 sec
 * total energy  :  -114.9905512 Eh     change       -0.4954705E-04 Eh
   gradient norm :     0.0018097 Eh/α   predicted    -0.5492012E-04 (  10.84%)
   displ. norm   :     0.0315164 α      lambda       -0.9235740E-05
   maximum displ.:     0.0117735 α      in ANC's #24, #5, #22, ...

........................................................................
.............................. CYCLE  107 ..............................
........................................................................

 iter      E             dE          RMSdq      gap      omega  full diag
   1   -116.4356117 -0.116436E+03  0.184E-03    3.20       0.0  T
   2   -116.4356117 -0.938374E-07  0.933E-04    3.20      12.3  T
   3   -116.4356118 -0.101815E-07  0.503E-04    3.20      22.8  T
   4   -116.4356118 -0.364122E-08  0.101E-04    3.20     113.9  T
   5   -116.4356118 -0.217952E-09  0.274E-05    3.20     419.0  T
     SCC iter.                  ...        0 min,  0.094 sec
     gradient                   ...        0 min,  0.022 sec
 * total energy  :  -114.9905589 Eh     change       -0.7671112E-05 Eh
   gradient norm :     0.0009970 Eh/α   predicted    -0.4624085E-05 ( -39.72%)
   displ. norm   :     0.0721707 α      lambda       -0.7097510E-05
   maximum displ.:     0.0309964 α      in ANC's #3, #5, #7, ...

........................................................................
.............................. CYCLE  108 ..............................
........................................................................

 iter      E             dE          RMSdq      gap      omega  full diag
   1   -116.4358539 -0.116436E+03  0.145E-03    3.20       0.0  T
   2   -116.4358540 -0.120163E-06  0.597E-04    3.20      19.2  T
   3   -116.4358540 -0.818224E-08  0.300E-04    3.20      38.3  T
   4   -116.4358540 -0.119998E-08  0.111E-04    3.20     103.4  T
   5   -116.4358540 -0.351861E-09  0.335E-05    3.20     342.2  T
     SCC iter.                  ...        0 min,  0.097 sec
     gradient                   ...        0 min,  0.022 sec
 * total energy  :  -114.9905668 Eh     change       -0.7931282E-05 Eh
   gradient norm :     0.0015474 Eh/α   predicted    -0.3558047E-05 ( -55.14%)
   displ. norm   :     0.1901639 α      lambda       -0.1558935E-04
   maximum displ.:     0.0855550 α      in ANC's #3, #5, #6, ...

........................................................................
.............................. CYCLE  109 ..............................
........................................................................

 iter      E             dE          RMSdq      gap      omega  full diag
   1   -116.4357564 -0.116436E+03  0.284E-03    3.21       0.0  T
   2   -116.4357568 -0.397071E-06  0.115E-03    3.21      10.0  T
   3   -116.4357569 -0.367924E-07  0.576E-04    3.21      19.9  T
   4   -116.4357569 -0.384148E-08  0.175E-04    3.21      65.5  T
   5   -116.4357569 -0.474458E-09  0.509E-05    3.21     225.3  T
     SCC iter.                  ...        0 min,  0.097 sec
     gradient                   ...        0 min,  0.022 sec
 * total energy  :  -114.9905809 Eh     change       -0.1409429E-04 Eh
   gradient norm :     0.0019192 Eh/α   predicted    -0.7922029E-05 ( -43.79%)
   displ. norm   :     0.1668946 α      lambda       -0.9711541E-05
   maximum displ.:     0.0794164 α      in ANC's #3, #5, #8, ...

........................................................................
.............................. CYCLE  110 ..............................
........................................................................

 iter      E             dE          RMSdq      gap      omega  full diag
   1   -116.4349607 -0.116435E+03  0.233E-03    3.21       0.0  T
   2   -116.4349610 -0.332999E-06  0.125E-03    3.21       9.2  T
   3   -116.4349610 -0.537230E-07  0.607E-04    3.21      18.9  T
   4   -116.4349611 -0.614399E-08  0.170E-04    3.21      67.3  T
   5   -116.4349611 -0.261721E-09  0.572E-05    3.21     200.6  T
     SCC iter.                  ...        0 min,  0.097 sec
     gradient                   ...        0 min,  0.020 sec
 * total energy  :  -114.9905892 Eh     change       -0.8288448E-05 Eh
   gradient norm :     0.0014209 Eh/α   predicted    -0.4917202E-05 ( -40.67%)
   displ. norm   :     0.0843515 α      lambda       -0.6300286E-05
   maximum displ.:     0.0433147 α      in ANC's #3, #5, #7, ...

........................................................................
.............................. CYCLE  111 ..............................
........................................................................

 iter      E             dE          RMSdq      gap      omega  full diag
   1   -116.4355491 -0.116436E+03  0.117E-03    3.21       0.0  T
   2   -116.4355492 -0.807327E-07  0.665E-04    3.21      17.3  T
   3   -116.4355492 -0.150386E-07  0.334E-04    3.21      34.3  T
   4   -116.4355492 -0.754170E-09  0.773E-05    3.21     148.4  T
   5   -116.4355492 -0.741522E-10  0.212E-05    3.21     542.0  T
     SCC iter.                  ...        0 min,  0.098 sec
     gradient                   ...        0 min,  0.023 sec
 * total energy  :  -114.9905965 Eh     change       -0.7284480E-05 Eh
   gradient norm :     0.0007305 Eh/α   predicted    -0.3162236E-05 ( -56.59%)
   displ. norm   :     0.1513254 α      lambda       -0.9023516E-05
   maximum displ.:     0.0740065 α      in ANC's #3, #5, #4, ...

........................................................................
.............................. CYCLE  112 ..............................
........................................................................

 iter      E             dE          RMSdq      gap      omega  full diag
   1   -116.4356654 -0.116436E+03  0.195E-03    3.20       0.0  T
   2   -116.4356657 -0.293169E-06  0.992E-04    3.20      11.6  T
   3   -116.4356657 -0.572847E-07  0.418E-04    3.20      27.5  T
   4   -116.4356657 -0.124165E-08  0.130E-04    3.20      88.3  T
   5   -116.4356657 -0.267434E-09  0.369E-05    3.20     311.2  T
     SCC iter.                  ...        0 min,  0.099 sec
     gradient                   ...        0 min,  0.020 sec
 * total energy  :  -114.9906067 Eh     change       -0.1019069E-04 Eh
   gradient norm :     0.0010484 Eh/α   predicted    -0.4560994E-05 ( -55.24%)
   displ. norm   :     0.1840404 α      lambda       -0.9794320E-05
   maximum displ.:     0.0950725 α      in ANC's #3, #5, #4, ...

........................................................................
.............................. CYCLE  113 ..............................
........................................................................

 iter      E             dE          RMSdq      gap      omega  full diag
   1   -116.4358421 -0.116436E+03  0.190E-03    3.20       0.0  T
   2   -116.4358425 -0.311415E-06  0.927E-04    3.20      12.4  T
   3   -116.4358425 -0.566728E-07  0.385E-04    3.20      29.8  T
   4   -116.4358425 -0.181502E-08  0.134E-04    3.20      85.3  T
   5   -116.4358425 -0.231424E-09  0.388E-05    3.20     295.5  T
     SCC iter.                  ...        0 min,  0.098 sec
     gradient                   ...        0 min,  0.019 sec
 * total energy  :  -114.9906172 Eh     change       -0.1052602E-04 Eh
   gradient norm :     0.0012573 Eh/α   predicted    -0.4972148E-05 ( -52.76%)
   displ. norm   :     0.2417998 α      lambda       -0.9313598E-05
   maximum displ.:     0.1190617 α      in ANC's #3, #5, #4, ...

........................................................................
.............................. CYCLE  114 ..............................
........................................................................

 iter      E             dE          RMSdq      gap      omega  full diag
   1   -116.4351100 -0.116435E+03  0.217E-03    3.19       0.0  T
   2   -116.4351104 -0.335302E-06  0.105E-03    3.20      11.0  T
   3   -116.4351104 -0.500443E-07  0.503E-04    3.20      22.8  T
   4   -116.4351104 -0.445537E-08  0.149E-04    3.20      76.8  T
   5   -116.4351104 -0.342666E-09  0.505E-05    3.20     227.0  T
     SCC iter.                  ...        0 min,  0.097 sec
     gradient                   ...        0 min,  0.019 sec
 * total energy  :  -114.9906272 Eh     change       -0.9949700E-05 Eh
   gradient norm :     0.0011145 Eh/α   predicted    -0.4780272E-05 ( -51.96%)
   displ. norm   :     0.2153956 α      lambda       -0.1038913E-04
   maximum displ.:     0.1153264 α      in ANC's #3, #5, #6, ...

........................................................................
.............................. CYCLE  115 ..............................
........................................................................

 iter      E             dE          RMSdq      gap      omega  full diag
   1   -116.4354001 -0.116435E+03  0.177E-03    3.19       0.0  T
   2   -116.4354003 -0.228334E-06  0.840E-04    3.19      13.7  T
   3   -116.4354003 -0.372130E-07  0.388E-04    3.19      29.5  T
   4   -116.4354003 -0.232210E-08  0.106E-04    3.19     108.6  T
   5   -116.4354003 -0.143658E-09  0.392E-05    3.19     293.0  T
     SCC iter.                  ...        0 min,  0.096 sec
     gradient                   ...        0 min,  0.022 sec
 * total energy  :  -114.9906394 Eh     change       -0.1227134E-04 Eh
   gradient norm :     0.0008277 Eh/α   predicted    -0.5302415E-05 ( -56.79%)
   displ. norm   :     0.3234094 α      lambda       -0.1395684E-04
   maximum displ.:     0.1709576 α      in ANC's #3, #5, #6, ...

........................................................................
.............................. CYCLE  116 ..............................
........................................................................

 iter      E             dE          RMSdq      gap      omega  full diag
   1   -116.4351804 -0.116435E+03  0.294E-03    3.19       0.0  T
   2   -116.4351809 -0.532927E-06  0.132E-03    3.20       8.7  T
   3   -116.4351810 -0.802695E-07  0.608E-04    3.20      18.9  T
   4   -116.4351810 -0.416198E-08  0.157E-04    3.20      73.2  T
   5   -116.4351810 -0.383949E-09  0.561E-05    3.20     204.3  T
     SCC iter.                  ...        0 min,  0.094 sec
     gradient                   ...        0 min,  0.021 sec
 * total energy  :  -114.9906548 Eh     change       -0.1539864E-04 Eh
   gradient norm :     0.0011434 Eh/α   predicted    -0.7305601E-05 ( -52.56%)
   displ. norm   :     0.3157715 α      lambda       -0.1361743E-04
   maximum displ.:     0.1736715 α      in ANC's #3, #5, #6, ...

........................................................................
.............................. CYCLE  117 ..............................
........................................................................

 iter      E             dE          RMSdq      gap      omega  full diag
   1   -116.4356153 -0.116436E+03  0.261E-03    3.20       0.0  T
   2   -116.4356157 -0.420902E-06  0.113E-03    3.20      10.2  T
   3   -116.4356158 -0.555351E-07  0.548E-04    3.20      20.9  T
   4   -116.4356158 -0.520652E-08  0.147E-04    3.20      77.8  T
   5   -116.4356158 -0.267221E-09  0.496E-05    3.20     231.4  T
     SCC iter.                  ...        0 min,  0.091 sec
     gradient                   ...        0 min,  0.027 sec
 * total energy  :  -114.9906688 Eh     change       -0.1398100E-04 Eh
   gradient norm :     0.0012936 Eh/α   predicted    -0.7111822E-05 ( -49.13%)
   displ. norm   :     0.2545896 α      lambda       -0.8678504E-05
   maximum displ.:     0.1403228 α      in ANC's #3, #5, #6, ...

........................................................................
.............................. CYCLE  118 ..............................
........................................................................

 iter      E             dE          RMSdq      gap      omega  full diag
   1   -116.4354108 -0.116435E+03  0.197E-03    3.20       0.0  T
   2   -116.4354110 -0.254326E-06  0.844E-04    3.20      13.6  T
   3   -116.4354111 -0.355098E-07  0.390E-04    3.20      29.4  T
   4   -116.4354111 -0.292610E-08  0.102E-04    3.20     112.3  T
   5   -116.4354111 -0.104109E-09  0.329E-05    3.20     349.0  T
     SCC iter.                  ...        0 min,  0.094 sec
     gradient                   ...        0 min,  0.024 sec
 * total energy  :  -114.9906786 Eh     change       -0.9782306E-05 Eh
   gradient norm :     0.0009332 Eh/α   predicted    -0.4466451E-05 ( -54.34%)
   displ. norm   :     0.2098835 α      lambda       -0.9340168E-05
   maximum displ.:     0.1200611 α      in ANC's #3, #5, #6, ...

........................................................................
.............................. CYCLE  119 ..............................
........................................................................

 iter      E             dE          RMSdq      gap      omega  full diag
   1   -116.4361361 -0.116436E+03  0.170E-03    3.20       0.0  T
   2   -116.4361362 -0.153176E-06  0.802E-04    3.20      14.3  T
   3   -116.4361362 -0.178545E-07  0.430E-04    3.20      26.6  T
   4   -116.4361362 -0.237101E-08  0.104E-04    3.20     109.8  T
   5   -116.4361362 -0.224574E-09  0.303E-05    3.20     379.0  T
     SCC iter.                  ...        0 min,  0.097 sec
     gradient                   ...        0 min,  0.022 sec
 * total energy  :  -114.9906878 Eh     change       -0.9151768E-05 Eh
   gradient norm :     0.0011922 Eh/α   predicted    -0.4763960E-05 ( -47.94%)
   displ. norm   :     0.2497408 α      lambda       -0.9316228E-05
   maximum displ.:     0.1426397 α      in ANC's #3, #5, #6, ...

........................................................................
.............................. CYCLE  120 ..............................
........................................................................

 iter      E             dE          RMSdq      gap      omega  full diag
   1   -116.4352285 -0.116435E+03  0.223E-03    3.19       0.0  T
   2   -116.4352288 -0.317947E-06  0.121E-03    3.19       9.5  T
   3   -116.4352289 -0.609782E-07  0.550E-04    3.19      20.8  T
   4   -116.4352289 -0.250719E-08  0.138E-04    3.19      83.4  T
   5   -116.4352289 -0.207564E-09  0.447E-05    3.19     256.9  T
     SCC iter.                  ...        0 min,  0.096 sec
     gradient                   ...        0 min,  0.019 sec
 * total energy  :  -114.9906968 Eh     change       -0.9067557E-05 Eh
   gradient norm :     0.0012894 Eh/α   predicted    -0.4788686E-05 ( -47.19%)
   displ. norm   :     0.1319581 α      lambda       -0.7649790E-05
   maximum displ.:     0.0773758 α      in ANC's #3, #5, #4, ...
 * RMSD in coord.:     0.3852868 α      energy gain  -0.3766929E-03 Eh

generating ANC from exact Hessian ...
Using Lindh-Hessian (1995)
 Shifting diagonal of input Hessian by   1.068827830572202E-002
 Lowest  eigenvalues of input Hessian
    0.010000    0.010578    0.010611    0.000000    0.000000    0.000000
    0.000000    0.000000    0.000000    0.010782    0.010834    0.010896
    0.010964    0.011036    0.011122    0.011203    0.011302    0.011433
 Highest eigenvalues
    2.028248    2.053051    2.078934    2.179396    2.303070    2.341271
 

........................................................................
.............................. CYCLE  121 ..............................
........................................................................

 iter      E             dE          RMSdq      gap      omega  full diag
   1   -116.4356492 -0.116436E+03  0.122E-03    3.19       0.0  T
   2   -116.4356492 -0.638106E-07  0.565E-04    3.19      20.3  T
   3   -116.4356493 -0.376372E-08  0.281E-04    3.19      40.8  T
   4   -116.4356493 -0.503505E-09  0.778E-05    3.19     147.5  T
   5   -116.4356493 -0.617462E-10  0.187E-05    3.19     614.5  T
     SCC iter.                  ...        0 min,  0.104 sec
     gradient                   ...        0 min,  0.020 sec
 * total energy  :  -114.9907055 Eh     change       -0.8658236E-05 Eh
   gradient norm :     0.0014683 Eh/α   predicted     0.0000000E+00 (-100.00%)
   displ. norm   :     0.0232349 α      lambda       -0.6067965E-05
   maximum displ.:     0.0091243 α      in ANC's #26, #23, #9, ...

........................................................................
.............................. CYCLE  122 ..............................
........................................................................

 iter      E             dE          RMSdq      gap      omega  full diag
   1   -116.4354923 -0.116435E+03  0.136E-03    3.19       0.0  T
   2   -116.4354924 -0.943728E-07  0.647E-04    3.19      17.7  T
   3   -116.4354924 -0.120446E-07  0.344E-04    3.19      33.4  T
   4   -116.4354924 -0.125786E-08  0.766E-05    3.19     149.7  T
   5   -116.4354924 -0.960370E-10  0.263E-05    3.19     435.9  T
     SCC iter.                  ...        0 min,  0.098 sec
     gradient                   ...        0 min,  0.020 sec
 * total energy  :  -114.9907117 Eh     change       -0.6190886E-05 Eh
   gradient norm :     0.0004248 Eh/α   predicted    -0.3063618E-05 ( -50.51%)
   displ. norm   :     0.0408085 α      lambda       -0.4811855E-05
   maximum displ.:     0.0160113 α      in ANC's #3, #26, #9, ...

........................................................................
.............................. CYCLE  123 ..............................
........................................................................

 iter      E             dE          RMSdq      gap      omega  full diag
   1   -116.4353185 -0.116435E+03  0.127E-03    3.20       0.0  T
   2   -116.4353186 -0.136161E-06  0.575E-04    3.19      19.9  T
   3   -116.4353186 -0.195760E-07  0.257E-04    3.19      44.7  T
   4   -116.4353186 -0.616524E-09  0.755E-05    3.19     152.0  T
   5   -116.4353186 -0.657963E-10  0.260E-05    3.19     441.0  T
     SCC iter.                  ...        0 min,  0.093 sec
     gradient                   ...        0 min,  0.022 sec
 * total energy  :  -114.9907169 Eh     change       -0.5186933E-05 Eh
   gradient norm :     0.0007646 Eh/α   predicted    -0.2408607E-05 ( -53.56%)
   displ. norm   :     0.0656963 α      lambda       -0.5286393E-05
   maximum displ.:     0.0274352 α      in ANC's #3, #9, #26, ...

........................................................................
.............................. CYCLE  124 ..............................
........................................................................

 iter      E             dE          RMSdq      gap      omega  full diag
   1   -116.4352564 -0.116435E+03  0.110E-03    3.20       0.0  T
   2   -116.4352565 -0.107679E-06  0.472E-04    3.20      24.3  T
   3   -116.4352565 -0.120385E-07  0.206E-04    3.20      55.6  T
   4   -116.4352565 -0.604189E-09  0.709E-05    3.20     161.9  T
   5   -116.4352565 -0.621867E-10  0.242E-05    3.20     474.2  T
     SCC iter.                  ...        0 min,  0.091 sec
     gradient                   ...        0 min,  0.025 sec
 * total energy  :  -114.9907225 Eh     change       -0.5662465E-05 Eh
   gradient norm :     0.0008785 Eh/α   predicted    -0.2649913E-05 ( -53.20%)
   displ. norm   :     0.0840569 α      lambda       -0.5415430E-05
   maximum displ.:     0.0361615 α      in ANC's #3, #9, #26, ...

........................................................................
.............................. CYCLE  125 ..............................
........................................................................

 iter      E             dE          RMSdq      gap      omega  full diag
   1   -116.4352339 -0.116435E+03  0.926E-04    3.20       0.0  T
   2   -116.4352340 -0.546803E-07  0.390E-04    3.20      29.4  T
   3   -116.4352340 -0.349576E-08  0.189E-04    3.20      60.8  T
   4   -116.4352340 -0.471132E-09  0.585E-05    3.20     196.0  T
     SCC iter.                  ...        0 min,  0.083 sec
     gradient                   ...        0 min,  0.018 sec
 * total energy  :  -114.9907287 Eh     change       -0.6134965E-05 Eh
   gradient norm :     0.0007865 Eh/α   predicted    -0.2765029E-05 ( -54.93%)
   displ. norm   :     0.1074758 α      lambda       -0.6240617E-05
   maximum displ.:     0.0476493 α      in ANC's #3, #9, #2, ...

........................................................................
.............................. CYCLE  126 ..............................
........................................................................

 iter      E             dE          RMSdq      gap      omega  full diag
   1   -116.4352212 -0.116435E+03  0.123E-03    3.20       0.0  T
   2   -116.4352213 -0.786724E-07  0.527E-04    3.20      21.8  T
   3   -116.4352213 -0.550497E-08  0.256E-04    3.20      44.8  T
   4   -116.4352213 -0.113052E-08  0.821E-05    3.20     139.7  T
   5   -116.4352213 -0.177948E-09  0.295E-05    3.20     388.8  T
     SCC iter.                  ...        0 min,  0.098 sec
     gradient                   ...        0 min,  0.020 sec
 * total energy  :  -114.9907353 Eh     change       -0.6668191E-05 Eh
   gradient norm :     0.0005753 Eh/α   predicted    -0.3137461E-05 ( -52.95%)
   displ. norm   :     0.0953973 α      lambda       -0.4888209E-05
   maximum displ.:     0.0440685 α      in ANC's #3, #9, #2, ...

........................................................................
.............................. CYCLE  127 ..............................
........................................................................

 iter      E             dE          RMSdq      gap      omega  full diag
   1   -116.4353473 -0.116435E+03  0.110E-03    3.20       0.0  T
   2   -116.4353473 -0.681398E-07  0.509E-04    3.20      22.5  T
   3   -116.4353474 -0.751587E-08  0.262E-04    3.20      43.7  T
   4   -116.4353474 -0.148840E-08  0.762E-05    3.20     150.5  T
   5   -116.4353474 -0.848956E-10  0.272E-05    3.20     422.0  T
     SCC iter.                  ...        0 min,  0.097 sec
     gradient                   ...        0 min,  0.020 sec
 * total energy  :  -114.9907405 Eh     change       -0.5152045E-05 Eh
   gradient norm :     0.0004275 Eh/α   predicted    -0.2457194E-05 ( -52.31%)
   displ. norm   :     0.0808563 α      lambda       -0.3704670E-05
   maximum displ.:     0.0389601 α      in ANC's #3, #9, #2, ...

........................................................................
.............................. CYCLE  128 ..............................
........................................................................

 iter      E             dE          RMSdq      gap      omega  full diag
   1   -116.4354114 -0.116435E+03  0.882E-04    3.20       0.0  T
   2   -116.4354114 -0.424533E-07  0.413E-04    3.20      27.8  T
   3   -116.4354114 -0.554891E-08  0.210E-04    3.20      54.7  T
   4   -116.4354114 -0.109343E-08  0.589E-05    3.20     194.9  T
   5   -116.4354114 -0.335660E-10  0.219E-05    3.20     524.1  T
     SCC iter.                  ...        0 min,  0.097 sec
     gradient                   ...        0 min,  0.021 sec
 * total energy  :  -114.9907444 Eh     change       -0.3950089E-05 Eh
   gradient norm :     0.0004296 Eh/α   predicted    -0.1864096E-05 ( -52.81%)
   displ. norm   :     0.0732125 α      lambda       -0.3226219E-05
   maximum displ.:     0.0363826 α      in ANC's #3, #2, #9, ...

........................................................................
.............................. CYCLE  129 ..............................
........................................................................

 iter      E             dE          RMSdq      gap      omega  full diag
   1   -116.4354947 -0.116435E+03  0.798E-04    3.20       0.0  T
   2   -116.4354947 -0.392919E-07  0.390E-04    3.20      29.4  T
   3   -116.4354947 -0.704213E-08  0.186E-04    3.20      61.8  T
   4   -116.4354947 -0.745914E-09  0.472E-05    3.20     243.1  T
     SCC iter.                  ...        0 min,  0.078 sec
     gradient                   ...        0 min,  0.021 sec
 * total energy  :  -114.9907479 Eh     change       -0.3471553E-05 Eh
   gradient norm :     0.0004608 Eh/α   predicted    -0.1621853E-05 ( -53.28%)
   displ. norm   :     0.0698586 α      lambda       -0.2957683E-05
   maximum displ.:     0.0357164 α      in ANC's #3, #2, #30, ...

........................................................................
.............................. CYCLE  130 ..............................
........................................................................

 iter      E             dE          RMSdq      gap      omega  full diag
   1   -116.4354743 -0.116435E+03  0.664E-04    3.20       0.0  T
   2   -116.4354744 -0.272378E-07  0.343E-04    3.20      33.5  T
   3   -116.4354744 -0.441507E-08  0.161E-04    3.20      71.4  T
   4   -116.4354744 -0.504471E-09  0.439E-05    3.20     261.4  T
     SCC iter.                  ...        0 min,  0.075 sec
     gradient                   ...        0 min,  0.023 sec
 * total energy  :  -114.9907512 Eh     change       -0.3273634E-05 Eh
   gradient norm :     0.0003916 Eh/α   predicted    -0.1486174E-05 ( -54.60%)
   displ. norm   :     0.0743384 α      lambda       -0.2843298E-05
   maximum displ.:     0.0392317 α      in ANC's #3, #2, #30, ...

........................................................................
.............................. CYCLE  131 ..............................
........................................................................

 iter      E             dE          RMSdq      gap      omega  full diag
   1   -116.4353948 -0.116435E+03  0.687E-04    3.20       0.0  T
   2   -116.4353948 -0.294131E-07  0.379E-04    3.20      30.2  T
   3   -116.4353948 -0.410073E-08  0.177E-04    3.20      64.7  T
   4   -116.4353948 -0.470934E-09  0.506E-05    3.20     226.7  T
     SCC iter.                  ...        0 min,  0.077 sec
     gradient                   ...        0 min,  0.020 sec
 * total energy  :  -114.9907544 Eh     change       -0.3228791E-05 Eh
   gradient norm :     0.0003053 Eh/α   predicted    -0.1427893E-05 ( -55.78%)
   displ. norm   :     0.0750550 α      lambda       -0.2897645E-05
   maximum displ.:     0.0396714 α      in ANC's #3, #2, #24, ...

........................................................................
.............................. CYCLE  132 ..............................
........................................................................

 iter      E             dE          RMSdq      gap      omega  full diag
   1   -116.4354455 -0.116435E+03  0.685E-04    3.20       0.0  T
   2   -116.4354456 -0.204705E-07  0.390E-04    3.20      29.4  T
   3   -116.4354456 -0.212947E-08  0.185E-04    3.20      62.0  T
   4   -116.4354456 -0.457959E-09  0.531E-05    3.20     215.9  T
     SCC iter.                  ...        0 min,  0.076 sec
     gradient                   ...        0 min,  0.022 sec
 * total energy  :  -114.9907577 Eh     change       -0.3271788E-05 Eh
   gradient norm :     0.0004535 Eh/α   predicted    -0.1453632E-05 ( -55.57%)
   displ. norm   :     0.0958967 α      lambda       -0.3271052E-05
   maximum displ.:     0.0523568 α      in ANC's #3, #2, #30, ...

........................................................................
.............................. CYCLE  133 ..............................
........................................................................

 iter      E             dE          RMSdq      gap      omega  full diag
   1   -116.4351560 -0.116435E+03  0.866E-04    3.21       0.0  T
   2   -116.4351561 -0.375168E-07  0.451E-04    3.21      25.4  T
   3   -116.4351561 -0.338085E-08  0.206E-04    3.21      55.7  T
   4   -116.4351561 -0.924857E-09  0.658E-05    3.21     174.4  T
   5   -116.4351561 -0.774918E-10  0.201E-05    3.21     571.8  T
     SCC iter.                  ...        0 min,  0.090 sec
     gradient                   ...        0 min,  0.025 sec
 * total energy  :  -114.9907612 Eh     change       -0.3474248E-05 Eh
   gradient norm :     0.0006695 Eh/α   predicted    -0.1642980E-05 ( -52.71%)
   displ. norm   :     0.1015577 α      lambda       -0.3806151E-05
   maximum displ.:     0.0539267 α      in ANC's #3, #2, #8, ...

........................................................................
.............................. CYCLE  134 ..............................
........................................................................

 iter      E             dE          RMSdq      gap      omega  full diag
   1   -116.4354093 -0.116435E+03  0.916E-04    3.21       0.0  T
   2   -116.4354093 -0.229568E-07  0.441E-04    3.21      26.0  T
   3   -116.4354093 -0.137666E-08  0.186E-04    3.21      61.6  T
   4   -116.4354093 -0.581920E-09  0.612E-05    3.21     187.5  T
     SCC iter.                  ...        0 min,  0.079 sec
     gradient                   ...        0 min,  0.019 sec
 * total energy  :  -114.9907648 Eh     change       -0.3628119E-05 Eh
   gradient norm :     0.0007341 Eh/α   predicted    -0.1912537E-05 ( -47.29%)
   displ. norm   :     0.0943638 α      lambda       -0.2993231E-05
   maximum displ.:     0.0536611 α      in ANC's #3, #2, #8, ...

........................................................................
.............................. CYCLE  135 ..............................
........................................................................

 iter      E             dE          RMSdq      gap      omega  full diag
   1   -116.4352544 -0.116435E+03  0.875E-04    3.21       0.0  T
   2   -116.4352545 -0.372044E-07  0.404E-04    3.21      28.4  T
   3   -116.4352545 -0.355998E-08  0.195E-04    3.21      58.9  T
   4   -116.4352545 -0.952184E-09  0.605E-05    3.21     189.6  T
     SCC iter.                  ...        0 min,  0.078 sec
     gradient                   ...        0 min,  0.021 sec
 * total energy  :  -114.9907682 Eh     change       -0.3376719E-05 Eh
   gradient norm :     0.0003971 Eh/α   predicted    -0.1502968E-05 ( -55.49%)
   displ. norm   :     0.0959422 α      lambda       -0.3037211E-05
   maximum displ.:     0.0556583 α      in ANC's #3, #2, #8, ...

........................................................................
.............................. CYCLE  136 ..............................
........................................................................

 iter      E             dE          RMSdq      gap      omega  full diag
   1   -116.4352847 -0.116435E+03  0.870E-04    3.21       0.0  T
   2   -116.4352847 -0.385580E-07  0.394E-04    3.21      29.1  T
   3   -116.4352847 -0.410452E-08  0.201E-04    3.21      57.0  T
   4   -116.4352847 -0.648996E-09  0.593E-05    3.21     193.4  T
   5   -116.4352847 -0.434710E-10  0.200E-05    3.21     574.3  T
     SCC iter.                  ...        0 min,  0.099 sec
     gradient                   ...        0 min,  0.020 sec
 * total energy  :  -114.9907715 Eh     change       -0.3389251E-05 Eh
   gradient norm :     0.0004743 Eh/α   predicted    -0.1526929E-05 ( -54.95%)
   displ. norm   :     0.0922250 α      lambda       -0.2526252E-05
   maximum displ.:     0.0543013 α      in ANC's #3, #2, #8, ...

........................................................................
.............................. CYCLE  137 ..............................
........................................................................

 iter      E             dE          RMSdq      gap      omega  full diag
   1   -116.4353527 -0.116435E+03  0.837E-04    3.21       0.0  T
   2   -116.4353527 -0.302788E-07  0.397E-04    3.21      28.9  T
   3   -116.4353527 -0.325554E-08  0.216E-04    3.21      53.1  T
   4   -116.4353527 -0.117609E-08  0.628E-05    3.21     182.5  T
   5   -116.4353527 -0.318892E-10  0.190E-05    3.21     604.8  T
     SCC iter.                  ...        0 min,  0.097 sec
     gradient                   ...        0 min,  0.022 sec
 * total energy  :  -114.9907742 Eh     change       -0.2671601E-05 Eh
   gradient norm :     0.0005627 Eh/α   predicted    -0.1269734E-05 ( -52.47%)
   displ. norm   :     0.0921044 α      lambda       -0.2617327E-05
   maximum displ.:     0.0547934 α      in ANC's #3, #2, #8, ...

........................................................................
.............................. CYCLE  138 ..............................
........................................................................

 iter      E             dE          RMSdq      gap      omega  full diag
   1   -116.4353919 -0.116435E+03  0.963E-04    3.21       0.0  T
   2   -116.4353919 -0.533533E-07  0.461E-04    3.21      24.9  T
   3   -116.4353919 -0.611122E-08  0.235E-04    3.21      48.9  T
   4   -116.4353919 -0.885791E-09  0.698E-05    3.21     164.4  T
   5   -116.4353919 -0.453610E-10  0.245E-05    3.21     468.9  T
     SCC iter.                  ...        0 min,  0.096 sec
     gradient                   ...        0 min,  0.021 sec
 * total energy  :  -114.9907769 Eh     change       -0.2647219E-05 Eh
   gradient norm :     0.0007626 Eh/α   predicted    -0.1317639E-05 ( -50.23%)
   displ. norm   :     0.0819034 α      lambda       -0.2408471E-05
   maximum displ.:     0.0493592 α      in ANC's #3, #8, #2, ...

........................................................................
.............................. CYCLE  139 ..............................
........................................................................

 iter      E             dE          RMSdq      gap      omega  full diag
   1   -116.4354440 -0.116435E+03  0.557E-04    3.21       0.0  T
   2   -116.4354440 -0.152751E-07  0.243E-04    3.21      47.3  T
   3   -116.4354440 -0.121054E-08  0.125E-04    3.21      91.6  T
   4   -116.4354440 -0.258183E-09  0.398E-05    3.21     288.1  T
     SCC iter.                  ...        0 min,  0.072 sec
     gradient                   ...        0 min,  0.025 sec
 * total energy  :  -114.9907798 Eh     change       -0.2939916E-05 Eh
   gradient norm :     0.0004056 Eh/α   predicted    -0.1209438E-05 ( -58.86%)
   displ. norm   :     0.1057215 α      lambda       -0.3082220E-05
   maximum displ.:     0.0641660 α      in ANC's #3, #8, #2, ...

........................................................................
.............................. CYCLE  140 ..............................
........................................................................

 iter      E             dE          RMSdq      gap      omega  full diag
   1   -116.4354020 -0.116435E+03  0.723E-04    3.21       0.0  T
   2   -116.4354020 -0.285177E-07  0.298E-04    3.21      38.5  T
   3   -116.4354020 -0.251912E-08  0.143E-04    3.21      80.3  T
   4   -116.4354020 -0.355669E-09  0.443E-05    3.21     258.7  T
     SCC iter.                  ...        0 min,  0.077 sec
     gradient                   ...        0 min,  0.028 sec
 * total energy  :  -114.9907834 Eh     change       -0.3618811E-05 Eh
   gradient norm :     0.0003370 Eh/α   predicted    -0.1550981E-05 ( -57.14%)
   displ. norm   :     0.1186270 α      lambda       -0.2805761E-05
   maximum displ.:     0.0725162 α      in ANC's #3, #8, #2, ...

........................................................................
.............................. CYCLE  141 ..............................
........................................................................

 iter      E             dE          RMSdq      gap      omega  full diag
   1   -116.4353851 -0.116435E+03  0.796E-04    3.21       0.0  T
   2   -116.4353851 -0.322389E-07  0.345E-04    3.21      33.2  T
   3   -116.4353851 -0.301597E-08  0.159E-04    3.21      72.2  T
   4   -116.4353851 -0.556398E-09  0.488E-05    3.21     235.1  T
     SCC iter.                  ...        0 min,  0.081 sec
     gradient                   ...        0 min,  0.020 sec
 * total energy  :  -114.9907868 Eh     change       -0.3348679E-05 Eh
   gradient norm :     0.0003998 Eh/α   predicted    -0.1415176E-05 ( -57.74%)
   displ. norm   :     0.1239884 α      lambda       -0.2664057E-05
   maximum displ.:     0.0760496 α      in ANC's #3, #8, #2, ...

........................................................................
.............................. CYCLE  142 ..............................
........................................................................

 iter      E             dE          RMSdq      gap      omega  full diag
   1   -116.4353263 -0.116435E+03  0.787E-04    3.22       0.0  T
   2   -116.4353263 -0.342268E-07  0.360E-04    3.22      31.9  T
   3   -116.4353263 -0.429787E-08  0.170E-04    3.21      67.5  T
   4   -116.4353263 -0.772673E-09  0.491E-05    3.21     233.8  T
     SCC iter.                  ...        0 min,  0.080 sec
     gradient                   ...        0 min,  0.020 sec
 * total energy  :  -114.9907901 Eh     change       -0.3353476E-05 Eh
   gradient norm :     0.0005131 Eh/α   predicted    -0.1343670E-05 ( -59.93%)
   displ. norm   :     0.1640796 α      lambda       -0.3596842E-05
   maximum displ.:     0.1006485 α      in ANC's #3, #8, #2, ...

........................................................................
.............................. CYCLE  143 ..............................
........................................................................

 iter      E             dE          RMSdq      gap      omega  full diag
   1   -116.4353374 -0.116435E+03  0.989E-04    3.22       0.0  T
   2   -116.4353374 -0.550083E-07  0.458E-04    3.22      25.1  T
   3   -116.4353374 -0.759587E-08  0.215E-04    3.22      53.3  T
   4   -116.4353374 -0.128597E-08  0.623E-05    3.22     184.0  T
   5   -116.4353374 -0.293312E-10  0.221E-05    3.22     520.1  T
     SCC iter.                  ...        0 min,  0.099 sec
     gradient                   ...        0 min,  0.021 sec
 * total energy  :  -114.9907946 Eh     change       -0.4515744E-05 Eh
   gradient norm :     0.0005569 Eh/α   predicted    -0.1823507E-05 ( -59.62%)
   displ. norm   :     0.2199742 α      lambda       -0.4750718E-05
   maximum displ.:     0.1353996 α      in ANC's #3, #8, #2, ...

........................................................................
.............................. CYCLE  144 ..............................
........................................................................

 iter      E             dE          RMSdq      gap      omega  full diag
   1   -116.4350805 -0.116435E+03  0.127E-03    3.22       0.0  T
   2   -116.4350806 -0.106055E-06  0.610E-04    3.22      18.8  T
   3   -116.4350806 -0.171461E-07  0.274E-04    3.22      41.9  T
   4   -116.4350806 -0.190212E-08  0.772E-05    3.22     148.6  T
   5   -116.4350806 -0.323581E-10  0.265E-05    3.22     432.2  T
     SCC iter.                  ...        0 min,  0.087 sec
     gradient                   ...        0 min,  0.030 sec
 * total energy  :  -114.9908003 Eh     change       -0.5659318E-05 Eh
   gradient norm :     0.0005721 Eh/α   predicted    -0.2427109E-05 ( -57.11%)
   displ. norm   :     0.2543090 α      lambda       -0.5624137E-05
   maximum displ.:     0.1562595 α      in ANC's #3, #8, #2, ...

........................................................................
.............................. CYCLE  145 ..............................
........................................................................

 iter      E             dE          RMSdq      gap      omega  full diag
   1   -116.4352829 -0.116435E+03  0.147E-03    3.22       0.0  T
   2   -116.4352830 -0.139778E-06  0.715E-04    3.22      16.0  T
   3   -116.4352830 -0.247004E-07  0.312E-04    3.22      36.7  T
   4   -116.4352830 -0.249609E-08  0.855E-05    3.22     134.1  T
   5   -116.4352831 -0.430020E-10  0.288E-05    3.22     397.9  T
     SCC iter.                  ...        0 min,  0.093 sec
     gradient                   ...        0 min,  0.023 sec
 * total energy  :  -114.9908067 Eh     change       -0.6365972E-05 Eh
   gradient norm :     0.0007754 Eh/α   predicted    -0.2897438E-05 ( -54.49%)
   displ. norm   :     0.2740166 α      lambda       -0.5937120E-05
   maximum displ.:     0.1698288 α      in ANC's #3, #8, #2, ...

........................................................................
.............................. CYCLE  146 ..............................
........................................................................

 iter      E             dE          RMSdq      gap      omega  full diag
   1   -116.4348753 -0.116435E+03  0.155E-03    3.22       0.0  T
   2   -116.4348755 -0.152281E-06  0.771E-04    3.22      14.9  T
   3   -116.4348755 -0.295883E-07  0.347E-04    3.22      33.1  T
   4   -116.4348755 -0.253050E-08  0.888E-05    3.22     129.2  T
   5   -116.4348755 -0.409131E-10  0.314E-05    3.22     365.6  T
     SCC iter.                  ...        0 min,  0.096 sec
     gradient                   ...        0 min,  0.022 sec
 * total energy  :  -114.9908136 Eh     change       -0.6930868E-05 Eh
   gradient norm :     0.0008730 Eh/α   predicted    -0.3071873E-05 ( -55.68%)
   displ. norm   :     0.3052131 α      lambda       -0.9384112E-05
   maximum displ.:     0.1888840 α      in ANC's #3, #8, #2, ...

........................................................................
.............................. CYCLE  147 ..............................
........................................................................

 iter      E             dE          RMSdq      gap      omega  full diag
   1   -116.4352664 -0.116435E+03  0.199E-03    3.21       0.0  T
   2   -116.4352666 -0.241825E-06  0.102E-03    3.21      11.2  T
   3   -116.4352667 -0.496271E-07  0.462E-04    3.21      24.8  T
   4   -116.4352667 -0.344458E-08  0.114E-04    3.21     100.6  T
   5   -116.4352667 -0.805755E-10  0.421E-05    3.21     272.3  T
     SCC iter.                  ...        0 min,  0.098 sec
     gradient                   ...        0 min,  0.019 sec
 * total energy  :  -114.9908232 Eh     change       -0.9606999E-05 Eh
   gradient norm :     0.0010050 Eh/α   predicted    -0.4890598E-05 ( -49.09%)
   displ. norm   :     0.4737972 α      lambda       -0.1178690E-04
   maximum displ.:     0.2929153 α      in ANC's #3, #8, #2, ...

........................................................................
.............................. CYCLE  148 ..............................
........................................................................

 iter      E             dE          RMSdq      gap      omega  full diag
   1   -116.4336876 -0.116434E+03  0.388E-03    3.21       0.0  T
   2   -116.4336881 -0.565409E-06  0.197E-03    3.21       5.8  T
   3   -116.4336882 -0.107594E-06  0.100E-03    3.21      11.5  T
   4   -116.4336883 -0.208535E-07  0.208E-04    3.21      55.2  T
   5   -116.4336883 -0.358924E-09  0.684E-05    3.21     167.6  T
   6   -116.4336883 -0.128338E-09  0.140E-05    3.21     820.7  T
     SCC iter.                  ...        0 min,  0.115 sec
     gradient                   ...        0 min,  0.020 sec
 * total energy  :  -114.9908270 Eh     change       -0.3755595E-05 Eh
   gradient norm :     0.0031369 Eh/α   predicted    -0.6485691E-05 (  72.69%)
   displ. norm   :     0.0478315 α      lambda       -0.1338901E-04
   maximum displ.:     0.0238266 α      in ANC's #3, #8, #2, ...

........................................................................
.............................. CYCLE  149 ..............................
........................................................................

 iter      E             dE          RMSdq      gap      omega  full diag
   1   -116.4347552 -0.116435E+03  0.144E-03    3.21       0.0  T
   2   -116.4347552 -0.368892E-07  0.745E-04    3.21      15.4  T
   3   -116.4347553 -0.181410E-08  0.350E-04    3.21      32.8  T
   4   -116.4347553 -0.431500E-08  0.782E-05    3.21     146.7  T
   5   -116.4347553 -0.709974E-10  0.217E-05    3.21     528.9  T
     SCC iter.                  ...        0 min,  0.097 sec
     gradient                   ...        0 min,  0.022 sec
 * total energy  :  -114.9908361 Eh     change       -0.9149199E-05 Eh
   gradient norm :     0.0013724 Eh/α   predicted    -0.6712650E-05 ( -26.63%)
   displ. norm   :     0.1047557 α      lambda       -0.8922632E-05
   maximum displ.:     0.0616018 α      in ANC's #3, #6, #2, ...

........................................................................
.............................. CYCLE  150 ..............................
........................................................................

 iter      E             dE          RMSdq      gap      omega  full diag
   1   -116.4356585 -0.116436E+03  0.206E-03    3.21       0.0  T
   2   -116.4356586 -0.790383E-07  0.103E-03    3.21      11.1  T
   3   -116.4356586 -0.357338E-08  0.429E-04    3.21      26.7  T
   4   -116.4356586 -0.306686E-08  0.112E-04    3.21     102.6  T
   5   -116.4356586 -0.210989E-09  0.349E-05    3.21     328.8  T
     SCC iter.                  ...        0 min,  0.093 sec
     gradient                   ...        0 min,  0.024 sec
 * total energy  :  -114.9908411 Eh     change       -0.4976513E-05 Eh
   gradient norm :     0.0011740 Eh/α   predicted    -0.4486154E-05 (  -9.85%)
   displ. norm   :     0.1710334 α      lambda       -0.5336283E-05
   maximum displ.:     0.1073646 α      in ANC's #3, #8, #2, ...
 * RMSD in coord.:     0.3374256 α      energy gain  -0.1442578E-03 Eh

generating ANC from exact Hessian ...
Using Lindh-Hessian (1995)
 Shifting diagonal of input Hessian by   1.131413399271096E-002
 Lowest  eigenvalues of input Hessian
    0.010000    0.011200    0.011230    0.000000    0.000000    0.000000
    0.000000    0.000000    0.000000    0.011430    0.011476    0.011545
    0.011611    0.011653    0.011765    0.011839    0.011981    0.012072
 Highest eigenvalues
    2.028194    2.053996    2.078674    2.179849    2.304301    2.341937
 

........................................................................
.............................. CYCLE  151 ..............................
........................................................................

 iter      E             dE          RMSdq      gap      omega  full diag
   1   -116.4353262 -0.116435E+03  0.172E-03    3.21       0.0  T
   2   -116.4353263 -0.658446E-07  0.846E-04    3.21      13.6  T
   3   -116.4353263 -0.534584E-08  0.408E-04    3.21      28.1  T
   4   -116.4353263 -0.543994E-08  0.106E-04    3.21     108.6  T
   5   -116.4353263 -0.122085E-09  0.312E-05    3.21     367.8  T
     SCC iter.                  ...        0 min,  0.083 sec
     gradient                   ...        0 min,  0.027 sec
 * total energy  :  -114.9908447 Eh     change       -0.3584073E-05 Eh
   gradient norm :     0.0017213 Eh/α   predicted     0.0000000E+00 (-100.00%)
   displ. norm   :     0.0116491 α      lambda       -0.2911375E-05
   maximum displ.:     0.0051006 α      in ANC's #8, #11, #5, ...

........................................................................
.............................. CYCLE  152 ..............................
........................................................................

 iter      E             dE          RMSdq      gap      omega  full diag
   1   -116.4352798 -0.116435E+03  0.766E-04    3.21       0.0  T
   2   -116.4352798 -0.110535E-07  0.399E-04    3.21      28.8  T
   3   -116.4352798 -0.743967E-09  0.194E-04    3.21      59.1  T
   4   -116.4352798 -0.110839E-08  0.465E-05    3.21     246.7  T
     SCC iter.                  ...        0 min,  0.073 sec
     gradient                   ...        0 min,  0.020 sec
 * total energy  :  -114.9908473 Eh     change       -0.2669333E-05 Eh
   gradient norm :     0.0003590 Eh/α   predicted    -0.1618549E-05 ( -39.37%)
   displ. norm   :     0.0147427 α      lambda       -0.9661024E-06
   maximum displ.:     0.0070833 α      in ANC's #8, #11, #5, ...

........................................................................
.............................. CYCLE  153 ..............................
........................................................................

 iter      E             dE          RMSdq      gap      omega  full diag
   1   -116.4352613 -0.116435E+03  0.319E-04    3.21       0.0  T
   2   -116.4352613 -0.674504E-08  0.160E-04    3.21      71.9  T
   3   -116.4352613 -0.117588E-08  0.777E-05    3.21     147.6  T
     SCC iter.                  ...        0 min,  0.049 sec
     gradient                   ...        0 min,  0.032 sec
 * total energy  :  -114.9908487 Eh     change       -0.1335403E-05 Eh
   gradient norm :     0.0004980 Eh/α   predicted    -0.4921256E-06 ( -63.15%)
   displ. norm   :     0.0909736 α      lambda       -0.5284094E-05
   maximum displ.:     0.0445205 α      in ANC's #8, #5, #11, ...

........................................................................
.............................. CYCLE  154 ..............................
........................................................................

 iter      E             dE          RMSdq      gap      omega  full diag
   1   -116.4351552 -0.116435E+03  0.170E-03    3.22       0.0  T
   2   -116.4351554 -0.200978E-06  0.832E-04    3.21      13.8  T
   3   -116.4351554 -0.327749E-07  0.398E-04    3.21      28.8  T
   4   -116.4351554 -0.201723E-08  0.108E-04    3.21     105.7  T
   5   -116.4351554 -0.861178E-10  0.419E-05    3.21     273.7  T
     SCC iter.                  ...        0 min,  0.090 sec
     gradient                   ...        0 min,  0.019 sec
 * total energy  :  -114.9908535 Eh     change       -0.4835471E-05 Eh
   gradient norm :     0.0006831 Eh/α   predicted    -0.2682219E-05 ( -44.53%)
   displ. norm   :     0.0433040 α      lambda       -0.1460445E-05
   maximum displ.:     0.0228091 α      in ANC's #8, #3, #5, ...

........................................................................
.............................. CYCLE  155 ..............................
........................................................................

 iter      E             dE          RMSdq      gap      omega  full diag
   1   -116.4351805 -0.116435E+03  0.505E-04    3.22       0.0  T
   2   -116.4351805 -0.159087E-07  0.231E-04    3.21      49.6  T
   3   -116.4351805 -0.181794E-08  0.111E-04    3.21     103.0  T
   4   -116.4351805 -0.287585E-09  0.357E-05    3.21     320.9  T
     SCC iter.                  ...        0 min,  0.065 sec
     gradient                   ...        0 min,  0.026 sec
 * total energy  :  -114.9908555 Eh     change       -0.1942145E-05 Eh
   gradient norm :     0.0004483 Eh/α   predicted    -0.8305843E-06 ( -57.23%)
   displ. norm   :     0.0746336 α      lambda       -0.2828458E-05
   maximum displ.:     0.0394173 α      in ANC's #8, #3, #40, ...

........................................................................
.............................. CYCLE  156 ..............................
........................................................................

 iter      E             dE          RMSdq      gap      omega  full diag
   1   -116.4352191 -0.116435E+03  0.801E-04    3.22       0.0  T
   2   -116.4352192 -0.324635E-07  0.358E-04    3.22      32.0  T
   3   -116.4352192 -0.307821E-08  0.161E-04    3.22      71.5  T
   4   -116.4352192 -0.771891E-09  0.593E-05    3.22     193.3  T
     SCC iter.                  ...        0 min,  0.076 sec
     gradient                   ...        0 min,  0.020 sec
 * total energy  :  -114.9908588 Eh     change       -0.3306485E-05 Eh
   gradient norm :     0.0003261 Eh/α   predicted    -0.1422932E-05 ( -56.97%)
   displ. norm   :     0.0986559 α      lambda       -0.3250666E-05
   maximum displ.:     0.0523004 α      in ANC's #8, #3, #40, ...

........................................................................
.............................. CYCLE  157 ..............................
........................................................................

 iter      E             dE          RMSdq      gap      omega  full diag
   1   -116.4351806 -0.116435E+03  0.109E-03    3.22       0.0  T
   2   -116.4351807 -0.573747E-07  0.482E-04    3.22      23.8  T
   3   -116.4351807 -0.634937E-08  0.229E-04    3.22      50.1  T
   4   -116.4351807 -0.175382E-08  0.760E-05    3.22     151.0  T
   5   -116.4351807 -0.835172E-10  0.253E-05    3.22     453.3  T
     SCC iter.                  ...        0 min,  0.094 sec
     gradient                   ...        0 min,  0.020 sec
 * total energy  :  -114.9908623 Eh     change       -0.3504194E-05 Eh
   gradient norm :     0.0005410 Eh/α   predicted    -0.1637631E-05 ( -53.27%)
   displ. norm   :     0.0891180 α      lambda       -0.2511648E-05
   maximum displ.:     0.0469749 α      in ANC's #8, #3, #40, ...

........................................................................
.............................. CYCLE  158 ..............................
........................................................................

 iter      E             dE          RMSdq      gap      omega  full diag
   1   -116.4352006 -0.116435E+03  0.106E-03    3.22       0.0  T
   2   -116.4352006 -0.517719E-07  0.464E-04    3.22      24.7  T
   3   -116.4352006 -0.699606E-08  0.231E-04    3.22      49.6  T
   4   -116.4352006 -0.189816E-08  0.668E-05    3.22     171.8  T
   5   -116.4352006 -0.301839E-10  0.222E-05    3.22     517.5  T
     SCC iter.                  ...        0 min,  0.096 sec
     gradient                   ...        0 min,  0.023 sec
 * total energy  :  -114.9908651 Eh     change       -0.2877006E-05 Eh
   gradient norm :     0.0006108 Eh/α   predicted    -0.1265011E-05 ( -56.03%)
   displ. norm   :     0.1247434 α      lambda       -0.3510279E-05
   maximum displ.:     0.0644604 α      in ANC's #8, #3, #40, ...

........................................................................
.............................. CYCLE  159 ..............................
........................................................................

 iter      E             dE          RMSdq      gap      omega  full diag
   1   -116.4351528 -0.116435E+03  0.155E-03    3.22       0.0  T
   2   -116.4351529 -0.101549E-06  0.680E-04    3.22      16.9  T
   3   -116.4351529 -0.132013E-07  0.339E-04    3.22      33.9  T
   4   -116.4351529 -0.418343E-08  0.914E-05    3.22     125.5  T
   5   -116.4351529 -0.553939E-10  0.316E-05    3.22     363.4  T
     SCC iter.                  ...        0 min,  0.095 sec
     gradient                   ...        0 min,  0.022 sec
 * total energy  :  -114.9908691 Eh     change       -0.3928634E-05 Eh
   gradient norm :     0.0005833 Eh/α   predicted    -0.1768296E-05 ( -54.99%)
   displ. norm   :     0.1520323 α      lambda       -0.4602640E-05
   maximum displ.:     0.0752185 α      in ANC's #8, #3, #40, ...

........................................................................
.............................. CYCLE  160 ..............................
........................................................................

 iter      E             dE          RMSdq      gap      omega  full diag
   1   -116.4351127 -0.116435E+03  0.203E-03    3.21       0.0  T
   2   -116.4351129 -0.181171E-06  0.900E-04    3.21      12.7  T
   3   -116.4351129 -0.242380E-07  0.445E-04    3.21      25.8  T
   4   -116.4351129 -0.656256E-08  0.117E-04    3.21      98.3  T
   5   -116.4351129 -0.948148E-10  0.421E-05    3.21     272.7  T
     SCC iter.                  ...        0 min,  0.089 sec
     gradient                   ...        0 min,  0.028 sec
 * total energy  :  -114.9908741 Eh     change       -0.5000944E-05 Eh
   gradient norm :     0.0005379 Eh/α   predicted    -0.2326274E-05 ( -53.48%)
   displ. norm   :     0.1579047 α      lambda       -0.5404718E-05
   maximum displ.:     0.0722414 α      in ANC's #8, #3, #40, ...

........................................................................
.............................. CYCLE  161 ..............................
........................................................................

 iter      E             dE          RMSdq      gap      omega  full diag
   1   -116.4351283 -0.116435E+03  0.214E-03    3.21       0.0  T
   2   -116.4351285 -0.207320E-06  0.972E-04    3.21      11.8  T
   3   -116.4351285 -0.277639E-07  0.466E-04    3.21      24.6  T
   4   -116.4351286 -0.677316E-08  0.117E-04    3.21      97.6  T
   5   -116.4351286 -0.133170E-09  0.447E-05    3.21     256.9  T
     SCC iter.                  ...        0 min,  0.098 sec
     gradient                   ...        0 min,  0.024 sec
 * total energy  :  -114.9908800 Eh     change       -0.5898274E-05 Eh
   gradient norm :     0.0005676 Eh/α   predicted    -0.2737398E-05 ( -53.59%)
   displ. norm   :     0.1763589 α      lambda       -0.6203883E-05
   maximum displ.:     0.0748301 α      in ANC's #8, #3, #40, ...

........................................................................
.............................. CYCLE  162 ..............................
........................................................................

 iter      E             dE          RMSdq      gap      omega  full diag
   1   -116.4349358 -0.116435E+03  0.240E-03    3.21       0.0  T
   2   -116.4349360 -0.233939E-06  0.109E-03    3.21      10.5  T
   3   -116.4349360 -0.292079E-07  0.514E-04    3.21      22.3  T
   4   -116.4349360 -0.868658E-08  0.126E-04    3.21      90.9  T
   5   -116.4349360 -0.183007E-09  0.487E-05    3.21     235.6  T
     SCC iter.                  ...        0 min,  0.098 sec
     gradient                   ...        0 min,  0.024 sec
 * total energy  :  -114.9908867 Eh     change       -0.6739449E-05 Eh
   gradient norm :     0.0009609 Eh/α   predicted    -0.3149105E-05 ( -53.27%)
   displ. norm   :     0.1344546 α      lambda       -0.8744623E-05
   maximum displ.:     0.0456472 α      in ANC's #3, #6, #28, ...

........................................................................
.............................. CYCLE  163 ..............................
........................................................................

 iter      E             dE          RMSdq      gap      omega  full diag
   1   -116.4357908 -0.116436E+03  0.216E-03    3.21       0.0  T
   2   -116.4357910 -0.212150E-06  0.108E-03    3.21      10.6  T
   3   -116.4357910 -0.324602E-07  0.550E-04    3.21      20.9  T
   4   -116.4357910 -0.597872E-08  0.116E-04    3.21      98.7  T
   5   -116.4357910 -0.164192E-09  0.450E-05    3.21     255.1  T
     SCC iter.                  ...        0 min,  0.099 sec
     gradient                   ...        0 min,  0.019 sec
 * total energy  :  -114.9908927 Eh     change       -0.5994542E-05 Eh
   gradient norm :     0.0014349 Eh/α   predicted    -0.4422601E-05 ( -26.22%)
   displ. norm   :     0.3639637 α      lambda       -0.1381577E-04
   maximum displ.:     0.1501543 α      in ANC's #8, #3, #40, ...

........................................................................
.............................. CYCLE  164 ..............................
........................................................................

 iter      E             dE          RMSdq      gap      omega  full diag
   1   -116.4329620 -0.116433E+03  0.714E-03    3.20       0.0  T
   2   -116.4329628 -0.798250E-06  0.344E-03    3.21       3.3  T
   3   -116.4329629 -0.434835E-07  0.133E-03    3.20       8.6  T
   4   -116.4329630 -0.847790E-07  0.377E-04    3.21      30.4  T
   5   -116.4329630 -0.136008E-08  0.101E-04    3.21     113.6  T
   6   -116.4329630 -0.301483E-09  0.207E-05    3.21     554.1  T
     SCC iter.                  ...        0 min,  0.112 sec
     gradient                   ...        0 min,  0.021 sec
 * total energy  :  -114.9908803 Eh     change        0.1238187E-04 Eh
   gradient norm :     0.0040562 Eh/α   predicted    -0.7319686E-05 (-159.12%)
   displ. norm   :     0.1841554 α      lambda       -0.4157755E-04
   maximum displ.:     0.0800540 α      in ANC's #8, #3, #40, ...

........................................................................
.............................. CYCLE  165 ..............................
........................................................................

 iter      E             dE          RMSdq      gap      omega  full diag
   1   -116.4346393 -0.116435E+03  0.401E-03    3.21       0.0  T
   2   -116.4346396 -0.294671E-06  0.195E-03    3.21       5.9  T
   3   -116.4346396 -0.159519E-07  0.818E-04    3.21      14.0  T
   4   -116.4346397 -0.289874E-07  0.219E-04    3.21      52.5  T
   5   -116.4346397 -0.496129E-09  0.655E-05    3.21     175.0  T
   6   -116.4346397 -0.100158E-09  0.138E-05    3.21     834.2  T
     SCC iter.                  ...        0 min,  0.115 sec
     gradient                   ...        0 min,  0.024 sec
 * total energy  :  -114.9909030 Eh     change       -0.2263822E-04 Eh
   gradient norm :     0.0012862 Eh/α   predicted    -0.2149538E-04 (  -5.05%)
   displ. norm   :     0.0460206 α      lambda       -0.7077635E-05
   maximum displ.:     0.0243255 α      in ANC's #8, #18, #11, ...

........................................................................
.............................. CYCLE  166 ..............................
........................................................................

 iter      E             dE          RMSdq      gap      omega  full diag
   1   -116.4353107 -0.116435E+03  0.136E-03    3.21       0.0  T
   2   -116.4353107 -0.270559E-07  0.654E-04    3.21      17.5  T
   3   -116.4353107 -0.136173E-08  0.271E-04    3.21      42.4  T
   4   -116.4353107 -0.146004E-08  0.737E-05    3.21     155.6  T
   5   -116.4353107 -0.100073E-09  0.198E-05    3.21     580.2  T
     SCC iter.                  ...        0 min,  0.096 sec
     gradient                   ...        0 min,  0.021 sec
 * total energy  :  -114.9909101 Eh     change       -0.7091552E-05 Eh
   gradient norm :     0.0005166 Eh/α   predicted    -0.3546307E-05 ( -49.99%)
   displ. norm   :     0.0660028 α      lambda       -0.6789793E-05
   maximum displ.:     0.0220522 α      in ANC's #6, #30, #3, ...

........................................................................
.............................. CYCLE  167 ..............................
........................................................................

 iter      E             dE          RMSdq      gap      omega  full diag
   1   -116.4356174 -0.116436E+03  0.143E-03    3.21       0.0  T
   2   -116.4356175 -0.739471E-07  0.627E-04    3.21      18.3  T
   3   -116.4356175 -0.529545E-08  0.245E-04    3.21      46.8  T
   4   -116.4356175 -0.985523E-09  0.832E-05    3.21     137.9  T
   5   -116.4356175 -0.110489E-09  0.282E-05    3.21     406.1  T
     SCC iter.                  ...        0 min,  0.098 sec
     gradient                   ...        0 min,  0.020 sec
 * total energy  :  -114.9909174 Eh     change       -0.7334309E-05 Eh
   gradient norm :     0.0008524 Eh/α   predicted    -0.3402280E-05 ( -53.61%)
   displ. norm   :     0.1779794 α      lambda       -0.1019068E-04
   maximum displ.:     0.0664599 α      in ANC's #6, #3, #40, ...

........................................................................
.............................. CYCLE  168 ..............................
........................................................................

 iter      E             dE          RMSdq      gap      omega  full diag
   1   -116.4352556 -0.116435E+03  0.333E-03    3.21       0.0  T
   2   -116.4352558 -0.241740E-06  0.151E-03    3.21       7.6  T
   3   -116.4352558 -0.202688E-07  0.525E-04    3.21      21.9  T
   4   -116.4352558 -0.948334E-08  0.161E-04    3.21      71.3  T
   5   -116.4352558 -0.436629E-09  0.607E-05    3.21     189.1  T
     SCC iter.                  ...        0 min,  0.097 sec
     gradient                   ...        0 min,  0.020 sec
 * total energy  :  -114.9909271 Eh     change       -0.9717015E-05 Eh
   gradient norm :     0.0012479 Eh/α   predicted    -0.5167768E-05 ( -46.82%)
   displ. norm   :     0.1156902 α      lambda       -0.5495214E-05
   maximum displ.:     0.0464146 α      in ANC's #6, #3, #40, ...

........................................................................
.............................. CYCLE  169 ..............................
........................................................................

 iter      E             dE          RMSdq      gap      omega  full diag
   1   -116.4347756 -0.116435E+03  0.218E-03    3.21       0.0  T
   2   -116.4347757 -0.990082E-07  0.102E-03    3.21      11.2  T
   3   -116.4347757 -0.796817E-08  0.358E-04    3.21      32.1  T
   4   -116.4347757 -0.429512E-08  0.109E-04    3.21     104.8  T
   5   -116.4347757 -0.190084E-09  0.395E-05    3.21     290.3  T
     SCC iter.                  ...        0 min,  0.096 sec
     gradient                   ...        0 min,  0.021 sec
 * total energy  :  -114.9909323 Eh     change       -0.5179838E-05 Eh
   gradient norm :     0.0011101 Eh/α   predicted    -0.2766617E-05 ( -46.59%)
   displ. norm   :     0.0434212 α      lambda       -0.4768318E-05
   maximum displ.:     0.0204285 α      in ANC's #6, #3, #31, ...

........................................................................
.............................. CYCLE  170 ..............................
........................................................................

 iter      E             dE          RMSdq      gap      omega  full diag
   1   -116.4350024 -0.116435E+03  0.130E-03    3.21       0.0  T
   2   -116.4350024 -0.359066E-07  0.683E-04    3.21      16.8  T
   3   -116.4350024 -0.266419E-08  0.321E-04    3.21      35.7  T
   4   -116.4350024 -0.989488E-09  0.645E-05    3.21     177.7  T
   5   -116.4350024 -0.686242E-10  0.194E-05    3.21     590.9  T
     SCC iter.                  ...        0 min,  0.095 sec
     gradient                   ...        0 min,  0.023 sec
 * total energy  :  -114.9909368 Eh     change       -0.4538405E-05 Eh
   gradient norm :     0.0006180 Eh/α   predicted    -0.2391157E-05 ( -47.31%)
   displ. norm   :     0.0871365 α      lambda       -0.3430812E-05
   maximum displ.:     0.0404309 α      in ANC's #6, #3, #4, ...

........................................................................
.............................. CYCLE  171 ..............................
........................................................................

 iter      E             dE          RMSdq      gap      omega  full diag
   1   -116.4349591 -0.116435E+03  0.165E-03    3.21       0.0  T
   2   -116.4349592 -0.713757E-07  0.781E-04    3.21      14.7  T
   3   -116.4349592 -0.520983E-08  0.320E-04    3.21      35.8  T
   4   -116.4349592 -0.183186E-08  0.821E-05    3.21     139.7  T
   5   -116.4349592 -0.137121E-09  0.320E-05    3.21     358.5  T
     SCC iter.                  ...        0 min,  0.094 sec
     gradient                   ...        0 min,  0.023 sec
 * total energy  :  -114.9909398 Eh     change       -0.2981849E-05 Eh
   gradient norm :     0.0006562 Eh/α   predicted    -0.1722981E-05 ( -42.22%)
   displ. norm   :     0.0347710 α      lambda       -0.2217239E-05
   maximum displ.:     0.0133948 α      in ANC's #6, #3, #8, ...

........................................................................
.............................. CYCLE  172 ..............................
........................................................................

 iter      E             dE          RMSdq      gap      omega  full diag
   1   -116.4352490 -0.116435E+03  0.645E-04    3.21       0.0  T
   2   -116.4352491 -0.167799E-07  0.302E-04    3.21      38.0  T
   3   -116.4352491 -0.124358E-08  0.155E-04    3.21      74.2  T
   4   -116.4352491 -0.512429E-09  0.456E-05    3.21     251.5  T
     SCC iter.                  ...        0 min,  0.080 sec
     gradient                   ...        0 min,  0.019 sec
 * total energy  :  -114.9909423 Eh     change       -0.2468506E-05 Eh
   gradient norm :     0.0005913 Eh/α   predicted    -0.1111495E-05 ( -54.97%)
   displ. norm   :     0.0799044 α      lambda       -0.3302080E-05
   maximum displ.:     0.0348764 α      in ANC's #6, #3, #4, ...

........................................................................
.............................. CYCLE  173 ..............................
........................................................................

 iter      E             dE          RMSdq      gap      omega  full diag
   1   -116.4352308 -0.116435E+03  0.120E-03    3.21       0.0  T
   2   -116.4352309 -0.473127E-07  0.566E-04    3.21      20.3  T
   3   -116.4352309 -0.352506E-08  0.226E-04    3.21      50.8  T
   4   -116.4352309 -0.248065E-08  0.642E-05    3.21     178.6  T
   5   -116.4352309 -0.550955E-10  0.227E-05    3.21     506.4  T
     SCC iter.                  ...        0 min,  0.097 sec
     gradient                   ...        0 min,  0.020 sec
 * total energy  :  -114.9909457 Eh     change       -0.3407941E-05 Eh
   gradient norm :     0.0004433 Eh/α   predicted    -0.1658359E-05 ( -51.34%)
   displ. norm   :     0.0649288 α      lambda       -0.2071442E-05
   maximum displ.:     0.0300904 α      in ANC's #6, #3, #4, ...

........................................................................
.............................. CYCLE  174 ..............................
........................................................................

 iter      E             dE          RMSdq      gap      omega  full diag
   1   -116.4352309 -0.116435E+03  0.101E-03    3.21       0.0  T
   2   -116.4352310 -0.517097E-07  0.512E-04    3.21      22.4  T
   3   -116.4352310 -0.581123E-08  0.230E-04    3.21      50.0  T
   4   -116.4352310 -0.121108E-08  0.647E-05    3.21     177.3  T
   5   -116.4352310 -0.357119E-10  0.228E-05    3.21     503.3  T
     SCC iter.                  ...        0 min,  0.098 sec
     gradient                   ...        0 min,  0.022 sec
 * total energy  :  -114.9909477 Eh     change       -0.2000725E-05 Eh
   gradient norm :     0.0003958 Eh/α   predicted    -0.1041309E-05 ( -47.95%)
   displ. norm   :     0.0392638 α      lambda       -0.1230912E-05
   maximum displ.:     0.0188563 α      in ANC's #6, #3, #24, ...

........................................................................
.............................. CYCLE  175 ..............................
........................................................................

 iter      E             dE          RMSdq      gap      omega  full diag
   1   -116.4352121 -0.116435E+03  0.632E-04    3.21       0.0  T
   2   -116.4352121 -0.211036E-07  0.365E-04    3.21      31.4  T
   3   -116.4352121 -0.328819E-08  0.181E-04    3.21      63.5  T
   4   -116.4352121 -0.273687E-09  0.426E-05    3.21     269.1  T
     SCC iter.                  ...        0 min,  0.077 sec
     gradient                   ...        0 min,  0.021 sec
 * total energy  :  -114.9909490 Eh     change       -0.1354271E-05 Eh
   gradient norm :     0.0002854 Eh/α   predicted    -0.6179423E-06 ( -54.37%)
   displ. norm   :     0.0491435 α      lambda       -0.1445170E-05
   maximum displ.:     0.0234697 α      in ANC's #6, #3, #8, ...

........................................................................
.............................. CYCLE  176 ..............................
........................................................................

 iter      E             dE          RMSdq      gap      omega  full diag
   1   -116.4352241 -0.116435E+03  0.614E-04    3.21       0.0  T
   2   -116.4352241 -0.281108E-07  0.345E-04    3.21      33.3  T
   3   -116.4352242 -0.357224E-08  0.159E-04    3.21      72.1  T
   4   -116.4352242 -0.930669E-10  0.482E-05    3.21     237.8  T
     SCC iter.                  ...        0 min,  0.068 sec
     gradient                   ...        0 min,  0.030 sec
 * total energy  :  -114.9909507 Eh     change       -0.1658940E-05 Eh
   gradient norm :     0.0003796 Eh/α   predicted    -0.7274341E-06 ( -56.15%)
   displ. norm   :     0.0577819 α      lambda       -0.1486579E-05
   maximum displ.:     0.0270650 α      in ANC's #6, #3, #8, ...

........................................................................
.............................. CYCLE  177 ..............................
........................................................................

 iter      E             dE          RMSdq      gap      omega  full diag
   1   -116.4351755 -0.116435E+03  0.678E-04    3.21       0.0  T
   2   -116.4351755 -0.341394E-07  0.368E-04    3.21      31.1  T
   3   -116.4351755 -0.493080E-08  0.162E-04    3.21      70.9  T
   4   -116.4351755 -0.159872E-09  0.446E-05    3.21     257.3  T
     SCC iter.                  ...        0 min,  0.074 sec
     gradient                   ...        0 min,  0.024 sec
 * total energy  :  -114.9909523 Eh     change       -0.1598462E-05 Eh
   gradient norm :     0.0003829 Eh/α   predicted    -0.7463203E-06 ( -53.31%)
   displ. norm   :     0.0492231 α      lambda       -0.1033585E-05
   maximum displ.:     0.0223635 α      in ANC's #3, #6, #8, ...

........................................................................
.............................. CYCLE  178 ..............................
........................................................................

 iter      E             dE          RMSdq      gap      omega  full diag
   1   -116.4351653 -0.116435E+03  0.515E-04    3.21       0.0  T
   2   -116.4351653 -0.144483E-07  0.250E-04    3.21      45.8  T
   3   -116.4351653 -0.125148E-08  0.120E-04    3.21      95.8  T
   4   -116.4351653 -0.176712E-09  0.315E-05    3.21     364.5  T
     SCC iter.                  ...        0 min,  0.082 sec
     gradient                   ...        0 min,  0.022 sec
 * total energy  :  -114.9909534 Eh     change       -0.1105049E-05 Eh
   gradient norm :     0.0002639 Eh/α   predicted    -0.5181779E-06 ( -53.11%)
   displ. norm   :     0.0397741 α      lambda       -0.8141531E-06
   maximum displ.:     0.0189080 α      in ANC's #3, #6, #8, ...

........................................................................
.............................. CYCLE  179 ..............................
........................................................................

 iter      E             dE          RMSdq      gap      omega  full diag
   1   -116.4351681 -0.116435E+03  0.464E-04    3.21       0.0  T
   2   -116.4351681 -0.151865E-07  0.229E-04    3.21      50.2  T
   3   -116.4351681 -0.207811E-08  0.109E-04    3.21     105.5  T
   4   -116.4351681 -0.172477E-09  0.278E-05    3.21     412.4  T
     SCC iter.                  ...        0 min,  0.061 sec
     gradient                   ...        0 min,  0.035 sec
 * total energy  :  -114.9909543 Eh     change       -0.9257493E-06 Eh
   gradient norm :     0.0002736 Eh/α   predicted    -0.4098507E-06 ( -55.73%)
   displ. norm   :     0.0436982 α      lambda       -0.8863280E-06
   maximum displ.:     0.0216492 α      in ANC's #3, #8, #6, ...

   *** GEOMETRY OPTIMIZATION CONVERGED AFTER 179 ITERATIONS ***

------------------------------------------------------------------------
 total energy gain   :        -0.3732787 Eh     -234.2359 kcal/mol
 total RMSD          :         1.8403512 a0        0.9739 Å
 total power (kW/mol):        -5.4751014 (step)  -37.2668 (real)
------------------------------------------------------------------------

 ANCopt (total)                0 d,  0 h,  0 min, 26.298 sec
 optimizer setup                ...        0 min,  0.000 sec (  0.000%)
 model hessian                  ...        0 min,  0.331 sec (  1.259%)
 ANC generation                 ...        0 min,  0.107 sec (  0.407%)
 coordinate transformation      ...        0 min,  0.017 sec (  0.065%)
 single point calculation       ...        0 min, 25.748 sec ( 97.909%)
 optimization log               ...        0 min,  0.041 sec (  0.156%)
 hessian update                 ...        0 min,  0.026 sec (  0.099%)
 rational function              ...        0 min,  0.016 sec (  0.061%)

================
 final structure:
================
76
 xtb: 6.7.1pre (5071a88)
N           -0.19444014599342       -0.22487048269370       -0.29305389489583
C            1.19407394118936       -0.42953522031203       -0.18720268179943
C            1.87441372693930       -0.05791543540991        0.97226175334014
C            3.25536834135560       -0.13509282582777        1.01400524710610
C            3.97160138985406       -0.60627857693514       -0.08480647673979
C            3.27635748591799       -1.07316138444608       -1.19726460845169
C            1.89354229031688       -0.99404815210795       -1.25099990620603
C            5.46705431532370       -0.45477277230228       -0.13121298992171
C            5.79047310255027        0.98796861247815       -0.56855948363015
C           -0.69045466216632        1.08539250883869       -0.22705002788649
C            0.01968451370145        2.17900814657369        0.05560963657240
C           -0.60170970570831        3.55400828391401        0.13410842599221
C            0.44860830526963        4.64037344041259       -0.16585546799939
C            0.95274539547129        4.55628078665371       -1.60883380834146
C            2.14580901331364        5.47948399152352       -1.84293672615983
O            0.54293846168049        1.07681485520019       -3.04500038382327
N           -1.68069865239961        3.93210321610320        3.66945411383100
C           -2.84087225789755        4.30330562915681        3.04626085891205
C           -2.61237730390870        4.22216520169178        1.65070327067216
C           -1.25736517145169        3.78742904335333        1.47396086725534
C           -4.06418349055402        4.69781433679587        3.57950917256199
C           -3.65173090498727        4.54721726070669        0.77298651514160
C           -0.72383555890671        3.62025649523333        2.72845003207286
C           -5.07220325072830        5.01331575032003        2.68615947663937
C           -4.86721104858436        4.93784971879554        1.30164643107795
C            0.62471022362930        3.17584099381217        3.18917406368705
O           -1.78700490369288        2.75415759715483       -3.06021192011423
H           -0.60393717635410       -0.73779922464790       -1.06638797741347
H           -0.28010327743715        1.45100324312938       -3.38419660124515
H            1.32214258779801        0.31542701655054        1.82651052493503
H            3.78525306746563        0.19834764866815        1.89994615512511
H            3.82348138284454       -1.47022886690659       -2.04650859550375
H            1.35905539804829       -1.31444918874606       -2.13788426680246
H            5.91622198999959       -1.15694000891721       -0.83884573049312
H            5.92133024385316       -0.61614851524076        0.84937275216680
H            5.32685323547240        1.69675676520479        0.13093384100499
H            5.47260465061421        0.60712426088553       -2.60957494914603
H            6.99544062312046        2.73287671225407       -1.91124755093322
H           -1.75390510891850        1.14065525343046       -0.44594869813845
H            1.08101343125879        2.12133561907092        0.26621601851713
H           -1.39186370028760        3.62896522721914       -0.62848040534863
H            0.00504411273093        5.62588648150089        0.01333287964584
H            1.29364265362739        4.52503137621331        0.52041932401595
H            1.25446857954953        3.52728802509537       -1.82643815002005
H            0.13793484384535        4.81863703974388       -2.29545430840293
H            2.44729993886523        5.44436028297469       -2.89052257937402
H            1.89667676612769        6.51032784103283       -1.58571860815840
H            2.98875139589336        5.15762741201070       -1.23070859439582
H           -1.52966846343116        3.91303826849888        4.66389673310685
H            0.01971249752271        5.91877322581218        2.41593912526305
H           -4.21939964137702        4.75418110929486        4.65056228805353
H           -3.50980571085409        4.49386704126955       -0.30176545657879
H           -6.04127415474343        5.32465219127058        3.06026173823042
H           -5.68447493980853        5.19317692929653        0.63564308202013
H            1.30709612166948        3.08430887100563        2.34746732060701
H            1.03866945538697        3.90032128201443        3.89249054330396
H            0.55670000323905        2.20845482166853        3.69182828550603
H           -1.43696955338332        3.64788577014050       -3.07241178809610
H           -2.54339146432488        2.75842142634243       -2.47053139641718
O            0.82168839479954        6.27272509043885        2.81193612759696
H            0.60389959559406        1.40642981779679       -2.14065409692444
H            1.48016588696119        6.30839389971820        2.11557140759843
N            5.23658440212103        1.26948007855057       -1.88501840121787
C            7.30185302472566        1.23057616715110       -0.56172045823451
O            8.05782583734573        0.58450101430351        0.13442931077540
C            3.46515713265865        1.86401151649198       -3.39510574914333
C            4.06009050560123        1.95512840926215       -2.01108799727620
O            3.57067635482157        2.59925443203912       -1.10673775683264
H            4.23381542846876        1.95455133881195       -4.16071812400135
H            2.71472551420241        2.63991968376033       -3.52308320386534
H            2.97276460789344        0.89782748320117       -3.50187438875309
N            7.68963795741157        2.22256835820557       -1.38676844952827
C            9.07794768110526        2.63590980625924       -1.47968142784775
H            9.18568919952973        3.67104887961795       -1.14631517510884
H            9.42574647977921        2.55114194612920       -2.51198637948241
H            9.66883875920908        1.98125572244873       -0.83868168166508
 
 Bond Distances (Angstroems)
 ---------------------------
N1-C2=1.4075         N1-C10=1.4026        N1-H28=1.0143        C2-N1=1.4075         C2-C3=1.3947         C2-C7=1.3927         
C3-C2=1.3947         C3-C4=1.3837         C3-H30=1.0836        C4-C3=1.3837         C4-C5=1.3937         C4-H31=1.0848        
C5-C4=1.3937         C5-C6=1.3924         C5-C8=1.5038         C6-C5=1.3924         C6-C7=1.3861         C6-H32=1.0855        
C7-C2=1.3927         C7-C6=1.3861         C7-H33=1.0839        C8-C5=1.5038         C8-C9=1.5419         C8-H34=1.0934        
C8-H35=1.0927        C9-C8=1.5419         C9-H36=1.0985        C9-N63=1.4557        C9-C64=1.5307        C10-N1=1.4026        
C10-C11=1.3342       C10-H39=1.0872       C11-C10=1.3342       C11-C12=1.5109       C11-H40=1.0836       C12-C11=1.5109       
C12-C13=1.5406       C12-C20=1.5098       C12-H41=1.1007       C13-C12=1.5406       C13-C14=1.5308       C13-H42=1.0955       
C13-H43=1.0947       C14-C13=1.5308       C14-C15=1.5266       C14-H44=1.0942       C14-H45=1.0974       C15-C14=1.5266       
C15-H46=1.0907       C15-H47=1.0913       C15-H48=1.0904       O16-H29=0.9656       O16-H61=0.9645       N17-C18=1.3683       
N17-C23=1.3778       N17-H49=1.0060       C18-N17=1.3683       C18-C19=1.4165       C18-C21=1.3916       C19-C18=1.4165       
C19-C20=1.4340       C19-C22=1.3987       C20-C12=1.5098       C20-C19=1.4340       C20-C23=1.3734       C21-C18=1.3916       
C21-C24=1.3834       C21-H51=1.0837       C22-C19=1.3987       C22-C25=1.3818       C22-H52=1.0854       C23-N17=1.3778       
C23-C20=1.3734       C23-C26=1.4928       C24-C21=1.3834       C24-C25=1.4016       C24-H53=1.0844       C25-C22=1.3818       
C25-C24=1.4016       C25-H54=1.0847       C26-C23=1.4928       C26-H55=1.0874       C26-H56=1.0913       C26-H57=1.0923       
O27-H58=0.9599       O27-H59=0.9591       H28-N1=1.0143        H29-O16=0.9656       H30-C3=1.0836        H31-C4=1.0848        
H32-C6=1.0855        H33-C7=1.0839        H34-C8=1.0934        H35-C8=1.0927        H36-C9=1.0985        H37-N63=1.0097       
H38-N72=1.0087       H39-C10=1.0872       H40-C11=1.0836       H41-C12=1.1007       H42-C13=1.0955       H43-C13=1.0947       
H44-C14=1.0942       H45-C14=1.0974       H46-C15=1.0907       H47-C15=1.0913       H48-C15=1.0904       H49-N17=1.0060       
H50-O60=0.9619       H51-C21=1.0837       H52-C22=1.0854       H53-C24=1.0844       H54-C25=1.0847       H55-C26=1.0874       
H56-C26=1.0913       H57-C26=1.0923       H58-O27=0.9599       H59-O27=0.9591       O60-H50=0.9619       O60-H62=0.9591       
H61-O16=0.9645       H62-O60=0.9591       N63-C9=1.4557        N63-H37=1.0097       N63-C67=1.3675       C64-C9=1.5307        
C64-O65=1.2139       C64-N72=1.3473       O65-C64=1.2139       C66-C67=1.5092       C66-H69=1.0887       C66-H70=1.0870       
C66-H71=1.0897       C67-N63=1.3675       C67-C66=1.5092       C67-O68=1.2134       O68-C67=1.2134       H69-C66=1.0887       
H70-C66=1.0870       H71-C66=1.0897       N72-H38=1.0087       N72-C64=1.3473       N72-C73=1.4515       C73-N72=1.4515       
C73-H74=1.0928       C73-H75=1.0926       C73-H76=1.0902       H74-C73=1.0928       H75-C73=1.0926       H76-C73=1.0902       
 C  H  Rav=1.0899 sigma=0.0047  Rmin=1.0836  Rmax=1.1007    30
 C  C  Rav=1.4422 sigma=0.0660  Rmin=1.3342  Rmax=1.5419    25
 N  H  Rav=1.0097 sigma=0.0030  Rmin=1.0060  Rmax=1.0143     4
 N  C  Rav=1.3973 sigma=0.0372  Rmin=1.3473  Rmax=1.4557     8
 O  H  Rav=0.9617 sigma=0.0026  Rmin=0.9591  Rmax=0.9656     6
 O  C  Rav=1.2136 sigma=0.0003  Rmin=1.2134  Rmax=1.2139     2
 
 selected bond angles (degree)
 --------------------
C10-N1-C2=118.76               H28-N1-C2=112.46               H28-N1-C10=111.44              C3-C2-N1=120.33                
C7-C2-N1=119.80                C7-C2-C3=119.87                C4-C3-C2=119.80                H30-C3-C2=119.90               
H30-C3-C4=120.27               C5-C4-C3=120.53                H31-C4-C3=119.67               H31-C4-C5=119.79               
C6-C5-C4=119.12                C8-C5-C4=120.09                C8-C5-C6=120.37                C7-C6-C5=120.66                
H32-C6-C5=119.74               H32-C6-C7=119.56               C6-C7-C2=119.64                H33-C7-C2=119.81               
H33-C7-C6=120.45               C9-C8-C5=108.16                H34-C8-C5=111.33               H34-C8-C9=109.34               
H35-C8-C5=111.77               H35-C8-C9=107.79               H35-C8-H34=108.37              H36-C9-C8=109.55               
N63-C9-C8=110.96               N63-C9-H36=106.89              C64-C9-C8=110.74               C64-C9-H36=108.16              
C64-C9-N63=110.43              C11-C10-N1=125.98              H39-C10-N1=112.58              H39-C10-C11=121.44             
 
 selected dihedral angles (degree)
 ---------------------------------
C3-C2-N1-C10= 61.72           C3-C2-N1-H28=194.42           C7-C2-N1-C10=242.34           C7-C2-N1-H28= 15.04           
C4-C3-C2-N1=186.66            C4-C3-C2-C7=  6.03            H30-C3-C2-N1=  4.99           H30-C3-C2-C7=184.36           
C5-C4-C3-C2=358.74            C5-C4-C3-H30=180.42           H31-C4-C3-C2=177.14           H31-C4-C3-H30=358.82          
C6-C5-C4-C3=356.24            C6-C5-C4-H31=177.84           C8-C5-C4-C3=168.84            C8-C5-C4-H31=350.45           
C7-C6-C5-C4=  4.07            C7-C6-C5-C8=191.49            H32-C6-C5-C4=181.84           H32-C6-C5-C8=  9.26           
C6-C7-C2-N1=173.65            C6-C7-C2-C3=354.28            H33-C7-C2-N1=357.24           H33-C7-C2-C3=177.86           
C2-C7-C6-C5=  0.65            C2-C7-C6-H32=182.88           H33-C7-C6-C5=177.04           H33-C7-C6-H32=359.27          
C9-C8-C5-C4=279.88            C9-C8-C5-C6= 92.40            H34-C8-C5-C4=159.74           H34-C8-C5-C6=332.25           
H35-C8-C5-C4= 38.39           H35-C8-C5-C6=210.90           H36-C9-C8-C5= 57.69           H36-C9-C8-H34=179.08          
H36-C9-C8-H35=296.68          N63-C9-C8-C5=299.91           N63-C9-C8-H34= 61.30          N63-C9-C8-H35=178.90          
C64-C9-C8-C5=176.90           C64-C9-C8-H34=298.29          C64-C9-C8-H35= 55.90          C11-C10-N1-C2=353.24          
C11-C10-N1-H28=220.10         H39-C10-N1-C2=172.65          H39-C10-N1-H28= 39.51         
 
 CMA Distance (Angstroems)
 ---------------------------
R(CMA):  2.5061
           -------------------------------------------------
          |                Final Singlepoint                |
           -------------------------------------------------

          ...................................................
          :                      SETUP                      :
          :.................................................:
          :  # basis functions                 224          :
          :  # atomic orbitals                 224          :
          :  # shells                          152          :
          :  # electrons                       198          :
          :  # halogen bonds                     0          :
          :  max. iterations                   250          :
          :  Hamiltonian                  GFN1-xTB          :
          :  restarted?                      false          :
          :  GBSA solvation                  false          :
          :  PC potential                    false          :
          :  electronic temp.            0.0000000     K    :
          :  accuracy                    1.0000000          :
          :  -> integral cutoff          0.2500000E+02      :
          :  -> integral neglect         0.1000000E-07      :
          :  -> SCF convergence          0.1000000E-05 Eh   :
          :  -> wf. convergence          0.2000000E-04 e    :
          :  Broyden damping             0.4000000          :
          :  net charge                          0          :
          :  unpaired electrons                  0          :
          ...................................................

 iter      E             dE          RMSdq      gap      omega  full diag
   1   -116.4351681 -0.116435E+03  0.119E-05    3.21       0.0  T
   2   -116.4351681 -0.315481E-11  0.596E-06    3.21    1923.4  T
   3   -116.4351681 -0.781597E-12  0.354E-06    3.21    3243.1  T

   *** convergence criteria satisfied after 3 iterations ***

         #    Occupation            Energy/Eh            Energy/eV
      -------------------------------------------------------------
         1        2.0000           -0.8108648             -22.0648
       ...           ...                  ...                  ...
        93        2.0000           -0.4404789             -11.9860
        94        2.0000           -0.4347783             -11.8309
        95        2.0000           -0.4323188             -11.7640
        96        2.0000           -0.4219609             -11.4821
        97        2.0000           -0.4083644             -11.1122
        98        2.0000           -0.3919765             -10.6662
        99        2.0000           -0.3817583             -10.3882 (HOMO)
       100                         -0.2637684              -7.1775 (LUMO)
       101                         -0.2563749              -6.9763
       102                         -0.2554483              -6.9511
       103                         -0.2461115              -6.6970
       104                         -0.2399194              -6.5285
       ...                                ...                  ...
       224                          0.7125953              19.3907
      -------------------------------------------------------------
                  HL-Gap            0.1179899 Eh            3.2107 eV
             Fermi-level            0.0000000 Eh            0.0000 eV

 SCC (total)                   0 d,  0 h,  0 min,  0.099 sec
 SCC setup                      ...        0 min,  0.000 sec (  0.000%)
 Dispersion                     ...        0 min,  0.000 sec (  0.000%)
 classical contributions        ...        0 min,  0.000 sec (  0.000%)
 integral evaluation            ...        0 min,  0.020 sec ( 20.202%)
 iterations                     ...        0 min,  0.055 sec ( 55.555%)
 molecular gradient             ...        0 min,  0.023 sec ( 23.232%)
 printout                       ...        0 min,  0.001 sec (  1.010%)

         :::::::::::::::::::::::::::::::::::::::::::::::::::::
         ::                     SUMMARY                     ::
         :::::::::::::::::::::::::::::::::::::::::::::::::::::
         :: total energy            -114.990954323534 Eh    ::
         :: gradient norm              0.000278552642 Eh/a0 ::
         :: HOMO-LUMO gap              3.210667760893 eV    ::
         ::.................................................::
         :: SCC energy              -116.435168133664 Eh    ::
         :: -> electrostatic           0.307189076054 Eh    ::
         :: repulsion energy           1.502630130558 Eh    ::
         :: dispersion energy         -0.058416320428 Eh    ::
         :: halogen bond corr.         0.000000000000 Eh    ::
         :: add. restraining           0.000000000000 Eh    ::
         :: total charge               0.000000000000 e     ::
         :::::::::::::::::::::::::::::::::::::::::::::::::::::

           -------------------------------------------------
          |                Property Printout                |
           -------------------------------------------------

    * Orbital Energies and Occupations

         #    Occupation            Energy/Eh            Energy/eV
      -------------------------------------------------------------
         1        2.0000           -0.8108648             -22.0648
       ...           ...                  ...                  ...
        87        2.0000           -0.4622982             -12.5798
        88        2.0000           -0.4615957             -12.5607
        89        2.0000           -0.4600311             -12.5181
        90        2.0000           -0.4530960             -12.3294
        91        2.0000           -0.4504332             -12.2569
        92        2.0000           -0.4432896             -12.0625
        93        2.0000           -0.4404789             -11.9860
        94        2.0000           -0.4347783             -11.8309
        95        2.0000           -0.4323188             -11.7640
        96        2.0000           -0.4219609             -11.4821
        97        2.0000           -0.4083644             -11.1122
        98        2.0000           -0.3919765             -10.6662
        99        2.0000           -0.3817583             -10.3882 (HOMO)
       100                         -0.2637684              -7.1775 (LUMO)
       101                         -0.2563749              -6.9763
       102                         -0.2554483              -6.9511
       103                         -0.2461115              -6.6970
       104                         -0.2399194              -6.5285
       105                         -0.2334129              -6.3515
       106                         -0.2223118              -6.0494
       107                         -0.1951684              -5.3108
       108                         -0.1855405              -5.0488
       109                         -0.1546451              -4.2081
       110                         -0.1468407              -3.9957
       ...                                ...                  ...
       224                          0.7125953              19.3907
      -------------------------------------------------------------
                  HL-Gap            0.1179899 Eh            3.2107 eV
             Fermi-level            0.0000000 Eh            0.0000 eV

  Mulliken/CM5 charges         n(s)   n(p)   n(d)
     1N    -0.34633 -0.69804   1.443  3.904  0.000
     2C     0.14198  0.19128   1.045  2.813  0.000
     3C    -0.04971 -0.09927   1.057  2.993  0.000
     4C    -0.03070 -0.08419   1.057  2.973  0.000
     5C    -0.00684 -0.02034   1.080  2.927  0.000
     6C    -0.03995 -0.09280   1.058  2.982  0.000
     7C    -0.05614 -0.10532   1.060  2.996  0.000
     8C    -0.05265 -0.14789   1.035  3.018  0.000
     9C     0.08471  0.08936   1.049  2.867  0.000
    10C     0.10242  0.10572   1.025  2.873  0.000
    11C    -0.11547 -0.17213   1.066  3.050  0.000
    12C     0.00524 -0.05451   1.049  2.946  0.000
    13C    -0.05197 -0.16054   1.040  3.012  0.000
    14C    -0.03431 -0.14740   1.030  3.005  0.000
    15C    -0.08265 -0.23423   1.007  3.076  0.000
    16O    -0.68523 -1.02988   1.708  4.978  0.000
    17N    -0.28247 -0.64083   1.419  3.864  0.000
    18C     0.11344  0.17541   1.034  2.853  0.000
    19C    -0.03420 -0.03168   1.074  2.960  0.000
    20C    -0.08680 -0.08753   1.078  3.009  0.000
    21C    -0.06623 -0.11495   1.051  3.015  0.000
    22C    -0.04267 -0.09531   1.054  2.989  0.000
    23C     0.11405  0.16526   1.053  2.833  0.000
    24C    -0.03711 -0.09241   1.053  2.984  0.000
    25C    -0.04716 -0.10264   1.052  2.995  0.000
    26C    -0.09634 -0.23719   1.008  3.088  0.000
    27O    -0.66790 -1.02235   1.697  4.971  0.000
    28H     0.21604  0.41063   0.784  0.000  0.000
    29H     0.34368  0.52167   0.656  0.000  0.000
    30H     0.03471  0.09508   0.965  0.000  0.000
    31H     0.03063  0.08780   0.969  0.000  0.000
    32H     0.02102  0.07918   0.979  0.000  0.000
    33H     0.03931  0.10089   0.961  0.000  0.000
    34H     0.03503  0.09523   0.965  0.000  0.000
    35H     0.05523  0.11543   0.945  0.000  0.000
    36H     0.07122  0.15026   0.929  0.000  0.000
    37H     0.22077  0.41891   0.779  0.000  0.000
    38H     0.22509  0.42815   0.775  0.000  0.000
    39H     0.01965  0.08724   0.980  0.000  0.000
    40H     0.04534  0.11074   0.955  0.000  0.000
    41H     0.01261  0.07682   0.987  0.000  0.000
    42H     0.01426  0.07147   0.986  0.000  0.000
    43H     0.02888  0.08786   0.971  0.000  0.000
    44H     0.03375  0.09571   0.966  0.000  0.000
    45H     0.00423  0.06020   0.996  0.000  0.000
    46H     0.02423  0.07587   0.976  0.000  0.000
    47H     0.01922  0.07102   0.981  0.000  0.000
    48H     0.03985  0.09467   0.960  0.000  0.000
    49H     0.23298  0.42802   0.767  0.000  0.000
    50H     0.32961  0.50206   0.670  0.000  0.000
    51H     0.02893  0.08657   0.971  0.000  0.000
    52H     0.01555  0.07221   0.984  0.000  0.000
    53H     0.02558  0.08147   0.974  0.000  0.000
    54H     0.02320  0.07907   0.977  0.000  0.000
    55H     0.04478  0.10021   0.955  0.000  0.000
    56H     0.04837  0.10534   0.952  0.000  0.000
    57H     0.03868  0.09241   0.961  0.000  0.000
    58H     0.33982  0.50850   0.660  0.000  0.000
    59H     0.34287  0.51125   0.657  0.000  0.000
    60O    -0.67026 -1.01101   1.695  4.975  0.000
    61H     0.32302  0.50036   0.677  0.000  0.000
    62H     0.33440  0.50280   0.666  0.000  0.000
    63N    -0.37068 -0.73423   1.438  3.933  0.000
    64C     0.46113  0.56318   0.993  2.546  0.000
    65O    -0.55436 -0.60280   1.723  4.832  0.000
    66C    -0.13428 -0.27290   1.023  3.111  0.000
    67C     0.48299  0.57146   0.998  2.519  0.000
    68O    -0.54825 -0.60498   1.724  4.824  0.000
    69H     0.03584  0.09186   0.964  0.000  0.000
    70H     0.06252  0.12072   0.937  0.000  0.000
    71H     0.06917  0.12868   0.931  0.000  0.000
    72N    -0.34279 -0.70863   1.418  3.925  0.000
    73C     0.06692 -0.02187   0.979  2.954  0.000
    74H     0.03334  0.09391   0.967  0.000  0.000
    75H     0.02974  0.09034   0.970  0.000  0.000
    76H     0.06742  0.13555   0.933  0.000  0.000

Wiberg/Mayer (AO) data.
largest (>0.10) Wiberg bond orders for each atom

 ---------------------------------------------------------------------------
     #   Z sym  total        # sym  WBO       # sym  WBO       # sym  WBO
 ---------------------------------------------------------------------------
     1   7 N    3.234 --    10 C    1.059     2 C    1.036    28 H    0.921
                            11 C    0.103
     2   6 C    3.958 --     7 C    1.385     3 C    1.374     1 N    1.036
     3   6 C    3.994 --     4 C    1.461     2 C    1.374    30 H    0.971
                             6 C    0.103
     4   6 C    3.995 --     3 C    1.461     5 C    1.402    31 H    0.973
                             7 C    0.104
     5   6 C    3.988 --     6 C    1.410     4 C    1.402     8 C    1.012
     6   6 C    3.995 --     7 C    1.449     5 C    1.410    32 H    0.972
                             3 C    0.103
     7   6 C    3.992 --     6 C    1.449     2 C    1.385    33 H    0.970
                             4 C    0.104
     8   6 C    3.993 --     5 C    1.012    34 H    0.976    35 H    0.968
                             9 C    0.966
     9   6 C    3.941 --     8 C    0.966    36 H    0.948    63 N    0.943
                            64 C    0.943
    10   6 C    3.957 --    11 C    1.813     1 N    1.059    39 H    0.970
    11   6 C    3.981 --    10 C    1.813    12 C    0.999    40 H    0.960
                             1 N    0.103
    12   6 C    3.995 --    11 C    0.999    20 C    0.988    13 C    0.978
                            41 H    0.960
    13   6 C    3.996 --    14 C    1.004    12 C    0.978    42 H    0.978
                            43 H    0.974
    14   6 C    3.996 --    15 C    1.015    13 C    1.004    45 H    0.975
                            44 H    0.970
    15   6 C    3.996 --    14 C    1.015    47 H    0.988    46 H    0.987
                            48 H    0.985
    16   8 O    1.817 --    61 H    0.875    29 H    0.862
    17   7 N    3.423 --    23 C    1.145    18 C    1.140    49 H    0.912
    18   6 C    3.939 --    21 C    1.347    19 C    1.253    17 N    1.140
    19   6 C    3.985 --    22 C    1.337    18 C    1.253    20 C    1.201
    20   6 C    3.968 --    23 C    1.547    19 C    1.201    12 C    0.988
    21   6 C    3.992 --    24 C    1.488    18 C    1.347    51 H    0.973
                            22 C    0.110
    22   6 C    3.993 --    25 C    1.499    19 C    1.337    52 H    0.971
                            21 C    0.110
    23   6 C    3.932 --    20 C    1.547    17 N    1.145    26 C    1.025
    24   6 C    3.992 --    21 C    1.488    25 C    1.376    53 H    0.975
    25   6 C    3.993 --    22 C    1.499    24 C    1.376    54 H    0.974
    26   6 C    3.994 --    23 C    1.025    55 H    0.980    56 H    0.972
                            57 H    0.971
    27   8 O    1.826 --    59 H    0.881    58 H    0.879
    28   1 H    0.969 --     1 N    0.921
    29   1 H    0.903 --    16 O    0.862
    30   1 H    1.005 --     3 C    0.971
    31   1 H    1.001 --     4 C    0.973
    32   1 H    1.005 --     6 C    0.972
    33   1 H    1.009 --     7 C    0.970
    34   1 H    1.004 --     8 C    0.976
    35   1 H    1.010 --     8 C    0.968
    36   1 H    1.013 --     9 C    0.948
    37   1 H    0.961 --    63 N    0.921
    38   1 H    0.961 --    72 N    0.912
    39   1 H    1.006 --    10 C    0.970
    40   1 H    1.009 --    11 C    0.960
    41   1 H    1.016 --    12 C    0.960
    42   1 H    1.011 --    13 C    0.978
    43   1 H    1.009 --    13 C    0.974
    44   1 H    1.024 --    14 C    0.970
    45   1 H    1.010 --    14 C    0.975
    46   1 H    1.006 --    15 C    0.987
    47   1 H    1.005 --    15 C    0.988
    48   1 H    1.013 --    15 C    0.985
    49   1 H    0.947 --    17 N    0.912
    50   1 H    0.909 --    60 O    0.883
    51   1 H    1.000 --    21 C    0.973
    52   1 H    1.006 --    22 C    0.971
    53   1 H    1.004 --    24 C    0.975
    54   1 H    1.004 --    25 C    0.974
    55   1 H    1.010 --    26 C    0.980
    56   1 H    1.013 --    26 C    0.972
    57   1 H    1.004 --    26 C    0.971
    58   1 H    0.901 --    27 O    0.879
    59   1 H    0.894 --    27 O    0.881
    60   8 O    1.805 --    62 H    0.891    50 H    0.883
    61   1 H    0.922 --    16 O    0.875
    62   1 H    0.899 --    60 O    0.891
    63   7 N    3.286 --    67 C    1.190     9 C    0.943    37 H    0.921
                            68 O    0.147
    64   6 C    3.901 --    65 O    1.634    72 N    1.252     9 C    0.943
    65   8 O    1.935 --    64 C    1.634    72 N    0.170
    66   6 C    3.992 --    67 C    0.989    69 H    0.979    70 H    0.978
                            71 H    0.958
    67   6 C    3.885 --    68 O    1.648    63 N    1.190    66 C    0.989
    68   8 O    1.955 --    67 C    1.648    63 N    0.147
    69   1 H    1.002 --    66 C    0.979
    70   1 H    1.015 --    66 C    0.978
    71   1 H    1.017 --    66 C    0.958
    72   7 N    3.325 --    64 C    1.252    73 C    0.954    38 H    0.912
                            65 O    0.170
    73   6 C    3.947 --    75 H    0.987    74 H    0.986    76 H    0.981
                            72 N    0.954
    74   1 H    1.005 --    73 C    0.986
    75   1 H    1.006 --    73 C    0.987
    76   1 H    1.008 --    73 C    0.981
 ---------------------------------------------------------------------------

Topologies differ in total number of bonds
Writing topology from bond orders to xtbtopo.mol

 dipole moment from electron density (au)
     X       Y       Z   
  -0.7154   0.7350  -1.7883  total (Debye):    5.240

           -------------------------------------------------
          |                Geometry Summary                 |
           -------------------------------------------------

      molecular mass/u    :      500.6313367
   center of mass at/Å    :        1.4809197       2.4019442       0.0245772
  moments of inertia/u·Å² :        0.2782514E+04   0.9156853E+04   0.9509492E+04
rotational constants/cm⁻¹ :        0.6058418E-02   0.1840985E-02   0.1772716E-02

 * 68 selected distances

     #   Z          #   Z                                           value/Å
     1   7 N        2   6 C                                       1.4075027
     2   6 C        3   6 C                                       1.3947479
     3   6 C        4   6 C                                       1.3837395
     4   6 C        5   6 C                                       1.3936977
     5   6 C        6   6 C                                       1.3924464
     2   6 C        7   6 C                                       1.3926937
     6   6 C        7   6 C                                       1.3861185
     1   7 N       10   6 C                                       1.4025607
    10   6 C       11   6 C                                       1.3342375
    13   6 C       14   6 C                                       1.5308209 (max)
    14   6 C       15   6 C                                       1.5266007
    17   7 N       18   6 C                                       1.3682705
    18   6 C       19   6 C                                       1.4164657
    19   6 C       20   6 C                                       1.4339776
    18   6 C       21   6 C                                       1.3915752
    19   6 C       22   6 C                                       1.3986786
    17   7 N       23   6 C                                       1.3777969
    20   6 C       23   6 C                                       1.3734424
    21   6 C       24   6 C                                       1.3833723
    22   6 C       25   6 C                                       1.3818348
    24   6 C       25   6 C                                       1.4016396
    23   6 C       26   6 C                                       1.4927652
     1   7 N       28   1 H                                       1.0143123
    16   8 O       29   1 H                                       0.9656443
     3   6 C       30   1 H                                       1.0835724
     4   6 C       31   1 H                                       1.0848280
     6   6 C       32   1 H                                       1.0854597
     7   6 C       33   1 H                                       1.0839267
     8   6 C       34   1 H                                       1.0934051
     8   6 C       35   1 H                                       1.0926836
     9   6 C       36   1 H                                       1.0984604
    10   6 C       39   1 H                                       1.0871512
    11   6 C       40   1 H                                       1.0835592
    12   6 C       41   1 H                                       1.1006833
    13   6 C       42   1 H                                       1.0954879
    13   6 C       43   1 H                                       1.0946964
    14   6 C       44   1 H                                       1.0941731
    14   6 C       45   1 H                                       1.0973582
    15   6 C       46   1 H                                       1.0906726
    15   6 C       47   1 H                                       1.0912687
    15   6 C       48   1 H                                       1.0903976
    17   7 N       49   1 H                                       1.0060268
    21   6 C       51   1 H                                       1.0837086
    22   6 C       52   1 H                                       1.0853944
    24   6 C       53   1 H                                       1.0844268
    25   6 C       54   1 H                                       1.0847456
    26   6 C       55   1 H                                       1.0874277
    26   6 C       56   1 H                                       1.0912783
    26   6 C       57   1 H                                       1.0923016
    27   8 O       58   1 H                                       0.9599082
    27   8 O       59   1 H                                       0.9590944
    50   1 H       60   8 O                                       0.9619049
    16   8 O       61   1 H                                       0.9644712
    60   8 O       62   1 H                                       0.9590562 (min)
     9   6 C       63   7 N                                       1.4557149
    37   1 H       63   7 N                                       1.0096550
    64   6 C       65   8 O                                       1.2138916
    63   7 N       67   6 C                                       1.3675326
    67   6 C       68   8 O                                       1.2133731
    66   6 C       69   1 H                                       1.0886669
    66   6 C       70   1 H                                       1.0869957
    66   6 C       71   1 H                                       1.0896613
    38   1 H       72   7 N                                       1.0086640
    64   6 C       72   7 N                                       1.3472677
    72   7 N       73   6 C                                       1.4515124
    73   6 C       74   1 H                                       1.0928195
    73   6 C       75   1 H                                       1.0926131
    73   6 C       76   1 H                                       1.0902317

 * 6 distinct bonds (by element types)

   Z      Z             #   av. dist./Å        max./Å        min./Å
   1 H    6 C          30     1.0899352     1.1006833     1.0835592
   6 C    6 C          18     1.4116030     1.5308209     1.3342375
   1 H    7 N           4     1.0096645     1.0143123     1.0060268
   6 C    7 N           8     1.3972698     1.4557149     1.3472677
   1 H    8 O           6     0.9616799     0.9656443     0.9590562
   6 C    8 O           2     1.2136323     1.2138916     1.2133731


optimized geometry written to: xtbopt.xyz


           -------------------------------------------------
          | TOTAL ENERGY             -114.990954323534 Eh   |
          | GRADIENT NORM               0.000278552642 Eh/α |
          | HOMO-LUMO GAP               3.210667760893 eV   |
           -------------------------------------------------

------------------------------------------------------------------------
 * finished run on 2026/08/20 at 20:23:33.458     
------------------------------------------------------------------------
 total:
 * wall-time:     0 d,  0 h,  0 min, 26.729 sec
 *  cpu-time:     0 d,  0 h,  1 min, 10.000 sec
 * ratio c/w:     2.619 speedup
 SCF:
 * wall-time:     0 d,  0 h,  0 min,  0.300 sec
 *  cpu-time:     0 d,  0 h,  0 min,  0.594 sec
 * ratio c/w:     1.979 speedup
 ANC optimizer:
 * wall-time:     0 d,  0 h,  0 min, 26.397 sec
 *  cpu-time:     0 d,  0 h,  1 min,  9.375 sec
 * ratio c/w:     2.628 speedup



===== STDERR =====

normal termination of xtb
