      -----------------------------------------------------------      
     |                   =====================                   |     
     |                           x T B                           |     
     |                   =====================                   |     
     |                         S. Grimme                         |     
     |          Mulliken Center for Theoretical Chemistry        |     
     |                    University of Bonn                     |     
      -----------------------------------------------------------      

   * xtb version 6.7.1pre (5071a88) compiled by 'Marcel@Raven' on 2024-07-23

   xtb is free software: you can redistribute it and/or modify it under
   the terms of the GNU Lesser General Public License as published by
   the Free Software Foundation, either version 3 of the License, or
   (at your option) any later version.
   
   xtb is distributed in the hope that it will be useful,
   but WITHOUT ANY WARRANTY; without even the implied warranty of
   MERCHANTABILITY or FITNESS FOR A PARTICULAR PURPOSE.  See the
   GNU Lesser General Public License for more details.
   
   Cite this work as:
   * C. Bannwarth, E. Caldeweyher, S. Ehlert, A. Hansen, P. Pracht,
     J. Seibert, S. Spicher, S. Grimme, WIREs Comput. Mol. Sci., 2020, 11,
     e01493. DOI: 10.1002/wcms.1493
   
   for GFN2-xTB:
   * C. Bannwarth, S. Ehlert and S. Grimme., J. Chem. Theory Comput., 2019,
     15, 1652-1671. DOI: 10.1021/acs.jctc.8b01176
   for GFN1-xTB:
   * S. Grimme, C. Bannwarth, P. Shushkov, J. Chem. Theory Comput., 2017,
     13, 1989-2009. DOI: 10.1021/acs.jctc.7b00118
   for GFN0-xTB:
   * P. Pracht, E. Caldeweyher, S. Ehlert, S. Grimme, ChemRxiv, 2019, preprint.
     DOI: 10.26434/chemrxiv.8326202.v1
   for GFN-FF:
   * S. Spicher and S. Grimme, Angew. Chem. Int. Ed., 2020, 59, 15665-15673.
     DOI: 10.1002/anie.202004239
   
   for ALPB and GBSA implicit solvation:
   * S. Ehlert, M. Stahn, S. Spicher, S. Grimme, J. Chem. Theory Comput.,
     2021, 17, 4250-4261. DOI: 10.1021/acs.jctc.1c00471
   
   for ddCOSMO and CPCM-X implicit solvation:
   * M. Stahn, S. Ehlert, S. Grimme, J. Phys. Chem. A,
     2023, XX, XXXX-XXXX. DOI: 10.1021/acs.jpca.3c04382
   
   for DFT-D4:
   * E. Caldeweyher, C. Bannwarth and S. Grimme, J. Chem. Phys., 2017,
     147, 034112. DOI: 10.1063/1.4993215
   * E. Caldeweyher, S. Ehlert, A. Hansen, H. Neugebauer, S. Spicher,
     C. Bannwarth and S. Grimme, J. Chem. Phys., 2019, 150, 154122.
     DOI: 10.1063/1.5090222
   * E. Caldeweyher, J.-M. Mewes, S. Ehlert and S. Grimme, Phys. Chem. Chem. Phys.
     2020, 22, 8499-8512. DOI: 10.1039/D0CP00502A
   
   for sTDA-xTB:
   * S. Grimme and C. Bannwarth, J. Chem. Phys., 2016, 145, 054103.
     DOI: 10.1063/1.4959605
   
   in the mass-spec context:
   * V. Asgeirsson, C. Bauer and S. Grimme, Chem. Sci., 2017, 8, 4879.
     DOI: 10.1039/c7sc00601b
   * J. Koopman and S. Grimme, ACS Omega 2019, 4, 12, 15120-15133.
     DOI: 10.1021/acsomega.9b02011
   
   for metadynamics refer to:
   * S. Grimme, J. Chem. Theory Comput., 2019, 155, 2847-2862
     DOI: 10.1021/acs.jctc.9b00143
   
   for SPH calculations refer to:
   * S. Spicher and S. Grimme, J. Chem. Theory Comput., 2021, 17, 1701-1714
     DOI: 10.1021/acs.jctc.0c01306
   
   for ONIOM refer to:
   * C. Plett, A. Katbashev, S. Ehlert, S. Grimme, M. Bursch,
     Phys. Chem. Chem. Phys., 2023, 25, 17860-17868. DOI: 10.1039/D3CP02178E
   
   for DIPRO refer to:
   * J. Kohn, N. Gildemeister, S. Grimme, D. Fazzi, A. Hansen,
     J. Chem. Phys., 2023, just accepted.
   
   for PTB refer to:
   * S. Grimme, M. Mueller, A. Hansen, J. Chem. Phys., 2023, 158, 124111.
     DOI: 10.1063/5.0137838
   
   with help from (in alphabetical order)
   P. Atkinson, C. Bannwarth, F. Bohle, G. Brandenburg, E. Caldeweyher
   M. Checinski, S. Dohm, S. Ehlert, S. Ehrlich, I. Gerasimov, C. Hölzer
   A. Katbashev, J. Kohn, J. Koopman, C. Lavigne, S. Lehtola, F. März, M. Müller,
   F. Musil, H. Neugebauer, J. Pisarek, C. Plett, P. Pracht, F. Pultar,
   J. Seibert, P. Shushkov, S. Spicher, M. Stahn, M. Steiner, T. Strunk,
   J. Stückrath, T. Rose, and J. Unsleber
   
 * started run on 2026/08/31 at 13:15:59.461     
   ID    Z sym.   atoms
    1    7 N      1, 17, 63, 72
    2    6 C      2-15, 18-26, 64, 66, 67, 73
    3    8 O      16, 27, 60, 65, 68
    4    1 H      28-59, 61, 62, 69-71, 74-76

           -------------------------------------------------
          |                Calculation Setup                |
           -------------------------------------------------

          program call               : C:\Users\Nayanika\Downloads\xtb-6.7.1pre-windows-x86_64\xtb-6.7.1\bin\xtb.exe D:\PhD_Thesis\LmrR_EVB\charges\fast_lmrr_5QM\xtb_preparation\stage2_five_xtb_protocols\GFN1_tight\TS2_1a_to_PS2_2\TS2_1a_to_PS2_2_RS_xtbopt.xyz --gfn 1 --chrg 0 --uhf 0 --etemp 0
          coordinate file            : D:\PhD_Thesis\LmrR_EVB\charges\fast_lmrr_5QM\xtb_preparation\stage2_five_xtb_protocols\GFN1_tight\TS2_1a_to_PS2_2\TS2_1a_to_PS2_2_RS_xtbopt.xyz
          omp threads                :                     1


molecular fragmentation (1/2 indicates fragments):
111111111111111211111111112121111111111111111111121111111222221111111111
1111
# atoms in fragment 1/2:    67     9
 fragment masses (1/2) :      446.59       54.05
CMA distance (Bohr)    :   4.712
constraining FC (au)   :  0.0500

           -------------------------------------------------
          |                 G F N 1 - x T B                 |
           -------------------------------------------------

        Reference                      10.1021/acs.jctc.7b00118
      * Hamiltonian:
        H0-scaling (s, p, d)           1.850000    2.250000    2.000000
        zeta-weighting                 0.000000
      * Dispersion:
        s8                             2.400000
        a1                             0.630000
        a2                             5.000000
        s9                             0.000000
      * Repulsion:
        kExp                           1.500000
        rExp                           1.000000
      * Coulomb:
        alpha                          2.000000
        third order                    atomic
        anisotropic                    false
      * Halogen bond correction:
        rad-scale                      1.300000
        damping                        0.440000

q/qsh data taken from xtbrestart

          ...................................................
          :                      SETUP                      :
          :.................................................:
          :  # basis functions                 224          :
          :  # atomic orbitals                 224          :
          :  # shells                          152          :
          :  # electrons                       198          :
          :  # halogen bonds                     0          :
          :  max. iterations                   250          :
          :  Hamiltonian                  GFN1-xTB          :
          :  restarted?                       true          :
          :  GBSA solvation                  false          :
          :  PC potential                    false          :
          :  electronic temp.            0.0000000     K    :
          :  accuracy                    1.0000000          :
          :  -> integral cutoff          0.2500000E+02      :
          :  -> integral neglect         0.1000000E-07      :
          :  -> SCF convergence          0.1000000E-05 Eh   :
          :  -> wf. convergence          0.2000000E-04 e    :
          :  Broyden damping             0.4000000          :
          :  net charge                          0          :
          :  unpaired electrons                  0          :
          ...................................................

 iter      E             dE          RMSdq      gap      omega  full diag
   1   -116.3940262 -0.116394E+03  0.840E-01    2.82       0.0  T
   2   -116.4323680 -0.383418E-01  0.293E-01    3.33       1.0  T
   3   -116.4347201 -0.235207E-02  0.153E-01    3.28       1.0  T
   4   -116.4350966 -0.376561E-03  0.582E-02    3.21       1.0  T
   5   -116.4351561 -0.594704E-04  0.180E-02    3.21       1.0  T
   6   -116.4351668 -0.107110E-04  0.484E-03    3.21       2.4  T
   7   -116.4351681 -0.127604E-05  0.146E-03    3.21       7.9  T
   8   -116.4351681 -0.412462E-07  0.448E-04    3.21      25.6  T
   9   -116.4351681 -0.306058E-08  0.139E-04    3.21      82.3  T
  10   -116.4351681 -0.413081E-09  0.506E-05    3.21     226.8  T

   *** convergence criteria satisfied after 10 iterations ***

         #    Occupation            Energy/Eh            Energy/eV
      -------------------------------------------------------------
         1        2.0000           -0.8108638             -22.0647
       ...           ...                  ...                  ...
        93        2.0000           -0.4404778             -11.9860
        94        2.0000           -0.4347773             -11.8309
        95        2.0000           -0.4323178             -11.7640
        96        2.0000           -0.4219600             -11.4821
        97        2.0000           -0.4083641             -11.1122
        98        2.0000           -0.3919762             -10.6662
        99        2.0000           -0.3817578             -10.3882 (HOMO)
       100                         -0.2637683              -7.1775 (LUMO)
       101                         -0.2563738              -6.9763
       102                         -0.2554473              -6.9511
       103                         -0.2461105              -6.6970
       104                         -0.2399184              -6.5285
       ...                                ...                  ...
       224                          0.7125963              19.3907
      -------------------------------------------------------------
                  HL-Gap            0.1179895 Eh            3.2107 eV
             Fermi-level            0.0000000 Eh            0.0000 eV

 SCC (total)                   0 d,  0 h,  0 min,  0.419 sec
 SCC setup                      ...        0 min,  0.002 sec (  0.477%)
 Dispersion                     ...        0 min,  0.001 sec (  0.239%)
 classical contributions        ...        0 min,  0.001 sec (  0.239%)
 integral evaluation            ...        0 min,  0.075 sec ( 17.900%)
 iterations                     ...        0 min,  0.144 sec ( 34.368%)
 molecular gradient             ...        0 min,  0.193 sec ( 46.062%)
 printout                       ...        0 min,  0.003 sec (  0.716%)

         :::::::::::::::::::::::::::::::::::::::::::::::::::::
         ::                     SUMMARY                     ::
         :::::::::::::::::::::::::::::::::::::::::::::::::::::
         :: total energy            -114.990954323423 Eh    ::
         :: gradient norm              0.000279271280 Eh/a0 ::
         :: HOMO-LUMO gap              3.210658195583 eV    ::
         ::.................................................::
         :: SCC energy              -116.435168133552 Eh    ::
         :: -> electrostatic           0.307188624658 Eh    ::
         :: repulsion energy           1.502630130558 Eh    ::
         :: dispersion energy         -0.058416320428 Eh    ::
         :: halogen bond corr.         0.000000000000 Eh    ::
         :: add. restraining           0.000000000000 Eh    ::
         :: total charge              -0.000000000000 e     ::
         :::::::::::::::::::::::::::::::::::::::::::::::::::::

           -------------------------------------------------
          |                Property Printout                |
           -------------------------------------------------

    * Orbital Energies and Occupations

         #    Occupation            Energy/Eh            Energy/eV
      -------------------------------------------------------------
         1        2.0000           -0.8108638             -22.0647
       ...           ...                  ...                  ...
        87        2.0000           -0.4622977             -12.5798
        88        2.0000           -0.4615949             -12.5606
        89        2.0000           -0.4600305             -12.5181
        90        2.0000           -0.4530959             -12.3294
        91        2.0000           -0.4504322             -12.2569
        92        2.0000           -0.4432896             -12.0625
        93        2.0000           -0.4404778             -11.9860
        94        2.0000           -0.4347773             -11.8309
        95        2.0000           -0.4323178             -11.7640
        96        2.0000           -0.4219600             -11.4821
        97        2.0000           -0.4083641             -11.1122
        98        2.0000           -0.3919762             -10.6662
        99        2.0000           -0.3817578             -10.3882 (HOMO)
       100                         -0.2637683              -7.1775 (LUMO)
       101                         -0.2563738              -6.9763
       102                         -0.2554473              -6.9511
       103                         -0.2461105              -6.6970
       104                         -0.2399184              -6.5285
       105                         -0.2334129              -6.3515
       106                         -0.2223114              -6.0494
       107                         -0.1951681              -5.3108
       108                         -0.1855468              -5.0490
       109                         -0.1546451              -4.2081
       110                         -0.1468397              -3.9957
       ...                                ...                  ...
       224                          0.7125963              19.3907
      -------------------------------------------------------------
                  HL-Gap            0.1179895 Eh            3.2107 eV
             Fermi-level            0.0000000 Eh            0.0000 eV

  Mulliken/CM5 charges         n(s)   n(p)   n(d)
     1N    -0.34633 -0.69804   1.443  3.904  0.000
     2C     0.14198  0.19128   1.045  2.813  0.000
     3C    -0.04971 -0.09927   1.057  2.993  0.000
     4C    -0.03070 -0.08418   1.057  2.973  0.000
     5C    -0.00684 -0.02034   1.080  2.927  0.000
     6C    -0.03995 -0.09280   1.058  2.982  0.000
     7C    -0.05614 -0.10532   1.060  2.996  0.000
     8C    -0.05265 -0.14789   1.035  3.018  0.000
     9C     0.08471  0.08936   1.049  2.867  0.000
    10C     0.10242  0.10572   1.025  2.873  0.000
    11C    -0.11547 -0.17213   1.066  3.050  0.000
    12C     0.00524 -0.05451   1.049  2.946  0.000
    13C    -0.05197 -0.16054   1.040  3.012  0.000
    14C    -0.03431 -0.14740   1.030  3.005  0.000
    15C    -0.08265 -0.23422   1.007  3.076  0.000
    16O    -0.68523 -1.02988   1.707  4.978  0.000
    17N    -0.28247 -0.64082   1.419  3.864  0.000
    18C     0.11344  0.17541   1.034  2.853  0.000
    19C    -0.03421 -0.03168   1.074  2.960  0.000
    20C    -0.08681 -0.08754   1.078  3.009  0.000
    21C    -0.06622 -0.11494   1.051  3.015  0.000
    22C    -0.04268 -0.09531   1.054  2.989  0.000
    23C     0.11406  0.16527   1.053  2.833  0.000
    24C    -0.03711 -0.09241   1.053  2.984  0.000
    25C    -0.04716 -0.10264   1.052  2.995  0.000
    26C    -0.09634 -0.23719   1.008  3.088  0.000
    27O    -0.66790 -1.02235   1.697  4.971  0.000
    28H     0.21604  0.41063   0.784  0.000  0.000
    29H     0.34368  0.52167   0.656  0.000  0.000
    30H     0.03471  0.09508   0.965  0.000  0.000
    31H     0.03063  0.08780   0.969  0.000  0.000
    32H     0.02102  0.07918   0.979  0.000  0.000
    33H     0.03931  0.10089   0.961  0.000  0.000
    34H     0.03503  0.09523   0.965  0.000  0.000
    35H     0.05523  0.11543   0.945  0.000  0.000
    36H     0.07122  0.15026   0.929  0.000  0.000
    37H     0.22077  0.41891   0.779  0.000  0.000
    38H     0.22509  0.42815   0.775  0.000  0.000
    39H     0.01965  0.08724   0.980  0.000  0.000
    40H     0.04534  0.11074   0.955  0.000  0.000
    41H     0.01261  0.07682   0.987  0.000  0.000
    42H     0.01426  0.07147   0.986  0.000  0.000
    43H     0.02888  0.08786   0.971  0.000  0.000
    44H     0.03375  0.09571   0.966  0.000  0.000
    45H     0.00423  0.06020   0.996  0.000  0.000
    46H     0.02423  0.07587   0.976  0.000  0.000
    47H     0.01922  0.07102   0.981  0.000  0.000
    48H     0.03985  0.09467   0.960  0.000  0.000
    49H     0.23298  0.42802   0.767  0.000  0.000
    50H     0.32961  0.50206   0.670  0.000  0.000
    51H     0.02893  0.08657   0.971  0.000  0.000
    52H     0.01555  0.07221   0.984  0.000  0.000
    53H     0.02558  0.08147   0.974  0.000  0.000
    54H     0.02320  0.07907   0.977  0.000  0.000
    55H     0.04478  0.10021   0.955  0.000  0.000
    56H     0.04837  0.10534   0.952  0.000  0.000
    57H     0.03868  0.09241   0.961  0.000  0.000
    58H     0.33982  0.50849   0.660  0.000  0.000
    59H     0.34287  0.51124   0.657  0.000  0.000
    60O    -0.67026 -1.01101   1.695  4.975  0.000
    61H     0.32301  0.50036   0.677  0.000  0.000
    62H     0.33440  0.50280   0.666  0.000  0.000
    63N    -0.37068 -0.73423   1.438  3.933  0.000
    64C     0.46113  0.56318   0.993  2.546  0.000
    65O    -0.55436 -0.60280   1.723  4.832  0.000
    66C    -0.13428 -0.27291   1.023  3.111  0.000
    67C     0.48299  0.57146   0.998  2.519  0.000
    68O    -0.54825 -0.60498   1.724  4.824  0.000
    69H     0.03584  0.09186   0.964  0.000  0.000
    70H     0.06252  0.12072   0.937  0.000  0.000
    71H     0.06917  0.12868   0.931  0.000  0.000
    72N    -0.34279 -0.70863   1.418  3.925  0.000
    73C     0.06692 -0.02187   0.979  2.954  0.000
    74H     0.03334  0.09391   0.967  0.000  0.000
    75H     0.02974  0.09034   0.970  0.000  0.000
    76H     0.06742  0.13555   0.933  0.000  0.000

Wiberg/Mayer (AO) data.
largest (>0.10) Wiberg bond orders for each atom

 ---------------------------------------------------------------------------
     #   Z sym  total        # sym  WBO       # sym  WBO       # sym  WBO
 ---------------------------------------------------------------------------
     1   7 N    3.234 --    10 C    1.059     2 C    1.036    28 H    0.921
                            11 C    0.103
     2   6 C    3.958 --     7 C    1.385     3 C    1.374     1 N    1.036
     3   6 C    3.994 --     4 C    1.461     2 C    1.374    30 H    0.971
                             6 C    0.103
     4   6 C    3.995 --     3 C    1.461     5 C    1.402    31 H    0.973
                             7 C    0.104
     5   6 C    3.988 --     6 C    1.410     4 C    1.402     8 C    1.012
     6   6 C    3.995 --     7 C    1.449     5 C    1.410    32 H    0.972
                             3 C    0.103
     7   6 C    3.992 --     6 C    1.449     2 C    1.385    33 H    0.970
                             4 C    0.104
     8   6 C    3.993 --     5 C    1.012    34 H    0.976    35 H    0.968
                             9 C    0.966
     9   6 C    3.941 --     8 C    0.966    36 H    0.948    63 N    0.943
                            64 C    0.943
    10   6 C    3.957 --    11 C    1.813     1 N    1.059    39 H    0.970
    11   6 C    3.981 --    10 C    1.813    12 C    0.999    40 H    0.960
                             1 N    0.103
    12   6 C    3.995 --    11 C    0.999    20 C    0.988    13 C    0.978
                            41 H    0.960
    13   6 C    3.996 --    14 C    1.004    12 C    0.978    42 H    0.978
                            43 H    0.974
    14   6 C    3.996 --    15 C    1.015    13 C    1.004    45 H    0.975
                            44 H    0.970
    15   6 C    3.996 --    14 C    1.015    47 H    0.988    46 H    0.987
                            48 H    0.985
    16   8 O    1.817 --    61 H    0.875    29 H    0.862
    17   7 N    3.423 --    23 C    1.145    18 C    1.140    49 H    0.912
    18   6 C    3.939 --    21 C    1.347    19 C    1.253    17 N    1.140
    19   6 C    3.985 --    22 C    1.337    18 C    1.253    20 C    1.201
    20   6 C    3.968 --    23 C    1.547    19 C    1.201    12 C    0.988
    21   6 C    3.992 --    24 C    1.488    18 C    1.347    51 H    0.973
                            22 C    0.110
    22   6 C    3.993 --    25 C    1.499    19 C    1.337    52 H    0.971
                            21 C    0.110
    23   6 C    3.932 --    20 C    1.547    17 N    1.145    26 C    1.025
    24   6 C    3.992 --    21 C    1.488    25 C    1.376    53 H    0.975
    25   6 C    3.993 --    22 C    1.499    24 C    1.376    54 H    0.974
    26   6 C    3.994 --    23 C    1.025    55 H    0.980    56 H    0.972
                            57 H    0.971
    27   8 O    1.826 --    59 H    0.881    58 H    0.879
    28   1 H    0.969 --     1 N    0.921
    29   1 H    0.903 --    16 O    0.862
    30   1 H    1.005 --     3 C    0.971
    31   1 H    1.001 --     4 C    0.973
    32   1 H    1.005 --     6 C    0.972
    33   1 H    1.009 --     7 C    0.970
    34   1 H    1.004 --     8 C    0.976
    35   1 H    1.010 --     8 C    0.968
    36   1 H    1.013 --     9 C    0.948
    37   1 H    0.961 --    63 N    0.921
    38   1 H    0.961 --    72 N    0.912
    39   1 H    1.006 --    10 C    0.970
    40   1 H    1.009 --    11 C    0.960
    41   1 H    1.016 --    12 C    0.960
    42   1 H    1.011 --    13 C    0.978
    43   1 H    1.009 --    13 C    0.974
    44   1 H    1.024 --    14 C    0.970
    45   1 H    1.010 --    14 C    0.975
    46   1 H    1.006 --    15 C    0.987
    47   1 H    1.005 --    15 C    0.988
    48   1 H    1.013 --    15 C    0.985
    49   1 H    0.947 --    17 N    0.912
    50   1 H    0.909 --    60 O    0.883
    51   1 H    1.000 --    21 C    0.973
    52   1 H    1.006 --    22 C    0.971
    53   1 H    1.004 --    24 C    0.975
    54   1 H    1.004 --    25 C    0.974
    55   1 H    1.010 --    26 C    0.980
    56   1 H    1.013 --    26 C    0.972
    57   1 H    1.004 --    26 C    0.971
    58   1 H    0.901 --    27 O    0.879
    59   1 H    0.894 --    27 O    0.881
    60   8 O    1.805 --    62 H    0.891    50 H    0.883
    61   1 H    0.922 --    16 O    0.875
    62   1 H    0.899 --    60 O    0.891
    63   7 N    3.286 --    67 C    1.190     9 C    0.943    37 H    0.921
                            68 O    0.147
    64   6 C    3.901 --    65 O    1.634    72 N    1.252     9 C    0.943
    65   8 O    1.935 --    64 C    1.634    72 N    0.170
    66   6 C    3.992 --    67 C    0.989    69 H    0.979    70 H    0.978
                            71 H    0.958
    67   6 C    3.885 --    68 O    1.648    63 N    1.190    66 C    0.989
    68   8 O    1.955 --    67 C    1.648    63 N    0.147
    69   1 H    1.002 --    66 C    0.979
    70   1 H    1.015 --    66 C    0.978
    71   1 H    1.017 --    66 C    0.958
    72   7 N    3.325 --    64 C    1.252    73 C    0.954    38 H    0.912
                            65 O    0.170
    73   6 C    3.947 --    75 H    0.987    74 H    0.986    76 H    0.981
                            72 N    0.954
    74   1 H    1.005 --    73 C    0.986
    75   1 H    1.006 --    73 C    0.987
    76   1 H    1.008 --    73 C    0.981
 ---------------------------------------------------------------------------

Topologies differ in total number of bonds
Writing topology from bond orders to xtbtopo.mol

 dipole moment from electron density (au)
     X       Y       Z   
  -0.7153   0.7350  -1.7883  total (Debye):    5.240


           -------------------------------------------------
          | TOTAL ENERGY             -114.990954323423 Eh   |
          | GRADIENT NORM               0.000279271280 Eh/α |
          | HOMO-LUMO GAP               3.210658195583 eV   |
           -------------------------------------------------

------------------------------------------------------------------------
 * finished run on 2026/08/31 at 13:16:00.060     
------------------------------------------------------------------------
 total:
 * wall-time:     0 d,  0 h,  0 min,  0.594 sec
 *  cpu-time:     0 d,  0 h,  0 min,  0.500 sec
 * ratio c/w:     0.842 speedup
 SCF:
 * wall-time:     0 d,  0 h,  0 min,  0.419 sec
 *  cpu-time:     0 d,  0 h,  0 min,  0.375 sec
 * ratio c/w:     0.895 speedup



===== STDERR =====

normal termination of xtb
