      -----------------------------------------------------------      
     |                   =====================                   |     
     |                           x T B                           |     
     |                   =====================                   |     
     |                         S. Grimme                         |     
     |          Mulliken Center for Theoretical Chemistry        |     
     |                    University of Bonn                     |     
      -----------------------------------------------------------      

   * xtb version 6.7.1pre (5071a88) compiled by 'Marcel@Raven' on 2024-07-23

   xtb is free software: you can redistribute it and/or modify it under
   the terms of the GNU Lesser General Public License as published by
   the Free Software Foundation, either version 3 of the License, or
   (at your option) any later version.
   
   xtb is distributed in the hope that it will be useful,
   but WITHOUT ANY WARRANTY; without even the implied warranty of
   MERCHANTABILITY or FITNESS FOR A PARTICULAR PURPOSE.  See the
   GNU Lesser General Public License for more details.
   
   Cite this work as:
   * C. Bannwarth, E. Caldeweyher, S. Ehlert, A. Hansen, P. Pracht,
     J. Seibert, S. Spicher, S. Grimme, WIREs Comput. Mol. Sci., 2020, 11,
     e01493. DOI: 10.1002/wcms.1493
   
   for GFN2-xTB:
   * C. Bannwarth, S. Ehlert and S. Grimme., J. Chem. Theory Comput., 2019,
     15, 1652-1671. DOI: 10.1021/acs.jctc.8b01176
   for GFN1-xTB:
   * S. Grimme, C. Bannwarth, P. Shushkov, J. Chem. Theory Comput., 2017,
     13, 1989-2009. DOI: 10.1021/acs.jctc.7b00118
   for GFN0-xTB:
   * P. Pracht, E. Caldeweyher, S. Ehlert, S. Grimme, ChemRxiv, 2019, preprint.
     DOI: 10.26434/chemrxiv.8326202.v1
   for GFN-FF:
   * S. Spicher and S. Grimme, Angew. Chem. Int. Ed., 2020, 59, 15665-15673.
     DOI: 10.1002/anie.202004239
   
   for ALPB and GBSA implicit solvation:
   * S. Ehlert, M. Stahn, S. Spicher, S. Grimme, J. Chem. Theory Comput.,
     2021, 17, 4250-4261. DOI: 10.1021/acs.jctc.1c00471
   
   for ddCOSMO and CPCM-X implicit solvation:
   * M. Stahn, S. Ehlert, S. Grimme, J. Phys. Chem. A,
     2023, XX, XXXX-XXXX. DOI: 10.1021/acs.jpca.3c04382
   
   for DFT-D4:
   * E. Caldeweyher, C. Bannwarth and S. Grimme, J. Chem. Phys., 2017,
     147, 034112. DOI: 10.1063/1.4993215
   * E. Caldeweyher, S. Ehlert, A. Hansen, H. Neugebauer, S. Spicher,
     C. Bannwarth and S. Grimme, J. Chem. Phys., 2019, 150, 154122.
     DOI: 10.1063/1.5090222
   * E. Caldeweyher, J.-M. Mewes, S. Ehlert and S. Grimme, Phys. Chem. Chem. Phys.
     2020, 22, 8499-8512. DOI: 10.1039/D0CP00502A
   
   for sTDA-xTB:
   * S. Grimme and C. Bannwarth, J. Chem. Phys., 2016, 145, 054103.
     DOI: 10.1063/1.4959605
   
   in the mass-spec context:
   * V. Asgeirsson, C. Bauer and S. Grimme, Chem. Sci., 2017, 8, 4879.
     DOI: 10.1039/c7sc00601b
   * J. Koopman and S. Grimme, ACS Omega 2019, 4, 12, 15120-15133.
     DOI: 10.1021/acsomega.9b02011
   
   for metadynamics refer to:
   * S. Grimme, J. Chem. Theory Comput., 2019, 155, 2847-2862
     DOI: 10.1021/acs.jctc.9b00143
   
   for SPH calculations refer to:
   * S. Spicher and S. Grimme, J. Chem. Theory Comput., 2021, 17, 1701-1714
     DOI: 10.1021/acs.jctc.0c01306
   
   for ONIOM refer to:
   * C. Plett, A. Katbashev, S. Ehlert, S. Grimme, M. Bursch,
     Phys. Chem. Chem. Phys., 2023, 25, 17860-17868. DOI: 10.1039/D3CP02178E
   
   for DIPRO refer to:
   * J. Kohn, N. Gildemeister, S. Grimme, D. Fazzi, A. Hansen,
     J. Chem. Phys., 2023, just accepted.
   
   for PTB refer to:
   * S. Grimme, M. Mueller, A. Hansen, J. Chem. Phys., 2023, 158, 124111.
     DOI: 10.1063/5.0137838
   
   with help from (in alphabetical order)
   P. Atkinson, C. Bannwarth, F. Bohle, G. Brandenburg, E. Caldeweyher
   M. Checinski, S. Dohm, S. Ehlert, S. Ehrlich, I. Gerasimov, C. Hölzer
   A. Katbashev, J. Kohn, J. Koopman, C. Lavigne, S. Lehtola, F. März, M. Müller,
   F. Musil, H. Neugebauer, J. Pisarek, C. Plett, P. Pracht, F. Pultar,
   J. Seibert, P. Shushkov, S. Spicher, M. Stahn, M. Steiner, T. Strunk,
   J. Stückrath, T. Rose, and J. Unsleber
   
 * started run on 2026/08/20 at 20:25:11.075     
   ID    Z sym.   atoms
    1    7 N      1, 17, 63, 72
    2    6 C      2-15, 18-26, 64, 66, 67, 73
    3    8 O      16, 27, 60, 65, 68
    4    1 H      28-59, 61, 62, 69-71, 74-76

           -------------------------------------------------
          |                Calculation Setup                |
           -------------------------------------------------

          program call               : C:\Users\Nayanika\Downloads\xtb-6.7.1pre-windows-x86_64\xtb-6.7.1\bin\xtb.exe D:\PhD_Thesis\LmrR_EVB\charges\fast_lmrr_5QM\xtb_preparation\stage2_five_xtb_protocols\GFN1_tight\TS2_1a_to_PS2_2\TS2_1a_to_PS2_2_PS_xtbopt.xyz --gfn 1 --chrg 0 --uhf 0 --hess --etemp 0
          coordinate file            : D:\PhD_Thesis\LmrR_EVB\charges\fast_lmrr_5QM\xtb_preparation\stage2_five_xtb_protocols\GFN1_tight\TS2_1a_to_PS2_2\TS2_1a_to_PS2_2_PS_xtbopt.xyz
          omp threads                :                     8


molecular fragmentation (1/2 indicates fragments):
111111111111111111111111112111111111111111111111121111111122221111111111
1111
# atoms in fragment 1/2:    70     6
 fragment masses (1/2) :      464.60       36.03
CMA distance (Bohr)    :   5.349
constraining FC (au)   :  0.0500

           -------------------------------------------------
          |                 G F N 1 - x T B                 |
           -------------------------------------------------

        Reference                      10.1021/acs.jctc.7b00118
      * Hamiltonian:
        H0-scaling (s, p, d)           1.850000    2.250000    2.000000
        zeta-weighting                 0.000000
      * Dispersion:
        s8                             2.400000
        a1                             0.630000
        a2                             5.000000
        s9                             0.000000
      * Repulsion:
        kExp                           1.500000
        rExp                           1.000000
      * Coulomb:
        alpha                          2.000000
        third order                    atomic
        anisotropic                    false
      * Halogen bond correction:
        rad-scale                      1.300000
        damping                        0.440000

q/qsh data taken from xtbrestart

          ...................................................
          :                      SETUP                      :
          :.................................................:
          :  # basis functions                 224          :
          :  # atomic orbitals                 224          :
          :  # shells                          152          :
          :  # electrons                       198          :
          :  # halogen bonds                     0          :
          :  max. iterations                   250          :
          :  Hamiltonian                  GFN1-xTB          :
          :  restarted?                       true          :
          :  GBSA solvation                  false          :
          :  PC potential                    false          :
          :  electronic temp.            0.0000000     K    :
          :  accuracy                    1.0000000          :
          :  -> integral cutoff          0.2500000E+02      :
          :  -> integral neglect         0.1000000E-07      :
          :  -> SCF convergence          0.1000000E-05 Eh   :
          :  -> wf. convergence          0.2000000E-04 e    :
          :  Broyden damping             0.4000000          :
          :  net charge                          0          :
          :  unpaired electrons                  0          :
          ...................................................

 iter      E             dE          RMSdq      gap      omega  full diag
   1   -116.4297653 -0.116430E+03  0.337E-08    3.45       0.0  T
   2   -116.4297653 -0.568434E-13  0.200E-08    3.45  100000.0  T
   3   -116.4297653  0.227374E-12  0.960E-09    3.45  100000.0  T

   *** convergence criteria satisfied after 3 iterations ***

         #    Occupation            Energy/Eh            Energy/eV
      -------------------------------------------------------------
         1        2.0000           -0.8091962             -22.0194
       ...           ...                  ...                  ...
        93        2.0000           -0.4396058             -11.9623
        94        2.0000           -0.4364486             -11.8764
        95        2.0000           -0.4345652             -11.8251
        96        2.0000           -0.4248083             -11.5596
        97        2.0000           -0.4088869             -11.1264
        98        2.0000           -0.4077800             -11.0963
        99        2.0000           -0.3896183             -10.6021 (HOMO)
       100                         -0.2629723              -7.1558 (LUMO)
       101                         -0.2585768              -7.0362
       102                         -0.2560746              -6.9681
       103                         -0.2422007              -6.5906
       104                         -0.2390191              -6.5040
       ...                                ...                  ...
       224                          0.7160033              19.4834
      -------------------------------------------------------------
                  HL-Gap            0.1266461 Eh            3.4462 eV
             Fermi-level            0.0000000 Eh            0.0000 eV

 SCC (total)                   0 d,  0 h,  0 min,  0.102 sec
 SCC setup                      ...        0 min,  0.001 sec (  0.980%)
 Dispersion                     ...        0 min,  0.001 sec (  0.981%)
 classical contributions        ...        0 min,  0.000 sec (  0.000%)
 integral evaluation            ...        0 min,  0.013 sec ( 12.745%)
 iterations                     ...        0 min,  0.062 sec ( 60.784%)
 molecular gradient             ...        0 min,  0.024 sec ( 23.529%)
 printout                       ...        0 min,  0.001 sec (  0.980%)

         :::::::::::::::::::::::::::::::::::::::::::::::::::::
         ::                     SUMMARY                     ::
         :::::::::::::::::::::::::::::::::::::::::::::::::::::
         :: total energy            -115.025367463783 Eh    ::
         :: gradient norm              0.000227638219 Eh/a0 ::
         :: HOMO-LUMO gap              3.446215156201 eV    ::
         ::.................................................::
         :: SCC energy              -116.429765327307 Eh    ::
         :: -> electrostatic           0.307852487743 Eh    ::
         :: repulsion energy           1.461268738133 Eh    ::
         :: dispersion energy         -0.056870874609 Eh    ::
         :: halogen bond corr.         0.000000000000 Eh    ::
         :: add. restraining           0.000000000000 Eh    ::
         :: total charge              -0.000000000000 e     ::
         :::::::::::::::::::::::::::::::::::::::::::::::::::::

           ------------------------------------------------- 
          |                Numerical Hessian                |
           ------------------------------------------------- 
step length          :   0.00500
SCC accuracy         :   0.30000
Hessian scale factor :   1.00000
frozen atoms in %    :   0.00000    0
RMS gradient         :   0.00023
estimated CPU  time     22.30 min
estimated wall time      3.10 min

writing file <hessian>.

 projected vibrational frequencies (cm⁻¹)
eigval :       -0.00    -0.00    -0.00    -0.00     0.00     0.00
eigval :       -3.25     5.27     8.69    22.30    25.39    29.96
eigval :       33.98    36.89    41.24    44.37    48.92    49.87
eigval :       55.26    56.97    65.70    69.68    76.10    77.48
eigval :       83.36    99.75   101.56   107.59   112.40   128.68
eigval :      132.29   135.99   140.88   141.12   145.33   153.07
eigval :      160.91   166.49   169.86   177.65   183.85   198.82
eigval :      205.39   223.27   234.65   248.77   253.59   261.27
eigval :      269.93   285.20   295.01   300.43   307.71   341.48
eigval :      348.11   369.33   375.10   388.83   393.84   397.90
eigval :      399.02   427.24   428.19   430.97   445.01   462.95
eigval :      469.35   479.51   484.40   503.96   525.74   532.62
eigval :      535.71   564.74   591.02   594.53   607.28   612.21
eigval :      629.05   644.55   651.93   691.97   692.91   717.83
eigval :      741.48   744.46   749.08   773.40   802.26   839.86
eigval :      847.72   852.84   859.59   864.28   876.96   884.30
eigval :      888.73   892.06   899.05   909.18   911.79   917.11
eigval :      918.09   938.90   970.50   979.68   986.17   991.39
eigval :      996.81  1002.61  1014.43  1022.57  1026.55  1027.15
eigval :     1050.16  1066.20  1070.12  1073.04  1093.95  1104.06
eigval :     1109.74  1111.19  1120.48  1121.23  1128.64  1131.33
eigval :     1141.93  1150.42  1155.73  1159.95  1160.99  1181.81
eigval :     1185.05  1199.52  1211.69  1216.76  1218.22  1219.82
eigval :     1228.94  1243.95  1249.67  1264.21  1271.03  1274.09
eigval :     1284.08  1294.48  1299.11  1302.78  1309.37  1315.39
eigval :     1336.57  1340.05  1348.52  1354.16  1358.70  1365.62
eigval :     1383.65  1385.64  1395.29  1395.90  1398.38  1405.14
eigval :     1426.81  1431.35  1433.14  1438.02  1441.02  1444.06
eigval :     1447.78  1448.12  1450.99  1453.95  1456.82  1459.78
eigval :     1464.72  1474.16  1475.58  1480.48  1482.95  1488.88
eigval :     1493.20  1579.80  1584.10  1586.11  1604.20  1620.26
eigval :     1751.49  1755.83  2923.53  2985.41  2985.41  2996.65
eigval :     3004.47  3015.43  3018.00  3021.41  3022.66  3028.33
eigval :     3034.41  3046.28  3047.30  3048.02  3059.79  3063.36
eigval :     3064.72  3071.95  3078.58  3086.00  3090.60  3093.28
eigval :     3098.49  3102.45  3103.43  3104.55  3110.87  3112.86
eigval :     3117.79  3117.84  3119.98  3391.82  3500.24  3509.79
eigval :     3538.39  3578.04  3641.45  3641.85  3738.19  3755.89
           -------------------------------------------------
          |                Property Printout                |
           -------------------------------------------------

    * Orbital Energies and Occupations

         #    Occupation            Energy/Eh            Energy/eV
      -------------------------------------------------------------
         1        2.0000           -0.8091962             -22.0194
       ...           ...                  ...                  ...
        87        2.0000           -0.4609746             -12.5438
        88        2.0000           -0.4579398             -12.4612
        89        2.0000           -0.4556843             -12.3998
        90        2.0000           -0.4488223             -12.2131
        91        2.0000           -0.4454129             -12.1203
        92        2.0000           -0.4415189             -12.0143
        93        2.0000           -0.4396058             -11.9623
        94        2.0000           -0.4364486             -11.8764
        95        2.0000           -0.4345652             -11.8251
        96        2.0000           -0.4248083             -11.5596
        97        2.0000           -0.4088869             -11.1264
        98        2.0000           -0.4077800             -11.0963
        99        2.0000           -0.3896183             -10.6021 (HOMO)
       100                         -0.2629723              -7.1558 (LUMO)
       101                         -0.2585768              -7.0362
       102                         -0.2560746              -6.9681
       103                         -0.2422007              -6.5906
       104                         -0.2390191              -6.5040
       105                         -0.2324299              -6.3247
       106                         -0.1961593              -5.3378
       107                         -0.1597401              -4.3467
       108                         -0.1462738              -3.9803
       109                         -0.1457389              -3.9658
       110                         -0.1387944              -3.7768
       ...                                ...                  ...
       224                          0.7160033              19.4834
      -------------------------------------------------------------
                  HL-Gap            0.1266461 Eh            3.4462 eV
             Fermi-level            0.0000000 Eh            0.0000 eV

  Mulliken/CM5 charges         n(s)   n(p)   n(d)
     1N    -0.42784 -0.76806   1.477  3.951  0.000
     2C     0.14140  0.18688   1.051  2.807  0.000
     3C    -0.04499 -0.09375   1.061  2.984  0.000
     4C    -0.03150 -0.08494   1.059  2.973  0.000
     5C     0.00114 -0.01278   1.082  2.917  0.000
     6C    -0.03901 -0.09192   1.058  2.981  0.000
     7C    -0.05232 -0.10153   1.062  2.991  0.000
     8C    -0.05494 -0.15005   1.035  3.020  0.000
     9C     0.08485  0.08976   1.047  2.868  0.000
    10C     0.33212  0.34333   1.001  2.667  0.000
    11C    -0.06469 -0.16342   1.041  3.024  0.000
    12C    -0.00536 -0.06822   1.054  2.951  0.000
    13C    -0.05178 -0.16059   1.039  3.013  0.000
    14C    -0.03935 -0.15304   1.031  3.009  0.000
    15C    -0.08048 -0.23203   1.006  3.075  0.000
    16O    -0.57764 -0.80552   1.698  4.880  0.000
    17N    -0.28347 -0.64221   1.419  3.864  0.000
    18C     0.11108  0.17302   1.034  2.855  0.000
    19C    -0.03316 -0.03085   1.074  2.959  0.000
    20C    -0.09242 -0.09426   1.079  3.013  0.000
    21C    -0.06803 -0.11675   1.051  3.017  0.000
    22C    -0.04092 -0.09366   1.055  2.985  0.000
    23C     0.10990  0.16078   1.054  2.836  0.000
    24C    -0.03780 -0.09309   1.053  2.985  0.000
    25C    -0.04840 -0.10388   1.053  2.996  0.000
    26C    -0.09456 -0.23558   1.008  3.086  0.000
    27O    -0.68281 -1.02859   1.703  4.980  0.000
    28H     0.19972  0.39488   0.800  0.000  0.000
    29H     0.34279  0.51776   0.657  0.000  0.000
    30H     0.03505  0.09479   0.965  0.000  0.000
    31H     0.03303  0.09020   0.967  0.000  0.000
    32H     0.02267  0.08040   0.977  0.000  0.000
    33H     0.03196  0.09290   0.968  0.000  0.000
    34H     0.03381  0.09410   0.966  0.000  0.000
    35H     0.05763  0.11867   0.942  0.000  0.000
    36H     0.07252  0.15204   0.927  0.000  0.000
    37H     0.22089  0.41885   0.779  0.000  0.000
    38H     0.22646  0.42949   0.774  0.000  0.000
    39H     0.01490  0.09131   0.985  0.000  0.000
    40H     0.05380  0.11967   0.946  0.000  0.000
    41H     0.02960  0.09587   0.970  0.000  0.000
    42H     0.01105  0.06923   0.989  0.000  0.000
    43H     0.02502  0.08263   0.975  0.000  0.000
    44H     0.04264  0.10606   0.957  0.000  0.000
    45H     0.01175  0.06758   0.988  0.000  0.000
    46H     0.02636  0.07825   0.974  0.000  0.000
    47H     0.01501  0.06674   0.985  0.000  0.000
    48H     0.03626  0.08971   0.964  0.000  0.000
    49H     0.23236  0.42743   0.768  0.000  0.000
    50H     0.33560  0.50389   0.664  0.000  0.000
    51H     0.02805  0.08569   0.972  0.000  0.000
    52H     0.02489  0.08185   0.975  0.000  0.000
    53H     0.02493  0.08082   0.975  0.000  0.000
    54H     0.02346  0.07933   0.977  0.000  0.000
    55H     0.04165  0.09693   0.958  0.000  0.000
    56H     0.04779  0.10516   0.952  0.000  0.000
    57H     0.03782  0.09113   0.962  0.000  0.000
    58H     0.03161  0.09389   0.968  0.000  0.000
    59H     0.32923  0.49855   0.671  0.000  0.000
    60O    -0.67010 -1.01139   1.695  4.975  0.000
    61H     0.34717  0.52842   0.653  0.000  0.000
    62H     0.33116  0.50302   0.669  0.000  0.000
    63N    -0.37247 -0.73595   1.435  3.937  0.000
    64C     0.46094  0.56304   0.993  2.546  0.000
    65O    -0.55511 -0.60390   1.723  4.832  0.000
    66C    -0.13338 -0.27189   1.023  3.111  0.000
    67C     0.48190  0.57055   0.998  2.520  0.000
    68O    -0.54619 -0.60179   1.723  4.823  0.000
    69H     0.07042  0.12971   0.930  0.000  0.000
    70H     0.03334  0.08956   0.967  0.000  0.000
    71H     0.06774  0.12604   0.932  0.000  0.000
    72N    -0.34197 -0.70794   1.418  3.924  0.000
    73C     0.06688 -0.02193   0.979  2.954  0.000
    74H     0.03363  0.09421   0.966  0.000  0.000
    75H     0.02973  0.09034   0.970  0.000  0.000
    76H     0.06697  0.13508   0.933  0.000  0.000

Wiberg/Mayer (AO) data.
largest (>0.10) Wiberg bond orders for each atom

 ---------------------------------------------------------------------------
     #   Z sym  total        # sym  WBO       # sym  WBO       # sym  WBO
 ---------------------------------------------------------------------------
     1   7 N    3.025 --     2 C    0.996    10 C    0.953    28 H    0.942
     2   6 C    3.964 --     7 C    1.403     3 C    1.400     1 N    0.996
                             5 C    0.104
     3   6 C    3.995 --     4 C    1.453     2 C    1.400    30 H    0.972
                             6 C    0.107
     4   6 C    3.995 --     3 C    1.453     5 C    1.409    31 H    0.973
                             7 C    0.109
     5   6 C    3.989 --     6 C    1.415     4 C    1.409     8 C    1.011
                             2 C    0.104
     6   6 C    3.995 --     7 C    1.445     5 C    1.415    32 H    0.972
                             3 C    0.107
     7   6 C    3.994 --     6 C    1.445     2 C    1.403    33 H    0.972
                             4 C    0.109
     8   6 C    3.994 --     5 C    1.011    34 H    0.976     9 C    0.969
                            35 H    0.966
     9   6 C    3.943 --     8 C    0.969    36 H    0.947    63 N    0.945
                            64 C    0.941
    10   6 C    3.889 --    11 C    0.993    39 H    0.966     1 N    0.953
                            16 O    0.924
    11   6 C    3.993 --    10 C    0.993    12 C    0.986    58 H    0.973
                            40 H    0.968
    12   6 C    3.993 --    20 C    1.004    11 C    0.986    13 C    0.980
                            41 H    0.967
    13   6 C    3.996 --    14 C    1.003    12 C    0.980    42 H    0.975
                            43 H    0.975
    14   6 C    3.995 --    15 C    1.015    13 C    1.003    45 H    0.979
                            44 H    0.968
    15   6 C    3.996 --    14 C    1.015    47 H    0.989    46 H    0.986
                            48 H    0.986
    16   8 O    1.945 --    10 C    0.924    29 H    0.874
    17   7 N    3.422 --    23 C    1.145    18 C    1.138    49 H    0.912
    18   6 C    3.938 --    21 C    1.346    19 C    1.255    17 N    1.138
    19   6 C    3.986 --    22 C    1.337    18 C    1.255    20 C    1.199
    20   6 C    3.970 --    23 C    1.546    19 C    1.199    12 C    1.004
    21   6 C    3.991 --    24 C    1.489    18 C    1.346    51 H    0.973
                            22 C    0.110
    22   6 C    3.993 --    25 C    1.500    19 C    1.337    52 H    0.971
                            21 C    0.110
    23   6 C    3.932 --    20 C    1.546    17 N    1.145    26 C    1.025
    24   6 C    3.992 --    21 C    1.489    25 C    1.376    53 H    0.975
    25   6 C    3.993 --    22 C    1.500    24 C    1.376    54 H    0.974
    26   6 C    3.995 --    23 C    1.025    55 H    0.978    56 H    0.976
                            57 H    0.970
    27   8 O    1.812 --    59 H    0.892    61 H    0.853
    28   1 H    0.976 --     1 N    0.942
    29   1 H    0.896 --    16 O    0.874
    30   1 H    1.006 --     3 C    0.972
    31   1 H    1.001 --     4 C    0.973
    32   1 H    1.004 --     6 C    0.972
    33   1 H    1.008 --     7 C    0.972
    34   1 H    1.003 --     8 C    0.976
    35   1 H    1.011 --     8 C    0.966
    36   1 H    1.013 --     9 C    0.947
    37   1 H    0.960 --    63 N    0.921
    38   1 H    0.960 --    72 N    0.911
    39   1 H    1.021 --    10 C    0.966
    40   1 H    1.012 --    11 C    0.968
    41   1 H    1.013 --    12 C    0.967
    42   1 H    1.014 --    13 C    0.975
    43   1 H    1.007 --    13 C    0.975
    44   1 H    1.026 --    14 C    0.968
    45   1 H    1.010 --    14 C    0.979
    46   1 H    1.007 --    15 C    0.986
    47   1 H    1.005 --    15 C    0.989
    48   1 H    1.009 --    15 C    0.986
    49   1 H    0.948 --    17 N    0.912
    50   1 H    0.897 --    60 O    0.890
    51   1 H    1.000 --    21 C    0.973
    52   1 H    1.005 --    22 C    0.971
    53   1 H    1.004 --    24 C    0.975
    54   1 H    1.004 --    25 C    0.974
    55   1 H    1.013 --    26 C    0.978
    56   1 H    1.012 --    26 C    0.976
    57   1 H    1.003 --    26 C    0.970
    58   1 H    1.009 --    11 C    0.973
    59   1 H    0.904 --    27 O    0.892
    60   8 O    1.805 --    50 H    0.890    62 H    0.884
    61   1 H    0.901 --    27 O    0.853
    62   1 H    0.908 --    60 O    0.884
    63   7 N    3.284 --    67 C    1.187     9 C    0.945    37 H    0.921
                            68 O    0.148
    64   6 C    3.901 --    65 O    1.633    72 N    1.253     9 C    0.941
    65   8 O    1.935 --    64 C    1.633    72 N    0.170
    66   6 C    3.992 --    67 C    0.989    70 H    0.981    71 H    0.977
                            69 H    0.958
    67   6 C    3.885 --    68 O    1.652    63 N    1.187    66 C    0.989
    68   8 O    1.956 --    67 C    1.652    63 N    0.148
    69   1 H    1.015 --    66 C    0.958
    70   1 H    1.002 --    66 C    0.981
    71   1 H    1.013 --    66 C    0.977
    72   7 N    3.326 --    64 C    1.253    73 C    0.954    38 H    0.911
                            65 O    0.170
    73   6 C    3.947 --    75 H    0.987    74 H    0.985    76 H    0.981
                            72 N    0.954
    74   1 H    1.005 --    73 C    0.985
    75   1 H    1.007 --    73 C    0.987
    76   1 H    1.008 --    73 C    0.981
 ---------------------------------------------------------------------------

Topologies differ in total number of bonds
Writing topology from bond orders to xtbtopo.mol

 dipole moment from electron density (au)
     X       Y       Z   
  -1.2352  -0.4739  -1.5133  total (Debye):    5.109

           -------------------------------------------------
          |               Frequency Printout                |
           -------------------------------------------------
 projected vibrational frequencies (cm⁻¹)
eigval :       -0.00    -0.00    -0.00    -0.00     0.00     0.00
eigval :       -3.25     5.27     8.69    22.30    25.39    29.96
eigval :       33.98    36.89    41.24    44.37    48.92    49.87
eigval :       55.26    56.97    65.70    69.68    76.10    77.48
eigval :       83.36    99.75   101.56   107.59   112.40   128.68
eigval :      132.29   135.99   140.88   141.12   145.33   153.07
eigval :      160.91   166.49   169.86   177.65   183.85   198.82
eigval :      205.39   223.27   234.65   248.77   253.59   261.27
eigval :      269.93   285.20   295.01   300.43   307.71   341.48
eigval :      348.11   369.33   375.10   388.83   393.84   397.90
eigval :      399.02   427.24   428.19   430.97   445.01   462.95
eigval :      469.35   479.51   484.40   503.96   525.74   532.62
eigval :      535.71   564.74   591.02   594.53   607.28   612.21
eigval :      629.05   644.55   651.93   691.97   692.91   717.83
eigval :      741.48   744.46   749.08   773.40   802.26   839.86
eigval :      847.72   852.84   859.59   864.28   876.96   884.30
eigval :      888.73   892.06   899.05   909.18   911.79   917.11
eigval :      918.09   938.90   970.50   979.68   986.17   991.39
eigval :      996.81  1002.61  1014.43  1022.57  1026.55  1027.15
eigval :     1050.16  1066.20  1070.12  1073.04  1093.95  1104.06
eigval :     1109.74  1111.19  1120.48  1121.23  1128.64  1131.33
eigval :     1141.93  1150.42  1155.73  1159.95  1160.99  1181.81
eigval :     1185.05  1199.52  1211.69  1216.76  1218.22  1219.82
eigval :     1228.94  1243.95  1249.67  1264.21  1271.03  1274.09
eigval :     1284.08  1294.48  1299.11  1302.78  1309.37  1315.39
eigval :     1336.57  1340.05  1348.52  1354.16  1358.70  1365.62
eigval :     1383.65  1385.64  1395.29  1395.90  1398.38  1405.14
eigval :     1426.81  1431.35  1433.14  1438.02  1441.02  1444.06
eigval :     1447.78  1448.12  1450.99  1453.95  1456.82  1459.78
eigval :     1464.72  1474.16  1475.58  1480.48  1482.95  1488.88
eigval :     1493.20  1579.80  1584.10  1586.11  1604.20  1620.26
eigval :     1751.49  1755.83  2923.53  2985.41  2985.41  2996.65
eigval :     3004.47  3015.43  3018.00  3021.41  3022.66  3028.33
eigval :     3034.41  3046.28  3047.30  3048.02  3059.79  3063.36
eigval :     3064.72  3071.95  3078.58  3086.00  3090.60  3093.28
eigval :     3098.49  3102.45  3103.43  3104.55  3110.87  3112.86
eigval :     3117.79  3117.84  3119.98  3391.82  3500.24  3509.79
eigval :     3538.39  3578.04  3641.45  3641.85  3738.19  3755.89
 reduced masses (amu)
   1: 11.96   2: 11.88   3: 11.99   4: 11.83   5: 11.81   6: 12.01   7: 12.71   8: 12.42
   9: 11.90  10: 11.74  11: 12.15  12: 12.11  13: 13.05  14: 11.56  15: 11.26  16: 10.94
  17: 10.94  18: 11.25  19: 11.88  20: 11.75  21: 11.39  22: 10.87  23:  9.64  24:  8.77
  25:  9.49  26:  7.04  27:  6.02  28:  7.45  29:  5.78  30:  8.95  31:  3.70  32:  6.08
  33:  6.83  34:  6.66  35:  3.77  36: 10.07  37:  9.20  38:  9.69  39:  9.86  40: 10.05
  41: 10.11  42:  2.74  43:  3.56  44:  4.08  45:  9.48  46:  9.23  47: 10.06  48:  6.53
  49: 10.77  50:  9.93  51: 10.85  52:  9.62  53:  9.74  54: 11.09  55: 10.26  56: 10.36
  57:  9.44  58:  7.62  59:  9.27  60:  9.18  61:  8.92  62:  6.44  63:  6.06  64:  4.24
  65:  6.86  66:  9.28  67:  8.68  68: 10.87  69:  8.09  70:  8.82  71:  9.30  72:  9.20
  73:  9.20  74:  8.93  75: 11.09  76: 10.93  77: 11.04  78: 10.54  79:  9.68  80: 10.53
  81: 10.82  82: 11.52  83: 10.63  84: 11.06  85:  8.82  86:  4.57  87:  2.47  88: 11.05
  89:  6.20  90:  3.49  91:  3.42  92:  8.53  93: 10.75  94:  6.67  95:  6.73  96:  3.91
  97:  6.94  98:  7.64  99:  3.03 100:  3.00 101:  9.12 102:  5.72 103:  8.13 104:  6.64
 105: 10.97 106:  5.32 107:  5.56 108:  6.57 109:  6.08 110:  9.62 111:  6.43 112:  8.03
 113:  8.48 114:  4.27 115:  6.15 116:  6.57 117:  7.43 118:  8.11 119:  7.84 120:  7.20
 121:  6.51 122:  3.87 123:  3.76 124:  7.11 125:  7.02 126:  7.27 127:  2.39 128:  5.73
 129:  2.25 130:  5.53 131:  5.11 132:  6.39 133:  4.78 134:  6.42 135:  6.40 136:  5.56
 137:  5.73 138:  5.99 139:  4.69 140:  4.98 141:  7.60 142:  3.45 143:  5.25 144:  4.20
 145:  2.50 146:  5.90 147:  8.90 148:  7.78 149:  5.34 150:  7.87 151:  6.11 152:  6.63
 153:  3.55 154:  9.81 155:  2.96 156:  5.92 157:  3.81 158:  3.25 159:  3.71 160:  6.91
 161:  7.46 162:  8.80 163:  8.16 164:  7.79 165:  2.30 166:  1.63 167:  9.80 168:  1.77
 169:  1.49 170:  2.15 171:  3.09 172:  2.22 173:  1.80 174:  1.70 175:  1.79 176:  2.98
 177:  1.89 178:  1.52 179:  1.80 180: 10.36 181:  9.58 182: 11.49 183: 11.67 184: 11.47
 185: 11.49 186: 11.62 187: 13.25 188: 13.30 189:  1.75 190:  1.77 191:  1.77 192:  1.57
 193:  1.67 194:  1.26 195:  1.54 196:  1.48 197:  1.89 198:  1.29 199:  1.54 200:  1.30
 201:  2.00 202:  2.00 203:  1.86 204:  1.88 205:  1.99 206:  1.98 207:  1.99 208:  1.97
 209:  1.99 210:  1.82 211:  1.79 212:  1.82 213:  1.93 214:  1.82 215:  1.89 216:  1.88
 217:  1.89 218:  1.98 219:  1.93 220:  1.84 221:  1.86 222:  1.87 223:  1.89 224:  1.69
 225:  1.87 226:  1.59 227:  2.01 228:  2.12
 IR intensities (km·mol⁻¹)
   1:  0.13   2:  0.03   3:  0.02   4:  0.08   5:  0.22   6:  0.05   7:  1.16   8:  0.81
   9:  0.19  10:  1.24  11:  4.67  12:  2.70  13:  6.17  14:  0.14  15:  1.34  16:  6.98
  17:  1.24  18:  2.44  19:  2.59  20:  2.19  21:  0.98  22:  8.49  23: 28.06  24:  0.77
  25: 24.16  26: 23.67  27: 19.44  28: 20.90  29:  4.48  30: 29.35  31:150.65  32: 83.22
  33: 57.36  34: 36.56  35: 68.74  36:  6.83  37:101.21  38: 13.57  39: 20.73  40:  4.79
  41: 26.10  42:237.09  43: 64.26  44: 49.99  45: 40.83  46: 32.25  47: 24.43  48:183.52
  49: 15.73  50: 11.03  51: 19.01  52:  3.18  53:  9.74  54: 10.05  55:  6.24  56:  9.53
  57:  6.05  58: 60.74  59:  9.56  60:  5.17  61: 51.19  62:103.31  63: 55.97  64:124.50
  65:191.95  66: 24.76  67: 24.64  68:  2.67  69: 63.97  70: 80.66  71:  9.99  72: 87.56
  73: 12.21  74:  8.04  75:  4.58  76: 52.58  77:  0.68  78:  0.62  79:  8.30  80:  7.93
  81:  2.18  82:  0.40  83:  5.26  84: 13.79  85: 16.71  86: 28.07  87: 34.39  88: 26.77
  89: 32.44  90:  0.04  91:  0.40  92: 76.08  93:  0.63  94:  3.93  95: 13.41  96:  1.01
  97: 25.67  98: 12.52  99:  1.47 100:  0.01 101:  1.85 102:  1.51 103:  5.48 104: 16.71
 105:  8.72 106: 12.90 107:  3.15 108:  8.48 109: 44.86 110: 34.69 111:  6.00 112: 29.19
 113: 28.76 114: 18.70 115:  8.35 116: 99.32 117: 36.66 118: 54.79 119:  8.30 120:  1.89
 121:  4.55 122: 10.92 123:  0.72 124: 21.76 125: 36.73 126: 39.71 127:  0.53 128: 41.57
 129:  4.05 130:  8.89 131:  6.40 132:  2.23 133: 15.96 134: 10.00 135: 43.68 136: 60.25
 137: 39.33 138:126.18 139: 37.36 140:  8.42 141:  8.29 142:  6.55 143: 63.37 144:  6.67
 145: 10.33 146: 25.33 147: 44.34 148: 19.17 149: 14.21 150:  9.57 151: 51.89 152: 14.41
 153: 67.25 154:  8.95 155:  1.18 156:  2.48 157:  6.67 158:  5.76 159:  7.93 160: 50.07
 161:326.74 162: 20.26 163:  7.84 164:274.71 165:252.51 166:  9.06 167: 86.25 168: 10.66
 169: 19.64 170:266.84 171:  0.90 172:  2.05 173:  5.80 174: 15.31 175:  1.72 176: 75.69
 177:  2.13 178: 11.68 179: 13.69 180:  3.32 181:101.28 182:  1.37 183: 11.80 184:  2.90
 185:  3.62 186: 23.95 187:675.05 188:405.37 189: 44.41 190:  2.26 191: 12.20 192: 37.33
 193: 16.69 194: 28.28 195: 13.16 196:  3.94 197: 47.26 198: 17.55 199:  9.32 200:  3.79
 201: 16.22 202:  8.95 203:  4.32 204:  6.75 205:  9.32 206: 32.92 207: 19.26 208:  2.06
 209:  4.56 210: 14.35 211:  2.74 212:  9.82 213:  6.51 214:  3.61 215: 29.17 216: 17.11
 217:  6.77 218:  3.86 219: 22.72 220:  2.58 221: 10.29 222: 20.37 223: 30.77 224:184.17
 225: 53.48 226: 63.93 227: 59.51 228: 59.87
 Raman intensities (Ä⁴*amu⁻¹)
   1:  0.00   2:  0.00   3:  0.00   4:  0.00   5:  0.00   6:  0.00   7:  0.00   8:  0.00
   9:  0.00  10:  0.00  11:  0.00  12:  0.00  13:  0.00  14:  0.00  15:  0.00  16:  0.00
  17:  0.00  18:  0.00  19:  0.00  20:  0.00  21:  0.00  22:  0.00  23:  0.00  24:  0.00
  25:  0.00  26:  0.00  27:  0.00  28:  0.00  29:  0.00  30:  0.00  31:  0.00  32:  0.00
  33:  0.00  34:  0.00  35:  0.00  36:  0.00  37:  0.00  38:  0.00  39:  0.00  40:  0.00
  41:  0.00  42:  0.00  43:  0.00  44:  0.00  45:  0.00  46:  0.00  47:  0.00  48:  0.00
  49:  0.00  50:  0.00  51:  0.00  52:  0.00  53:  0.00  54:  0.00  55:  0.00  56:  0.00
  57:  0.00  58:  0.00  59:  0.00  60:  0.00  61:  0.00  62:  0.00  63:  0.00  64:  0.00
  65:  0.00  66:  0.00  67:  0.00  68:  0.00  69:  0.00  70:  0.00  71:  0.00  72:  0.00
  73:  0.00  74:  0.00  75:  0.00  76:  0.00  77:  0.00  78:  0.00  79:  0.00  80:  0.00
  81:  0.00  82:  0.00  83:  0.00  84:  0.00  85:  0.00  86:  0.00  87:  0.00  88:  0.00
  89:  0.00  90:  0.00  91:  0.00  92:  0.00  93:  0.00  94:  0.00  95:  0.00  96:  0.00
  97:  0.00  98:  0.00  99:  0.00 100:  0.00 101:  0.00 102:  0.00 103:  0.00 104:  0.00
 105:  0.00 106:  0.00 107:  0.00 108:  0.00 109:  0.00 110:  0.00 111:  0.00 112:  0.00
 113:  0.00 114:  0.00 115:  0.00 116:  0.00 117:  0.00 118:  0.00 119:  0.00 120:  0.00
 121:  0.00 122:  0.00 123:  0.00 124:  0.00 125:  0.00 126:  0.00 127:  0.00 128:  0.00
 129:  0.00 130:  0.00 131:  0.00 132:  0.00 133:  0.00 134:  0.00 135:  0.00 136:  0.00
 137:  0.00 138:  0.00 139:  0.00 140:  0.00 141:  0.00 142:  0.00 143:  0.00 144:  0.00
 145:  0.00 146:  0.00 147:  0.00 148:  0.00 149:  0.00 150:  0.00 151:  0.00 152:  0.00
 153:  0.00 154:  0.00 155:  0.00 156:  0.00 157:  0.00 158:  0.00 159:  0.00 160:  0.00
 161:  0.00 162:  0.00 163:  0.00 164:  0.00 165:  0.00 166:  0.00 167:  0.00 168:  0.00
 169:  0.00 170:  0.00 171:  0.00 172:  0.00 173:  0.00 174:  0.00 175:  0.00 176:  0.00
 177:  0.00 178:  0.00 179:  0.00 180:  0.00 181:  0.00 182:  0.00 183:  0.00 184:  0.00
 185:  0.00 186:  0.00 187:  0.00 188:  0.00 189:  0.00 190:  0.00 191:  0.00 192:  0.00
 193:  0.00 194:  0.00 195:  0.00 196:  0.00 197:  0.00 198:  0.00 199:  0.00 200:  0.00
 201:  0.00 202:  0.00 203:  0.00 204:  0.00 205:  0.00 206:  0.00 207:  0.00 208:  0.00
 209:  0.00 210:  0.00 211:  0.00 212:  0.00 213:  0.00 214:  0.00 215:  0.00 216:  0.00
 217:  0.00 218:  0.00 219:  0.00 220:  0.00 221:  0.00 222:  0.00 223:  0.00 224:  0.00
 225:  0.00 226:  0.00 227:  0.00 228:  0.00
 output can be read by thermo (or use thermo option).
 writing <g98.out> molden fake output.
 recommended (thermochemical) frequency scaling factor: 1.0
           -------------------------------------------------
          |             Thermodynamic Functions             |
           -------------------------------------------------

Refinement of some symmetry elements was terminated before convergence was reached.
Some symmetry elements may remain unidentified.
Molecule has no symmetry elements
It seems to be the C1 point group
c1  symmetry found (for desy threshold:  0.10E+00) used in thermo
 inverting freq            1   3.25027009167385     

          ...................................................
          :                      SETUP                      :
          :.................................................:
          :  # frequencies                         222      :
          :  # imaginary freq.                       0      :
          :  linear?                             false      :
          :  only rotor calc.                    false      :
          :  symmetry                               c1      :
          :  rotational number                       1      :
          :  scaling factor                  1.0000000      :
          :  rotor cutoff                   50.0000000 cm⁻¹ :
          :  imag. cutoff                  -20.0000000 cm⁻¹ :
          :.................................................:

    mode    ω/cm⁻¹     T·S(HO)/kcal·mol⁻¹    T·S(FR)/kcal·mol⁻¹   T·S(vib)
   ------------------------------------------------------------------------
       1      3.25    -3.05430 (  0.00%)    -1.86606 (100.00%)    -1.86608
       2      5.27    -2.76821 (  0.01%)    -1.72308 ( 99.99%)    -1.72321
       3      8.69    -2.47179 (  0.09%)    -1.57491 ( 99.91%)    -1.57573
       4     22.30    -1.91355 (  3.81%)    -1.29572 ( 96.19%)    -1.31923
       5     25.39    -1.83676 (  6.23%)    -1.25728 ( 93.77%)    -1.29341
       6     29.96    -1.73891 ( 11.41%)    -1.20829 ( 88.59%)    -1.26885
       7     33.98    -1.66442 ( 17.58%)    -1.17098 ( 82.42%)    -1.25771
       8     36.89    -1.61580 ( 22.86%)    -1.14661 ( 77.14%)    -1.25386
       9     41.24    -1.54992 ( 31.64%)    -1.11357 ( 68.36%)    -1.25165
      10     44.37    -1.50680 ( 38.27%)    -1.09194 ( 61.73%)    -1.25071
      11     48.92    -1.44921 ( 47.81%)    -1.06302 ( 52.19%)    -1.24767
      12     49.87    -1.43788 ( 49.73%)    -1.05733 ( 50.27%)    -1.24659
      13     55.26    -1.37732 ( 59.88%)    -1.02689 ( 40.12%)    -1.23672
      14     56.97    -1.35938 ( 62.77%)    -1.01786 ( 37.23%)    -1.23222
      15     65.70    -1.27554 ( 74.88%)    -0.97564 ( 25.12%)    -1.20021
      16     69.68    -1.24098 ( 79.05%)    -0.95821 ( 20.95%)    -1.18173
      17     76.10    -1.18929 ( 84.30%)    -0.93209 ( 15.70%)    -1.14890
      18     77.48    -1.17878 ( 85.22%)    -0.92678 ( 14.78%)    -1.14154
      19     83.36    -1.13603 ( 88.54%)    -0.90514 ( 11.46%)    -1.10957
      20     99.75    -1.03137 ( 94.06%)    -0.85195 (  5.94%)    -1.02071
      21    101.56    -1.02089 ( 94.45%)    -0.84661 (  5.55%)    -1.01122
      22    107.59    -0.98746 ( 95.54%)    -0.82954 (  4.46%)    -0.98042
      23    112.40    -0.96212 ( 96.23%)    -0.81657 (  3.77%)    -0.95663
      24    128.68    -0.88421 ( 97.77%)    -0.77650 (  2.23%)    -0.88181
      25    132.29    -0.86838 ( 98.00%)    -0.76832 (  2.00%)    -0.86637
      26    135.99    -0.85259 ( 98.21%)    -0.76015 (  1.79%)    -0.85093
      27    140.88    -0.83242 ( 98.44%)    -0.74968 (  1.56%)    -0.83113
      28    141.12    -0.83142 ( 98.45%)    -0.74916 (  1.55%)    -0.83014
      29    145.33    -0.81468 ( 98.62%)    -0.74046 (  1.38%)    -0.81366
      30    153.07    -0.78523 ( 98.87%)    -0.72508 (  1.13%)    -0.78455
      31    160.91    -0.75702 ( 99.08%)    -0.71029 (  0.92%)    -0.75659
      32    166.49    -0.73784 ( 99.19%)    -0.70019 (  0.81%)    -0.73753
      33    169.86    -0.72659 ( 99.25%)    -0.69425 (  0.75%)    -0.72635
      34    177.65    -0.70154 ( 99.38%)    -0.68098 (  0.62%)    -0.70142
      35    183.85    -0.68244 ( 99.46%)    -0.67081 (  0.54%)    -0.68238
      36    198.82    -0.63924 ( 99.60%)    -0.64763 (  0.40%)    -0.63927
      37    205.39    -0.62142 ( 99.65%)    -0.63799 (  0.35%)    -0.62148
      38    223.27    -0.57615 ( 99.75%)    -0.61326 (  0.25%)    -0.57624
      39    234.65    -0.54952 ( 99.79%)    -0.59854 (  0.21%)    -0.54963
      40    248.77    -0.51856 ( 99.84%)    -0.58122 (  0.16%)    -0.51866
      41    253.59    -0.50848 ( 99.85%)    -0.57554 (  0.15%)    -0.50858
      42    261.27    -0.49293 ( 99.87%)    -0.56671 (  0.13%)    -0.49303
      43    269.93    -0.47604 ( 99.88%)    -0.55704 (  0.12%)    -0.47613
      44    285.20    -0.44790 ( 99.91%)    -0.54074 (  0.09%)    -0.44798
      45    295.01    -0.43084 ( 99.92%)    -0.53072 (  0.08%)    -0.43093
   ------------------------------------------------------------------------

   temp. (K)  partition function   enthalpy   heat capacity  entropy
                                   cal/mol     cal/K/mol   cal/K/mol   J/K/mol
 298.15  VIB  0.238E+25            26455.982    142.267    176.794
         ROT  0.377E+08              888.752      2.981     37.649
         INT  0.898E+32            27344.734    145.248    214.443
         TR   0.108E+29             1481.254      4.968     44.499
         TOT                       28825.9880   150.2162   258.9416  1083.4119

       T/K    H(0)-H(T)+PV         H(T)/Eh          T*S/Eh         G(T)/Eh
   ------------------------------------------------------------------------
    298.15    0.459371E-01    0.671231E+00    0.123032E+00    0.548199E+00
   ------------------------------------------------------------------------

         :::::::::::::::::::::::::::::::::::::::::::::::::::::
         ::                  THERMODYNAMIC                  ::
         :::::::::::::::::::::::::::::::::::::::::::::::::::::
         :: total free energy        -114.477168122713 Eh   ::
         ::.................................................::
         :: total energy             -115.025367463785 Eh   ::
         :: zero point energy           0.625293737326 Eh   ::
         :: G(RRHO) w/o ZPVE           -0.077094396255 Eh   ::
         :: G(RRHO) contrib.            0.548199341072 Eh   ::
         :::::::::::::::::::::::::::::::::::::::::::::::::::::

           -------------------------------------------------
          | TOTAL ENERGY             -115.025367463785 Eh   |
          | TOTAL ENTHALPY           -114.354136590567 Eh   |
          | TOTAL FREE ENERGY        -114.477168122713 Eh   |
          | GRADIENT NORM               0.000227638242 Eh/α |
          | HOMO-LUMO GAP               3.446215155869 eV   |
           -------------------------------------------------

------------------------------------------------------------------------
 * finished run on 2026/08/20 at 20:25:34.388     
------------------------------------------------------------------------
 total:
 * wall-time:     0 d,  0 h,  0 min, 23.312 sec
 *  cpu-time:     0 d,  0 h,  2 min, 42.641 sec
 * ratio c/w:     6.977 speedup
 SCF:
 * wall-time:     0 d,  0 h,  0 min,  0.103 sec
 *  cpu-time:     0 d,  0 h,  0 min,  0.422 sec
 * ratio c/w:     4.096 speedup
 analytical hessian:
 * wall-time:     0 d,  0 h,  0 min, 23.134 sec
 *  cpu-time:     0 d,  0 h,  2 min, 42.047 sec
 * ratio c/w:     7.005 speedup



===== STDERR =====

normal termination of xtb
