      -----------------------------------------------------------      
     |                   =====================                   |     
     |                           x T B                           |     
     |                   =====================                   |     
     |                         S. Grimme                         |     
     |          Mulliken Center for Theoretical Chemistry        |     
     |                    University of Bonn                     |     
      -----------------------------------------------------------      

   * xtb version 6.7.1pre (5071a88) compiled by 'Marcel@Raven' on 2024-07-23

   xtb is free software: you can redistribute it and/or modify it under
   the terms of the GNU Lesser General Public License as published by
   the Free Software Foundation, either version 3 of the License, or
   (at your option) any later version.
   
   xtb is distributed in the hope that it will be useful,
   but WITHOUT ANY WARRANTY; without even the implied warranty of
   MERCHANTABILITY or FITNESS FOR A PARTICULAR PURPOSE.  See the
   GNU Lesser General Public License for more details.
   
   Cite this work as:
   * C. Bannwarth, E. Caldeweyher, S. Ehlert, A. Hansen, P. Pracht,
     J. Seibert, S. Spicher, S. Grimme, WIREs Comput. Mol. Sci., 2020, 11,
     e01493. DOI: 10.1002/wcms.1493
   
   for GFN2-xTB:
   * C. Bannwarth, S. Ehlert and S. Grimme., J. Chem. Theory Comput., 2019,
     15, 1652-1671. DOI: 10.1021/acs.jctc.8b01176
   for GFN1-xTB:
   * S. Grimme, C. Bannwarth, P. Shushkov, J. Chem. Theory Comput., 2017,
     13, 1989-2009. DOI: 10.1021/acs.jctc.7b00118
   for GFN0-xTB:
   * P. Pracht, E. Caldeweyher, S. Ehlert, S. Grimme, ChemRxiv, 2019, preprint.
     DOI: 10.26434/chemrxiv.8326202.v1
   for GFN-FF:
   * S. Spicher and S. Grimme, Angew. Chem. Int. Ed., 2020, 59, 15665-15673.
     DOI: 10.1002/anie.202004239
   
   for ALPB and GBSA implicit solvation:
   * S. Ehlert, M. Stahn, S. Spicher, S. Grimme, J. Chem. Theory Comput.,
     2021, 17, 4250-4261. DOI: 10.1021/acs.jctc.1c00471
   
   for ddCOSMO and CPCM-X implicit solvation:
   * M. Stahn, S. Ehlert, S. Grimme, J. Phys. Chem. A,
     2023, XX, XXXX-XXXX. DOI: 10.1021/acs.jpca.3c04382
   
   for DFT-D4:
   * E. Caldeweyher, C. Bannwarth and S. Grimme, J. Chem. Phys., 2017,
     147, 034112. DOI: 10.1063/1.4993215
   * E. Caldeweyher, S. Ehlert, A. Hansen, H. Neugebauer, S. Spicher,
     C. Bannwarth and S. Grimme, J. Chem. Phys., 2019, 150, 154122.
     DOI: 10.1063/1.5090222
   * E. Caldeweyher, J.-M. Mewes, S. Ehlert and S. Grimme, Phys. Chem. Chem. Phys.
     2020, 22, 8499-8512. DOI: 10.1039/D0CP00502A
   
   for sTDA-xTB:
   * S. Grimme and C. Bannwarth, J. Chem. Phys., 2016, 145, 054103.
     DOI: 10.1063/1.4959605
   
   in the mass-spec context:
   * V. Asgeirsson, C. Bauer and S. Grimme, Chem. Sci., 2017, 8, 4879.
     DOI: 10.1039/c7sc00601b
   * J. Koopman and S. Grimme, ACS Omega 2019, 4, 12, 15120-15133.
     DOI: 10.1021/acsomega.9b02011
   
   for metadynamics refer to:
   * S. Grimme, J. Chem. Theory Comput., 2019, 155, 2847-2862
     DOI: 10.1021/acs.jctc.9b00143
   
   for SPH calculations refer to:
   * S. Spicher and S. Grimme, J. Chem. Theory Comput., 2021, 17, 1701-1714
     DOI: 10.1021/acs.jctc.0c01306
   
   for ONIOM refer to:
   * C. Plett, A. Katbashev, S. Ehlert, S. Grimme, M. Bursch,
     Phys. Chem. Chem. Phys., 2023, 25, 17860-17868. DOI: 10.1039/D3CP02178E
   
   for DIPRO refer to:
   * J. Kohn, N. Gildemeister, S. Grimme, D. Fazzi, A. Hansen,
     J. Chem. Phys., 2023, just accepted.
   
   for PTB refer to:
   * S. Grimme, M. Mueller, A. Hansen, J. Chem. Phys., 2023, 158, 124111.
     DOI: 10.1063/5.0137838
   
   with help from (in alphabetical order)
   P. Atkinson, C. Bannwarth, F. Bohle, G. Brandenburg, E. Caldeweyher
   M. Checinski, S. Dohm, S. Ehlert, S. Ehrlich, I. Gerasimov, C. Hölzer
   A. Katbashev, J. Kohn, J. Koopman, C. Lavigne, S. Lehtola, F. März, M. Müller,
   F. Musil, H. Neugebauer, J. Pisarek, C. Plett, P. Pracht, F. Pultar,
   J. Seibert, P. Shushkov, S. Spicher, M. Stahn, M. Steiner, T. Strunk,
   J. Stückrath, T. Rose, and J. Unsleber
   
 * started run on 2026/08/31 at 13:16:00.901     
   ID    Z sym.   atoms
    1    7 N      1, 17, 63, 72
    2    6 C      2-15, 18-26, 64, 66, 67, 73
    3    8 O      16, 27, 60, 65, 68
    4    1 H      28-59, 61, 62, 69-71, 74-76

           -------------------------------------------------
          |                Calculation Setup                |
           -------------------------------------------------

          program call               : C:\Users\Nayanika\Downloads\xtb-6.7.1pre-windows-x86_64\xtb-6.7.1\bin\xtb.exe D:\PhD_Thesis\LmrR_EVB\charges\fast_lmrr_5QM\xtb_preparation\stage2_five_xtb_protocols\GFN1_tight\TS2_1a_to_PS2_2\TS2_1a_to_PS2_2_PS_xtbopt.xyz --gfn 1 --chrg 0 --uhf 0 --etemp 0
          coordinate file            : D:\PhD_Thesis\LmrR_EVB\charges\fast_lmrr_5QM\xtb_preparation\stage2_five_xtb_protocols\GFN1_tight\TS2_1a_to_PS2_2\TS2_1a_to_PS2_2_PS_xtbopt.xyz
          omp threads                :                     1


molecular fragmentation (1/2 indicates fragments):
111111111111111111111111112111111111111111111111121111111122221111111111
1111
# atoms in fragment 1/2:    70     6
 fragment masses (1/2) :      464.60       36.03
CMA distance (Bohr)    :   5.349
constraining FC (au)   :  0.0500

           -------------------------------------------------
          |                 G F N 1 - x T B                 |
           -------------------------------------------------

        Reference                      10.1021/acs.jctc.7b00118
      * Hamiltonian:
        H0-scaling (s, p, d)           1.850000    2.250000    2.000000
        zeta-weighting                 0.000000
      * Dispersion:
        s8                             2.400000
        a1                             0.630000
        a2                             5.000000
        s9                             0.000000
      * Repulsion:
        kExp                           1.500000
        rExp                           1.000000
      * Coulomb:
        alpha                          2.000000
        third order                    atomic
        anisotropic                    false
      * Halogen bond correction:
        rad-scale                      1.300000
        damping                        0.440000

q/qsh data taken from xtbrestart

          ...................................................
          :                      SETUP                      :
          :.................................................:
          :  # basis functions                 224          :
          :  # atomic orbitals                 224          :
          :  # shells                          152          :
          :  # electrons                       198          :
          :  # halogen bonds                     0          :
          :  max. iterations                   250          :
          :  Hamiltonian                  GFN1-xTB          :
          :  restarted?                       true          :
          :  GBSA solvation                  false          :
          :  PC potential                    false          :
          :  electronic temp.            0.0000000     K    :
          :  accuracy                    1.0000000          :
          :  -> integral cutoff          0.2500000E+02      :
          :  -> integral neglect         0.1000000E-07      :
          :  -> SCF convergence          0.1000000E-05 Eh   :
          :  -> wf. convergence          0.2000000E-04 e    :
          :  Broyden damping             0.4000000          :
          :  net charge                          0          :
          :  unpaired electrons                  0          :
          ...................................................

 iter      E             dE          RMSdq      gap      omega  full diag
   1   -116.3695646 -0.116370E+03  0.863E-01    3.51       0.0  T
   2   -116.4271286 -0.575640E-01  0.284E-01    3.42       1.0  T
   3   -116.4293573 -0.222863E-02  0.122E-01    3.45       1.0  T
   4   -116.4296901 -0.332833E-03  0.437E-02    3.44       1.0  T
   5   -116.4297613 -0.712296E-04  0.109E-02    3.45       1.1  T
   6   -116.4297649 -0.353510E-05  0.402E-03    3.45       2.9  T
   7   -116.4297653 -0.416623E-06  0.148E-03    3.45       7.7  T
   8   -116.4297653 -0.407459E-07  0.345E-04    3.45      33.2  T
   9   -116.4297653 -0.283869E-08  0.100E-04    3.45     114.8  T
  10   -116.4297653 -0.418581E-09  0.296E-05    3.45     387.2  T

   *** convergence criteria satisfied after 10 iterations ***

         #    Occupation            Energy/Eh            Energy/eV
      -------------------------------------------------------------
         1        2.0000           -0.8091968             -22.0194
       ...           ...                  ...                  ...
        93        2.0000           -0.4396064             -11.9623
        94        2.0000           -0.4364496             -11.8764
        95        2.0000           -0.4345660             -11.8251
        96        2.0000           -0.4248091             -11.5596
        97        2.0000           -0.4088878             -11.1264
        98        2.0000           -0.4077790             -11.0962
        99        2.0000           -0.3896175             -10.6020 (HOMO)
       100                         -0.2629713              -7.1558 (LUMO)
       101                         -0.2585778              -7.0363
       102                         -0.2560755              -6.9682
       103                         -0.2422013              -6.5906
       104                         -0.2390197              -6.5041
       ...                                ...                  ...
       224                          0.7160028              19.4834
      -------------------------------------------------------------
                  HL-Gap            0.1266463 Eh            3.4462 eV
             Fermi-level            0.0000000 Eh            0.0000 eV

 SCC (total)                   0 d,  0 h,  0 min,  0.502 sec
 SCC setup                      ...        0 min,  0.002 sec (  0.398%)
 Dispersion                     ...        0 min,  0.003 sec (  0.598%)
 classical contributions        ...        0 min,  0.001 sec (  0.199%)
 integral evaluation            ...        0 min,  0.092 sec ( 18.327%)
 iterations                     ...        0 min,  0.145 sec ( 28.884%)
 molecular gradient             ...        0 min,  0.255 sec ( 50.797%)
 printout                       ...        0 min,  0.004 sec (  0.797%)

         :::::::::::::::::::::::::::::::::::::::::::::::::::::
         ::                     SUMMARY                     ::
         :::::::::::::::::::::::::::::::::::::::::::::::::::::
         :: total energy            -115.025367463752 Eh    ::
         :: gradient norm              0.000227530021 Eh/a0 ::
         :: HOMO-LUMO gap              3.446220325737 eV    ::
         ::.................................................::
         :: SCC energy              -116.429765327275 Eh    ::
         :: -> electrostatic           0.307853425147 Eh    ::
         :: repulsion energy           1.461268738133 Eh    ::
         :: dispersion energy         -0.056870874609 Eh    ::
         :: halogen bond corr.         0.000000000000 Eh    ::
         :: add. restraining           0.000000000000 Eh    ::
         :: total charge              -0.000000000000 e     ::
         :::::::::::::::::::::::::::::::::::::::::::::::::::::

           -------------------------------------------------
          |                Property Printout                |
           -------------------------------------------------

    * Orbital Energies and Occupations

         #    Occupation            Energy/Eh            Energy/eV
      -------------------------------------------------------------
         1        2.0000           -0.8091968             -22.0194
       ...           ...                  ...                  ...
        87        2.0000           -0.4609752             -12.5438
        88        2.0000           -0.4579395             -12.4612
        89        2.0000           -0.4556839             -12.3998
        90        2.0000           -0.4488219             -12.2131
        91        2.0000           -0.4454133             -12.1203
        92        2.0000           -0.4415180             -12.0143
        93        2.0000           -0.4396064             -11.9623
        94        2.0000           -0.4364496             -11.8764
        95        2.0000           -0.4345660             -11.8251
        96        2.0000           -0.4248091             -11.5596
        97        2.0000           -0.4088878             -11.1264
        98        2.0000           -0.4077790             -11.0962
        99        2.0000           -0.3896175             -10.6020 (HOMO)
       100                         -0.2629713              -7.1558 (LUMO)
       101                         -0.2585778              -7.0363
       102                         -0.2560755              -6.9682
       103                         -0.2422013              -6.5906
       104                         -0.2390197              -6.5041
       105                         -0.2324288              -6.3247
       106                         -0.1961585              -5.3377
       107                         -0.1597401              -4.3467
       108                         -0.1462740              -3.9803
       109                         -0.1457393              -3.9658
       110                         -0.1387950              -3.7768
       ...                                ...                  ...
       224                          0.7160028              19.4834
      -------------------------------------------------------------
                  HL-Gap            0.1266463 Eh            3.4462 eV
             Fermi-level            0.0000000 Eh            0.0000 eV

  Mulliken/CM5 charges         n(s)   n(p)   n(d)
     1N    -0.42784 -0.76806   1.477  3.951  0.000
     2C     0.14140  0.18688   1.051  2.807  0.000
     3C    -0.04499 -0.09375   1.061  2.984  0.000
     4C    -0.03150 -0.08494   1.059  2.973  0.000
     5C     0.00114 -0.01278   1.082  2.917  0.000
     6C    -0.03901 -0.09192   1.058  2.981  0.000
     7C    -0.05232 -0.10153   1.062  2.991  0.000
     8C    -0.05494 -0.15005   1.035  3.020  0.000
     9C     0.08485  0.08976   1.047  2.868  0.000
    10C     0.33212  0.34333   1.001  2.667  0.000
    11C    -0.06469 -0.16342   1.041  3.024  0.000
    12C    -0.00536 -0.06822   1.054  2.951  0.000
    13C    -0.05178 -0.16060   1.039  3.013  0.000
    14C    -0.03935 -0.15304   1.031  3.009  0.000
    15C    -0.08048 -0.23203   1.006  3.075  0.000
    16O    -0.57765 -0.80552   1.698  4.880  0.000
    17N    -0.28347 -0.64221   1.419  3.864  0.000
    18C     0.11108  0.17302   1.034  2.855  0.000
    19C    -0.03316 -0.03085   1.074  2.959  0.000
    20C    -0.09242 -0.09426   1.079  3.013  0.000
    21C    -0.06803 -0.11675   1.051  3.017  0.000
    22C    -0.04092 -0.09366   1.055  2.985  0.000
    23C     0.10990  0.16078   1.054  2.836  0.000
    24C    -0.03780 -0.09309   1.053  2.985  0.000
    25C    -0.04840 -0.10387   1.053  2.996  0.000
    26C    -0.09455 -0.23558   1.008  3.086  0.000
    27O    -0.68281 -1.02859   1.703  4.980  0.000
    28H     0.19972  0.39488   0.800  0.000  0.000
    29H     0.34279  0.51776   0.657  0.000  0.000
    30H     0.03505  0.09479   0.965  0.000  0.000
    31H     0.03303  0.09020   0.967  0.000  0.000
    32H     0.02267  0.08040   0.977  0.000  0.000
    33H     0.03196  0.09289   0.968  0.000  0.000
    34H     0.03381  0.09410   0.966  0.000  0.000
    35H     0.05763  0.11867   0.942  0.000  0.000
    36H     0.07252  0.15204   0.927  0.000  0.000
    37H     0.22089  0.41885   0.779  0.000  0.000
    38H     0.22646  0.42949   0.774  0.000  0.000
    39H     0.01491  0.09131   0.985  0.000  0.000
    40H     0.05381  0.11967   0.946  0.000  0.000
    41H     0.02960  0.09587   0.970  0.000  0.000
    42H     0.01105  0.06924   0.989  0.000  0.000
    43H     0.02502  0.08263   0.975  0.000  0.000
    44H     0.04264  0.10606   0.957  0.000  0.000
    45H     0.01175  0.06758   0.988  0.000  0.000
    46H     0.02636  0.07825   0.974  0.000  0.000
    47H     0.01501  0.06674   0.985  0.000  0.000
    48H     0.03626  0.08971   0.964  0.000  0.000
    49H     0.23236  0.42743   0.768  0.000  0.000
    50H     0.33560  0.50389   0.664  0.000  0.000
    51H     0.02805  0.08569   0.972  0.000  0.000
    52H     0.02489  0.08185   0.975  0.000  0.000
    53H     0.02493  0.08082   0.975  0.000  0.000
    54H     0.02346  0.07933   0.977  0.000  0.000
    55H     0.04165  0.09693   0.958  0.000  0.000
    56H     0.04779  0.10516   0.952  0.000  0.000
    57H     0.03781  0.09112   0.962  0.000  0.000
    58H     0.03161  0.09389   0.968  0.000  0.000
    59H     0.32923  0.49855   0.671  0.000  0.000
    60O    -0.67010 -1.01139   1.695  4.975  0.000
    61H     0.34717  0.52842   0.653  0.000  0.000
    62H     0.33116  0.50302   0.669  0.000  0.000
    63N    -0.37247 -0.73595   1.435  3.937  0.000
    64C     0.46094  0.56304   0.993  2.546  0.000
    65O    -0.55511 -0.60390   1.723  4.832  0.000
    66C    -0.13338 -0.27189   1.023  3.111  0.000
    67C     0.48190  0.57055   0.998  2.520  0.000
    68O    -0.54619 -0.60179   1.723  4.823  0.000
    69H     0.07042  0.12971   0.930  0.000  0.000
    70H     0.03334  0.08956   0.967  0.000  0.000
    71H     0.06774  0.12604   0.932  0.000  0.000
    72N    -0.34197 -0.70794   1.418  3.924  0.000
    73C     0.06688 -0.02193   0.979  2.954  0.000
    74H     0.03363  0.09421   0.966  0.000  0.000
    75H     0.02973  0.09034   0.970  0.000  0.000
    76H     0.06697  0.13508   0.933  0.000  0.000

Wiberg/Mayer (AO) data.
largest (>0.10) Wiberg bond orders for each atom

 ---------------------------------------------------------------------------
     #   Z sym  total        # sym  WBO       # sym  WBO       # sym  WBO
 ---------------------------------------------------------------------------
     1   7 N    3.025 --     2 C    0.996    10 C    0.953    28 H    0.942
     2   6 C    3.964 --     7 C    1.403     3 C    1.400     1 N    0.996
                             5 C    0.104
     3   6 C    3.995 --     4 C    1.453     2 C    1.400    30 H    0.972
                             6 C    0.107
     4   6 C    3.995 --     3 C    1.453     5 C    1.409    31 H    0.973
                             7 C    0.109
     5   6 C    3.989 --     6 C    1.415     4 C    1.409     8 C    1.011
                             2 C    0.104
     6   6 C    3.995 --     7 C    1.445     5 C    1.415    32 H    0.972
                             3 C    0.107
     7   6 C    3.994 --     6 C    1.445     2 C    1.403    33 H    0.972
                             4 C    0.109
     8   6 C    3.994 --     5 C    1.011    34 H    0.976     9 C    0.969
                            35 H    0.966
     9   6 C    3.943 --     8 C    0.969    36 H    0.947    63 N    0.945
                            64 C    0.941
    10   6 C    3.889 --    11 C    0.993    39 H    0.966     1 N    0.953
                            16 O    0.924
    11   6 C    3.993 --    10 C    0.993    12 C    0.986    58 H    0.973
                            40 H    0.968
    12   6 C    3.993 --    20 C    1.004    11 C    0.986    13 C    0.980
                            41 H    0.967
    13   6 C    3.996 --    14 C    1.003    12 C    0.980    42 H    0.975
                            43 H    0.975
    14   6 C    3.995 --    15 C    1.015    13 C    1.003    45 H    0.979
                            44 H    0.968
    15   6 C    3.996 --    14 C    1.015    47 H    0.989    46 H    0.986
                            48 H    0.986
    16   8 O    1.945 --    10 C    0.924    29 H    0.874
    17   7 N    3.422 --    23 C    1.145    18 C    1.138    49 H    0.912
    18   6 C    3.938 --    21 C    1.346    19 C    1.255    17 N    1.138
    19   6 C    3.986 --    22 C    1.337    18 C    1.255    20 C    1.199
    20   6 C    3.970 --    23 C    1.546    19 C    1.199    12 C    1.004
    21   6 C    3.991 --    24 C    1.489    18 C    1.346    51 H    0.973
                            22 C    0.110
    22   6 C    3.993 --    25 C    1.500    19 C    1.337    52 H    0.971
                            21 C    0.110
    23   6 C    3.932 --    20 C    1.546    17 N    1.145    26 C    1.025
    24   6 C    3.992 --    21 C    1.489    25 C    1.376    53 H    0.975
    25   6 C    3.993 --    22 C    1.500    24 C    1.376    54 H    0.974
    26   6 C    3.995 --    23 C    1.025    55 H    0.978    56 H    0.976
                            57 H    0.970
    27   8 O    1.812 --    59 H    0.892    61 H    0.853
    28   1 H    0.976 --     1 N    0.942
    29   1 H    0.896 --    16 O    0.874
    30   1 H    1.006 --     3 C    0.972
    31   1 H    1.001 --     4 C    0.973
    32   1 H    1.004 --     6 C    0.972
    33   1 H    1.008 --     7 C    0.972
    34   1 H    1.003 --     8 C    0.976
    35   1 H    1.011 --     8 C    0.966
    36   1 H    1.013 --     9 C    0.947
    37   1 H    0.960 --    63 N    0.921
    38   1 H    0.960 --    72 N    0.911
    39   1 H    1.021 --    10 C    0.966
    40   1 H    1.012 --    11 C    0.968
    41   1 H    1.013 --    12 C    0.967
    42   1 H    1.014 --    13 C    0.975
    43   1 H    1.007 --    13 C    0.975
    44   1 H    1.026 --    14 C    0.968
    45   1 H    1.010 --    14 C    0.979
    46   1 H    1.007 --    15 C    0.986
    47   1 H    1.005 --    15 C    0.989
    48   1 H    1.009 --    15 C    0.986
    49   1 H    0.948 --    17 N    0.912
    50   1 H    0.897 --    60 O    0.890
    51   1 H    1.000 --    21 C    0.973
    52   1 H    1.005 --    22 C    0.971
    53   1 H    1.004 --    24 C    0.975
    54   1 H    1.004 --    25 C    0.974
    55   1 H    1.013 --    26 C    0.978
    56   1 H    1.012 --    26 C    0.976
    57   1 H    1.003 --    26 C    0.970
    58   1 H    1.009 --    11 C    0.973
    59   1 H    0.904 --    27 O    0.892
    60   8 O    1.805 --    50 H    0.890    62 H    0.884
    61   1 H    0.901 --    27 O    0.853
    62   1 H    0.908 --    60 O    0.884
    63   7 N    3.284 --    67 C    1.187     9 C    0.945    37 H    0.921
                            68 O    0.148
    64   6 C    3.901 --    65 O    1.633    72 N    1.253     9 C    0.941
    65   8 O    1.935 --    64 C    1.633    72 N    0.170
    66   6 C    3.992 --    67 C    0.989    70 H    0.981    71 H    0.977
                            69 H    0.958
    67   6 C    3.885 --    68 O    1.652    63 N    1.187    66 C    0.989
    68   8 O    1.956 --    67 C    1.652    63 N    0.148
    69   1 H    1.015 --    66 C    0.958
    70   1 H    1.002 --    66 C    0.981
    71   1 H    1.013 --    66 C    0.977
    72   7 N    3.326 --    64 C    1.253    73 C    0.954    38 H    0.911
                            65 O    0.170
    73   6 C    3.947 --    75 H    0.987    74 H    0.985    76 H    0.981
                            72 N    0.954
    74   1 H    1.005 --    73 C    0.985
    75   1 H    1.007 --    73 C    0.987
    76   1 H    1.008 --    73 C    0.981
 ---------------------------------------------------------------------------

Topologies differ in total number of bonds
Writing topology from bond orders to xtbtopo.mol

 dipole moment from electron density (au)
     X       Y       Z   
  -1.2352  -0.4739  -1.5133  total (Debye):    5.109


           -------------------------------------------------
          | TOTAL ENERGY             -115.025367463752 Eh   |
          | GRADIENT NORM               0.000227530021 Eh/α |
          | HOMO-LUMO GAP               3.446220325737 eV   |
           -------------------------------------------------

------------------------------------------------------------------------
 * finished run on 2026/08/31 at 13:16:01.581     
------------------------------------------------------------------------
 total:
 * wall-time:     0 d,  0 h,  0 min,  0.676 sec
 *  cpu-time:     0 d,  0 h,  0 min,  0.594 sec
 * ratio c/w:     0.878 speedup
 SCF:
 * wall-time:     0 d,  0 h,  0 min,  0.503 sec
 *  cpu-time:     0 d,  0 h,  0 min,  0.453 sec
 * ratio c/w:     0.901 speedup



===== STDERR =====

normal termination of xtb
