76
 energy: -114.990954323534 gnorm: 0.000278552642 xtb: 6.7.1pre (5071a88)
N           -0.19444014599342       -0.22487048269370       -0.29305389489583
C            1.19407394118936       -0.42953522031203       -0.18720268179943
C            1.87441372693930       -0.05791543540991        0.97226175334014
C            3.25536834135560       -0.13509282582777        1.01400524710610
C            3.97160138985406       -0.60627857693514       -0.08480647673979
C            3.27635748591799       -1.07316138444608       -1.19726460845169
C            1.89354229031688       -0.99404815210795       -1.25099990620603
C            5.46705431532370       -0.45477277230228       -0.13121298992171
C            5.79047310255027        0.98796861247815       -0.56855948363015
C           -0.69045466216632        1.08539250883869       -0.22705002788649
C            0.01968451370145        2.17900814657369        0.05560963657240
C           -0.60170970570831        3.55400828391401        0.13410842599221
C            0.44860830526963        4.64037344041259       -0.16585546799939
C            0.95274539547129        4.55628078665371       -1.60883380834146
C            2.14580901331364        5.47948399152352       -1.84293672615983
O            0.54293846168049        1.07681485520019       -3.04500038382327
N           -1.68069865239961        3.93210321610320        3.66945411383100
C           -2.84087225789755        4.30330562915681        3.04626085891205
C           -2.61237730390870        4.22216520169178        1.65070327067216
C           -1.25736517145169        3.78742904335333        1.47396086725534
C           -4.06418349055402        4.69781433679587        3.57950917256199
C           -3.65173090498727        4.54721726070669        0.77298651514160
C           -0.72383555890671        3.62025649523333        2.72845003207286
C           -5.07220325072830        5.01331575032003        2.68615947663937
C           -4.86721104858436        4.93784971879554        1.30164643107795
C            0.62471022362930        3.17584099381217        3.18917406368705
O           -1.78700490369288        2.75415759715483       -3.06021192011423
H           -0.60393717635410       -0.73779922464790       -1.06638797741347
H           -0.28010327743715        1.45100324312938       -3.38419660124515
H            1.32214258779801        0.31542701655054        1.82651052493503
H            3.78525306746563        0.19834764866815        1.89994615512511
H            3.82348138284454       -1.47022886690659       -2.04650859550375
H            1.35905539804829       -1.31444918874606       -2.13788426680246
H            5.91622198999959       -1.15694000891721       -0.83884573049312
H            5.92133024385316       -0.61614851524076        0.84937275216680
H            5.32685323547240        1.69675676520479        0.13093384100499
H            5.47260465061421        0.60712426088553       -2.60957494914603
H            6.99544062312046        2.73287671225407       -1.91124755093322
H           -1.75390510891850        1.14065525343046       -0.44594869813845
H            1.08101343125879        2.12133561907092        0.26621601851713
H           -1.39186370028760        3.62896522721914       -0.62848040534863
H            0.00504411273093        5.62588648150089        0.01333287964584
H            1.29364265362739        4.52503137621331        0.52041932401595
H            1.25446857954953        3.52728802509537       -1.82643815002005
H            0.13793484384535        4.81863703974388       -2.29545430840293
H            2.44729993886523        5.44436028297469       -2.89052257937402
H            1.89667676612769        6.51032784103283       -1.58571860815840
H            2.98875139589336        5.15762741201070       -1.23070859439582
H           -1.52966846343116        3.91303826849888        4.66389673310685
H            0.01971249752271        5.91877322581218        2.41593912526305
H           -4.21939964137702        4.75418110929486        4.65056228805353
H           -3.50980571085409        4.49386704126955       -0.30176545657879
H           -6.04127415474343        5.32465219127058        3.06026173823042
H           -5.68447493980853        5.19317692929653        0.63564308202013
H            1.30709612166948        3.08430887100563        2.34746732060701
H            1.03866945538697        3.90032128201443        3.89249054330396
H            0.55670000323905        2.20845482166853        3.69182828550603
H           -1.43696955338332        3.64788577014050       -3.07241178809610
H           -2.54339146432488        2.75842142634243       -2.47053139641718
O            0.82168839479954        6.27272509043885        2.81193612759696
H            0.60389959559406        1.40642981779679       -2.14065409692444
H            1.48016588696119        6.30839389971820        2.11557140759843
N            5.23658440212103        1.26948007855057       -1.88501840121787
C            7.30185302472566        1.23057616715110       -0.56172045823451
O            8.05782583734573        0.58450101430351        0.13442931077540
C            3.46515713265865        1.86401151649198       -3.39510574914333
C            4.06009050560123        1.95512840926215       -2.01108799727620
O            3.57067635482157        2.59925443203912       -1.10673775683264
H            4.23381542846876        1.95455133881195       -4.16071812400135
H            2.71472551420241        2.63991968376033       -3.52308320386534
H            2.97276460789344        0.89782748320117       -3.50187438875309
N            7.68963795741157        2.22256835820557       -1.38676844952827
C            9.07794768110526        2.63590980625924       -1.47968142784775
H            9.18568919952973        3.67104887961795       -1.14631517510884
H            9.42574647977921        2.55114194612920       -2.51198637948241
H            9.66883875920908        1.98125572244873       -0.83868168166508
