76
 energy: -114.994867578953 gnorm: 0.000140837011 xtb: 6.7.1pre (5071a88)
N            0.08774735299281       -0.15852013552399       -0.05522076765744
C            1.48362099654502       -0.30178669536489       -0.04700214064406
C            2.23276702583874        0.14743763023447        1.04104840859300
C            3.61380749718177        0.08701104287919        1.00138489751351
C            4.26881614281701       -0.43673636700450       -0.11195148114394
C            3.51270192667073       -0.95955613785090       -1.15766320419119
C            2.12748933804715       -0.90378329745650       -1.12647897360365
C            5.76158010103879       -0.29894428539929       -0.23886871830205
C            6.08232788201531        1.14566452115079       -0.66843083404955
C           -0.48251123214751        1.11220521810066        0.00667406601454
C            0.16518644260724        2.26855185708410        0.19612120837945
C           -0.57164917371761        3.58834062251387        0.28776360995471
C            0.37489083942484        4.78677928362220        0.08097820309411
C            1.03143011290541        4.77914047079210       -1.30145056355617
C            1.89115150735755        6.02306926510152       -1.51672445259515
O           -0.77432256628853       -0.69783501057131       -2.84128326031662
N           -1.78085302380826        3.78071214400735        3.79533907073383
C           -2.91153528960359        4.20915505256889        3.15470169310752
C           -2.63842647300290        4.18919133716219        1.76389730397013
C           -1.29024274967813        3.72958382307509        1.60864184389306
C           -4.13981903642505        4.61413058053552        3.66773582705769
C           -3.64130242547168        4.58654055565672        0.86941520757008
C           -0.80088018971059        3.49660746720913        2.86812113142184
C           -5.10817027259228        5.00618239340198        2.76042655247094
C           -4.86194016568318        4.98986835251799        1.38094259930972
C            0.52491360376268        2.99478603798513        3.33549582021822
O            0.43498804573467        1.88958714161585       -2.87522677384705
H           -0.37302659520513       -0.75091905250160       -0.73959367793217
H           -0.61086540953733       -1.17793176016447       -3.65403045618952
H            1.73003196873587        0.55395512453675        1.91029245551997
H            4.19214328101976        0.46965047225386        1.83561875842904
H            4.01177793676671       -1.39214227445329       -2.01928004157374
H            1.54311749404332       -1.29049323432983       -1.95384679578846
H            6.16164343272158       -0.99502682370044       -0.98118711789116
H            6.26639329362005       -0.48465380679994        0.71239720684589
H            5.68815216650320        1.84839716401375        0.07800868663249
H            5.60702888890838        0.81369332771314       -2.68539434170766
H            7.20931859792127        2.92824698614919       -2.02546113782180
H           -1.56070479583048        1.09129918345686       -0.13060280513057
H            1.23752088980169        2.29685473126506        0.35069123687072
H           -1.33563014964578        3.62123908926493       -0.50351826014987
H           -0.20566929614172        5.70699354853299        0.20369745136548
H            1.15044420074644        4.77893418693444        0.85340944871476
H            1.66276836142756        3.89127971314272       -1.40335835268369
H            0.25525669178382        4.73238364592431       -2.07537695604694
H            2.34156914330120        6.00047029227553       -2.50999261298390
H            1.28868906914256        6.92816312902997       -1.42789017297546
H            2.69009080599458        6.06287824084421       -0.77531005185650
H           -1.67391383270448        3.68167639558838        4.79069441810345
H           -1.64051336564303        7.24675879664630        1.77421064920432
H           -4.32908244482710        4.62154225164970        4.73484752253716
H           -3.47491781425323        4.55579087981152       -0.20181808488542
H           -6.07860648013863        5.32997673407861        3.11987564794998
H           -5.65047521168787        5.29854625004493        0.70345782579213
H            1.30220407037441        3.23415468907699        2.61209040920894
H            0.78700671524250        3.44396635834487        4.29449581689858
H            0.49814576142330        1.90980820411982        3.46347750941717
H            0.47906022238927        1.93756044707265       -1.90516949043366
H           -0.02437731365788        2.68523407062798       -3.15246446342130
O           -1.97199352696153        7.23728588108870        0.87482954394815
H           -0.41255644193614        0.19227955375993       -2.97455304436166
H           -2.62300192839100        6.52623201420509        0.83684398873840
N            5.43383609973032        1.46478720247277       -1.93316745050321
C            7.59363903079521        1.36040525395277       -0.77420363835929
O            8.38978394967641        0.67013536423866       -0.17154722147979
C            3.51349147094531        2.06093473779668       -3.25973979144001
C            4.24112087354597        2.13492678017110       -1.93841259234686
O            3.82520044441609        2.75243199076997       -0.98224215977792
H            2.87423888087955        1.17796534824157       -3.24731810210351
H            4.20318937922881        1.98867443942491       -4.09854966217730
H            2.87505768310070        2.93419274201379       -3.37102660943039
N            7.93340133753218        2.38221902032516       -1.58394680764126
C            9.31714099952227        2.78174900317199       -1.76466492880173
H            9.46827955505373        3.79636375968394       -1.38778872455067
H            9.58182905193922        2.74709310733278       -2.82409964528694
H            9.94499664157744        2.08665397305951       -1.20676965182306
