      -----------------------------------------------------------      
     |                   =====================                   |     
     |                           x T B                           |     
     |                   =====================                   |     
     |                         S. Grimme                         |     
     |          Mulliken Center for Theoretical Chemistry        |     
     |                    University of Bonn                     |     
      -----------------------------------------------------------      

   * xtb version 6.7.1pre (5071a88) compiled by 'Marcel@Raven' on 2024-07-23

   xtb is free software: you can redistribute it and/or modify it under
   the terms of the GNU Lesser General Public License as published by
   the Free Software Foundation, either version 3 of the License, or
   (at your option) any later version.
   
   xtb is distributed in the hope that it will be useful,
   but WITHOUT ANY WARRANTY; without even the implied warranty of
   MERCHANTABILITY or FITNESS FOR A PARTICULAR PURPOSE.  See the
   GNU Lesser General Public License for more details.
   
   Cite this work as:
   * C. Bannwarth, E. Caldeweyher, S. Ehlert, A. Hansen, P. Pracht,
     J. Seibert, S. Spicher, S. Grimme, WIREs Comput. Mol. Sci., 2020, 11,
     e01493. DOI: 10.1002/wcms.1493
   
   for GFN2-xTB:
   * C. Bannwarth, S. Ehlert and S. Grimme., J. Chem. Theory Comput., 2019,
     15, 1652-1671. DOI: 10.1021/acs.jctc.8b01176
   for GFN1-xTB:
   * S. Grimme, C. Bannwarth, P. Shushkov, J. Chem. Theory Comput., 2017,
     13, 1989-2009. DOI: 10.1021/acs.jctc.7b00118
   for GFN0-xTB:
   * P. Pracht, E. Caldeweyher, S. Ehlert, S. Grimme, ChemRxiv, 2019, preprint.
     DOI: 10.26434/chemrxiv.8326202.v1
   for GFN-FF:
   * S. Spicher and S. Grimme, Angew. Chem. Int. Ed., 2020, 59, 15665-15673.
     DOI: 10.1002/anie.202004239
   
   for ALPB and GBSA implicit solvation:
   * S. Ehlert, M. Stahn, S. Spicher, S. Grimme, J. Chem. Theory Comput.,
     2021, 17, 4250-4261. DOI: 10.1021/acs.jctc.1c00471
   
   for ddCOSMO and CPCM-X implicit solvation:
   * M. Stahn, S. Ehlert, S. Grimme, J. Phys. Chem. A,
     2023, XX, XXXX-XXXX. DOI: 10.1021/acs.jpca.3c04382
   
   for DFT-D4:
   * E. Caldeweyher, C. Bannwarth and S. Grimme, J. Chem. Phys., 2017,
     147, 034112. DOI: 10.1063/1.4993215
   * E. Caldeweyher, S. Ehlert, A. Hansen, H. Neugebauer, S. Spicher,
     C. Bannwarth and S. Grimme, J. Chem. Phys., 2019, 150, 154122.
     DOI: 10.1063/1.5090222
   * E. Caldeweyher, J.-M. Mewes, S. Ehlert and S. Grimme, Phys. Chem. Chem. Phys.
     2020, 22, 8499-8512. DOI: 10.1039/D0CP00502A
   
   for sTDA-xTB:
   * S. Grimme and C. Bannwarth, J. Chem. Phys., 2016, 145, 054103.
     DOI: 10.1063/1.4959605
   
   in the mass-spec context:
   * V. Asgeirsson, C. Bauer and S. Grimme, Chem. Sci., 2017, 8, 4879.
     DOI: 10.1039/c7sc00601b
   * J. Koopman and S. Grimme, ACS Omega 2019, 4, 12, 15120-15133.
     DOI: 10.1021/acsomega.9b02011
   
   for metadynamics refer to:
   * S. Grimme, J. Chem. Theory Comput., 2019, 155, 2847-2862
     DOI: 10.1021/acs.jctc.9b00143
   
   for SPH calculations refer to:
   * S. Spicher and S. Grimme, J. Chem. Theory Comput., 2021, 17, 1701-1714
     DOI: 10.1021/acs.jctc.0c01306
   
   for ONIOM refer to:
   * C. Plett, A. Katbashev, S. Ehlert, S. Grimme, M. Bursch,
     Phys. Chem. Chem. Phys., 2023, 25, 17860-17868. DOI: 10.1039/D3CP02178E
   
   for DIPRO refer to:
   * J. Kohn, N. Gildemeister, S. Grimme, D. Fazzi, A. Hansen,
     J. Chem. Phys., 2023, just accepted.
   
   for PTB refer to:
   * S. Grimme, M. Mueller, A. Hansen, J. Chem. Phys., 2023, 158, 124111.
     DOI: 10.1063/5.0137838
   
   with help from (in alphabetical order)
   P. Atkinson, C. Bannwarth, F. Bohle, G. Brandenburg, E. Caldeweyher
   M. Checinski, S. Dohm, S. Ehlert, S. Ehrlich, I. Gerasimov, C. Hölzer
   A. Katbashev, J. Kohn, J. Koopman, C. Lavigne, S. Lehtola, F. März, M. Müller,
   F. Musil, H. Neugebauer, J. Pisarek, C. Plett, P. Pracht, F. Pultar,
   J. Seibert, P. Shushkov, S. Spicher, M. Stahn, M. Steiner, T. Strunk,
   J. Stückrath, T. Rose, and J. Unsleber
   
 * started run on 2026/08/20 at 20:24:22.336     
   ID    Z sym.   atoms
    1    7 N      1, 17, 63, 72
    2    6 C      2-15, 18-26, 64, 66, 67, 73
    3    8 O      16, 27, 60, 65, 68
    4    1 H      28-59, 61, 62, 69-71, 74-76

           -------------------------------------------------
          |                Calculation Setup                |
           -------------------------------------------------

          program call               : C:\Users\Nayanika\Downloads\xtb-6.7.1pre-windows-x86_64\xtb-6.7.1\bin\xtb.exe D:\PhD_Thesis\LmrR_EVB\charges\fast_lmrr_5QM\xtb_preparation\stage2_five_xtb_protocols\GFN1_tight\TS2_1a_to_PS2_2\TS2_1a_to_PS2_2_TS_xtbopt.xyz --gfn 1 --chrg 0 --uhf 0 --hess --etemp 0
          coordinate file            : D:\PhD_Thesis\LmrR_EVB\charges\fast_lmrr_5QM\xtb_preparation\stage2_five_xtb_protocols\GFN1_tight\TS2_1a_to_PS2_2\TS2_1a_to_PS2_2_TS_xtbopt.xyz
          omp threads                :                     8


molecular fragmentation (1/2 indicates fragments):
111111111111111211111111112121111111111111111111121111111222221111111111
1111
# atoms in fragment 1/2:    67     9
 fragment masses (1/2) :      446.59       54.05
CMA distance (Bohr)    :   6.029
constraining FC (au)   :  0.0500

           -------------------------------------------------
          |                 G F N 1 - x T B                 |
           -------------------------------------------------

        Reference                      10.1021/acs.jctc.7b00118
      * Hamiltonian:
        H0-scaling (s, p, d)           1.850000    2.250000    2.000000
        zeta-weighting                 0.000000
      * Dispersion:
        s8                             2.400000
        a1                             0.630000
        a2                             5.000000
        s9                             0.000000
      * Repulsion:
        kExp                           1.500000
        rExp                           1.000000
      * Coulomb:
        alpha                          2.000000
        third order                    atomic
        anisotropic                    false
      * Halogen bond correction:
        rad-scale                      1.300000
        damping                        0.440000

q/qsh data taken from xtbrestart

          ...................................................
          :                      SETUP                      :
          :.................................................:
          :  # basis functions                 224          :
          :  # atomic orbitals                 224          :
          :  # shells                          152          :
          :  # electrons                       198          :
          :  # halogen bonds                     0          :
          :  max. iterations                   250          :
          :  Hamiltonian                  GFN1-xTB          :
          :  restarted?                       true          :
          :  GBSA solvation                  false          :
          :  PC potential                    false          :
          :  electronic temp.            0.0000000     K    :
          :  accuracy                    1.0000000          :
          :  -> integral cutoff          0.2500000E+02      :
          :  -> integral neglect         0.1000000E-07      :
          :  -> SCF convergence          0.1000000E-05 Eh   :
          :  -> wf. convergence          0.2000000E-04 e    :
          :  Broyden damping             0.4000000          :
          :  net charge                          0          :
          :  unpaired electrons                  0          :
          ...................................................

 iter      E             dE          RMSdq      gap      omega  full diag
   1   -116.4369807 -0.116437E+03  0.767E-08    3.05       0.0  T
   2   -116.4369807  0.000000E+00  0.413E-08    3.05  100000.0  T
   3   -116.4369807 -0.127898E-12  0.231E-08    3.05  100000.0  T

   *** convergence criteria satisfied after 3 iterations ***

         #    Occupation            Energy/Eh            Energy/eV
      -------------------------------------------------------------
         1        2.0000           -0.8112711             -22.0758
       ...           ...                  ...                  ...
        93        2.0000           -0.4406742             -11.9914
        94        2.0000           -0.4349161             -11.8347
        95        2.0000           -0.4322263             -11.7615
        96        2.0000           -0.4211012             -11.4587
        97        2.0000           -0.4103592             -11.1664
        98        2.0000           -0.3916111             -10.6563
        99        2.0000           -0.3783590             -10.2957 (HOMO)
       100                         -0.2661497              -7.2423 (LUMO)
       101                         -0.2561369              -6.9698
       102                         -0.2555330              -6.9534
       103                         -0.2459853              -6.6936
       104                         -0.2401921              -6.5360
       ...                                ...                  ...
       224                          0.7133943              19.4124
      -------------------------------------------------------------
                  HL-Gap            0.1122093 Eh            3.0534 eV
             Fermi-level            0.0000000 Eh            0.0000 eV

 SCC (total)                   0 d,  0 h,  0 min,  0.104 sec
 SCC setup                      ...        0 min,  0.001 sec (  0.962%)
 Dispersion                     ...        0 min,  0.002 sec (  1.923%)
 classical contributions        ...        0 min,  0.000 sec (  0.000%)
 integral evaluation            ...        0 min,  0.014 sec ( 13.462%)
 iterations                     ...        0 min,  0.061 sec ( 58.654%)
 molecular gradient             ...        0 min,  0.024 sec ( 23.077%)
 printout                       ...        0 min,  0.002 sec (  1.923%)

         :::::::::::::::::::::::::::::::::::::::::::::::::::::
         ::                     SUMMARY                     ::
         :::::::::::::::::::::::::::::::::::::::::::::::::::::
         :: total energy            -114.994867578954 Eh    ::
         :: gradient norm              0.000140874934 Eh/a0 ::
         :: HOMO-LUMO gap              3.053369364974 eV    ::
         ::.................................................::
         :: SCC energy              -116.436980702180 Eh    ::
         :: -> electrostatic           0.306383363548 Eh    ::
         :: repulsion energy           1.499485192858 Eh    ::
         :: dispersion energy         -0.057372069632 Eh    ::
         :: halogen bond corr.         0.000000000000 Eh    ::
         :: add. restraining           0.000000000000 Eh    ::
         :: total charge              -0.000000000000 e     ::
         :::::::::::::::::::::::::::::::::::::::::::::::::::::

           ------------------------------------------------- 
          |                Numerical Hessian                |
           ------------------------------------------------- 
step length          :   0.00500
SCC accuracy         :   0.30000
Hessian scale factor :   1.00000
frozen atoms in %    :   0.00000    0
RMS gradient         :   0.00014
estimated CPU  time     21.47 min
estimated wall time      3.16 min

writing file <hessian>.

 projected vibrational frequencies (cm⁻¹)
eigval :       -0.00    -0.00    -0.00     0.00     0.00     0.00
eigval :        6.40    13.48    19.80    22.72    26.69    30.75
eigval :       33.37    38.51    47.06    54.30    55.77    58.65
eigval :       61.42    63.58    68.50    74.09    76.63    80.04
eigval :       89.93    97.68   104.27   108.23   108.85   114.36
eigval :      121.12   125.81   129.91   134.08   139.41   143.93
eigval :      151.49   160.14   167.79   172.12   174.97   198.44
eigval :      204.80   211.35   220.06   227.77   233.97   257.58
eigval :      264.91   267.98   278.46   283.96   291.03   292.96
eigval :      295.99   317.81   332.01   357.94   364.94   376.18
eigval :      383.60   397.57   401.90   411.13   420.93   439.33
eigval :      445.53   450.05   469.27   478.72   487.28   497.33
eigval :      512.28   518.83   535.68   547.53   562.41   585.24
eigval :      593.76   602.42   608.63   613.59   646.41   651.21
eigval :      672.83   691.07   702.24   718.06   734.05   744.45
eigval :      755.03   783.92   794.55   800.78   842.02   844.50
eigval :      858.73   867.38   877.39   882.00   884.78   897.68
eigval :      909.32   915.33   916.80   919.35   934.01   967.63
eigval :      971.95   981.35   987.02   995.51  1004.43  1013.78
eigval :     1020.70  1022.68  1048.68  1066.16  1069.13  1086.45
eigval :     1101.71  1106.14  1113.37  1115.46  1120.38  1124.47
eigval :     1130.90  1133.87  1141.80  1154.64  1159.80  1161.44
eigval :     1177.05  1184.96  1204.81  1210.23  1213.37  1220.48
eigval :     1225.40  1241.82  1252.28  1258.62  1271.14  1273.30
eigval :     1281.59  1292.96  1293.84  1300.11  1304.88  1317.20
eigval :     1321.55  1328.29  1348.58  1350.20  1361.91  1376.44
eigval :     1381.91  1385.63  1394.82  1396.37  1400.93  1430.92
eigval :     1431.31  1436.20  1438.68  1440.48  1445.00  1447.07
eigval :     1447.75  1448.12  1454.10  1458.06  1460.41  1463.19
eigval :     1473.68  1474.08  1480.90  1484.42  1484.84  1493.71
eigval :     1576.11  1582.76  1584.98  1603.47  1622.56  1671.65
eigval :     1752.20  1756.38  2957.02  2987.72  2988.52  3012.27
eigval :     3015.34  3019.28  3020.92  3030.00  3035.59  3042.60
eigval :     3046.30  3047.25  3051.26  3056.52  3073.11  3075.90
eigval :     3082.92  3085.78  3087.99  3091.69  3095.35  3099.92
eigval :     3102.72  3105.32  3110.76  3111.77  3111.88  3116.79
eigval :     3121.19  3123.79  3441.81  3454.95  3493.04  3509.76
eigval :     3517.72  3538.41  3589.48  3710.38  3739.22  3746.01
           -------------------------------------------------
          |                Property Printout                |
           -------------------------------------------------

    * Orbital Energies and Occupations

         #    Occupation            Energy/Eh            Energy/eV
      -------------------------------------------------------------
         1        2.0000           -0.8112711             -22.0758
       ...           ...                  ...                  ...
        87        2.0000           -0.4616772             -12.5629
        88        2.0000           -0.4602460             -12.5239
        89        2.0000           -0.4566291             -12.4255
        90        2.0000           -0.4520912             -12.3020
        91        2.0000           -0.4485920             -12.2068
        92        2.0000           -0.4434817             -12.0678
        93        2.0000           -0.4406742             -11.9914
        94        2.0000           -0.4349161             -11.8347
        95        2.0000           -0.4322263             -11.7615
        96        2.0000           -0.4211012             -11.4587
        97        2.0000           -0.4103592             -11.1664
        98        2.0000           -0.3916111             -10.6563
        99        2.0000           -0.3783590             -10.2957 (HOMO)
       100                         -0.2661497              -7.2423 (LUMO)
       101                         -0.2561369              -6.9698
       102                         -0.2555330              -6.9534
       103                         -0.2459853              -6.6936
       104                         -0.2401921              -6.5360
       105                         -0.2357792              -6.4159
       106                         -0.2192409              -5.9658
       107                         -0.1953226              -5.3150
       108                         -0.1645461              -4.4775
       109                         -0.1468664              -3.9964
       110                         -0.1433699              -3.9013
       ...                                ...                  ...
       224                          0.7133943              19.4124
      -------------------------------------------------------------
                  HL-Gap            0.1122093 Eh            3.0534 eV
             Fermi-level            0.0000000 Eh            0.0000 eV

  Mulliken/CM5 charges         n(s)   n(p)   n(d)
     1N    -0.34398 -0.69736   1.441  3.903  0.000
     2C     0.14412  0.19457   1.044  2.812  0.000
     3C    -0.04947 -0.09886   1.057  2.993  0.000
     4C    -0.02807 -0.08142   1.057  2.971  0.000
     5C    -0.00800 -0.02141   1.079  2.929  0.000
     6C    -0.04309 -0.09601   1.058  2.985  0.000
     7C    -0.06392 -0.11296   1.060  3.004  0.000
     8C    -0.05284 -0.14802   1.035  3.018  0.000
     9C     0.08430  0.08879   1.049  2.867  0.000
    10C     0.10534  0.10992   1.026  2.868  0.000
    11C    -0.13346 -0.19130   1.069  3.065  0.000
    12C     0.00330 -0.05638   1.049  2.947  0.000
    13C    -0.05248 -0.16035   1.039  3.014  0.000
    14C    -0.03982 -0.15295   1.031  3.009  0.000
    15C    -0.08089 -0.23249   1.006  3.075  0.000
    16O    -0.68839 -1.03325   1.703  4.986  0.000
    17N    -0.28610 -0.64260   1.419  3.868  0.000
    18C     0.11055  0.17239   1.034  2.855  0.000
    19C    -0.03381 -0.03247   1.077  2.957  0.000
    20C    -0.07371 -0.07394   1.076  2.998  0.000
    21C    -0.06832 -0.11710   1.052  3.016  0.000
    22C    -0.04848 -0.10407   1.060  2.989  0.000
    23C     0.11139  0.16391   1.049  2.839  0.000
    24C    -0.03857 -0.09401   1.053  2.985  0.000
    25C    -0.04769 -0.10389   1.055  2.993  0.000
    26C    -0.09434 -0.23478   1.007  3.087  0.000
    27O    -0.67328 -1.03121   1.707  4.966  0.000
    28H     0.23369  0.43546   0.766  0.000  0.000
    29H     0.33377  0.50246   0.666  0.000  0.000
    30H     0.03388  0.09447   0.966  0.000  0.000
    31H     0.03074  0.08808   0.969  0.000  0.000
    32H     0.01925  0.07702   0.981  0.000  0.000
    33H     0.03509  0.09782   0.965  0.000  0.000
    34H     0.03490  0.09520   0.965  0.000  0.000
    35H     0.05504  0.11503   0.945  0.000  0.000
    36H     0.07153  0.15067   0.928  0.000  0.000
    37H     0.22009  0.41811   0.780  0.000  0.000
    38H     0.22550  0.42824   0.775  0.000  0.000
    39H     0.02754  0.09511   0.972  0.000  0.000
    40H     0.04491  0.10956   0.955  0.000  0.000
    41H     0.01799  0.07950   0.982  0.000  0.000
    42H     0.03267  0.09359   0.967  0.000  0.000
    43H     0.02534  0.08260   0.975  0.000  0.000
    44H     0.03051  0.09269   0.969  0.000  0.000
    45H     0.00557  0.06162   0.994  0.000  0.000
    46H     0.02213  0.07352   0.978  0.000  0.000
    47H     0.02864  0.08050   0.971  0.000  0.000
    48H     0.03218  0.08435   0.968  0.000  0.000
    49H     0.22924  0.42412   0.771  0.000  0.000
    50H     0.33064  0.49930   0.669  0.000  0.000
    51H     0.02858  0.08621   0.971  0.000  0.000
    52H     0.02971  0.08681   0.970  0.000  0.000
    53H     0.02714  0.08305   0.973  0.000  0.000
    54H     0.02763  0.08359   0.972  0.000  0.000
    55H     0.04876  0.10324   0.951  0.000  0.000
    56H     0.03499  0.08981   0.965  0.000  0.000
    57H     0.04311  0.09656   0.957  0.000  0.000
    58H     0.33345  0.50670   0.667  0.000  0.000
    59H     0.34041  0.50909   0.660  0.000  0.000
    60O    -0.67066 -1.00984   1.696  4.975  0.000
    61H     0.34656  0.52802   0.653  0.000  0.000
    62H     0.32416  0.49557   0.676  0.000  0.000
    63N    -0.37140 -0.73387   1.439  3.933  0.000
    64C     0.46115  0.56319   0.993  2.546  0.000
    65O    -0.55447 -0.60282   1.723  4.832  0.000
    66C    -0.13417 -0.27264   1.023  3.111  0.000
    67C     0.48294  0.57164   0.997  2.520  0.000
    68O    -0.54398 -0.59862   1.723  4.821  0.000
    69H     0.06355  0.12229   0.936  0.000  0.000
    70H     0.03468  0.09094   0.965  0.000  0.000
    71H     0.06200  0.11999   0.938  0.000  0.000
    72N    -0.34272 -0.70856   1.418  3.925  0.000
    73C     0.06691 -0.02189   0.979  2.954  0.000
    74H     0.03366  0.09423   0.966  0.000  0.000
    75H     0.02967  0.09027   0.970  0.000  0.000
    76H     0.06722  0.13533   0.933  0.000  0.000

Wiberg/Mayer (AO) data.
largest (>0.10) Wiberg bond orders for each atom

 ---------------------------------------------------------------------------
     #   Z sym  total        # sym  WBO       # sym  WBO       # sym  WBO
 ---------------------------------------------------------------------------
     1   7 N    3.259 --    10 C    1.081     2 C    1.044    28 H    0.900
                            11 C    0.110
     2   6 C    3.959 --     7 C    1.382     3 C    1.370     1 N    1.044
     3   6 C    3.994 --     4 C    1.464     2 C    1.370    30 H    0.969
                             6 C    0.103
     4   6 C    3.995 --     3 C    1.464     5 C    1.400    31 H    0.972
                             7 C    0.104
     5   6 C    3.987 --     6 C    1.411     4 C    1.400     8 C    1.011
     6   6 C    3.995 --     7 C    1.448     5 C    1.411    32 H    0.972
                             3 C    0.103
     7   6 C    3.992 --     6 C    1.448     2 C    1.382    33 H    0.969
                             4 C    0.104
     8   6 C    3.994 --     5 C    1.011    34 H    0.977    35 H    0.968
                             9 C    0.968
     9   6 C    3.941 --     8 C    0.968    36 H    0.948    64 C    0.943
                            63 N    0.942
    10   6 C    3.958 --    11 C    1.779     1 N    1.081    39 H    0.971
    11   6 C    3.978 --    10 C    1.779    12 C    0.999    40 H    0.961
                             1 N    0.110
    12   6 C    3.994 --    11 C    0.999    20 C    0.989    13 C    0.979
                            41 H    0.964
    13   6 C    3.994 --    14 C    1.005    12 C    0.979    43 H    0.977
                            42 H    0.972
    14   6 C    3.996 --    15 C    1.015    13 C    1.005    45 H    0.978
                            44 H    0.971
    15   6 C    3.996 --    14 C    1.015    47 H    0.987    48 H    0.987
                            46 H    0.987
    16   8 O    1.807 --    29 H    0.891    61 H    0.846
    17   7 N    3.418 --    23 C    1.140    18 C    1.140    49 H    0.913
    18   6 C    3.939 --    21 C    1.348    19 C    1.249    17 N    1.140
    19   6 C    3.985 --    22 C    1.324    18 C    1.249    20 C    1.204
    20   6 C    3.970 --    23 C    1.560    19 C    1.204    12 C    0.989
    21   6 C    3.991 --    24 C    1.486    18 C    1.348    51 H    0.973
                            22 C    0.108
    22   6 C    3.993 --    25 C    1.488    19 C    1.324    52 H    0.970
                            21 C    0.108
    23   6 C    3.930 --    20 C    1.560    17 N    1.140    26 C    1.025
    24   6 C    3.992 --    21 C    1.486    25 C    1.378    53 H    0.975
    25   6 C    3.993 --    22 C    1.488    24 C    1.378    54 H    0.974
    26   6 C    3.995 --    23 C    1.025    56 H    0.981    55 H    0.978
                            57 H    0.967
    27   8 O    1.851 --    59 H    0.882    58 H    0.848
    28   1 H    0.970 --     1 N    0.900
    29   1 H    0.896 --    16 O    0.891
    30   1 H    1.006 --     3 C    0.969
    31   1 H    1.001 --     4 C    0.972
    32   1 H    1.005 --     6 C    0.972
    33   1 H    1.013 --     7 C    0.969
    34   1 H    1.004 --     8 C    0.977
    35   1 H    1.009 --     8 C    0.968
    36   1 H    1.013 --     9 C    0.948
    37   1 H    0.961 --    63 N    0.922
    38   1 H    0.961 --    72 N    0.912
    39   1 H    1.003 --    10 C    0.971
    40   1 H    1.008 --    11 C    0.961
    41   1 H    1.010 --    12 C    0.964
    42   1 H    1.022 --    13 C    0.972
    43   1 H    1.005 --    13 C    0.977
    44   1 H    1.025 --    14 C    0.971
    45   1 H    1.009 --    14 C    0.978
    46   1 H    1.006 --    15 C    0.987
    47   1 H    1.004 --    15 C    0.987
    48   1 H    1.004 --    15 C    0.987
    49   1 H    0.949 --    17 N    0.913
    50   1 H    0.900 --    60 O    0.895
    51   1 H    1.000 --    21 C    0.973
    52   1 H    1.004 --    22 C    0.970
    53   1 H    1.004 --    24 C    0.975
    54   1 H    1.004 --    25 C    0.974
    55   1 H    1.008 --    26 C    0.978
    56   1 H    1.002 --    26 C    0.981
    57   1 H    1.006 --    26 C    0.967
    58   1 H    0.920 --    27 O    0.848
    59   1 H    0.897 --    27 O    0.882
    60   8 O    1.805 --    50 H    0.895    62 H    0.874
    61   1 H    0.902 --    16 O    0.846
    62   1 H    0.919 --    60 O    0.874
    63   7 N    3.281 --    67 C    1.188     9 C    0.942    37 H    0.922
                            68 O    0.148
    64   6 C    3.901 --    65 O    1.635    72 N    1.252     9 C    0.943
    65   8 O    1.935 --    64 C    1.635    72 N    0.170
    66   6 C    3.993 --    67 C    0.987    70 H    0.983    71 H    0.977
                            69 H    0.959
    67   6 C    3.887 --    68 O    1.656    63 N    1.188    66 C    0.987
    68   8 O    1.958 --    67 C    1.656    63 N    0.148
    69   1 H    1.018 --    66 C    0.959
    70   1 H    1.002 --    66 C    0.983
    71   1 H    1.014 --    66 C    0.977
    72   7 N    3.325 --    64 C    1.252    73 C    0.954    38 H    0.912
                            65 O    0.170
    73   6 C    3.947 --    75 H    0.987    74 H    0.985    76 H    0.981
                            72 N    0.954
    74   1 H    1.005 --    73 C    0.985
    75   1 H    1.006 --    73 C    0.987
    76   1 H    1.008 --    73 C    0.981
 ---------------------------------------------------------------------------

Topologies differ in total number of bonds
Writing topology from bond orders to xtbtopo.mol

 dipole moment from electron density (au)
     X       Y       Z   
  -0.0186   0.0040  -1.1248  total (Debye):    2.859

           -------------------------------------------------
          |               Frequency Printout                |
           -------------------------------------------------
 projected vibrational frequencies (cm⁻¹)
eigval :       -0.00    -0.00    -0.00     0.00     0.00     0.00
eigval :        6.40    13.48    19.80    22.72    26.69    30.75
eigval :       33.37    38.51    47.06    54.30    55.77    58.65
eigval :       61.42    63.58    68.50    74.09    76.63    80.04
eigval :       89.93    97.68   104.27   108.23   108.85   114.36
eigval :      121.12   125.81   129.91   134.08   139.41   143.93
eigval :      151.49   160.14   167.79   172.12   174.97   198.44
eigval :      204.80   211.35   220.06   227.77   233.97   257.58
eigval :      264.91   267.98   278.46   283.96   291.03   292.96
eigval :      295.99   317.81   332.01   357.94   364.94   376.18
eigval :      383.60   397.57   401.90   411.13   420.93   439.33
eigval :      445.53   450.05   469.27   478.72   487.28   497.33
eigval :      512.28   518.83   535.68   547.53   562.41   585.24
eigval :      593.76   602.42   608.63   613.59   646.41   651.21
eigval :      672.83   691.07   702.24   718.06   734.05   744.45
eigval :      755.03   783.92   794.55   800.78   842.02   844.50
eigval :      858.73   867.38   877.39   882.00   884.78   897.68
eigval :      909.32   915.33   916.80   919.35   934.01   967.63
eigval :      971.95   981.35   987.02   995.51  1004.43  1013.78
eigval :     1020.70  1022.68  1048.68  1066.16  1069.13  1086.45
eigval :     1101.71  1106.14  1113.37  1115.46  1120.38  1124.47
eigval :     1130.90  1133.87  1141.80  1154.64  1159.80  1161.44
eigval :     1177.05  1184.96  1204.81  1210.23  1213.37  1220.48
eigval :     1225.40  1241.82  1252.28  1258.62  1271.14  1273.30
eigval :     1281.59  1292.96  1293.84  1300.11  1304.88  1317.20
eigval :     1321.55  1328.29  1348.58  1350.20  1361.91  1376.44
eigval :     1381.91  1385.63  1394.82  1396.37  1400.93  1430.92
eigval :     1431.31  1436.20  1438.68  1440.48  1445.00  1447.07
eigval :     1447.75  1448.12  1454.10  1458.06  1460.41  1463.19
eigval :     1473.68  1474.08  1480.90  1484.42  1484.84  1493.71
eigval :     1576.11  1582.76  1584.98  1603.47  1622.56  1671.65
eigval :     1752.20  1756.38  2957.02  2987.72  2988.52  3012.27
eigval :     3015.34  3019.28  3020.92  3030.00  3035.59  3042.60
eigval :     3046.30  3047.25  3051.26  3056.52  3073.11  3075.90
eigval :     3082.92  3085.78  3087.99  3091.69  3095.35  3099.92
eigval :     3102.72  3105.32  3110.76  3111.77  3111.88  3116.79
eigval :     3121.19  3123.79  3441.81  3454.95  3493.04  3509.76
eigval :     3517.72  3538.41  3589.48  3710.38  3739.22  3746.01
 reduced masses (amu)
   1: 11.87   2: 11.85   3: 12.03   4: 11.93   5: 12.12   6: 11.97   7: 11.35   8: 11.26
   9: 13.00  10: 11.83  11: 12.01  12: 13.15  13: 10.99  14: 11.93  15: 11.78  16: 10.83
  17: 12.87  18: 12.36  19:  7.74  20:  9.84  21: 12.45  22:  8.75  23:  8.69  24: 10.77
  25:  9.45  26:  9.30  27:  8.24  28:  5.74  29: 10.54  30:  6.04  31:  8.71  32:  5.07
  33:  6.81  34:  9.01  35:  8.76  36: 10.56  37:  9.19  38:  6.71  39:  6.04  40: 10.64
  41: 11.23  42:  8.66  43:  7.91  44:  4.41  45:  7.15  46:  9.34  47:  8.69  48:  6.24
  49:  8.81  50:  9.02  51:  3.22  52:  9.28  53:  4.29  54:  9.89  55:  9.82  56:  9.26
  57: 10.03  58: 10.24  59: 11.17  60:  9.53  61:  7.84  62: 10.07  63:  9.11  64:  9.31
  65:  4.56  66:  5.13  67:  5.27  68:  8.97  69:  8.19  70: 10.98  71:  9.21  72:  2.80
  73:  8.59  74:  9.13  75:  9.28  76:  7.93  77:  9.15  78:  9.68  79: 11.01  80:  9.92
  81: 10.70  82:  9.46  83: 10.16  84: 10.53  85:  9.98  86: 11.56  87:  9.80  88:  7.45
  89:  9.22  90:  3.67  91:  3.26  92:  9.30  93:  8.11  94:  7.38  95:  3.45  96:  3.44
  97: 11.01  98:  9.13  99:  5.45 100:  6.51 101:  3.82 102:  2.88 103:  2.92 104:  4.53
 105:  8.58 106:  9.77 107:  6.43 108: 10.74 109:  2.16 110:  5.35 111:  5.24 112:  6.17
 113:  5.73 114:  8.29 115:  8.15 116:  4.31 117:  6.15 118:  8.91 119:  7.51 120:  8.10
 121:  7.93 122:  6.93 123:  4.44 124:  5.48 125:  3.75 126:  6.93 127:  7.21 128:  6.48
 129:  2.99 130:  5.54 131:  2.64 132:  5.17 133:  6.29 134:  4.79 135:  5.78 136:  6.49
 137:  6.46 138:  4.76 139:  5.76 140:  5.04 141:  5.27 142:  4.07 143:  5.18 144:  4.78
 145:  2.02 146:  4.55 147:  5.40 148:  9.62 149:  6.71 150: 10.01 151:  6.34 152:  5.93
 153:  3.55 154: 11.27 155:  5.65 156:  7.57 157:  3.93 158:  3.26 159:  3.54 160:  7.22
 161:  8.94 162:  7.75 163:  5.82 164:  5.05 165:  1.68 166:  9.53 167:  3.16 168:  2.12
 169:  1.49 170:  1.75 171:  2.26 172:  1.87 173:  2.16 174:  1.90 175:  1.83 176:  2.92
 177:  1.49 178:  1.87 179: 10.30 180:  9.68 181: 11.48 182: 11.42 183: 11.68 184: 11.48
 185: 11.64 186: 11.34 187: 13.27 188: 13.30 189:  1.77 190:  1.65 191:  1.77 192:  1.55
 193:  1.26 194:  1.40 195:  1.54 196:  1.28 197:  1.89 198:  1.30 199:  1.92 200:  2.00
 201:  2.01 202:  1.90 203:  1.99 204:  2.00 205:  1.83 206:  1.97 207:  1.98 208:  1.83
 209:  1.94 210:  1.80 211:  1.83 212:  1.81 213:  1.99 214:  1.84 215:  1.88 216:  1.87
 217:  1.93 218:  1.88 219:  1.84 220:  1.78 221:  1.86 222:  1.87 223:  1.74 224:  1.89
 225:  1.68 226:  1.96 227:  1.98 228:  2.04
 IR intensities (km·mol⁻¹)
   1:  0.01   2:  0.05   3:  0.05   4:  0.00   5:  0.00   6:  0.03   7:  2.08   8:  0.29
   9:  6.73  10:  6.96  11:  2.03  12:  6.08  13:  1.36  14:  1.63  15:  1.94  16:  0.63
  17: 21.54  18:  2.79  19:  0.77  20:  5.04  21:  4.21  22:  9.24  23:  2.30  24:  4.24
  25:  5.12  26: 18.85  27: 13.45  28:118.92  29: 21.62  30: 30.27  31:  0.45  32: 16.75
  33: 45.25  34: 44.44  35: 10.43  36: 21.47  37:  2.59  38: 74.75  39: 91.29  40:  5.45
  41: 21.66  42: 14.67  43: 10.50  44:  9.71  45:103.81  46: 17.51  47:  8.71  48: 56.89
  49: 27.70  50: 16.70  51:212.22  52: 19.02  53:256.86  54: 43.95  55: 50.90  56:  7.51
  57:  4.78  58:  2.00  59: 12.36  60:  2.12  61: 54.69  62: 15.19  63:  6.76  64: 11.19
  65:103.99  66:214.08  67: 89.29  68: 95.84  69: 35.40  70:  1.20  71: 43.26  72:422.33
  73: 31.00  74: 20.08  75:  8.52  76:148.12  77:  8.14  78: 87.27  79:  3.59  80: 42.04
  81:  0.43  82: 37.19  83:  9.67  84:  3.27  85: 58.86  86:  0.51  87: 33.99  88: 33.76
  89:127.98  90: 51.59  91: 22.39  92:  1.67  93: 51.10  94:  4.46  95:  0.22  96:  0.25
  97:  0.04  98:  1.21  99:  3.09 100:  2.11 101:  2.04 102:  1.80 103:  0.22 104:  0.30
 105:  2.34 106:  7.82 107:  5.76 108:  8.25 109: 37.27 110: 15.16 111:  4.63 112: 50.43
 113:  3.07 114:  4.51 115: 15.74 116: 17.93 117:  7.60 118:  1.90 119: 34.02 120: 12.55
 121:  0.65 122: 24.43 123:  6.66 124:  7.62 125:  1.33 126: 22.79 127: 39.07 128: 11.62
 129:  4.52 130:  3.70 131:  0.66 132: 21.80 133:  8.55 134: 16.00 135: 14.48 136: 40.88
 137: 24.19 138:  8.81 139:111.65 140:  6.48 141:  5.38 142:  8.38 143: 63.98 144: 24.23
 145:  1.24 146:  8.64 147: 18.29 148: 41.75 149: 16.74 150: 26.82 151: 33.13 152: 27.12
 153: 63.68 154: 13.38 155:  0.46 156:153.87 157:  7.17 158:  5.73 159: 11.77 160:316.43
 161: 33.12 162:215.68 163: 81.59 164:228.06 165:  0.57 166:131.59 167:160.83 168:272.64
 169: 17.98 170: 23.79 171:  0.14 172: 11.48 173: 11.51 174:  8.37 175: 10.12 176: 68.73
 177:  7.74 178:  7.78 179:  3.87 180:217.20 181:  0.62 182:  8.67 183:  9.06 184: 43.49
 185: 22.13 186:185.86 187:682.10 188:390.05 189: 20.05 190: 29.61 191:  3.24 192: 21.04
 193: 27.99 194: 17.25 195: 14.11 196: 14.94 197:  4.15 198:  2.79 199: 12.03 200: 16.80
 201:  8.43 202: 11.79 203: 24.90 204: 20.75 205: 19.50 206:  1.99 207:  3.79 208: 18.27
 209:  7.04 210:  3.54 211: 10.50 212:  1.48 213:  5.72 214: 12.26 215: 24.68 216:  7.83
 217: 22.11 218:  8.03 219: 20.75 220:291.65 221:  8.79 222: 17.44 223:249.63 224: 27.27
 225:177.31 226: 67.53 227: 78.22 228: 36.96
 Raman intensities (Ä⁴*amu⁻¹)
   1:  0.00   2:  0.00   3:  0.00   4:  0.00   5:  0.00   6:  0.00   7:  0.00   8:  0.00
   9:  0.00  10:  0.00  11:  0.00  12:  0.00  13:  0.00  14:  0.00  15:  0.00  16:  0.00
  17:  0.00  18:  0.00  19:  0.00  20:  0.00  21:  0.00  22:  0.00  23:  0.00  24:  0.00
  25:  0.00  26:  0.00  27:  0.00  28:  0.00  29:  0.00  30:  0.00  31:  0.00  32:  0.00
  33:  0.00  34:  0.00  35:  0.00  36:  0.00  37:  0.00  38:  0.00  39:  0.00  40:  0.00
  41:  0.00  42:  0.00  43:  0.00  44:  0.00  45:  0.00  46:  0.00  47:  0.00  48:  0.00
  49:  0.00  50:  0.00  51:  0.00  52:  0.00  53:  0.00  54:  0.00  55:  0.00  56:  0.00
  57:  0.00  58:  0.00  59:  0.00  60:  0.00  61:  0.00  62:  0.00  63:  0.00  64:  0.00
  65:  0.00  66:  0.00  67:  0.00  68:  0.00  69:  0.00  70:  0.00  71:  0.00  72:  0.00
  73:  0.00  74:  0.00  75:  0.00  76:  0.00  77:  0.00  78:  0.00  79:  0.00  80:  0.00
  81:  0.00  82:  0.00  83:  0.00  84:  0.00  85:  0.00  86:  0.00  87:  0.00  88:  0.00
  89:  0.00  90:  0.00  91:  0.00  92:  0.00  93:  0.00  94:  0.00  95:  0.00  96:  0.00
  97:  0.00  98:  0.00  99:  0.00 100:  0.00 101:  0.00 102:  0.00 103:  0.00 104:  0.00
 105:  0.00 106:  0.00 107:  0.00 108:  0.00 109:  0.00 110:  0.00 111:  0.00 112:  0.00
 113:  0.00 114:  0.00 115:  0.00 116:  0.00 117:  0.00 118:  0.00 119:  0.00 120:  0.00
 121:  0.00 122:  0.00 123:  0.00 124:  0.00 125:  0.00 126:  0.00 127:  0.00 128:  0.00
 129:  0.00 130:  0.00 131:  0.00 132:  0.00 133:  0.00 134:  0.00 135:  0.00 136:  0.00
 137:  0.00 138:  0.00 139:  0.00 140:  0.00 141:  0.00 142:  0.00 143:  0.00 144:  0.00
 145:  0.00 146:  0.00 147:  0.00 148:  0.00 149:  0.00 150:  0.00 151:  0.00 152:  0.00
 153:  0.00 154:  0.00 155:  0.00 156:  0.00 157:  0.00 158:  0.00 159:  0.00 160:  0.00
 161:  0.00 162:  0.00 163:  0.00 164:  0.00 165:  0.00 166:  0.00 167:  0.00 168:  0.00
 169:  0.00 170:  0.00 171:  0.00 172:  0.00 173:  0.00 174:  0.00 175:  0.00 176:  0.00
 177:  0.00 178:  0.00 179:  0.00 180:  0.00 181:  0.00 182:  0.00 183:  0.00 184:  0.00
 185:  0.00 186:  0.00 187:  0.00 188:  0.00 189:  0.00 190:  0.00 191:  0.00 192:  0.00
 193:  0.00 194:  0.00 195:  0.00 196:  0.00 197:  0.00 198:  0.00 199:  0.00 200:  0.00
 201:  0.00 202:  0.00 203:  0.00 204:  0.00 205:  0.00 206:  0.00 207:  0.00 208:  0.00
 209:  0.00 210:  0.00 211:  0.00 212:  0.00 213:  0.00 214:  0.00 215:  0.00 216:  0.00
 217:  0.00 218:  0.00 219:  0.00 220:  0.00 221:  0.00 222:  0.00 223:  0.00 224:  0.00
 225:  0.00 226:  0.00 227:  0.00 228:  0.00
 output can be read by thermo (or use thermo option).
 writing <g98.out> molden fake output.
 recommended (thermochemical) frequency scaling factor: 1.0
           -------------------------------------------------
          |             Thermodynamic Functions             |
           -------------------------------------------------

Refinement of some symmetry elements was terminated before convergence was reached.
Some symmetry elements may remain unidentified.
Molecule has no symmetry elements
It seems to be the C1 point group
c1  symmetry found (for desy threshold:  0.10E+00) used in thermo

          ...................................................
          :                      SETUP                      :
          :.................................................:
          :  # frequencies                         222      :
          :  # imaginary freq.                       0      :
          :  linear?                             false      :
          :  only rotor calc.                    false      :
          :  symmetry                               c1      :
          :  rotational number                       1      :
          :  scaling factor                  1.0000000      :
          :  rotor cutoff                   50.0000000 cm⁻¹ :
          :  imag. cutoff                  -20.0000000 cm⁻¹ :
          :.................................................:

    mode    ω/cm⁻¹     T·S(HO)/kcal·mol⁻¹    T·S(FR)/kcal·mol⁻¹   T·S(vib)
   ------------------------------------------------------------------------
       1      6.40    -2.65244 (  0.03%)    -1.66522 ( 99.97%)    -1.66549
       2     13.48    -2.21168 (  0.53%)    -1.44485 ( 99.47%)    -1.44888
       3     19.80    -1.98386 (  2.40%)    -1.33090 ( 97.60%)    -1.34658
       4     22.72    -1.90246 (  4.09%)    -1.29017 ( 95.91%)    -1.31521
       5     26.69    -1.80726 (  7.51%)    -1.24252 ( 92.49%)    -1.28491
       6     30.75    -1.72335 ( 12.52%)    -1.20050 ( 87.48%)    -1.26597
       7     33.37    -1.67509 ( 16.55%)    -1.17632 ( 83.45%)    -1.25889
       8     38.51    -1.59045 ( 26.03%)    -1.13390 ( 73.97%)    -1.25272
       9     47.06    -1.47198 ( 43.98%)    -1.07446 ( 56.02%)    -1.24929
      10     54.30    -1.38766 ( 58.18%)    -1.03209 ( 41.82%)    -1.23896
      11     55.77    -1.37193 ( 60.75%)    -1.02418 ( 39.25%)    -1.23545
      12     58.65    -1.34227 ( 65.44%)    -1.00926 ( 34.56%)    -1.22718
      13     61.42    -1.31510 ( 69.49%)    -0.99558 ( 30.51%)    -1.21762
      14     63.58    -1.29478 ( 72.34%)    -0.98534 ( 27.66%)    -1.20919
      15     68.50    -1.25108 ( 77.88%)    -0.96330 ( 22.12%)    -1.18744
      16     74.09    -1.20501 ( 82.82%)    -0.94004 ( 17.18%)    -1.15949
      17     76.63    -1.18527 ( 84.65%)    -0.93006 ( 15.35%)    -1.14611
      18     80.04    -1.15976 ( 86.78%)    -0.91716 ( 13.22%)    -1.12770
      19     89.93    -1.09172 ( 91.28%)    -0.88266 (  8.72%)    -1.07348
      20     97.68    -1.04352 ( 93.58%)    -0.85814 (  6.42%)    -1.03162
      21    104.27    -1.00565 ( 94.98%)    -0.83883 (  5.02%)    -0.99727
      22    108.23    -0.98399 ( 95.64%)    -0.82776 (  4.36%)    -0.97719
      23    108.85    -0.98071 ( 95.74%)    -0.82608 (  4.26%)    -0.97412
      24    114.36    -0.95214 ( 96.47%)    -0.81145 (  3.53%)    -0.94718
      25    121.12    -0.91903 ( 97.18%)    -0.79445 (  2.82%)    -0.91552
      26    125.81    -0.89715 ( 97.57%)    -0.78318 (  2.43%)    -0.89438
      27    129.91    -0.87877 ( 97.85%)    -0.77370 (  2.15%)    -0.87652
      28    134.08    -0.86066 ( 98.10%)    -0.76433 (  1.90%)    -0.85884
      29    139.41    -0.83838 ( 98.37%)    -0.75278 (  1.63%)    -0.83699
      30    143.93    -0.82019 ( 98.56%)    -0.74332 (  1.44%)    -0.81908
      31    151.49    -0.79111 ( 98.83%)    -0.72816 (  1.17%)    -0.79037
      32    160.14    -0.75973 ( 99.06%)    -0.71171 (  0.94%)    -0.75927
      33    167.79    -0.73348 ( 99.22%)    -0.69789 (  0.78%)    -0.73320
      34    172.12    -0.71921 ( 99.29%)    -0.69035 (  0.71%)    -0.71900
      35    174.97    -0.71002 ( 99.34%)    -0.68548 (  0.66%)    -0.70986
      36    198.44    -0.64027 ( 99.60%)    -0.64818 (  0.40%)    -0.64030
      37    204.80    -0.62300 ( 99.65%)    -0.63885 (  0.35%)    -0.62306
      38    211.35    -0.60584 ( 99.69%)    -0.62952 (  0.31%)    -0.60591
      39    220.06    -0.58397 ( 99.73%)    -0.61756 (  0.27%)    -0.58405
      40    227.77    -0.56544 ( 99.77%)    -0.60736 (  0.23%)    -0.56553
      41    233.97    -0.55105 ( 99.79%)    -0.59939 (  0.21%)    -0.55116
      42    257.58    -0.50034 ( 99.86%)    -0.57092 (  0.14%)    -0.50044
      43    264.91    -0.48573 ( 99.87%)    -0.56260 (  0.13%)    -0.48583
      44    267.98    -0.47978 ( 99.88%)    -0.55919 (  0.12%)    -0.47988
      45    278.46    -0.46009 ( 99.90%)    -0.54783 (  0.10%)    -0.46018
      46    283.96    -0.45011 ( 99.90%)    -0.54203 (  0.10%)    -0.45020
      47    291.03    -0.43767 ( 99.91%)    -0.53475 (  0.09%)    -0.43776
      48    292.96    -0.43435 ( 99.92%)    -0.53279 (  0.08%)    -0.43443
      49    295.99    -0.42918 ( 99.92%)    -0.52974 (  0.08%)    -0.42926
   ------------------------------------------------------------------------

   temp. (K)  partition function   enthalpy   heat capacity  entropy
                                   cal/mol     cal/K/mol   cal/K/mol   J/K/mol
 298.15  VIB  0.373E+24            27335.760    148.020    180.209
         ROT  0.401E+08              888.752      2.981     37.773
         INT  0.149E+32            28224.512    151.001    217.982
         TR   0.108E+29             1481.254      4.968     44.499
         TOT                       29705.7662   155.9692   262.4810  1098.2203

       T/K    H(0)-H(T)+PV         H(T)/Eh          T*S/Eh         G(T)/Eh
   ------------------------------------------------------------------------
    298.15    0.473392E-01    0.667963E+00    0.124713E+00    0.543250E+00
   ------------------------------------------------------------------------

         :::::::::::::::::::::::::::::::::::::::::::::::::::::
         ::                  THERMODYNAMIC                  ::
         :::::::::::::::::::::::::::::::::::::::::::::::::::::
         :: total free energy        -114.451617971794 Eh   ::
         ::.................................................::
         :: total energy             -114.994867578954 Eh   ::
         :: zero point energy           0.620623630639 Eh   ::
         :: G(RRHO) w/o ZPVE           -0.077374023479 Eh   ::
         :: G(RRHO) contrib.            0.543249607161 Eh   ::
         :::::::::::::::::::::::::::::::::::::::::::::::::::::

           -------------------------------------------------
          | TOTAL ENERGY             -114.994867578954 Eh   |
          | TOTAL ENTHALPY           -114.326904796551 Eh   |
          | TOTAL FREE ENERGY        -114.451617971794 Eh   |
          | GRADIENT NORM               0.000140875070 Eh/α |
          | HOMO-LUMO GAP               3.053369367834 eV   |
           -------------------------------------------------

------------------------------------------------------------------------
 * finished run on 2026/08/20 at 20:24:45.934     
------------------------------------------------------------------------
 total:
 * wall-time:     0 d,  0 h,  0 min, 23.598 sec
 *  cpu-time:     0 d,  0 h,  2 min, 40.969 sec
 * ratio c/w:     6.821 speedup
 SCF:
 * wall-time:     0 d,  0 h,  0 min,  0.104 sec
 *  cpu-time:     0 d,  0 h,  0 min,  0.281 sec
 * ratio c/w:     2.704 speedup
 analytical hessian:
 * wall-time:     0 d,  0 h,  0 min, 23.410 sec
 *  cpu-time:     0 d,  0 h,  2 min, 40.547 sec
 * ratio c/w:     6.858 speedup



===== STDERR =====

normal termination of xtb
