      -----------------------------------------------------------      
     |                   =====================                   |     
     |                           x T B                           |     
     |                   =====================                   |     
     |                         S. Grimme                         |     
     |          Mulliken Center for Theoretical Chemistry        |     
     |                    University of Bonn                     |     
      -----------------------------------------------------------      

   * xtb version 6.7.1pre (5071a88) compiled by 'Marcel@Raven' on 2024-07-23

   xtb is free software: you can redistribute it and/or modify it under
   the terms of the GNU Lesser General Public License as published by
   the Free Software Foundation, either version 3 of the License, or
   (at your option) any later version.
   
   xtb is distributed in the hope that it will be useful,
   but WITHOUT ANY WARRANTY; without even the implied warranty of
   MERCHANTABILITY or FITNESS FOR A PARTICULAR PURPOSE.  See the
   GNU Lesser General Public License for more details.
   
   Cite this work as:
   * C. Bannwarth, E. Caldeweyher, S. Ehlert, A. Hansen, P. Pracht,
     J. Seibert, S. Spicher, S. Grimme, WIREs Comput. Mol. Sci., 2020, 11,
     e01493. DOI: 10.1002/wcms.1493
   
   for GFN2-xTB:
   * C. Bannwarth, S. Ehlert and S. Grimme., J. Chem. Theory Comput., 2019,
     15, 1652-1671. DOI: 10.1021/acs.jctc.8b01176
   for GFN1-xTB:
   * S. Grimme, C. Bannwarth, P. Shushkov, J. Chem. Theory Comput., 2017,
     13, 1989-2009. DOI: 10.1021/acs.jctc.7b00118
   for GFN0-xTB:
   * P. Pracht, E. Caldeweyher, S. Ehlert, S. Grimme, ChemRxiv, 2019, preprint.
     DOI: 10.26434/chemrxiv.8326202.v1
   for GFN-FF:
   * S. Spicher and S. Grimme, Angew. Chem. Int. Ed., 2020, 59, 15665-15673.
     DOI: 10.1002/anie.202004239
   
   for ALPB and GBSA implicit solvation:
   * S. Ehlert, M. Stahn, S. Spicher, S. Grimme, J. Chem. Theory Comput.,
     2021, 17, 4250-4261. DOI: 10.1021/acs.jctc.1c00471
   
   for ddCOSMO and CPCM-X implicit solvation:
   * M. Stahn, S. Ehlert, S. Grimme, J. Phys. Chem. A,
     2023, XX, XXXX-XXXX. DOI: 10.1021/acs.jpca.3c04382
   
   for DFT-D4:
   * E. Caldeweyher, C. Bannwarth and S. Grimme, J. Chem. Phys., 2017,
     147, 034112. DOI: 10.1063/1.4993215
   * E. Caldeweyher, S. Ehlert, A. Hansen, H. Neugebauer, S. Spicher,
     C. Bannwarth and S. Grimme, J. Chem. Phys., 2019, 150, 154122.
     DOI: 10.1063/1.5090222
   * E. Caldeweyher, J.-M. Mewes, S. Ehlert and S. Grimme, Phys. Chem. Chem. Phys.
     2020, 22, 8499-8512. DOI: 10.1039/D0CP00502A
   
   for sTDA-xTB:
   * S. Grimme and C. Bannwarth, J. Chem. Phys., 2016, 145, 054103.
     DOI: 10.1063/1.4959605
   
   in the mass-spec context:
   * V. Asgeirsson, C. Bauer and S. Grimme, Chem. Sci., 2017, 8, 4879.
     DOI: 10.1039/c7sc00601b
   * J. Koopman and S. Grimme, ACS Omega 2019, 4, 12, 15120-15133.
     DOI: 10.1021/acsomega.9b02011
   
   for metadynamics refer to:
   * S. Grimme, J. Chem. Theory Comput., 2019, 155, 2847-2862
     DOI: 10.1021/acs.jctc.9b00143
   
   for SPH calculations refer to:
   * S. Spicher and S. Grimme, J. Chem. Theory Comput., 2021, 17, 1701-1714
     DOI: 10.1021/acs.jctc.0c01306
   
   for ONIOM refer to:
   * C. Plett, A. Katbashev, S. Ehlert, S. Grimme, M. Bursch,
     Phys. Chem. Chem. Phys., 2023, 25, 17860-17868. DOI: 10.1039/D3CP02178E
   
   for DIPRO refer to:
   * J. Kohn, N. Gildemeister, S. Grimme, D. Fazzi, A. Hansen,
     J. Chem. Phys., 2023, just accepted.
   
   for PTB refer to:
   * S. Grimme, M. Mueller, A. Hansen, J. Chem. Phys., 2023, 158, 124111.
     DOI: 10.1063/5.0137838
   
   with help from (in alphabetical order)
   P. Atkinson, C. Bannwarth, F. Bohle, G. Brandenburg, E. Caldeweyher
   M. Checinski, S. Dohm, S. Ehlert, S. Ehrlich, I. Gerasimov, C. Hölzer
   A. Katbashev, J. Kohn, J. Koopman, C. Lavigne, S. Lehtola, F. März, M. Müller,
   F. Musil, H. Neugebauer, J. Pisarek, C. Plett, P. Pracht, F. Pultar,
   J. Seibert, P. Shushkov, S. Spicher, M. Stahn, M. Steiner, T. Strunk,
   J. Stückrath, T. Rose, and J. Unsleber
   
 * started run on 2026/08/31 at 13:16:00.201     
   ID    Z sym.   atoms
    1    7 N      1, 17, 63, 72
    2    6 C      2-15, 18-26, 64, 66, 67, 73
    3    8 O      16, 27, 60, 65, 68
    4    1 H      28-59, 61, 62, 69-71, 74-76

           -------------------------------------------------
          |                Calculation Setup                |
           -------------------------------------------------

          program call               : C:\Users\Nayanika\Downloads\xtb-6.7.1pre-windows-x86_64\xtb-6.7.1\bin\xtb.exe D:\PhD_Thesis\LmrR_EVB\charges\fast_lmrr_5QM\xtb_preparation\stage2_five_xtb_protocols\GFN1_tight\TS2_1a_to_PS2_2\TS2_1a_to_PS2_2_TS_xtbopt.xyz --gfn 1 --chrg 0 --uhf 0 --etemp 0
          coordinate file            : D:\PhD_Thesis\LmrR_EVB\charges\fast_lmrr_5QM\xtb_preparation\stage2_five_xtb_protocols\GFN1_tight\TS2_1a_to_PS2_2\TS2_1a_to_PS2_2_TS_xtbopt.xyz
          omp threads                :                     1


molecular fragmentation (1/2 indicates fragments):
111111111111111211111111112121111111111111111111121111111222221111111111
1111
# atoms in fragment 1/2:    67     9
 fragment masses (1/2) :      446.59       54.05
CMA distance (Bohr)    :   6.029
constraining FC (au)   :  0.0500

           -------------------------------------------------
          |                 G F N 1 - x T B                 |
           -------------------------------------------------

        Reference                      10.1021/acs.jctc.7b00118
      * Hamiltonian:
        H0-scaling (s, p, d)           1.850000    2.250000    2.000000
        zeta-weighting                 0.000000
      * Dispersion:
        s8                             2.400000
        a1                             0.630000
        a2                             5.000000
        s9                             0.000000
      * Repulsion:
        kExp                           1.500000
        rExp                           1.000000
      * Coulomb:
        alpha                          2.000000
        third order                    atomic
        anisotropic                    false
      * Halogen bond correction:
        rad-scale                      1.300000
        damping                        0.440000

q/qsh data taken from xtbrestart

          ...................................................
          :                      SETUP                      :
          :.................................................:
          :  # basis functions                 224          :
          :  # atomic orbitals                 224          :
          :  # shells                          152          :
          :  # electrons                       198          :
          :  # halogen bonds                     0          :
          :  max. iterations                   250          :
          :  Hamiltonian                  GFN1-xTB          :
          :  restarted?                       true          :
          :  GBSA solvation                  false          :
          :  PC potential                    false          :
          :  electronic temp.            0.0000000     K    :
          :  accuracy                    1.0000000          :
          :  -> integral cutoff          0.2500000E+02      :
          :  -> integral neglect         0.1000000E-07      :
          :  -> SCF convergence          0.1000000E-05 Eh   :
          :  -> wf. convergence          0.2000000E-04 e    :
          :  Broyden damping             0.4000000          :
          :  net charge                          0          :
          :  unpaired electrons                  0          :
          ...................................................

 iter      E             dE          RMSdq      gap      omega  full diag
   1   -116.4356182 -0.116436E+03  0.158E-01    3.02       0.0  T
   2   -116.4367977 -0.117949E-02  0.726E-02    3.07       1.0  T
   3   -116.4369567 -0.159036E-03  0.329E-02    3.05       1.0  T
   4   -116.4369791 -0.224067E-04  0.703E-03    3.05       1.6  T
   5   -116.4369805 -0.136192E-05  0.296E-03    3.05       3.9  T
   6   -116.4369807 -0.230665E-06  0.915E-04    3.05      12.5  T
   7   -116.4369807 -0.142971E-07  0.207E-04    3.05      55.4  T
   8   -116.4369807 -0.818247E-09  0.591E-05    3.05     194.1  T
   9   -116.4369807 -0.807034E-10  0.158E-05    3.05     727.7  T

   *** convergence criteria satisfied after 9 iterations ***

         #    Occupation            Energy/Eh            Energy/eV
      -------------------------------------------------------------
         1        2.0000           -0.8112707             -22.0758
       ...           ...                  ...                  ...
        93        2.0000           -0.4406741             -11.9914
        94        2.0000           -0.4349158             -11.8347
        95        2.0000           -0.4322260             -11.7615
        96        2.0000           -0.4211009             -11.4587
        97        2.0000           -0.4103594             -11.1664
        98        2.0000           -0.3916113             -10.6563
        99        2.0000           -0.3783589             -10.2957 (HOMO)
       100                         -0.2661499              -7.2423 (LUMO)
       101                         -0.2561367              -6.9698
       102                         -0.2555328              -6.9534
       103                         -0.2459848              -6.6936
       104                         -0.2401919              -6.5360
       ...                                ...                  ...
       224                          0.7133947              19.4125
      -------------------------------------------------------------
                  HL-Gap            0.1122090 Eh            3.0534 eV
             Fermi-level            0.0000000 Eh            0.0000 eV

 SCC (total)                   0 d,  0 h,  0 min,  0.431 sec
 SCC setup                      ...        0 min,  0.001 sec (  0.232%)
 Dispersion                     ...        0 min,  0.003 sec (  0.696%)
 classical contributions        ...        0 min,  0.000 sec (  0.000%)
 integral evaluation            ...        0 min,  0.083 sec ( 19.258%)
 iterations                     ...        0 min,  0.129 sec ( 29.930%)
 molecular gradient             ...        0 min,  0.206 sec ( 47.796%)
 printout                       ...        0 min,  0.009 sec (  2.088%)

         :::::::::::::::::::::::::::::::::::::::::::::::::::::
         ::                     SUMMARY                     ::
         :::::::::::::::::::::::::::::::::::::::::::::::::::::
         :: total energy            -114.994867578944 Eh    ::
         :: gradient norm              0.000140871410 Eh/a0 ::
         :: HOMO-LUMO gap              3.053363231464 eV    ::
         ::.................................................::
         :: SCC energy              -116.436980702169 Eh    ::
         :: -> electrostatic           0.306383804289 Eh    ::
         :: repulsion energy           1.499485192858 Eh    ::
         :: dispersion energy         -0.057372069632 Eh    ::
         :: halogen bond corr.         0.000000000000 Eh    ::
         :: add. restraining           0.000000000000 Eh    ::
         :: total charge              -0.000000000000 e     ::
         :::::::::::::::::::::::::::::::::::::::::::::::::::::

           -------------------------------------------------
          |                Property Printout                |
           -------------------------------------------------

    * Orbital Energies and Occupations

         #    Occupation            Energy/Eh            Energy/eV
      -------------------------------------------------------------
         1        2.0000           -0.8112707             -22.0758
       ...           ...                  ...                  ...
        87        2.0000           -0.4616768             -12.5629
        88        2.0000           -0.4602459             -12.5239
        89        2.0000           -0.4566291             -12.4255
        90        2.0000           -0.4520910             -12.3020
        91        2.0000           -0.4485919             -12.2068
        92        2.0000           -0.4434818             -12.0678
        93        2.0000           -0.4406741             -11.9914
        94        2.0000           -0.4349158             -11.8347
        95        2.0000           -0.4322260             -11.7615
        96        2.0000           -0.4211009             -11.4587
        97        2.0000           -0.4103594             -11.1664
        98        2.0000           -0.3916113             -10.6563
        99        2.0000           -0.3783589             -10.2957 (HOMO)
       100                         -0.2661499              -7.2423 (LUMO)
       101                         -0.2561367              -6.9698
       102                         -0.2555328              -6.9534
       103                         -0.2459848              -6.6936
       104                         -0.2401919              -6.5360
       105                         -0.2357794              -6.4159
       106                         -0.2192408              -5.9658
       107                         -0.1953229              -5.3150
       108                         -0.1645456              -4.4775
       109                         -0.1468663              -3.9964
       110                         -0.1433700              -3.9013
       ...                                ...                  ...
       224                          0.7133947              19.4125
      -------------------------------------------------------------
                  HL-Gap            0.1122090 Eh            3.0534 eV
             Fermi-level            0.0000000 Eh            0.0000 eV

  Mulliken/CM5 charges         n(s)   n(p)   n(d)
     1N    -0.34398 -0.69736   1.441  3.903  0.000
     2C     0.14412  0.19457   1.044  2.812  0.000
     3C    -0.04947 -0.09886   1.057  2.993  0.000
     4C    -0.02806 -0.08142   1.057  2.971  0.000
     5C    -0.00800 -0.02141   1.079  2.929  0.000
     6C    -0.04309 -0.09601   1.058  2.985  0.000
     7C    -0.06392 -0.11296   1.060  3.004  0.000
     8C    -0.05283 -0.14802   1.035  3.018  0.000
     9C     0.08430  0.08879   1.049  2.867  0.000
    10C     0.10534  0.10992   1.026  2.868  0.000
    11C    -0.13346 -0.19130   1.069  3.065  0.000
    12C     0.00330 -0.05638   1.049  2.947  0.000
    13C    -0.05248 -0.16035   1.039  3.014  0.000
    14C    -0.03982 -0.15295   1.031  3.009  0.000
    15C    -0.08089 -0.23249   1.006  3.075  0.000
    16O    -0.68839 -1.03325   1.703  4.986  0.000
    17N    -0.28611 -0.64261   1.419  3.868  0.000
    18C     0.11055  0.17239   1.034  2.855  0.000
    19C    -0.03380 -0.03247   1.077  2.957  0.000
    20C    -0.07371 -0.07394   1.076  2.998  0.000
    21C    -0.06832 -0.11711   1.052  3.016  0.000
    22C    -0.04848 -0.10407   1.060  2.989  0.000
    23C     0.11139  0.16391   1.049  2.839  0.000
    24C    -0.03857 -0.09401   1.053  2.985  0.000
    25C    -0.04769 -0.10389   1.055  2.993  0.000
    26C    -0.09434 -0.23478   1.007  3.087  0.000
    27O    -0.67328 -1.03121   1.707  4.966  0.000
    28H     0.23369  0.43546   0.766  0.000  0.000
    29H     0.33377  0.50246   0.666  0.000  0.000
    30H     0.03388  0.09447   0.966  0.000  0.000
    31H     0.03074  0.08808   0.969  0.000  0.000
    32H     0.01925  0.07702   0.981  0.000  0.000
    33H     0.03509  0.09782   0.965  0.000  0.000
    34H     0.03490  0.09520   0.965  0.000  0.000
    35H     0.05504  0.11503   0.945  0.000  0.000
    36H     0.07153  0.15067   0.928  0.000  0.000
    37H     0.22009  0.41811   0.780  0.000  0.000
    38H     0.22550  0.42824   0.775  0.000  0.000
    39H     0.02754  0.09511   0.972  0.000  0.000
    40H     0.04491  0.10956   0.955  0.000  0.000
    41H     0.01799  0.07950   0.982  0.000  0.000
    42H     0.03267  0.09359   0.967  0.000  0.000
    43H     0.02535  0.08260   0.975  0.000  0.000
    44H     0.03051  0.09269   0.969  0.000  0.000
    45H     0.00557  0.06162   0.994  0.000  0.000
    46H     0.02213  0.07352   0.978  0.000  0.000
    47H     0.02864  0.08050   0.971  0.000  0.000
    48H     0.03218  0.08435   0.968  0.000  0.000
    49H     0.22924  0.42412   0.771  0.000  0.000
    50H     0.33064  0.49930   0.669  0.000  0.000
    51H     0.02858  0.08621   0.971  0.000  0.000
    52H     0.02970  0.08680   0.970  0.000  0.000
    53H     0.02714  0.08305   0.973  0.000  0.000
    54H     0.02763  0.08359   0.972  0.000  0.000
    55H     0.04876  0.10324   0.951  0.000  0.000
    56H     0.03499  0.08981   0.965  0.000  0.000
    57H     0.04311  0.09656   0.957  0.000  0.000
    58H     0.33345  0.50670   0.667  0.000  0.000
    59H     0.34041  0.50909   0.660  0.000  0.000
    60O    -0.67066 -1.00984   1.696  4.975  0.000
    61H     0.34656  0.52802   0.653  0.000  0.000
    62H     0.32416  0.49557   0.676  0.000  0.000
    63N    -0.37140 -0.73387   1.439  3.933  0.000
    64C     0.46115  0.56319   0.993  2.546  0.000
    65O    -0.55447 -0.60282   1.723  4.832  0.000
    66C    -0.13417 -0.27264   1.023  3.111  0.000
    67C     0.48294  0.57164   0.997  2.520  0.000
    68O    -0.54398 -0.59863   1.723  4.821  0.000
    69H     0.06355  0.12229   0.936  0.000  0.000
    70H     0.03468  0.09094   0.965  0.000  0.000
    71H     0.06200  0.11999   0.938  0.000  0.000
    72N    -0.34272 -0.70856   1.418  3.925  0.000
    73C     0.06691 -0.02189   0.979  2.954  0.000
    74H     0.03366  0.09423   0.966  0.000  0.000
    75H     0.02967  0.09027   0.970  0.000  0.000
    76H     0.06722  0.13533   0.933  0.000  0.000

Wiberg/Mayer (AO) data.
largest (>0.10) Wiberg bond orders for each atom

 ---------------------------------------------------------------------------
     #   Z sym  total        # sym  WBO       # sym  WBO       # sym  WBO
 ---------------------------------------------------------------------------
     1   7 N    3.259 --    10 C    1.081     2 C    1.044    28 H    0.900
                            11 C    0.110
     2   6 C    3.959 --     7 C    1.382     3 C    1.370     1 N    1.044
     3   6 C    3.994 --     4 C    1.464     2 C    1.370    30 H    0.969
                             6 C    0.103
     4   6 C    3.995 --     3 C    1.464     5 C    1.400    31 H    0.972
                             7 C    0.104
     5   6 C    3.987 --     6 C    1.411     4 C    1.400     8 C    1.011
     6   6 C    3.995 --     7 C    1.448     5 C    1.411    32 H    0.972
                             3 C    0.103
     7   6 C    3.992 --     6 C    1.448     2 C    1.382    33 H    0.969
                             4 C    0.104
     8   6 C    3.994 --     5 C    1.011    34 H    0.977    35 H    0.968
                             9 C    0.968
     9   6 C    3.941 --     8 C    0.968    36 H    0.948    64 C    0.943
                            63 N    0.942
    10   6 C    3.958 --    11 C    1.779     1 N    1.081    39 H    0.971
    11   6 C    3.978 --    10 C    1.779    12 C    0.999    40 H    0.961
                             1 N    0.110
    12   6 C    3.994 --    11 C    0.999    20 C    0.989    13 C    0.979
                            41 H    0.964
    13   6 C    3.994 --    14 C    1.005    12 C    0.979    43 H    0.977
                            42 H    0.972
    14   6 C    3.996 --    15 C    1.015    13 C    1.005    45 H    0.978
                            44 H    0.971
    15   6 C    3.996 --    14 C    1.015    47 H    0.987    48 H    0.987
                            46 H    0.987
    16   8 O    1.807 --    29 H    0.891    61 H    0.846
    17   7 N    3.418 --    23 C    1.140    18 C    1.140    49 H    0.913
    18   6 C    3.939 --    21 C    1.348    19 C    1.249    17 N    1.140
    19   6 C    3.985 --    22 C    1.324    18 C    1.249    20 C    1.204
    20   6 C    3.970 --    23 C    1.560    19 C    1.204    12 C    0.989
    21   6 C    3.991 --    24 C    1.486    18 C    1.348    51 H    0.973
                            22 C    0.108
    22   6 C    3.993 --    25 C    1.488    19 C    1.324    52 H    0.970
                            21 C    0.108
    23   6 C    3.930 --    20 C    1.560    17 N    1.140    26 C    1.025
    24   6 C    3.992 --    21 C    1.486    25 C    1.378    53 H    0.975
    25   6 C    3.993 --    22 C    1.488    24 C    1.378    54 H    0.974
    26   6 C    3.995 --    23 C    1.025    56 H    0.981    55 H    0.978
                            57 H    0.967
    27   8 O    1.851 --    59 H    0.882    58 H    0.848
    28   1 H    0.970 --     1 N    0.900
    29   1 H    0.896 --    16 O    0.891
    30   1 H    1.006 --     3 C    0.969
    31   1 H    1.001 --     4 C    0.972
    32   1 H    1.005 --     6 C    0.972
    33   1 H    1.013 --     7 C    0.969
    34   1 H    1.004 --     8 C    0.977
    35   1 H    1.009 --     8 C    0.968
    36   1 H    1.013 --     9 C    0.948
    37   1 H    0.961 --    63 N    0.922
    38   1 H    0.961 --    72 N    0.912
    39   1 H    1.003 --    10 C    0.971
    40   1 H    1.008 --    11 C    0.961
    41   1 H    1.010 --    12 C    0.964
    42   1 H    1.022 --    13 C    0.972
    43   1 H    1.005 --    13 C    0.977
    44   1 H    1.025 --    14 C    0.971
    45   1 H    1.009 --    14 C    0.978
    46   1 H    1.006 --    15 C    0.987
    47   1 H    1.004 --    15 C    0.987
    48   1 H    1.004 --    15 C    0.987
    49   1 H    0.949 --    17 N    0.913
    50   1 H    0.900 --    60 O    0.895
    51   1 H    1.000 --    21 C    0.973
    52   1 H    1.004 --    22 C    0.970
    53   1 H    1.004 --    24 C    0.975
    54   1 H    1.004 --    25 C    0.974
    55   1 H    1.008 --    26 C    0.978
    56   1 H    1.002 --    26 C    0.981
    57   1 H    1.006 --    26 C    0.967
    58   1 H    0.920 --    27 O    0.848
    59   1 H    0.897 --    27 O    0.882
    60   8 O    1.805 --    50 H    0.895    62 H    0.874
    61   1 H    0.902 --    16 O    0.846
    62   1 H    0.919 --    60 O    0.874
    63   7 N    3.281 --    67 C    1.188     9 C    0.942    37 H    0.922
                            68 O    0.148
    64   6 C    3.901 --    65 O    1.635    72 N    1.252     9 C    0.943
    65   8 O    1.935 --    64 C    1.635    72 N    0.170
    66   6 C    3.993 --    67 C    0.987    70 H    0.983    71 H    0.977
                            69 H    0.959
    67   6 C    3.887 --    68 O    1.656    63 N    1.188    66 C    0.987
    68   8 O    1.958 --    67 C    1.656    63 N    0.148
    69   1 H    1.018 --    66 C    0.959
    70   1 H    1.002 --    66 C    0.983
    71   1 H    1.014 --    66 C    0.977
    72   7 N    3.325 --    64 C    1.252    73 C    0.954    38 H    0.912
                            65 O    0.170
    73   6 C    3.947 --    75 H    0.987    74 H    0.985    76 H    0.981
                            72 N    0.954
    74   1 H    1.005 --    73 C    0.985
    75   1 H    1.006 --    73 C    0.987
    76   1 H    1.008 --    73 C    0.981
 ---------------------------------------------------------------------------

Topologies differ in total number of bonds
Writing topology from bond orders to xtbtopo.mol

 dipole moment from electron density (au)
     X       Y       Z   
  -0.0186   0.0040  -1.1248  total (Debye):    2.859


           -------------------------------------------------
          | TOTAL ENERGY             -114.994867578944 Eh   |
          | GRADIENT NORM               0.000140871410 Eh/α |
          | HOMO-LUMO GAP               3.053363231464 eV   |
           -------------------------------------------------

------------------------------------------------------------------------
 * finished run on 2026/08/31 at 13:16:00.767     
------------------------------------------------------------------------
 total:
 * wall-time:     0 d,  0 h,  0 min,  0.563 sec
 *  cpu-time:     0 d,  0 h,  0 min,  0.516 sec
 * ratio c/w:     0.916 speedup
 SCF:
 * wall-time:     0 d,  0 h,  0 min,  0.432 sec
 *  cpu-time:     0 d,  0 h,  0 min,  0.391 sec
 * ratio c/w:     0.904 speedup



===== STDERR =====

normal termination of xtb
