76
 energy: -115.025367463782 gnorm: 0.000227632925 xtb: 6.7.1pre (5071a88)
N            0.20675051498254       -0.22876737436693        0.87496572711386
C            1.57073988427015       -0.32406815982041        0.44960440347547
C            2.57375152890476        0.00991678288692        1.35362993972922
C            3.90158971825900       -0.04170967279986        0.96368187159913
C            4.24280838524799       -0.43283606046991       -0.32911522339798
C            3.23369376814439       -0.78315255602592       -1.22202618931004
C            1.90126143837800       -0.73608746381037       -0.83700543772520
C            5.68263829979296       -0.39558550644459       -0.76639261272005
C            6.08290889368572        1.04845499315517       -1.11544312979765
C           -0.45534934437918        1.00602016186202        0.44587072516252
C            0.44729661002835        2.22461094635604        0.61497291517377
C           -0.33654475113811        3.52499077425115        0.37082948422864
C            0.61776014598482        4.73477231498463        0.30458674741809
C            1.32864357668925        4.82276490456559       -1.04905793904191
C            2.44350521026416        5.86562174722742       -1.03608689278142
O           -0.82274301755133        0.92299262965122       -0.92740647484030
N           -2.54273989715988        3.99466270864621        3.32277205117519
C           -3.49329936083051        3.97059467638468        2.33887426843235
C           -2.81736491920024        3.79127287634510        1.10771035623284
C           -1.41511676188908        3.71606081831332        1.40475006706583
C           -4.87774701181206        4.08656944038431        2.42063720224946
C           -3.56467146163635        3.72265842180101       -0.07272243127167
C           -1.29063549032054        3.84446425416671        2.76767822345140
C           -5.58898837290219        4.01750390352279        1.23620758644620
C           -4.93934600899621        3.83649766280272        0.00729823499306
C           -0.10410454041171        3.82214677610327        3.67511767004927
O            0.48525485436539        2.32668014703055       -3.05803307920785
H           -0.31904548057611       -1.00371439937329        0.47209384218905
H           -1.49969095723150        0.24777821508612       -1.05339139903742
H            2.30587453578317        0.31220814778275        2.35934391200417
H            4.68120726783943        0.22772310088819        1.66821080249769
H            3.49033353775877       -1.08838852448396       -2.23158919626530
H            1.11726901556180       -0.99765644289063       -1.53878325845563
H            5.84462281873851       -1.03561814468066       -1.63827872991565
H            6.34275716455708       -0.73793606577993        0.03505876025376
H            5.81465545040944        1.71823053954567       -0.28686328963372
H            5.40193380646556        0.91955055629397       -3.10080261768701
H            7.23754528136616        2.83999177607374       -2.43567490082883
H           -1.36746903329656        1.11273787483234        1.05991853389574
H            1.27073690975496        2.15526753674923       -0.09982349465247
H           -0.82899694304328        3.43585581554057       -0.60736911869300
H            0.03942933049453        5.65128044575486        0.46814045664975
H            1.36036849934102        4.66589964228314        1.10589865501289
H            1.76228488741835        3.85162238419540       -1.29952955992136
H            0.59635113332932        5.06883260269265       -1.82611389223701
H            2.88875765130715        5.94559838993543       -2.02838393119040
H            2.05959849136382        6.84529402607782       -0.74557195250843
H            3.22363569975008        5.57053874022292       -0.33356279644531
H           -2.71670799535211        4.13905959362248        4.30310109692675
H            0.36897232425680        6.98804738931061        2.46211595936508
H           -5.37579511572113        4.22463713296185        3.37320868078341
H           -3.07779367437456        3.58075835308591       -1.03150726204920
H           -6.66988587051078        4.10357108209560        1.25490306104759
H           -5.53512637474575        3.78576632681481       -0.89775675363305
H            0.80853246186970        4.03949077804746        3.12464471077439
H           -0.21833090635300        4.57290865429744        4.45792973175889
H           -0.00200440923815        2.84273731728821        4.14865096760695
H            0.86982386103031        2.21590580849003        1.62189477495167
H           -0.17107604856841        3.02511996167972       -3.07544840189287
O           -0.40096317293390        6.76603402488265        2.98884488570380
H            0.21501349579343        1.74009852974026       -2.33833750426600
H           -1.00003800118019        6.28390803222638        2.41194532832732
N            5.36504760195955        1.51800462121044       -2.28915875121595
C            7.59491143931561        1.15593788546217       -1.33737908793010
O            8.37998819205920        0.36544782709389       -0.85495286660678
C            3.49615020890145        2.50917384242184       -3.42488781862755
C            4.29967764619276        2.36449366097226       -2.15708846197989
O            4.05812680273283        2.95734683420725       -1.12733595481191
H            2.80271397036803        1.67162760081045       -3.49486370447539
H            4.13890488637028        2.50859017007142       -4.30343570666553
H            2.91254027289304        3.42512721576848       -3.38685761524748
N            7.94865292607558        2.20855769499454       -2.09947500539782
C            9.34056027596455        2.51905044599072       -2.36974016161457
H            9.60007525757066        3.48922902612115       -1.93882591573785
H            9.51617941294891        2.54440961134906       -3.44779208904951
H            9.95473957482850        1.74081421568708       -1.91622102534241
