57
 energy: -83.438995226811 gnorm: 0.000131452027 xtb: 6.7.1pre (5071a88)
N           -0.43550110987799       -0.70232835863668       -0.24389239901178
C            0.93745556160175       -0.63493771987871       -0.14013937808879
C            1.52403169845149        0.12586043458729        0.87380380336286
C            2.89016472952478        0.30187530226929        0.91494682494935
C            3.71859417933559       -0.27516138663732       -0.04201348242299
C            3.13510783269681       -1.05016814947122       -1.03623828304285
C            1.76688650779870       -1.23336839836834       -1.08840945875831
C            5.19848565494391       -0.01875351789054       -0.02819387956065
C            5.51670743829529        1.38192882730153       -0.55890574440605
C           -1.15005386626301        1.16046114428735       -1.69748144135913
C            0.09995316358334        1.86010373520131       -1.44072194907018
C            0.20841527285215        2.80175701546534       -0.50061527703488
C            1.44833473722555        3.54871568575672       -0.17627314494156
C            1.31395519732568        5.03524879174373       -0.53505720773303
C            2.58255408677297        5.80081630115569       -0.18327424095931
O           -2.22419695968865        1.43371094491302       -1.19141981249497
O           -4.01877971578934        0.81048675597801        0.77449312172192
H           -0.94650721896765       -0.48907812342436        0.61170322737258
H           -0.80348696024890       -1.48657290255285       -0.76036742735733
H            0.88555773128477        0.56861415301574        1.62278109079631
H            3.32799531738656        0.89344961421001        1.70618341774998
H            3.76050226099573       -1.53269334103227       -1.77619663938906
H            1.33044610377258       -1.83993442767400       -1.87012822543264
H            5.72726611177499       -0.74782503659941       -0.64503786401623
H            5.59546240556008       -0.09331045138788        0.98519845348737
H            5.13838659206534        2.15278658906792        0.12392063692618
H            4.60465496236789        0.75437704068496       -2.35035290386655
H            6.63476505399189        3.54783914668261       -1.00029877296132
H           -1.09657513285205        0.40643720998785       -2.50287290207259
H            0.95595252900469        1.55675709490151       -2.02532132645040
H           -0.67774005319368        3.06654149891690        0.06248006134479
H            1.64038270309555        3.46724248876913        0.89661607430862
H            2.29888320313788        3.12256728185938       -0.70980716688253
H            1.11731319043676        5.12413302430231       -1.60557500919236
H            0.46075879989347        5.46178301481149       -0.00264184468227
H            2.49035878766820        6.84400944058691       -0.47611383348813
H            2.76796027834683        5.76002547666717        0.88799550802623
H            3.43860164041820        5.37083017481122       -0.69748509070568
H           -4.36179662931857        1.66765284888984        1.03411587700180
H           -3.48664487907441        0.97038257110730       -0.02402876251171
O           -1.94121608153506       -0.23662297201894        2.17208820643169
H           -2.26411372244884       -0.98471776496494        2.67669874196390
H           -2.72742606319853        0.16086016839628        1.74341763414623
N            4.86009996127404        1.58503491548534       -1.83975516785582
C            7.04197985873586        1.57620998077542       -0.71814089597578
O            7.82991432929234        0.65380696697758       -0.68533803173351
C            3.74868022701425        2.77478945678536       -3.60706224516665
C            4.52660105488430        2.79744980003119       -2.31224680462651
O            4.84170116502506        3.83018133533862       -1.74076343067943
H            2.95217259618433        2.03588054039588       -3.56800671749614
H            4.41961783003418        2.52354923297029       -4.42657597439904
H            3.32687671997660        3.75885418499460       -3.78996700931356
N            7.37737617154608        2.86316475592470       -0.89591157346546
C            8.73605944647266        3.28591516514696       -1.13059860065885
H            9.02512322913676        4.04682966837971       -0.40423240378891
H            8.84760485685477        3.69471054329871       -2.13701318418984
H            9.38033721442834        2.41484222744829       -1.02096717236293
