      -----------------------------------------------------------      
     |                   =====================                   |     
     |                           x T B                           |     
     |                   =====================                   |     
     |                         S. Grimme                         |     
     |          Mulliken Center for Theoretical Chemistry        |     
     |                    University of Bonn                     |     
      -----------------------------------------------------------      

   * xtb version 6.7.1pre (5071a88) compiled by 'Marcel@Raven' on 2024-07-23

   xtb is free software: you can redistribute it and/or modify it under
   the terms of the GNU Lesser General Public License as published by
   the Free Software Foundation, either version 3 of the License, or
   (at your option) any later version.
   
   xtb is distributed in the hope that it will be useful,
   but WITHOUT ANY WARRANTY; without even the implied warranty of
   MERCHANTABILITY or FITNESS FOR A PARTICULAR PURPOSE.  See the
   GNU Lesser General Public License for more details.
   
   Cite this work as:
   * C. Bannwarth, E. Caldeweyher, S. Ehlert, A. Hansen, P. Pracht,
     J. Seibert, S. Spicher, S. Grimme, WIREs Comput. Mol. Sci., 2020, 11,
     e01493. DOI: 10.1002/wcms.1493
   
   for GFN2-xTB:
   * C. Bannwarth, S. Ehlert and S. Grimme., J. Chem. Theory Comput., 2019,
     15, 1652-1671. DOI: 10.1021/acs.jctc.8b01176
   for GFN1-xTB:
   * S. Grimme, C. Bannwarth, P. Shushkov, J. Chem. Theory Comput., 2017,
     13, 1989-2009. DOI: 10.1021/acs.jctc.7b00118
   for GFN0-xTB:
   * P. Pracht, E. Caldeweyher, S. Ehlert, S. Grimme, ChemRxiv, 2019, preprint.
     DOI: 10.26434/chemrxiv.8326202.v1
   for GFN-FF:
   * S. Spicher and S. Grimme, Angew. Chem. Int. Ed., 2020, 59, 15665-15673.
     DOI: 10.1002/anie.202004239
   
   for ALPB and GBSA implicit solvation:
   * S. Ehlert, M. Stahn, S. Spicher, S. Grimme, J. Chem. Theory Comput.,
     2021, 17, 4250-4261. DOI: 10.1021/acs.jctc.1c00471
   
   for ddCOSMO and CPCM-X implicit solvation:
   * M. Stahn, S. Ehlert, S. Grimme, J. Phys. Chem. A,
     2023, XX, XXXX-XXXX. DOI: 10.1021/acs.jpca.3c04382
   
   for DFT-D4:
   * E. Caldeweyher, C. Bannwarth and S. Grimme, J. Chem. Phys., 2017,
     147, 034112. DOI: 10.1063/1.4993215
   * E. Caldeweyher, S. Ehlert, A. Hansen, H. Neugebauer, S. Spicher,
     C. Bannwarth and S. Grimme, J. Chem. Phys., 2019, 150, 154122.
     DOI: 10.1063/1.5090222
   * E. Caldeweyher, J.-M. Mewes, S. Ehlert and S. Grimme, Phys. Chem. Chem. Phys.
     2020, 22, 8499-8512. DOI: 10.1039/D0CP00502A
   
   for sTDA-xTB:
   * S. Grimme and C. Bannwarth, J. Chem. Phys., 2016, 145, 054103.
     DOI: 10.1063/1.4959605
   
   in the mass-spec context:
   * V. Asgeirsson, C. Bauer and S. Grimme, Chem. Sci., 2017, 8, 4879.
     DOI: 10.1039/c7sc00601b
   * J. Koopman and S. Grimme, ACS Omega 2019, 4, 12, 15120-15133.
     DOI: 10.1021/acsomega.9b02011
   
   for metadynamics refer to:
   * S. Grimme, J. Chem. Theory Comput., 2019, 155, 2847-2862
     DOI: 10.1021/acs.jctc.9b00143
   
   for SPH calculations refer to:
   * S. Spicher and S. Grimme, J. Chem. Theory Comput., 2021, 17, 1701-1714
     DOI: 10.1021/acs.jctc.0c01306
   
   for ONIOM refer to:
   * C. Plett, A. Katbashev, S. Ehlert, S. Grimme, M. Bursch,
     Phys. Chem. Chem. Phys., 2023, 25, 17860-17868. DOI: 10.1039/D3CP02178E
   
   for DIPRO refer to:
   * J. Kohn, N. Gildemeister, S. Grimme, D. Fazzi, A. Hansen,
     J. Chem. Phys., 2023, just accepted.
   
   for PTB refer to:
   * S. Grimme, M. Mueller, A. Hansen, J. Chem. Phys., 2023, 158, 124111.
     DOI: 10.1063/5.0137838
   
   with help from (in alphabetical order)
   P. Atkinson, C. Bannwarth, F. Bohle, G. Brandenburg, E. Caldeweyher
   M. Checinski, S. Dohm, S. Ehlert, S. Ehrlich, I. Gerasimov, C. Hölzer
   A. Katbashev, J. Kohn, J. Koopman, C. Lavigne, S. Lehtola, F. März, M. Müller,
   F. Musil, H. Neugebauer, J. Pisarek, C. Plett, P. Pracht, F. Pultar,
   J. Seibert, P. Shushkov, S. Spicher, M. Stahn, M. Steiner, T. Strunk,
   J. Stückrath, T. Rose, and J. Unsleber
   
 * started run on 2026/08/20 at 20:25:56.503     
   ID    Z sym.   atoms
    1    7 N      1, 44, 53
    2    6 C      2-15, 45, 47, 48, 54
    3    8 O      16, 17, 41, 46, 49
    4    1 H      18-40, 42, 43, 50-52, 55-57

           -------------------------------------------------
          |                Calculation Setup                |
           -------------------------------------------------

          program call               : C:\Users\Nayanika\Downloads\xtb-6.7.1pre-windows-x86_64\xtb-6.7.1\bin\xtb.exe D:\PhD_Thesis\LmrR_EVB\charges\fast_lmrr_5QM\xtb_preparation\RS1_1_to_TS1_2\RS1_1_to_TS1_2_TS.xyz --gfn 2 --opt tight --chrg 0 --uhf 0 --etemp 0
          coordinate file            : D:\PhD_Thesis\LmrR_EVB\charges\fast_lmrr_5QM\xtb_preparation\RS1_1_to_TS1_2\RS1_1_to_TS1_2_TS.xyz
          omp threads                :                     8


molecular fragmentation (1/2 indicates fragments):
111111111222222221111111111122222222222222211111111111111
# atoms in fragment 1/2:    34    23
 fragment masses (1/2) :      235.28      134.17
CMA distance (Bohr)    :  12.319
constraining FC (au)   :  0.0500

           -------------------------------------------------
          |                 G F N 2 - x T B                 |
           -------------------------------------------------

        Reference                      10.1021/acs.jctc.8b01176
      * Hamiltonian:
        H0-scaling (s, p, d)           1.850000    2.230000    2.230000
        zeta-weighting                 0.500000
      * Dispersion:
        s8                             2.700000
        a1                             0.520000
        a2                             5.000000
        s9                             5.000000
      * Repulsion:
        kExp                           1.500000    1.000000
        rExp                           1.000000
      * Coulomb:
        alpha                          2.000000
        third order                    shell-resolved
        anisotropic                    true
        a3                             3.000000
        a5                             4.000000
        cn-shift                       1.200000
        cn-exp                         4.000000
        max-rad                        5.000000

q/qsh data taken from xtbrestart
CAMM data taken from xtbrestart

          ...................................................
          :                      SETUP                      :
          :.................................................:
          :  # basis functions                 135          :
          :  # atomic orbitals                 135          :
          :  # shells                           83          :
          :  # electrons                       148          :
          :  max. iterations                   250          :
          :  Hamiltonian                  GFN2-xTB          :
          :  restarted?                       true          :
          :  GBSA solvation                  false          :
          :  PC potential                    false          :
          :  electronic temp.            0.0000000     K    :
          :  accuracy                    1.0000000          :
          :  -> integral cutoff          0.2500000E+02      :
          :  -> integral neglect         0.1000000E-07      :
          :  -> SCF convergence          0.1000000E-05 Eh   :
          :  -> wf. convergence          0.1000000E-03 e    :
          :  Broyden damping             0.4000000          :
          :  net charge                          0          :
          :  unpaired electrons                  0          :
          ...................................................

 iter      E             dE          RMSdq      gap      omega  full diag
   1    -84.2969135 -0.842969E+02  0.353E+00    3.22       0.0  T
   2    -84.3521559 -0.552424E-01  0.218E+00    2.13       1.0  T
   3    -84.3227723  0.293836E-01  0.131E+00    2.06       1.0  T
   4    -84.3624012 -0.396290E-01  0.437E-01    1.99       1.0  T
   5    -84.3701848 -0.778351E-02  0.996E-02    1.88       1.0  T
   6    -84.3702114 -0.266362E-04  0.611E-02    1.90       1.0  T
   7    -84.3702739 -0.624957E-04  0.235E-02    1.90       1.0  T
   8    -84.3702789 -0.500614E-05  0.725E-03    1.90       1.8  T
   9    -84.3702799 -0.952512E-06  0.392E-03    1.90       3.4  T
  10    -84.3702801 -0.212004E-06  0.942E-04    1.90      14.1  T
  11    -84.3702801 -0.102382E-07  0.403E-04    1.90      32.9  T

   *** convergence criteria satisfied after 11 iterations ***

         #    Occupation            Energy/Eh            Energy/eV
      -------------------------------------------------------------
         1        2.0000           -0.7094063             -19.3039
       ...           ...                  ...                  ...
        68        2.0000           -0.4023093             -10.9474
        69        2.0000           -0.3983721             -10.8403
        70        2.0000           -0.3903175             -10.6211
        71        2.0000           -0.3729124             -10.1475
        72        2.0000           -0.3603673              -9.8061
        73        2.0000           -0.3396926              -9.2435
        74        2.0000           -0.3013708              -8.2007 (HOMO)
        75                         -0.2316796              -6.3043 (LUMO)
        76                         -0.2192200              -5.9653
        77                         -0.2153957              -5.8612
        78                         -0.2082825              -5.6677
        79                         -0.1829973              -4.9796
       ...                                ...                  ...
       135                          0.6522037              17.7474
      -------------------------------------------------------------
                  HL-Gap            0.0696913 Eh            1.8964 eV
             Fermi-level            0.0000000 Eh            0.0000 eV

 SCC (total)                   0 d,  0 h,  0 min,  0.116 sec
 SCC setup                      ...        0 min,  0.000 sec (  0.000%)
 Dispersion                     ...        0 min,  0.001 sec (  0.862%)
 classical contributions        ...        0 min,  0.000 sec (  0.000%)
 integral evaluation            ...        0 min,  0.003 sec (  2.586%)
 iterations                     ...        0 min,  0.102 sec ( 87.931%)
 molecular gradient             ...        0 min,  0.009 sec (  7.759%)
 printout                       ...        0 min,  0.001 sec (  0.862%)

         :::::::::::::::::::::::::::::::::::::::::::::::::::::
         ::                     SUMMARY                     ::
         :::::::::::::::::::::::::::::::::::::::::::::::::::::
         :: total energy             -83.305257358613 Eh    ::
         :: gradient norm              0.164051006094 Eh/a0 ::
         :: HOMO-LUMO gap              1.896396347776 eV    ::
         ::.................................................::
         :: SCC energy               -84.369626100992 Eh    ::
         :: -> isotropic ES            0.201722814520 Eh    ::
         :: -> anisotropic ES          0.013943549765 Eh    ::
         :: -> anisotropic XC          0.029812758381 Eh    ::
         :: -> dispersion             -0.051798097583 Eh    ::
         :: repulsion energy           1.064368742379 Eh    ::
         :: add. restraining           0.000000000000 Eh    ::
         :: total charge               0.000000000000 e     ::
         :::::::::::::::::::::::::::::::::::::::::::::::::::::

      ----------------------------------------------------------- 
     |                   =====================                   |
     |                        A N C O P T                        |
     |                   =====================                   |
     |               Approximate Normal Coordinate               |
     |                Rational Function Optimizer                |
      ----------------------------------------------------------- 
      ----------------------------------------------------------- 
     |                   =====================                   |
     |                        A N C O P T                        |
     |                   =====================                   |
     |               Approximate Normal Coordinate               |
     |                Rational Function Optimizer                |
      ----------------------------------------------------------- 

          ...................................................
          :                      SETUP                      :
          :.................................................:
          :   optimization level             tight          :
          :   max. optcycles                   285          :
          :   ANC micro-cycles                  20          :
          :   degrees of freedom               165          :
          :.................................................:
          :   RF solver                   davidson          :
          :   write xtbopt.log                true          :
          :   linear?                        false          :
          :   energy convergence         0.1000000E-05 Eh   :
          :   grad. convergence          0.8000000E-03 Eh/α :
          :   maxmium RF displ.          1.0000000          :
          :   Hlow (freq-cutoff)         0.1000000E-01      :
          :   Hmax (freq-cutoff)         5.0000000          :
          :   S6 in model hess.         20.0000000          :
          ...................................................

generating ANC from exact Hessian ...
Using Lindh-Hessian (1995)
 Shifting diagonal of input Hessian by   1.012279901036196E-002
 Lowest  eigenvalues of input Hessian
    0.010000    0.010081    0.010097    0.000000    0.000000    0.000000
    0.000000    0.000000    0.000000    0.010143    0.010161    0.010191
    0.010192    0.010282    0.010398    0.010511    0.010559    0.010585
 Highest eigenvalues
    1.899490    1.943617    1.980481    2.016653    2.236953    2.249130
 

........................................................................
.............................. CYCLE    1 ..............................
........................................................................

 iter      E             dE          RMSdq      gap      omega  full diag
   1    -84.3702801 -0.843703E+02  0.159E-04    1.90       0.0  T
   2    -84.3702801 -0.261934E-09  0.989E-05    1.90     134.0  T
   3    -84.3702801 -0.162927E-09  0.596E-05    1.90     222.3  T
     SCC iter.                  ...        0 min,  0.026 sec
     gradient                   ...        0 min,  0.009 sec
 * total energy  :   -83.3052574 Eh     change       -0.4331156E-08 Eh
   gradient norm :     0.1640521 Eh/α   predicted     0.0000000E+00 (-100.00%)
   displ. norm   :     0.5445889 α      lambda       -0.5713454E-01
   maximum displ.:     0.1855516 α      in ANC's #44, #47, #45, ...

........................................................................
.............................. CYCLE    2 ..............................
........................................................................

 iter      E             dE          RMSdq      gap      omega  full diag
   1    -84.4212262 -0.844212E+02  0.432E-01    2.21       0.0  T
   2    -84.4226160 -0.138976E-02  0.225E-01    2.50       1.0  T
   3    -84.4224061  0.209835E-03  0.129E-01    2.52       1.0  T
   4    -84.4227198 -0.313702E-03  0.519E-02    2.52       1.0  T
   5    -84.4227993 -0.794938E-04  0.116E-02    2.52       1.1  T
   6    -84.4228041 -0.474408E-05  0.522E-03    2.52       2.5  T
   7    -84.4228047 -0.628269E-06  0.228E-03    2.52       5.8  T
   8    -84.4228047 -0.313584E-07  0.107E-03    2.52      12.4  T
   9    -84.4228048 -0.258642E-07  0.345E-04    2.52      38.4  T
  10    -84.4228048 -0.167316E-08  0.142E-04    2.52      93.1  T
     SCC iter.                  ...        0 min,  0.090 sec
     gradient                   ...        0 min,  0.008 sec
 * total energy  :   -83.3458167 Eh     change       -0.4055929E-01 Eh
   gradient norm :     0.1124718 Eh/α   predicted    -0.3704265E-01 (  -8.67%)
   displ. norm   :     0.5287982 α      lambda       -0.3365564E-01
   maximum displ.:     0.1670780 α      in ANC's #47, #39, #99, ...

........................................................................
.............................. CYCLE    3 ..............................
........................................................................

 iter      E             dE          RMSdq      gap      omega  full diag
   1    -84.4539100 -0.844539E+02  0.420E-01    2.66       0.0  T
   2    -84.4565372 -0.262717E-02  0.206E-01    3.04       1.0  T
   3    -84.4565583 -0.211802E-04  0.106E-01    3.11       1.0  T
   4    -84.4565375  0.208564E-04  0.526E-02    3.12       1.0  T
   5    -84.4566369 -0.994214E-04  0.122E-02    3.12       1.1  T
   6    -84.4566410 -0.404657E-05  0.505E-03    3.12       2.6  T
   7    -84.4566416 -0.646177E-06  0.210E-03    3.12       6.3  T
   8    -84.4566416 -0.325135E-07  0.100E-03    3.12      13.2  T
   9    -84.4566417 -0.168866E-07  0.327E-04    3.12      40.5  T
  10    -84.4566417 -0.175028E-08  0.120E-04    3.12     110.5  T
     SCC iter.                  ...        0 min,  0.083 sec
     gradient                   ...        0 min,  0.009 sec
 * total energy  :   -83.3670816 Eh     change       -0.2126497E-01 Eh
   gradient norm :     0.0459440 Eh/α   predicted    -0.2153373E-01 (   1.26%)
   displ. norm   :     0.4771489 α      lambda       -0.9476312E-02
   maximum displ.:     0.1422696 α      in ANC's #15, #28, #39, ...

........................................................................
.............................. CYCLE    4 ..............................
........................................................................

 iter      E             dE          RMSdq      gap      omega  full diag
   1    -84.4631994 -0.844632E+02  0.180E-01    3.16       0.0  T
   2    -84.4635307 -0.331292E-03  0.958E-02    3.29       1.0  T
   3    -84.4635273  0.334753E-05  0.453E-02    3.33       1.0  T
   4    -84.4635360 -0.862693E-05  0.179E-02    3.34       1.0  T
   5    -84.4635494 -0.134086E-04  0.410E-03    3.34       3.2  T
   6    -84.4635495 -0.882267E-07  0.247E-03    3.34       5.4  T
   7    -84.4635496 -0.101711E-06  0.111E-03    3.34      12.0  T
   8    -84.4635496 -0.201204E-07  0.400E-04    3.34      33.1  T
   9    -84.4635496 -0.421149E-08  0.152E-04    3.34      86.9  T
     SCC iter.                  ...        0 min,  0.077 sec
     gradient                   ...        0 min,  0.008 sec
 * total energy  :   -83.3742036 Eh     change       -0.7121983E-02 Eh
   gradient norm :     0.0369708 Eh/α   predicted    -0.5816889E-02 ( -18.32%)
   displ. norm   :     0.5893667 α      lambda       -0.8150454E-02
   maximum displ.:     0.1841523 α      in ANC's #32, #28, #7, ...

........................................................................
.............................. CYCLE    5 ..............................
........................................................................

 iter      E             dE          RMSdq      gap      omega  full diag
   1    -84.4750748 -0.844751E+02  0.217E-01    3.42       0.0  T
   2    -84.4753074 -0.232632E-03  0.120E-01    3.52       1.0  T
   3    -84.4752849  0.224693E-04  0.503E-02    3.55       1.0  T
   4    -84.4753258 -0.408946E-04  0.159E-02    3.56       1.0  T
   5    -84.4753336 -0.776940E-05  0.566E-03    3.56       2.3  T
   6    -84.4753340 -0.381031E-06  0.333E-03    3.56       4.0  T
   7    -84.4753341 -0.170814E-06  0.123E-03    3.56      10.7  T
   8    -84.4753342 -0.300137E-07  0.478E-04    3.56      27.7  T
   9    -84.4753342 -0.544851E-08  0.169E-04    3.56      78.4  T
     SCC iter.                  ...        0 min,  0.075 sec
     gradient                   ...        0 min,  0.009 sec
 * total energy  :   -83.3791901 Eh     change       -0.4986449E-02 Eh
   gradient norm :     0.0317175 Eh/α   predicted    -0.5490798E-02 (  10.11%)
   displ. norm   :     0.6241757 α      lambda       -0.6501831E-02
   maximum displ.:     0.2692635 α      in ANC's #15, #32, #28, ...

........................................................................
.............................. CYCLE    6 ..............................
........................................................................

 iter      E             dE          RMSdq      gap      omega  full diag
   1    -84.4761717 -0.844762E+02  0.208E-01    3.56       0.0  T
   2    -84.4763906 -0.218941E-03  0.120E-01    3.55       1.0  T
   3    -84.4763589  0.316886E-04  0.509E-02    3.55       1.0  T
   4    -84.4763975 -0.386118E-04  0.205E-02    3.55       1.0  T
   5    -84.4764130 -0.154446E-04  0.623E-03    3.55       2.1  T
   6    -84.4764138 -0.833892E-06  0.321E-03    3.55       4.1  T
   7    -84.4764139 -0.128317E-06  0.116E-03    3.55      11.4  T
   8    -84.4764139 -0.819841E-08  0.353E-04    3.55      37.5  T
   9    -84.4764139 -0.227838E-08  0.140E-04    3.55      94.4  T
     SCC iter.                  ...        0 min,  0.072 sec
     gradient                   ...        0 min,  0.010 sec
 * total energy  :   -83.3832137 Eh     change       -0.4023658E-02 Eh
   gradient norm :     0.0449586 Eh/α   predicted    -0.4517456E-02 (  12.27%)
   displ. norm   :     0.5182737 α      lambda       -0.4832720E-02
   maximum displ.:     0.1854843 α      in ANC's #22, #17, #33, ...

........................................................................
.............................. CYCLE    7 ..............................
........................................................................

 iter      E             dE          RMSdq      gap      omega  full diag
   1    -84.4913947 -0.844914E+02  0.142E-01    3.49       0.0  T
   2    -84.4914859 -0.911881E-04  0.808E-02    3.42       1.0  T
   3    -84.4914739  0.120174E-04  0.319E-02    3.40       1.0  T
   4    -84.4914918 -0.179536E-04  0.108E-02    3.40       1.2  T
   5    -84.4914957 -0.388980E-05  0.388E-03    3.40       3.4  T
   6    -84.4914960 -0.322190E-06  0.192E-03    3.40       6.9  T
   7    -84.4914961 -0.566971E-07  0.816E-04    3.40      16.2  T
   8    -84.4914961 -0.656620E-08  0.272E-04    3.40      48.8  T
     SCC iter.                  ...        0 min,  0.065 sec
     gradient                   ...        0 min,  0.008 sec
 * total energy  :   -83.3868879 Eh     change       -0.3674151E-02 Eh
   gradient norm :     0.0314565 Eh/α   predicted    -0.3065421E-02 ( -16.57%)
   displ. norm   :     0.7053623 α      lambda       -0.5684564E-02
   maximum displ.:     0.2681201 α      in ANC's #22, #24, #33, ...

........................................................................
.............................. CYCLE    8 ..............................
........................................................................

 iter      E             dE          RMSdq      gap      omega  full diag
   1    -84.4914033 -0.844914E+02  0.193E-01    3.11       0.0  T
   2    -84.4914777 -0.743788E-04  0.112E-01    3.07       1.0  T
   3    -84.4914297  0.480372E-04  0.443E-02    3.04       1.0  T
   4    -84.4914918 -0.621500E-04  0.125E-02    3.05       1.1  T
   5    -84.4914956 -0.375463E-05  0.560E-03    3.05       2.4  T
   6    -84.4914962 -0.647315E-06  0.249E-03    3.05       5.3  T
   7    -84.4914963 -0.661604E-07  0.999E-04    3.05      13.3  T
   8    -84.4914963 -0.967646E-08  0.325E-04    3.05      40.8  T
     SCC iter.                  ...        0 min,  0.063 sec
     gradient                   ...        0 min,  0.008 sec
 * total energy  :   -83.3902011 Eh     change       -0.3313265E-02 Eh
   gradient norm :     0.0396004 Eh/α   predicted    -0.4256421E-02 (  28.47%)
   displ. norm   :     0.6355589 α      lambda       -0.5621465E-02
   maximum displ.:     0.2471309 α      in ANC's #22, #5, #24, ...

........................................................................
.............................. CYCLE    9 ..............................
........................................................................

 iter      E             dE          RMSdq      gap      omega  full diag
   1    -84.4982928 -0.844983E+02  0.182E-01    2.92       0.0  T
   2    -84.4983655 -0.727283E-04  0.106E-01    2.86       1.0  T
   3    -84.4982963  0.691713E-04  0.512E-02    2.82       1.0  T
   4    -84.4983866 -0.902343E-04  0.122E-02    2.82       1.1  T
   5    -84.4983888 -0.226537E-05  0.556E-03    2.83       2.4  T
   6    -84.4983896 -0.789416E-06  0.239E-03    2.83       5.6  T
   7    -84.4983897 -0.534133E-07  0.904E-04    2.83      14.7  T
   8    -84.4983897 -0.509783E-08  0.301E-04    2.83      44.0  T
     SCC iter.                  ...        0 min,  0.066 sec
     gradient                   ...        0 min,  0.007 sec
 * total energy  :   -83.3930929 Eh     change       -0.2891819E-02 Eh
   gradient norm :     0.0427201 Eh/α   predicted    -0.3946087E-02 (  36.46%)
   displ. norm   :     0.5416161 α      lambda       -0.4912952E-02
   maximum displ.:     0.2089263 α      in ANC's #22, #43, #24, ...

........................................................................
.............................. CYCLE   10 ..............................
........................................................................

 iter      E             dE          RMSdq      gap      omega  full diag
   1    -84.5073241 -0.845073E+02  0.198E-01    3.06       0.0  T
   2    -84.5076430 -0.318888E-03  0.115E-01    2.91       1.0  T
   3    -84.5075680  0.749968E-04  0.727E-02    2.87       1.0  T
   4    -84.5076833 -0.115289E-03  0.221E-02    2.86       1.0  T
   5    -84.5076952 -0.119330E-04  0.540E-03    2.86       2.5  T
   6    -84.5076961 -0.923220E-06  0.225E-03    2.87       5.9  T
   7    -84.5076962 -0.104099E-06  0.100E-03    2.87      13.2  T
   8    -84.5076962 -0.257756E-08  0.390E-04    2.87      34.0  T
   9    -84.5076962 -0.251185E-08  0.117E-04    2.87     113.2  T
     SCC iter.                  ...        0 min,  0.076 sec
     gradient                   ...        0 min,  0.008 sec
 * total energy  :   -83.3945439 Eh     change       -0.1450959E-02 Eh
   gradient norm :     0.0655486 Eh/α   predicted    -0.3177078E-02 ( 118.96%)
   displ. norm   :     0.4264368 α      lambda       -0.4357377E-02
   maximum displ.:     0.1656908 α      in ANC's #22, #27, #24, ...

........................................................................
.............................. CYCLE   11 ..............................
........................................................................

 iter      E             dE          RMSdq      gap      omega  full diag
   1    -84.4957221 -0.844957E+02  0.126E-01    2.61       0.0  T
   2    -84.4958361 -0.114048E-03  0.719E-02    2.64       1.0  T
   3    -84.4958215  0.146057E-04  0.373E-02    2.64       1.0  T
   4    -84.4958397 -0.181586E-04  0.165E-02    2.64       1.0  T
   5    -84.4958495 -0.986232E-05  0.365E-03    2.64       3.6  T
   6    -84.4958497 -0.155865E-06  0.181E-03    2.64       7.3  T
   7    -84.4958498 -0.844604E-07  0.796E-04    2.64      16.6  T
   8    -84.4958498 -0.458978E-08  0.287E-04    2.64      46.2  T
     SCC iter.                  ...        0 min,  0.066 sec
     gradient                   ...        0 min,  0.008 sec
 * total energy  :   -83.3973627 Eh     change       -0.2818749E-02 Eh
   gradient norm :     0.0305976 Eh/α   predicted    -0.2574883E-02 (  -8.65%)
   displ. norm   :     0.4386938 α      lambda       -0.3965880E-02
   maximum displ.:     0.1620057 α      in ANC's #27, #22, #2, ...

........................................................................
.............................. CYCLE   12 ..............................
........................................................................

 iter      E             dE          RMSdq      gap      omega  full diag
   1    -84.5166083 -0.845166E+02  0.138E-01    2.40       0.0  T
   2    -84.5168220 -0.213684E-03  0.795E-02    2.45       1.0  T
   3    -84.5168135  0.851969E-05  0.446E-02    2.45       1.0  T
   4    -84.5168286 -0.150878E-04  0.216E-02    2.45       1.0  T
   5    -84.5168461 -0.175418E-04  0.412E-03    2.45       3.2  T
   6    -84.5168463 -0.219687E-06  0.163E-03    2.45       8.1  T
   7    -84.5168464 -0.367467E-07  0.770E-04    2.45      17.2  T
   8    -84.5168464 -0.196228E-08  0.288E-04    2.45      46.0  T
     SCC iter.                  ...        0 min,  0.068 sec
     gradient                   ...        0 min,  0.008 sec
 * total energy  :   -83.3974953 Eh     change       -0.1326235E-03 Eh
   gradient norm :     0.0599716 Eh/α   predicted    -0.2364567E-02 (1682.92%)
   displ. norm   :     0.4143169 α      lambda       -0.5211315E-02
   maximum displ.:     0.1556731 α      in ANC's #27, #24, #22, ...

........................................................................
.............................. CYCLE   13 ..............................
........................................................................

 iter      E             dE          RMSdq      gap      omega  full diag
   1    -84.4996723 -0.844997E+02  0.138E-01    2.34       0.0  T
   2    -84.4998091 -0.136788E-03  0.801E-02    2.32       1.0  T
   3    -84.4997996  0.942403E-05  0.432E-02    2.31       1.0  T
   4    -84.4998181 -0.185055E-04  0.167E-02    2.30       1.0  T
   5    -84.4998300 -0.118522E-04  0.331E-03    2.30       4.0  T
   6    -84.4998302 -0.175806E-06  0.190E-03    2.31       7.0  T
   7    -84.4998302 -0.775448E-07  0.727E-04    2.31      18.2  T
   8    -84.4998302 -0.446485E-08  0.318E-04    2.31      41.7  T
     SCC iter.                  ...        0 min,  0.063 sec
     gradient                   ...        0 min,  0.008 sec
 * total energy  :   -83.3995939 Eh     change       -0.2098649E-02 Eh
   gradient norm :     0.0433088 Eh/α   predicted    -0.3052946E-02 (  45.47%)
   displ. norm   :     0.3345423 α      lambda       -0.3788233E-02
   maximum displ.:     0.1077545 α      in ANC's #2, #15, #43, ...

........................................................................
.............................. CYCLE   14 ..............................
........................................................................

 iter      E             dE          RMSdq      gap      omega  full diag
   1    -84.5014705 -0.845015E+02  0.130E-01    2.43       0.0  T
   2    -84.5015763 -0.105803E-03  0.761E-02    2.36       1.0  T
   3    -84.5015433  0.330616E-04  0.445E-02    2.34       1.0  T
   4    -84.5015876 -0.443534E-04  0.144E-02    2.34       1.0  T
   5    -84.5015949 -0.730826E-05  0.333E-03    2.34       4.0  T
   6    -84.5015952 -0.247524E-06  0.131E-03    2.35      10.1  T
   7    -84.5015952 -0.250193E-07  0.652E-04    2.35      20.3  T
   8    -84.5015952 -0.257766E-08  0.246E-04    2.34      53.8  T
     SCC iter.                  ...        0 min,  0.066 sec
     gradient                   ...        0 min,  0.008 sec
 * total energy  :   -83.4003523 Eh     change       -0.7583311E-03 Eh
   gradient norm :     0.0451244 Eh/α   predicted    -0.2106107E-02 ( 177.73%)
   displ. norm   :     0.3543915 α      lambda       -0.3034384E-02
   maximum displ.:     0.1219454 α      in ANC's #22, #27, #2, ...

........................................................................
.............................. CYCLE   15 ..............................
........................................................................

 iter      E             dE          RMSdq      gap      omega  full diag
   1    -84.5039203 -0.845039E+02  0.949E-02    2.24       0.0  T
   2    -84.5040142 -0.938727E-04  0.572E-02    2.25       1.0  T
   3    -84.5040112  0.295119E-05  0.336E-02    2.25       1.0  T
   4    -84.5040198 -0.856245E-05  0.152E-02    2.25       1.0  T
   5    -84.5040295 -0.969821E-05  0.257E-03    2.25       5.2  T
   6    -84.5040295 -0.575136E-07  0.133E-03    2.25      10.0  T
   7    -84.5040296 -0.456411E-07  0.620E-04    2.25      21.4  T
   8    -84.5040296 -0.385239E-08  0.240E-04    2.25      55.2  T
     SCC iter.                  ...        0 min,  0.067 sec
     gradient                   ...        0 min,  0.009 sec
 * total energy  :   -83.4020828 Eh     change       -0.1730551E-02 Eh
   gradient norm :     0.0209148 Eh/α   predicted    -0.1707745E-02 (  -1.32%)
   displ. norm   :     0.4606389 α      lambda       -0.2709883E-02
   maximum displ.:     0.1826217 α      in ANC's #27, #2, #20, ...

........................................................................
.............................. CYCLE   16 ..............................
........................................................................

 iter      E             dE          RMSdq      gap      omega  full diag
   1    -84.5172252 -0.845172E+02  0.136E-01    2.15       0.0  T
   2    -84.5173084 -0.831939E-04  0.792E-02    2.17       1.0  T
   3    -84.5172640  0.443770E-04  0.478E-02    2.18       1.0  T
   4    -84.5173249 -0.608484E-04  0.141E-02    2.18       1.0  T
   5    -84.5173315 -0.665361E-05  0.356E-03    2.17       3.7  T
   6    -84.5173316 -0.977968E-07  0.137E-03    2.17       9.7  T
   7    -84.5173317 -0.211030E-07  0.683E-04    2.17      19.4  T
   8    -84.5173317 -0.507451E-08  0.233E-04    2.17      56.9  T
     SCC iter.                  ...        0 min,  0.063 sec
     gradient                   ...        0 min,  0.009 sec
 * total energy  :   -83.4025160 Eh     change       -0.4332043E-03 Eh
   gradient norm :     0.0365883 Eh/α   predicted    -0.1642443E-02 ( 279.14%)
   displ. norm   :     0.4223362 α      lambda       -0.3215534E-02
   maximum displ.:     0.1931345 α      in ANC's #22, #2, #10, ...

........................................................................
.............................. CYCLE   17 ..............................
........................................................................

 iter      E             dE          RMSdq      gap      omega  full diag
   1    -84.5111124 -0.845111E+02  0.145E-01    2.00       0.0  T
   2    -84.5111685 -0.560216E-04  0.885E-02    2.00       1.0  T
   3    -84.5110875  0.809860E-04  0.595E-02    2.00       1.0  T
   4    -84.5112067 -0.119250E-03  0.909E-03    2.00       1.5  T
   5    -84.5112091 -0.242849E-05  0.312E-03    2.00       4.2  T
   6    -84.5112092 -0.161687E-07  0.165E-03    2.00       8.0  T
   7    -84.5112092 -0.714661E-07  0.520E-04    2.00      25.5  T
   8    -84.5112092 -0.313652E-08  0.237E-04    2.00      55.9  T
     SCC iter.                  ...        0 min,  0.063 sec
     gradient                   ...        0 min,  0.009 sec
 * total energy  :   -83.4039985 Eh     change       -0.1482459E-02 Eh
   gradient norm :     0.0372770 Eh/α   predicted    -0.1894543E-02 (  27.80%)
   displ. norm   :     0.4075985 α      lambda       -0.3142483E-02
   maximum displ.:     0.1455409 α      in ANC's #11, #2, #18, ...

........................................................................
.............................. CYCLE   18 ..............................
........................................................................

 iter      E             dE          RMSdq      gap      omega  full diag
   1    -84.5023116 -0.845023E+02  0.151E-01    2.07       0.0  T
   2    -84.5024436 -0.132035E-03  0.885E-02    2.02       1.0  T
   3    -84.5024137  0.299162E-04  0.469E-02    2.01       1.0  T
   4    -84.5024524 -0.386290E-04  0.175E-02    2.00       1.0  T
   5    -84.5024646 -0.122797E-04  0.504E-03    2.01       2.6  T
   6    -84.5024651 -0.517596E-06  0.230E-03    2.01       5.8  T
   7    -84.5024652 -0.977941E-07  0.115E-03    2.01      11.5  T
   8    -84.5024653 -0.751218E-08  0.362E-04    2.01      36.6  T
   9    -84.5024653 -0.438990E-08  0.935E-05    2.01     141.6  T
     SCC iter.                  ...        0 min,  0.071 sec
     gradient                   ...        0 min,  0.008 sec
 * total energy  :   -83.4043759 Eh     change       -0.3774026E-03 Eh
   gradient norm :     0.0484708 Eh/α   predicted    -0.1832286E-02 ( 385.50%)
   displ. norm   :     0.2879985 α      lambda       -0.3191217E-02
   maximum displ.:     0.1003739 α      in ANC's #2, #27, #10, ...

........................................................................
.............................. CYCLE   19 ..............................
........................................................................

 iter      E             dE          RMSdq      gap      omega  full diag
   1    -84.5110040 -0.845110E+02  0.103E-01    2.01       0.0  T
   2    -84.5111055 -0.101467E-03  0.617E-02    2.01       1.0  T
   3    -84.5111025  0.302528E-05  0.336E-02    2.02       1.0  T
   4    -84.5111089 -0.644702E-05  0.162E-02    2.02       1.0  T
   5    -84.5111206 -0.117183E-04  0.324E-03    2.02       4.1  T
   6    -84.5111208 -0.130718E-06  0.147E-03    2.02       9.0  T
   7    -84.5111208 -0.286447E-07  0.694E-04    2.02      19.1  T
   8    -84.5111208 -0.968171E-09  0.222E-04    2.02      59.7  T
     SCC iter.                  ...        0 min,  0.066 sec
     gradient                   ...        0 min,  0.009 sec
 * total energy  :   -83.4057494 Eh     change       -0.1373560E-02 Eh
   gradient norm :     0.0298451 Eh/α   predicted    -0.1727955E-02 (  25.80%)
   displ. norm   :     0.4419539 α      lambda       -0.3407876E-02
   maximum displ.:     0.1266597 α      in ANC's #2, #7, #22, ...

........................................................................
.............................. CYCLE   20 ..............................
........................................................................

 iter      E             dE          RMSdq      gap      omega  full diag
   1    -84.5218262 -0.845218E+02  0.158E-01    1.84       0.0  T
   2    -84.5221171 -0.290906E-03  0.934E-02    1.89       1.0  T
   3    -84.5221103  0.679101E-05  0.528E-02    1.90       1.0  T
   4    -84.5221308 -0.204609E-04  0.260E-02    1.90       1.0  T
   5    -84.5221570 -0.262265E-04  0.498E-03    1.90       2.7  T
   6    -84.5221573 -0.252199E-06  0.229E-03    1.90       5.8  T
   7    -84.5221573 -0.679714E-07  0.110E-03    1.90      12.0  T
   8    -84.5221573 -0.725487E-08  0.414E-04    1.90      32.0  T
   9    -84.5221573 -0.576294E-08  0.128E-04    1.90     103.7  T
     SCC iter.                  ...        0 min,  0.077 sec
     gradient                   ...        0 min,  0.008 sec
 * total energy  :   -83.4048602 Eh     change        0.8892525E-03 Eh
   gradient norm :     0.0641051 Eh/α   predicted    -0.2036755E-02 (-329.04%)
   displ. norm   :     0.2551757 α      lambda       -0.4436366E-02
   maximum displ.:     0.1157803 α      in ANC's #11, #39, #2, ...
 * RMSD in coord.:     0.8613071 α      energy gain  -0.9960282E-01 Eh

generating ANC from exact Hessian ...
Using Lindh-Hessian (1995)
 Shifting diagonal of input Hessian by   1.010774462398787E-002
 Lowest  eigenvalues of input Hessian
    0.010000    0.010049    0.010098    0.000000    0.000000    0.000000
    0.000000    0.000000    0.000000    0.010122    0.010149    0.010199
    0.010211    0.010224    0.010296    0.010444    0.010546    0.010592
 Highest eigenvalues
    1.934545    2.018671    2.128156    2.183497    2.300350    2.335476
 

........................................................................
.............................. CYCLE   21 ..............................
........................................................................

 iter      E             dE          RMSdq      gap      omega  full diag
   1    -84.5102427 -0.845102E+02  0.121E-01    1.91       0.0  T
   2    -84.5103940 -0.151377E-03  0.705E-02    1.89       1.0  T
   3    -84.5103963 -0.222257E-05  0.378E-02    1.89       1.0  T
   4    -84.5103988 -0.254027E-05  0.174E-02    1.89       1.0  T
   5    -84.5104119 -0.131406E-04  0.400E-03    1.89       3.3  T
   6    -84.5104122 -0.237506E-06  0.184E-03    1.89       7.2  T
   7    -84.5104122 -0.522997E-07  0.841E-04    1.89      15.8  T
   8    -84.5104122 -0.189443E-08  0.294E-04    1.89      45.1  T
     SCC iter.                  ...        0 min,  0.065 sec
     gradient                   ...        0 min,  0.005 sec
 * total energy  :   -83.4072393 Eh     change       -0.2379123E-02 Eh
   gradient norm :     0.0230708 Eh/α   predicted     0.0000000E+00 (-100.00%)
   displ. norm   :     0.2280639 α      lambda       -0.1262293E-02
   maximum displ.:     0.0694811 α      in ANC's #12, #26, #35, ...

........................................................................
.............................. CYCLE   22 ..............................
........................................................................

 iter      E             dE          RMSdq      gap      omega  full diag
   1    -84.5140275 -0.845140E+02  0.110E-01    1.91       0.0  T
   2    -84.5140352 -0.765073E-05  0.658E-02    1.91       1.0  T
   3    -84.5140113  0.238850E-04  0.245E-02    1.92       1.0  T
   4    -84.5140386 -0.273223E-04  0.471E-03    1.92       2.8  T
   5    -84.5140393 -0.660364E-06  0.206E-03    1.92       6.4  T
   6    -84.5140393 -0.347845E-08  0.792E-04    1.92      16.7  T
   7    -84.5140393 -0.133310E-07  0.253E-04    1.92      52.3  T
     SCC iter.                  ...        0 min,  0.068 sec
     gradient                   ...        0 min,  0.002 sec
 * total energy  :   -83.4081871 Eh     change       -0.9478334E-03 Eh
   gradient norm :     0.0085829 Eh/α   predicted    -0.6641082E-03 ( -29.93%)
   displ. norm   :     0.4318013 α      lambda       -0.1434432E-02
   maximum displ.:     0.1674647 α      in ANC's #12, #20, #5, ...

........................................................................
.............................. CYCLE   23 ..............................
........................................................................

 iter      E             dE          RMSdq      gap      omega  full diag
   1    -84.5129454 -0.845129E+02  0.161E-01    1.94       0.0  T
   2    -84.5129735 -0.281104E-04  0.958E-02    1.97       1.0  T
   3    -84.5128878  0.857027E-04  0.483E-02    2.00       1.0  T
   4    -84.5129883 -0.100509E-03  0.807E-03    1.99       1.6  T
   5    -84.5129899 -0.158440E-05  0.334E-03    1.99       4.0  T
   6    -84.5129900 -0.733332E-07  0.165E-03    1.99       8.0  T
   7    -84.5129900 -0.318440E-07  0.658E-04    1.99      20.1  T
   8    -84.5129900 -0.658321E-08  0.178E-04    1.99      74.2  T
     SCC iter.                  ...        0 min,  0.066 sec
     gradient                   ...        0 min,  0.006 sec
 * total energy  :   -83.4088785 Eh     change       -0.6913556E-03 Eh
   gradient norm :     0.0268386 Eh/α   predicted    -0.8514031E-03 (  23.15%)
   displ. norm   :     0.4352157 α      lambda       -0.1768963E-02
   maximum displ.:     0.1882525 α      in ANC's #12, #20, #7, ...

........................................................................
.............................. CYCLE   24 ..............................
........................................................................

 iter      E             dE          RMSdq      gap      omega  full diag
   1    -84.5171531 -0.845172E+02  0.153E-01    1.99       0.0  T
   2    -84.5171906 -0.375099E-04  0.903E-02    2.03       1.0  T
   3    -84.5171426  0.479931E-04  0.369E-02    2.05       1.0  T
   4    -84.5171991 -0.565618E-04  0.978E-03    2.05       1.4  T
   5    -84.5172020 -0.289596E-05  0.339E-03    2.05       3.9  T
   6    -84.5172021 -0.860394E-07  0.176E-03    2.04       7.5  T
   7    -84.5172021 -0.355235E-07  0.732E-04    2.04      18.1  T
   8    -84.5172022 -0.561541E-08  0.192E-04    2.04      69.1  T
     SCC iter.                  ...        0 min,  0.074 sec
     gradient                   ...        0 min,  0.010 sec
 * total energy  :   -83.4095970 Eh     change       -0.7184716E-03 Eh
   gradient norm :     0.0193994 Eh/α   predicted    -0.1052015E-02 (  46.42%)
   displ. norm   :     0.3580744 α      lambda       -0.1098196E-02
   maximum displ.:     0.1606596 α      in ANC's #12, #1, #11, ...

........................................................................
.............................. CYCLE   25 ..............................
........................................................................

 iter      E             dE          RMSdq      gap      omega  full diag
   1    -84.5147285 -0.845147E+02  0.901E-02    2.03       0.0  T
   2    -84.5147375 -0.905284E-05  0.538E-02    2.04       1.0  T
   3    -84.5147195  0.179714E-04  0.214E-02    2.04       1.0  T
   4    -84.5147397 -0.201341E-04  0.535E-03    2.04       2.5  T
   5    -84.5147408 -0.112625E-05  0.164E-03    2.04       8.1  T
   6    -84.5147408 -0.715387E-08  0.939E-04    2.04      14.1  T
   7    -84.5147408 -0.132156E-07  0.283E-04    2.04      46.8  T
     SCC iter.                  ...        0 min,  0.048 sec
     gradient                   ...        0 min,  0.020 sec
 * total energy  :   -83.4104658 Eh     change       -0.8687906E-03 Eh
   gradient norm :     0.0115263 Eh/α   predicted    -0.6195059E-03 ( -28.69%)
   displ. norm   :     0.6051823 α      lambda       -0.1548546E-02
   maximum displ.:     0.2726250 α      in ANC's #12, #1, #15, ...

........................................................................
.............................. CYCLE   26 ..............................
........................................................................

 iter      E             dE          RMSdq      gap      omega  full diag
   1    -84.5116987 -0.845117E+02  0.110E-01    2.03       0.0  T
   2    -84.5117324 -0.336759E-04  0.661E-02    2.05       1.0  T
   3    -84.5117162  0.162198E-04  0.260E-02    2.06       1.0  T
   4    -84.5117341 -0.178719E-04  0.101E-02    2.05       1.3  T
   5    -84.5117385 -0.441383E-05  0.248E-03    2.05       5.3  T
   6    -84.5117385 -0.629436E-07  0.138E-03    2.05       9.6  T
   7    -84.5117386 -0.281579E-07  0.563E-04    2.05      23.5  T
   8    -84.5117386 -0.195874E-08  0.202E-04    2.05      65.5  T
     SCC iter.                  ...        0 min,  0.072 sec
     gradient                   ...        0 min,  0.008 sec
 * total energy  :   -83.4114802 Eh     change       -0.1014409E-02 Eh
   gradient norm :     0.0188287 Eh/α   predicted    -0.1057848E-02 (   4.28%)
   displ. norm   :     0.5530843 α      lambda       -0.1192865E-02
   maximum displ.:     0.2712593 α      in ANC's #12, #1, #15, ...

........................................................................
.............................. CYCLE   27 ..............................
........................................................................

 iter      E             dE          RMSdq      gap      omega  full diag
   1    -84.5101475 -0.845101E+02  0.101E-01    2.05       0.0  T
   2    -84.5101650 -0.174516E-04  0.604E-02    2.06       1.0  T
   3    -84.5101386  0.263878E-04  0.273E-02    2.07       1.0  T
   4    -84.5101687 -0.300565E-04  0.720E-03    2.07       1.8  T
   5    -84.5101708 -0.210131E-05  0.206E-03    2.07       6.4  T
   6    -84.5101708 -0.146217E-07  0.114E-03    2.07      11.6  T
   7    -84.5101708 -0.172214E-07  0.378E-04    2.07      35.0  T
   8    -84.5101708 -0.178387E-08  0.112E-04    2.07     118.1  T
     SCC iter.                  ...        0 min,  0.062 sec
     gradient                   ...        0 min,  0.005 sec
 * total energy  :   -83.4123313 Eh     change       -0.8511224E-03 Eh
   gradient norm :     0.0183187 Eh/α   predicted    -0.7788843E-03 (  -8.49%)
   displ. norm   :     0.6197575 α      lambda       -0.1556207E-02
   maximum displ.:     0.2749378 α      in ANC's #12, #1, #20, ...

........................................................................
.............................. CYCLE   28 ..............................
........................................................................

 iter      E             dE          RMSdq      gap      omega  full diag
   1    -84.5190441 -0.845190E+02  0.120E-01    2.08       0.0  T
   2    -84.5190719 -0.277207E-04  0.703E-02    2.11       1.0  T
   3    -84.5190707  0.117942E-05  0.157E-02    2.13       1.0  T
   4    -84.5190749 -0.416854E-05  0.725E-03    2.12       1.8  T
   5    -84.5190763 -0.140914E-05  0.302E-03    2.12       4.4  T
   6    -84.5190765 -0.220752E-06  0.137E-03    2.12       9.7  T
   7    -84.5190765 -0.334846E-07  0.603E-04    2.12      22.0  T
   8    -84.5190765 -0.294717E-08  0.202E-04    2.12      65.6  T
     SCC iter.                  ...        0 min,  0.065 sec
     gradient                   ...        0 min,  0.004 sec
 * total energy  :   -83.4125139 Eh     change       -0.1825797E-03 Eh
   gradient norm :     0.0321120 Eh/α   predicted    -0.1076974E-02 ( 489.87%)
   displ. norm   :     0.3949585 α      lambda       -0.1906032E-02
   maximum displ.:     0.1738842 α      in ANC's #12, #1, #20, ...

........................................................................
.............................. CYCLE   29 ..............................
........................................................................

 iter      E             dE          RMSdq      gap      omega  full diag
   1    -84.5124326 -0.845124E+02  0.107E-01    2.12       0.0  T
   2    -84.5124569 -0.242363E-04  0.628E-02    2.15       1.0  T
   3    -84.5124526  0.422299E-05  0.165E-02    2.16       1.0  T
   4    -84.5124578 -0.513447E-05  0.774E-03    2.15       1.7  T
   5    -84.5124603 -0.255009E-05  0.246E-03    2.15       5.4  T
   6    -84.5124604 -0.708550E-07  0.120E-03    2.15      11.0  T
   7    -84.5124604 -0.220014E-07  0.497E-04    2.15      26.6  T
   8    -84.5124604 -0.528308E-08  0.152E-04    2.15      86.9  T
     SCC iter.                  ...        0 min,  0.077 sec
     gradient                   ...        0 min,  0.007 sec
 * total energy  :   -83.4137052 Eh     change       -0.1191365E-02 Eh
   gradient norm :     0.0174949 Eh/α   predicted    -0.1101679E-02 (  -7.53%)
   displ. norm   :     0.4121624 α      lambda       -0.1111965E-02
   maximum displ.:     0.1940174 α      in ANC's #1, #15, #12, ...

........................................................................
.............................. CYCLE   30 ..............................
........................................................................

 iter      E             dE          RMSdq      gap      omega  full diag
   1    -84.5152351 -0.845152E+02  0.848E-02    2.20       0.0  T
   2    -84.5152515 -0.164527E-04  0.506E-02    2.21       1.0  T
   3    -84.5152285  0.230453E-04  0.246E-02    2.22       1.0  T
   4    -84.5152567 -0.282497E-04  0.661E-03    2.22       2.0  T
   5    -84.5152579 -0.115005E-05  0.257E-03    2.22       5.1  T
   6    -84.5152580 -0.902379E-07  0.128E-03    2.22      10.4  T
   7    -84.5152580 -0.210424E-07  0.529E-04    2.22      25.1  T
   8    -84.5152580 -0.360586E-08  0.211E-04    2.22      62.7  T
     SCC iter.                  ...        0 min,  0.069 sec
     gradient                   ...        0 min,  0.008 sec
 * total energy  :   -83.4141159 Eh     change       -0.4106941E-03 Eh
   gradient norm :     0.0225182 Eh/α   predicted    -0.6504352E-03 (  58.37%)
   displ. norm   :     0.4545321 α      lambda       -0.1091508E-02
   maximum displ.:     0.2082924 α      in ANC's #1, #12, #20, ...

........................................................................
.............................. CYCLE   31 ..............................
........................................................................

 iter      E             dE          RMSdq      gap      omega  full diag
   1    -84.5143759 -0.845144E+02  0.821E-02    2.21       0.0  T
   2    -84.5144072 -0.312518E-04  0.485E-02    2.25       1.0  T
   3    -84.5144075 -0.362441E-06  0.128E-02    2.26       1.0  T
   4    -84.5144083 -0.798991E-06  0.396E-03    2.26       3.3  T
   5    -84.5144089 -0.608941E-06  0.167E-03    2.25       7.9  T
   6    -84.5144090 -0.524318E-07  0.809E-04    2.25      16.4  T
   7    -84.5144090 -0.428112E-08  0.461E-04    2.25      28.7  T
     SCC iter.                  ...        0 min,  0.050 sec
     gradient                   ...        0 min,  0.020 sec
 * total energy  :   -83.4149097 Eh     change       -0.7937569E-03 Eh
   gradient norm :     0.0129680 Eh/α   predicted    -0.6585086E-03 ( -17.04%)
   displ. norm   :     0.5199087 α      lambda       -0.1008616E-02
   maximum displ.:     0.2659495 α      in ANC's #1, #20, #12, ...

........................................................................
.............................. CYCLE   32 ..............................
........................................................................

 iter      E             dE          RMSdq      gap      omega  full diag
   1    -84.5215142 -0.845215E+02  0.901E-02    2.29       0.0  T
   2    -84.5215391 -0.249161E-04  0.526E-02    2.33       1.0  T
   3    -84.5215230  0.160861E-04  0.227E-02    2.33       1.0  T
   4    -84.5215410 -0.179329E-04  0.761E-03    2.34       1.7  T
   5    -84.5215437 -0.271790E-05  0.210E-03    2.34       6.3  T
   6    -84.5215437 -0.501701E-07  0.115E-03    2.34      11.5  T
   7    -84.5215438 -0.244609E-07  0.418E-04    2.34      31.7  T
   8    -84.5215438 -0.243217E-08  0.175E-04    2.34      75.9  T
     SCC iter.                  ...        0 min,  0.062 sec
     gradient                   ...        0 min,  0.012 sec
 * total energy  :   -83.4155570 Eh     change       -0.6473050E-03 Eh
   gradient norm :     0.0135535 Eh/α   predicted    -0.6406292E-03 (  -1.03%)
   displ. norm   :     0.6813417 α      lambda       -0.1033313E-02
   maximum displ.:     0.3348494 α      in ANC's #1, #20, #12, ...

........................................................................
.............................. CYCLE   33 ..............................
........................................................................

 iter      E             dE          RMSdq      gap      omega  full diag
   1    -84.5145928 -0.845146E+02  0.117E-01    2.34       0.0  T
   2    -84.5146258 -0.329776E-04  0.695E-02    2.38       1.0  T
   3    -84.5146149  0.108664E-04  0.205E-02    2.39       1.0  T
   4    -84.5146259 -0.109970E-04  0.962E-03    2.39       1.4  T
   5    -84.5146306 -0.468627E-05  0.274E-03    2.39       4.8  T
   6    -84.5146306 -0.192008E-07  0.157E-03    2.39       8.5  T
   7    -84.5146306 -0.501395E-07  0.507E-04    2.39      26.1  T
   8    -84.5146306 -0.547395E-08  0.180E-04    2.39      73.7  T
     SCC iter.                  ...        0 min,  0.067 sec
     gradient                   ...        0 min,  0.009 sec
 * total energy  :   -83.4162528 Eh     change       -0.6958532E-03 Eh
   gradient norm :     0.0200212 Eh/α   predicted    -0.7565049E-03 (   8.72%)
   displ. norm   :     0.4989767 α      lambda       -0.9158377E-03
   maximum displ.:     0.2579685 α      in ANC's #1, #20, #7, ...

........................................................................
.............................. CYCLE   34 ..............................
........................................................................

 iter      E             dE          RMSdq      gap      omega  full diag
   1    -84.5179654 -0.845180E+02  0.824E-02    2.42       0.0  T
   2    -84.5179764 -0.110639E-04  0.485E-02    2.44       1.0  T
   3    -84.5179502  0.262828E-04  0.254E-02    2.44       1.0  T
   4    -84.5179813 -0.310991E-04  0.442E-03    2.45       3.0  T
   5    -84.5179818 -0.484962E-06  0.176E-03    2.45       7.5  T
   6    -84.5179818 -0.259168E-07  0.965E-04    2.45      13.7  T
   7    -84.5179818 -0.164206E-07  0.381E-04    2.45      34.8  T
     SCC iter.                  ...        0 min,  0.055 sec
     gradient                   ...        0 min,  0.013 sec
 * total energy  :   -83.4168679 Eh     change       -0.6150114E-03 Eh
   gradient norm :     0.0175734 Eh/α   predicted    -0.5719316E-03 (  -7.00%)
   displ. norm   :     0.5684054 α      lambda       -0.1400881E-02
   maximum displ.:     0.2763929 α      in ANC's #1, #20, #5, ...

........................................................................
.............................. CYCLE   35 ..............................
........................................................................

 iter      E             dE          RMSdq      gap      omega  full diag
   1    -84.5156927 -0.845157E+02  0.110E-01    2.47       0.0  T
   2    -84.5157091 -0.164223E-04  0.656E-02    2.50       1.0  T
   3    -84.5156874  0.217679E-04  0.244E-02    2.50       1.0  T
   4    -84.5157135 -0.261194E-04  0.612E-03    2.50       2.2  T
   5    -84.5157146 -0.106361E-05  0.246E-03    2.50       5.4  T
   6    -84.5157146 -0.440896E-07  0.134E-03    2.50       9.9  T
   7    -84.5157146 -0.255292E-07  0.509E-04    2.50      26.0  T
   8    -84.5157146 -0.210876E-08  0.151E-04    2.50      87.9  T
     SCC iter.                  ...        0 min,  0.068 sec
     gradient                   ...        0 min,  0.010 sec
 * total energy  :   -83.4173601 Eh     change       -0.4922939E-03 Eh
   gradient norm :     0.0248873 Eh/α   predicted    -0.9267471E-03 (  88.25%)
   displ. norm   :     0.4249591 α      lambda       -0.1095155E-02
   maximum displ.:     0.2046994 α      in ANC's #1, #20, #12, ...

........................................................................
.............................. CYCLE   36 ..............................
........................................................................

 iter      E             dE          RMSdq      gap      omega  full diag
   1    -84.5147990 -0.845148E+02  0.886E-02    2.52       0.0  T
   2    -84.5148052 -0.624278E-05  0.526E-02    2.51       1.0  T
   3    -84.5148046  0.640885E-06  0.813E-03    2.51       1.6  T
   4    -84.5148068 -0.225602E-05  0.396E-03    2.51       3.3  T
   5    -84.5148072 -0.394191E-06  0.217E-03    2.51       6.1  T
   6    -84.5148073 -0.637703E-07  0.966E-04    2.51      13.7  T
   7    -84.5148073 -0.105943E-07  0.256E-04    2.51      51.8  T
     SCC iter.                  ...        0 min,  0.057 sec
     gradient                   ...        0 min,  0.008 sec
 * total energy  :   -83.4179691 Eh     change       -0.6089571E-03 Eh
   gradient norm :     0.0180721 Eh/α   predicted    -0.6464678E-03 (   6.16%)
   displ. norm   :     0.4010460 α      lambda       -0.9186045E-03
   maximum displ.:     0.1563587 α      in ANC's #1, #7, #5, ...

........................................................................
.............................. CYCLE   37 ..............................
........................................................................

 iter      E             dE          RMSdq      gap      omega  full diag
   1    -84.5233594 -0.845234E+02  0.961E-02    2.53       0.0  T
   2    -84.5233652 -0.579664E-05  0.564E-02    2.53       1.0  T
   3    -84.5233663 -0.114508E-05  0.542E-03    2.53       2.4  T
   4    -84.5233666 -0.324316E-06  0.297E-03    2.53       4.5  T
   5    -84.5233669 -0.211448E-06  0.149E-03    2.53       8.9  T
   6    -84.5233669 -0.390751E-07  0.785E-04    2.53      16.9  T
   7    -84.5233669 -0.859039E-08  0.343E-04    2.53      38.7  T
     SCC iter.                  ...        0 min,  0.061 sec
     gradient                   ...        0 min,  0.008 sec
 * total energy  :   -83.4182479 Eh     change       -0.2788186E-03 Eh
   gradient norm :     0.0190629 Eh/α   predicted    -0.5331765E-03 (  91.23%)
   displ. norm   :     0.5022077 α      lambda       -0.9391339E-03
   maximum displ.:     0.2208225 α      in ANC's #1, #12, #20, ...

........................................................................
.............................. CYCLE   38 ..............................
........................................................................

 iter      E             dE          RMSdq      gap      omega  full diag
   1    -84.5147456 -0.845147E+02  0.814E-02    2.51       0.0  T
   2    -84.5147585 -0.128562E-04  0.478E-02    2.52       1.0  T
   3    -84.5147586 -0.165922E-06  0.856E-03    2.52       1.5  T
   4    -84.5147594 -0.800164E-06  0.298E-03    2.52       4.4  T
   5    -84.5147597 -0.213891E-06  0.147E-03    2.52       9.0  T
   6    -84.5147597 -0.141330E-07  0.618E-04    2.52      21.4  T
   7    -84.5147597 -0.599098E-08  0.287E-04    2.52      46.2  T
     SCC iter.                  ...        0 min,  0.059 sec
     gradient                   ...        0 min,  0.009 sec
 * total energy  :   -83.4186043 Eh     change       -0.3564120E-03 Eh
   gradient norm :     0.0182152 Eh/α   predicted    -0.5879998E-03 (  64.98%)
   displ. norm   :     0.3552882 α      lambda       -0.1549617E-02
   maximum displ.:     0.1987215 α      in ANC's #5, #14, #19, ...

........................................................................
.............................. CYCLE   39 ..............................
........................................................................

 iter      E             dE          RMSdq      gap      omega  full diag
   1    -84.5294321 -0.845294E+02  0.112E-01    2.56       0.0  T
   2    -84.5294901 -0.580085E-04  0.655E-02    2.52       1.0  T
   3    -84.5294906 -0.414289E-06  0.185E-02    2.52       1.0  T
   4    -84.5294931 -0.251490E-05  0.621E-03    2.51       2.1  T
   5    -84.5294946 -0.148505E-05  0.271E-03    2.51       4.9  T
   6    -84.5294947 -0.123470E-06  0.137E-03    2.52       9.7  T
   7    -84.5294947 -0.258164E-07  0.634E-04    2.52      20.9  T
   8    -84.5294947 -0.553091E-08  0.267E-04    2.52      49.7  T
     SCC iter.                  ...        0 min,  0.065 sec
     gradient                   ...        0 min,  0.006 sec
 * total energy  :   -83.4180538 Eh     change        0.5505556E-03 Eh
   gradient norm :     0.0381031 Eh/α   predicted    -0.8726126E-03 (-258.50%)
   displ. norm   :     0.2393860 α      lambda       -0.2651002E-02
   maximum displ.:     0.1236702 α      in ANC's #26, #7, #1, ...

........................................................................
.............................. CYCLE   40 ..............................
........................................................................

 iter      E             dE          RMSdq      gap      omega  full diag
   1    -84.5189225 -0.845189E+02  0.126E-01    2.41       0.0  T
   2    -84.5190293 -0.106847E-03  0.785E-02    2.46       1.0  T
   3    -84.5190193  0.997275E-05  0.299E-02    2.47       1.0  T
   4    -84.5190293 -0.998740E-05  0.149E-02    2.47       1.0  T
   5    -84.5190395 -0.101639E-04  0.368E-03    2.47       3.6  T
   6    -84.5190398 -0.290507E-06  0.185E-03    2.47       7.1  T
   7    -84.5190398 -0.456516E-07  0.849E-04    2.47      15.6  T
   8    -84.5190398 -0.243628E-08  0.355E-04    2.47      37.3  T
     SCC iter.                  ...        0 min,  0.076 sec
     gradient                   ...        0 min,  0.008 sec
 * total energy  :   -83.4188303 Eh     change       -0.7764998E-03 Eh
   gradient norm :     0.0305584 Eh/α   predicted    -0.1401459E-02 (  80.48%)
   displ. norm   :     0.3122366 α      lambda       -0.2941437E-02
   maximum displ.:     0.1392230 α      in ANC's #25, #21, #18, ...

........................................................................
.............................. CYCLE   41 ..............................
........................................................................

 iter      E             dE          RMSdq      gap      omega  full diag
   1    -84.5187940 -0.845188E+02  0.154E-01    2.62       0.0  T
   2    -84.5191502 -0.356195E-03  0.891E-02    2.52       1.0  T
   3    -84.5191541 -0.390595E-05  0.449E-02    2.51       1.0  T
   4    -84.5191464  0.771433E-05  0.224E-02    2.51       1.0  T
   5    -84.5191688 -0.223966E-04  0.537E-03    2.50       2.5  T
   6    -84.5191696 -0.793419E-06  0.230E-03    2.51       5.7  T
   7    -84.5191696 -0.705759E-07  0.113E-03    2.51      11.7  T
   8    -84.5191696 -0.845222E-08  0.441E-04    2.51      30.1  T
   9    -84.5191696 -0.321724E-08  0.133E-04    2.51      99.8  T
     SCC iter.                  ...        0 min,  0.074 sec
     gradient                   ...        0 min,  0.005 sec
 * total energy  :   -83.4172118 Eh     change        0.1618478E-02 Eh
   gradient norm :     0.0569108 Eh/α   predicted    -0.1614101E-02 (-199.73%)
   displ. norm   :     0.2102408 α      lambda       -0.4573381E-02
   maximum displ.:     0.0838802 α      in ANC's #25, #5, #21, ...

........................................................................
.............................. CYCLE   42 ..............................
........................................................................

 iter      E             dE          RMSdq      gap      omega  full diag
   1    -84.5232208 -0.845232E+02  0.112E-01    2.42       0.0  T
   2    -84.5234067 -0.185980E-03  0.636E-02    2.49       1.0  T
   3    -84.5234094 -0.266330E-05  0.320E-02    2.50       1.0  T
   4    -84.5234051  0.429444E-05  0.153E-02    2.50       1.0  T
   5    -84.5234159 -0.107582E-04  0.379E-03    2.50       3.5  T
   6    -84.5234162 -0.367607E-06  0.163E-03    2.50       8.1  T
   7    -84.5234163 -0.398669E-07  0.762E-04    2.50      17.4  T
   8    -84.5234163 -0.413917E-08  0.288E-04    2.50      46.0  T
     SCC iter.                  ...        0 min,  0.077 sec
     gradient                   ...        0 min,  0.007 sec
 * total energy  :   -83.4195918 Eh     change       -0.2379956E-02 Eh
   gradient norm :     0.0092127 Eh/α   predicted    -0.2387772E-02 (   0.33%)
   displ. norm   :     0.5426057 α      lambda       -0.6781891E-03
   maximum displ.:     0.2336441 α      in ANC's #5, #1, #7, ...
 * RMSD in coord.:     1.0428661 α      energy gain  -0.1473158E-01 Eh

generating ANC from exact Hessian ...
Using Lindh-Hessian (1995)
 Shifting diagonal of input Hessian by   1.004434252016571E-002
 Lowest  eigenvalues of input Hessian
    0.010000    0.000000    0.010027    0.000000    0.000000    0.000000
    0.000000    0.000000    0.010091    0.010102    0.010145    0.010200
    0.010226    0.010262    0.010409    0.010481    0.010581    0.010642
 Highest eigenvalues
    1.944870    2.014826    2.110958    2.164625    2.321632    2.339596
 

........................................................................
.............................. CYCLE   43 ..............................
........................................................................

 iter      E             dE          RMSdq      gap      omega  full diag
   1    -84.5168822 -0.845169E+02  0.106E-01    2.49       0.0  T
   2    -84.5168885 -0.628833E-05  0.627E-02    2.48       1.0  T
   3    -84.5168889 -0.414740E-06  0.643E-03    2.48       2.1  T
   4    -84.5168899 -0.925436E-06  0.320E-03    2.48       4.1  T
   5    -84.5168902 -0.293854E-06  0.130E-03    2.48      10.2  T
   6    -84.5168902 -0.190175E-07  0.626E-04    2.48      21.2  T
   7    -84.5168902 -0.339489E-08  0.184E-04    2.48      72.0  T
     SCC iter.                  ...        0 min,  0.065 sec
     gradient                   ...        0 min,  0.007 sec
 * total energy  :   -83.4199294 Eh     change       -0.3375972E-03 Eh
   gradient norm :     0.0171840 Eh/α   predicted     0.0000000E+00 (-100.00%)
   displ. norm   :     0.1611398 α      lambda       -0.6299311E-03
   maximum displ.:     0.0889458 α      in ANC's #21, #5, #3, ...

........................................................................
.............................. CYCLE   44 ..............................
........................................................................

 iter      E             dE          RMSdq      gap      omega  full diag
   1    -84.5227269 -0.845227E+02  0.563E-02    2.48       0.0  T
   2    -84.5227298 -0.294914E-05  0.348E-02    2.48       1.0  T
   3    -84.5227201  0.969420E-05  0.148E-02    2.48       1.0  T
   4    -84.5227317 -0.116099E-04  0.282E-03    2.48       4.7  T
   5    -84.5227319 -0.166167E-06  0.135E-03    2.48       9.8  T
   6    -84.5227319 -0.190572E-07  0.569E-04    2.48      23.3  T
   7    -84.5227319 -0.626468E-08  0.186E-04    2.48      71.2  T
     SCC iter.                  ...        0 min,  0.063 sec
     gradient                   ...        0 min,  0.011 sec
 * total energy  :   -83.4203737 Eh     change       -0.4443099E-03 Eh
   gradient norm :     0.0088073 Eh/α   predicted    -0.3231472E-03 ( -27.27%)
   displ. norm   :     0.3213981 α      lambda       -0.7168634E-03
   maximum displ.:     0.1296726 α      in ANC's #7, #15, #21, ...

........................................................................
.............................. CYCLE   45 ..............................
........................................................................

 iter      E             dE          RMSdq      gap      omega  full diag
   1    -84.5288977 -0.845289E+02  0.679E-02    2.48       0.0  T
   2    -84.5289009 -0.319590E-05  0.410E-02    2.48       1.0  T
   3    -84.5288968  0.405860E-05  0.108E-02    2.48       1.2  T
   4    -84.5289021 -0.528829E-05  0.315E-03    2.48       4.2  T
   5    -84.5289024 -0.235437E-06  0.146E-03    2.48       9.1  T
   6    -84.5289024 -0.317311E-07  0.601E-04    2.48      22.0  T
   7    -84.5289024 -0.472102E-08  0.249E-04    2.48      53.1  T
     SCC iter.                  ...        0 min,  0.065 sec
     gradient                   ...        0 min,  0.009 sec
 * total energy  :   -83.4208366 Eh     change       -0.4629661E-03 Eh
   gradient norm :     0.0076439 Eh/α   predicted    -0.3955613E-03 ( -14.56%)
   displ. norm   :     0.4678391 α      lambda       -0.7553367E-03
   maximum displ.:     0.2464124 α      in ANC's #21, #7, #6, ...

........................................................................
.............................. CYCLE   46 ..............................
........................................................................

 iter      E             dE          RMSdq      gap      omega  full diag
   1    -84.5283079 -0.845283E+02  0.102E-01    2.47       0.0  T
   2    -84.5283166 -0.870890E-05  0.620E-02    2.46       1.0  T
   3    -84.5282847  0.319283E-04  0.277E-02    2.46       1.0  T
   4    -84.5283226 -0.379431E-04  0.470E-03    2.45       2.8  T
   5    -84.5283230 -0.324973E-06  0.242E-03    2.46       5.5  T
   6    -84.5283231 -0.987801E-07  0.102E-03    2.46      12.9  T
   7    -84.5283231 -0.135018E-07  0.331E-04    2.46      40.0  T
   8    -84.5283231 -0.158158E-08  0.107E-04    2.46     124.0  T
     SCC iter.                  ...        0 min,  0.069 sec
     gradient                   ...        0 min,  0.015 sec
 * total energy  :   -83.4213037 Eh     change       -0.4670428E-03 Eh
   gradient norm :     0.0189029 Eh/α   predicted    -0.4603326E-03 (  -1.44%)
   displ. norm   :     0.4381979 α      lambda       -0.9126329E-03
   maximum displ.:     0.2368032 α      in ANC's #7, #6, #9, ...

........................................................................
.............................. CYCLE   47 ..............................
........................................................................

 iter      E             dE          RMSdq      gap      omega  full diag
   1    -84.5288894 -0.845289E+02  0.612E-02    2.44       0.0  T
   2    -84.5288963 -0.691320E-05  0.357E-02    2.42       1.0  T
   3    -84.5288829  0.133701E-04  0.194E-02    2.42       1.0  T
   4    -84.5288991 -0.161864E-04  0.345E-03    2.41       3.8  T
   5    -84.5288994 -0.245224E-06  0.147E-03    2.41       9.0  T
   6    -84.5288994 -0.401734E-07  0.760E-04    2.41      17.4  T
   7    -84.5288994 -0.807461E-08  0.291E-04    2.41      45.5  T
     SCC iter.                  ...        0 min,  0.076 sec
     gradient                   ...        0 min,  0.009 sec
 * total energy  :   -83.4220160 Eh     change       -0.7123513E-03 Eh
   gradient norm :     0.0098015 Eh/α   predicted    -0.5439387E-03 ( -23.64%)
   displ. norm   :     0.7137013 α      lambda       -0.1183647E-02
   maximum displ.:     0.3530445 α      in ANC's #7, #6, #12, ...

........................................................................
.............................. CYCLE   48 ..............................
........................................................................

 iter      E             dE          RMSdq      gap      omega  full diag
   1    -84.5194073 -0.845194E+02  0.114E-01    2.39       0.0  T
   2    -84.5194242 -0.168956E-04  0.686E-02    2.36       1.0  T
   3    -84.5193676  0.565534E-04  0.379E-02    2.36       1.0  T
   4    -84.5194355 -0.678812E-04  0.578E-03    2.35       2.3  T
   5    -84.5194360 -0.438317E-06  0.286E-03    2.36       4.6  T
   6    -84.5194361 -0.102509E-06  0.153E-03    2.36       8.6  T
   7    -84.5194361 -0.407834E-07  0.468E-04    2.36      28.3  T
   8    -84.5194361 -0.321182E-08  0.167E-04    2.36      79.5  T
     SCC iter.                  ...        0 min,  0.080 sec
     gradient                   ...        0 min,  0.011 sec
 * total energy  :   -83.4221217 Eh     change       -0.1056492E-03 Eh
   gradient norm :     0.0358607 Eh/α   predicted    -0.8932824E-03 ( 745.52%)
   displ. norm   :     0.3400020 α      lambda       -0.2451004E-02
   maximum displ.:     0.2026858 α      in ANC's #7, #6, #21, ...

........................................................................
.............................. CYCLE   49 ..............................
........................................................................

 iter      E             dE          RMSdq      gap      omega  full diag
   1    -84.5237662 -0.845238E+02  0.710E-02    2.36       0.0  T
   2    -84.5237762 -0.995747E-05  0.419E-02    2.34       1.0  T
   3    -84.5237728  0.338620E-05  0.129E-02    2.34       1.0  T
   4    -84.5237785 -0.575368E-05  0.556E-03    2.34       2.4  T
   5    -84.5237793 -0.779535E-06  0.190E-03    2.34       7.0  T
   6    -84.5237794 -0.503202E-07  0.104E-03    2.34      12.8  T
   7    -84.5237794 -0.147081E-07  0.394E-04    2.34      33.6  T
   8    -84.5237794 -0.229616E-08  0.949E-05    2.34     139.5  T
     SCC iter.                  ...        0 min,  0.090 sec
     gradient                   ...        0 min,  0.009 sec
 * total energy  :   -83.4234589 Eh     change       -0.1337202E-02 Eh
   gradient norm :     0.0127222 Eh/α   predicted    -0.1367176E-02 (   2.24%)
   displ. norm   :     0.6464141 α      lambda       -0.1156171E-02
   maximum displ.:     0.3773714 α      in ANC's #7, #6, #3, ...

........................................................................
.............................. CYCLE   50 ..............................
........................................................................

 iter      E             dE          RMSdq      gap      omega  full diag
   1    -84.5246399 -0.845246E+02  0.787E-02    2.34       0.0  T
   2    -84.5246495 -0.959097E-05  0.464E-02    2.31       1.0  T
   3    -84.5246305  0.190824E-04  0.220E-02    2.31       1.0  T
   4    -84.5246526 -0.221215E-04  0.430E-03    2.31       3.1  T
   5    -84.5246531 -0.547039E-06  0.160E-03    2.31       8.3  T
   6    -84.5246532 -0.406744E-07  0.908E-04    2.31      14.6  T
   7    -84.5246532 -0.122017E-07  0.300E-04    2.31      44.1  T
     SCC iter.                  ...        0 min,  0.074 sec
     gradient                   ...        0 min,  0.010 sec
 * total energy  :   -83.4244515 Eh     change       -0.9926188E-03 Eh
   gradient norm :     0.0127705 Eh/α   predicted    -0.8196392E-03 ( -17.43%)
   displ. norm   :     0.6655984 α      lambda       -0.1584661E-02
   maximum displ.:     0.3645104 α      in ANC's #7, #10, #6, ...

........................................................................
.............................. CYCLE   51 ..............................
........................................................................

 iter      E             dE          RMSdq      gap      omega  full diag
   1    -84.5334366 -0.845334E+02  0.103E-01    2.33       0.0  T
   2    -84.5334561 -0.194827E-04  0.622E-02    2.31       1.0  T
   3    -84.5334483  0.779565E-05  0.186E-02    2.30       1.0  T
   4    -84.5334608 -0.124778E-04  0.782E-03    2.30       1.7  T
   5    -84.5334628 -0.203989E-05  0.344E-03    2.30       3.8  T
   6    -84.5334629 -0.273770E-07  0.178E-03    2.30       7.4  T
   7    -84.5334630 -0.865951E-07  0.456E-04    2.30      29.0  T
   8    -84.5334630 -0.505932E-08  0.170E-04    2.30      77.8  T
     SCC iter.                  ...        0 min,  0.084 sec
     gradient                   ...        0 min,  0.005 sec
 * total energy  :   -83.4249865 Eh     change       -0.5350077E-03 Eh
   gradient norm :     0.0264365 Eh/α   predicted    -0.1143351E-02 ( 113.71%)
   displ. norm   :     0.3217638 α      lambda       -0.1320165E-02
   maximum displ.:     0.1358919 α      in ANC's #21, #7, #12, ...

........................................................................
.............................. CYCLE   52 ..............................
........................................................................

 iter      E             dE          RMSdq      gap      omega  full diag
   1    -84.5252965 -0.845253E+02  0.865E-02    2.29       0.0  T
   2    -84.5253191 -0.226560E-04  0.504E-02    2.28       1.0  T
   3    -84.5253105  0.863029E-05  0.202E-02    2.28       1.0  T
   4    -84.5253237 -0.131897E-04  0.786E-03    2.28       1.7  T
   5    -84.5253250 -0.134697E-05  0.258E-03    2.28       5.1  T
   6    -84.5253252 -0.218128E-06  0.116E-03    2.28      11.4  T
   7    -84.5253253 -0.118270E-07  0.461E-04    2.28      28.7  T
   8    -84.5253253 -0.298371E-08  0.103E-04    2.28     128.9  T
     SCC iter.                  ...        0 min,  0.076 sec
     gradient                   ...        0 min,  0.012 sec
 * total energy  :   -83.4250418 Eh     change       -0.5532501E-04 Eh
   gradient norm :     0.0213702 Eh/α   predicted    -0.7284261E-03 (1216.63%)
   displ. norm   :     0.4878754 α      lambda       -0.2236129E-02
   maximum displ.:     0.2897848 α      in ANC's #7, #21, #6, ...

........................................................................
.............................. CYCLE   53 ..............................
........................................................................

 iter      E             dE          RMSdq      gap      omega  full diag
   1    -84.5341062 -0.845341E+02  0.806E-02    2.29       0.0  T
   2    -84.5341258 -0.196279E-04  0.476E-02    2.31       1.0  T
   3    -84.5341003  0.255175E-04  0.292E-02    2.30       1.0  T
   4    -84.5341342 -0.338695E-04  0.657E-03    2.31       2.0  T
   5    -84.5341348 -0.614844E-06  0.244E-03    2.31       5.4  T
   6    -84.5341350 -0.173768E-06  0.111E-03    2.31      11.9  T
   7    -84.5341350 -0.255555E-07  0.506E-04    2.31      26.2  T
   8    -84.5341350 -0.216919E-08  0.146E-04    2.31      91.0  T
     SCC iter.                  ...        0 min,  0.085 sec
     gradient                   ...        0 min,  0.010 sec
 * total energy  :   -83.4256421 Eh     change       -0.6002687E-03 Eh
   gradient norm :     0.0208474 Eh/α   predicted    -0.1384188E-02 ( 130.59%)
   displ. norm   :     0.3592213 α      lambda       -0.1333407E-02
   maximum displ.:     0.1986021 α      in ANC's #10, #12, #3, ...

........................................................................
.............................. CYCLE   54 ..............................
........................................................................

 iter      E             dE          RMSdq      gap      omega  full diag
   1    -84.5314776 -0.845315E+02  0.794E-02    2.31       0.0  T
   2    -84.5314846 -0.700330E-05  0.481E-02    2.31       1.0  T
   3    -84.5314878 -0.320565E-05  0.663E-03    2.31       2.0  T
   4    -84.5314880 -0.201728E-06  0.418E-03    2.31       3.2  T
   5    -84.5314883 -0.316126E-06  0.197E-03    2.31       6.7  T
   6    -84.5314884 -0.639375E-07  0.814E-04    2.31      16.3  T
   7    -84.5314884 -0.100836E-07  0.258E-04    2.31      51.3  T
     SCC iter.                  ...        0 min,  0.075 sec
     gradient                   ...        0 min,  0.010 sec
 * total energy  :   -83.4262215 Eh     change       -0.5793814E-03 Eh
   gradient norm :     0.0235510 Eh/α   predicted    -0.7527359E-03 (  29.92%)
   displ. norm   :     0.2663693 α      lambda       -0.8756454E-03
   maximum displ.:     0.1211485 α      in ANC's #3, #2, #9, ...

........................................................................
.............................. CYCLE   55 ..............................
........................................................................

 iter      E             dE          RMSdq      gap      omega  full diag
   1    -84.5312746 -0.845313E+02  0.490E-02    2.30       0.0  T
   2    -84.5312793 -0.466907E-05  0.289E-02    2.30       1.0  T
   3    -84.5312762  0.309244E-05  0.106E-02    2.30       1.3  T
   4    -84.5312804 -0.426706E-05  0.359E-03    2.30       3.7  T
   5    -84.5312808 -0.335170E-06  0.135E-03    2.30       9.8  T
   6    -84.5312808 -0.185922E-07  0.669E-04    2.30      19.8  T
   7    -84.5312808 -0.502008E-08  0.325E-04    2.30      40.8  T
     SCC iter.                  ...        0 min,  0.074 sec
     gradient                   ...        0 min,  0.008 sec
 * total energy  :   -83.4264410 Eh     change       -0.2194784E-03 Eh
   gradient norm :     0.0236860 Eh/α   predicted    -0.4688904E-03 ( 113.64%)
   displ. norm   :     0.2698290 α      lambda       -0.1025036E-02
   maximum displ.:     0.1202340 α      in ANC's #2, #5, #3, ...

........................................................................
.............................. CYCLE   56 ..............................
........................................................................

 iter      E             dE          RMSdq      gap      omega  full diag
   1    -84.5284411 -0.845284E+02  0.524E-02    2.30       0.0  T
   2    -84.5284448 -0.369099E-05  0.318E-02    2.30       1.0  T
   3    -84.5284400  0.483152E-05  0.106E-02    2.30       1.3  T
   4    -84.5284462 -0.627949E-05  0.262E-03    2.30       5.1  T
   5    -84.5284464 -0.150637E-06  0.138E-03    2.30       9.6  T
   6    -84.5284464 -0.371299E-07  0.684E-04    2.30      19.4  T
   7    -84.5284464 -0.941114E-08  0.231E-04    2.30      57.3  T
     SCC iter.                  ...        0 min,  0.073 sec
     gradient                   ...        0 min,  0.009 sec
 * total energy  :   -83.4271756 Eh     change       -0.7346184E-03 Eh
   gradient norm :     0.0113927 Eh/α   predicted    -0.5498350E-03 ( -25.15%)
   displ. norm   :     0.5445128 α      lambda       -0.1083952E-02
   maximum displ.:     0.2337481 α      in ANC's #3, #2, #6, ...

........................................................................
.............................. CYCLE   57 ..............................
........................................................................

 iter      E             dE          RMSdq      gap      omega  full diag
   1    -84.5265034 -0.845265E+02  0.839E-02    2.29       0.0  T
   2    -84.5265134 -0.100944E-04  0.510E-02    2.29       1.0  T
   3    -84.5264992  0.142397E-04  0.182E-02    2.29       1.0  T
   4    -84.5265181 -0.188885E-04  0.438E-03    2.29       3.0  T
   5    -84.5265185 -0.397146E-06  0.252E-03    2.29       5.3  T
   6    -84.5265186 -0.705770E-07  0.127E-03    2.29      10.4  T
   7    -84.5265186 -0.398198E-07  0.332E-04    2.29      39.8  T
   8    -84.5265186 -0.115494E-08  0.157E-04    2.29      84.4  T
     SCC iter.                  ...        0 min,  0.076 sec
     gradient                   ...        0 min,  0.013 sec
 * total energy  :   -83.4274302 Eh     change       -0.2545960E-03 Eh
   gradient norm :     0.0330478 Eh/α   predicted    -0.7026690E-03 ( 175.99%)
   displ. norm   :     0.3155225 α      lambda       -0.1314147E-02
   maximum displ.:     0.1639815 α      in ANC's #10, #3, #2, ...

........................................................................
.............................. CYCLE   58 ..............................
........................................................................

 iter      E             dE          RMSdq      gap      omega  full diag
   1    -84.5284625 -0.845285E+02  0.532E-02    2.30       0.0  T
   2    -84.5284673 -0.471984E-05  0.326E-02    2.31       1.0  T
   3    -84.5284647  0.251974E-05  0.109E-02    2.30       1.2  T
   4    -84.5284702 -0.549699E-05  0.401E-03    2.31       3.3  T
   5    -84.5284704 -0.168300E-06  0.216E-03    2.31       6.1  T
   6    -84.5284704 -0.284145E-07  0.820E-04    2.31      16.1  T
   7    -84.5284705 -0.263693E-07  0.232E-04    2.31      57.0  T
     SCC iter.                  ...        0 min,  0.067 sec
     gradient                   ...        0 min,  0.012 sec
 * total energy  :   -83.4281796 Eh     change       -0.7494451E-03 Eh
   gradient norm :     0.0180582 Eh/α   predicted    -0.7224938E-03 (  -3.60%)
   displ. norm   :     0.3503153 α      lambda       -0.1129359E-02
   maximum displ.:     0.1819469 α      in ANC's #3, #2, #4, ...

........................................................................
.............................. CYCLE   59 ..............................
........................................................................

 iter      E             dE          RMSdq      gap      omega  full diag
   1    -84.5344227 -0.845344E+02  0.578E-02    2.30       0.0  T
   2    -84.5344263 -0.352813E-05  0.340E-02    2.30       1.0  T
   3    -84.5344265 -0.239483E-06  0.536E-03    2.30       2.5  T
   4    -84.5344270 -0.481655E-06  0.315E-03    2.30       4.2  T
   5    -84.5344272 -0.271608E-06  0.131E-03    2.30      10.1  T
   6    -84.5344273 -0.268445E-07  0.594E-04    2.30      22.3  T
   7    -84.5344273 -0.253540E-08  0.275E-04    2.30      48.1  T
     SCC iter.                  ...        0 min,  0.072 sec
     gradient                   ...        0 min,  0.009 sec
 * total energy  :   -83.4284442 Eh     change       -0.2645938E-03 Eh
   gradient norm :     0.0211145 Eh/α   predicted    -0.6339796E-03 ( 139.60%)
   displ. norm   :     0.4930718 α      lambda       -0.1151312E-02
   maximum displ.:     0.2374790 α      in ANC's #3, #2, #1, ...

........................................................................
.............................. CYCLE   60 ..............................
........................................................................

 iter      E             dE          RMSdq      gap      omega  full diag
   1    -84.5298757 -0.845299E+02  0.753E-02    2.29       0.0  T
   2    -84.5298826 -0.688933E-05  0.456E-02    2.30       1.0  T
   3    -84.5298739  0.870571E-05  0.142E-02    2.30       1.0  T
   4    -84.5298853 -0.114480E-04  0.403E-03    2.30       3.3  T
   5    -84.5298857 -0.357600E-06  0.211E-03    2.30       6.3  T
   6    -84.5298858 -0.755834E-07  0.107E-03    2.30      12.4  T
   7    -84.5298858 -0.231339E-07  0.376E-04    2.30      35.3  T
   8    -84.5298858 -0.105901E-08  0.108E-04    2.30     122.4  T
     SCC iter.                  ...        0 min,  0.084 sec
     gradient                   ...        0 min,  0.009 sec
 * total energy  :   -83.4292293 Eh     change       -0.7850509E-03 Eh
   gradient norm :     0.0111142 Eh/α   predicted    -0.7156121E-03 (  -8.85%)
   displ. norm   :     0.5176924 α      lambda       -0.7583277E-03
   maximum displ.:     0.2812819 α      in ANC's #3, #2, #6, ...

........................................................................
.............................. CYCLE   61 ..............................
........................................................................

 iter      E             dE          RMSdq      gap      omega  full diag
   1    -84.5307100 -0.845307E+02  0.616E-02    2.30       0.0  T
   2    -84.5307155 -0.546933E-05  0.373E-02    2.30       1.0  T
   3    -84.5307017  0.137762E-04  0.177E-02    2.30       1.0  T
   4    -84.5307185 -0.167479E-04  0.345E-03    2.30       3.8  T
   5    -84.5307187 -0.291632E-06  0.174E-03    2.30       7.6  T
   6    -84.5307188 -0.386600E-07  0.881E-04    2.30      15.0  T
   7    -84.5307188 -0.145059E-07  0.222E-04    2.30      59.6  T
     SCC iter.                  ...        0 min,  0.068 sec
     gradient                   ...        0 min,  0.006 sec
 * total energy  :   -83.4296882 Eh     change       -0.4589624E-03 Eh
   gradient norm :     0.0171796 Eh/α   predicted    -0.4807853E-03 (   4.75%)
   displ. norm   :     0.3917434 α      lambda       -0.5688631E-03
   maximum displ.:     0.2205930 α      in ANC's #3, #6, #4, ...

........................................................................
.............................. CYCLE   62 ..............................
........................................................................

 iter      E             dE          RMSdq      gap      omega  full diag
   1    -84.5322307 -0.845322E+02  0.464E-02    2.30       0.0  T
   2    -84.5322323 -0.162480E-05  0.276E-02    2.30       1.0  T
   3    -84.5322317  0.568325E-06  0.455E-03    2.29       2.9  T
   4    -84.5322327 -0.954874E-06  0.182E-03    2.29       7.3  T
   5    -84.5322328 -0.900008E-07  0.915E-04    2.29      14.5  T
   6    -84.5322328 -0.115255E-07  0.453E-04    2.29      29.3  T
     SCC iter.                  ...        0 min,  0.059 sec
     gradient                   ...        0 min,  0.011 sec
 * total energy  :   -83.4301176 Eh     change       -0.4293499E-03 Eh
   gradient norm :     0.0095479 Eh/α   predicted    -0.3280851E-03 ( -23.59%)
   displ. norm   :     0.3616146 α      lambda       -0.4900966E-03
   maximum displ.:     0.1915201 α      in ANC's #3, #4, #6, ...

........................................................................
.............................. CYCLE   63 ..............................
........................................................................

 iter      E             dE          RMSdq      gap      omega  full diag
   1    -84.5361846 -0.845362E+02  0.569E-02    2.30       0.0  T
   2    -84.5361875 -0.290616E-05  0.344E-02    2.31       1.0  T
   3    -84.5361830  0.446752E-05  0.108E-02    2.31       1.2  T
   4    -84.5361884 -0.543225E-05  0.278E-03    2.31       4.8  T
   5    -84.5361886 -0.214490E-06  0.124E-03    2.31      10.7  T
   6    -84.5361887 -0.783056E-08  0.617E-04    2.31      21.5  T
   7    -84.5361887 -0.869632E-08  0.157E-04    2.31      84.3  T
     SCC iter.                  ...        0 min,  0.070 sec
     gradient                   ...        0 min,  0.014 sec
 * total energy  :   -83.4304246 Eh     change       -0.3070427E-03 Eh
   gradient norm :     0.0078329 Eh/α   predicted    -0.2770944E-03 (  -9.75%)
   displ. norm   :     0.2934666 α      lambda       -0.3646628E-03
   maximum displ.:     0.1152886 α      in ANC's #9, #4, #3, ...

........................................................................
.............................. CYCLE   64 ..............................
........................................................................

 iter      E             dE          RMSdq      gap      omega  full diag
   1    -84.5343398 -0.845343E+02  0.534E-02    2.32       0.0  T
   2    -84.5343448 -0.499033E-05  0.316E-02    2.33       1.0  T
   3    -84.5343441  0.713800E-06  0.786E-03    2.33       1.7  T
   4    -84.5343454 -0.131588E-05  0.290E-03    2.33       4.6  T
   5    -84.5343456 -0.235019E-06  0.125E-03    2.33      10.6  T
   6    -84.5343456 -0.151144E-07  0.680E-04    2.33      19.5  T
   7    -84.5343456 -0.111985E-07  0.252E-04    2.33      52.5  T
     SCC iter.                  ...        0 min,  0.073 sec
     gradient                   ...        0 min,  0.009 sec
 * total energy  :   -83.4306269 Eh     change       -0.2023137E-03 Eh
   gradient norm :     0.0105581 Eh/α   predicted    -0.1980358E-03 (  -2.11%)
   displ. norm   :     0.2494585 α      lambda       -0.2904748E-03
   maximum displ.:     0.1225554 α      in ANC's #9, #11, #4, ...

........................................................................
.............................. CYCLE   65 ..............................
........................................................................

 iter      E             dE          RMSdq      gap      omega  full diag
   1    -84.5329894 -0.845330E+02  0.442E-02    2.33       0.0  T
   2    -84.5329927 -0.333401E-05  0.262E-02    2.35       1.0  T
   3    -84.5329912  0.157972E-05  0.814E-03    2.35       1.6  T
   4    -84.5329930 -0.188685E-05  0.294E-03    2.35       4.5  T
   5    -84.5329934 -0.329153E-06  0.101E-03    2.35      13.1  T
   6    -84.5329934 -0.971150E-08  0.584E-04    2.35      22.7  T
   7    -84.5329934 -0.572545E-08  0.138E-04    2.35      95.9  T
     SCC iter.                  ...        0 min,  0.077 sec
     gradient                   ...        0 min,  0.007 sec
 * total energy  :   -83.4308348 Eh     change       -0.2078260E-03 Eh
   gradient norm :     0.0089838 Eh/α   predicted    -0.1542767E-03 ( -25.77%)
   displ. norm   :     0.3547105 α      lambda       -0.3819229E-03
   maximum displ.:     0.1878076 α      in ANC's #11, #9, #2, ...

........................................................................
.............................. CYCLE   66 ..............................
........................................................................

 iter      E             dE          RMSdq      gap      omega  full diag
   1    -84.5344047 -0.845344E+02  0.615E-02    2.36       0.0  T
   2    -84.5344141 -0.935510E-05  0.354E-02    2.39       1.0  T
   3    -84.5344114  0.266178E-05  0.116E-02    2.39       1.1  T
   4    -84.5344143 -0.288595E-05  0.464E-03    2.39       2.9  T
   5    -84.5344151 -0.849988E-06  0.131E-03    2.39      10.1  T
   6    -84.5344152 -0.276025E-07  0.744E-04    2.39      17.8  T
   7    -84.5344152 -0.829851E-08  0.256E-04    2.39      51.8  T
     SCC iter.                  ...        0 min,  0.068 sec
     gradient                   ...        0 min,  0.008 sec
 * total energy  :   -83.4310784 Eh     change       -0.2436948E-03 Eh
   gradient norm :     0.0076286 Eh/α   predicted    -0.2149899E-03 ( -11.78%)
   displ. norm   :     0.5268536 α      lambda       -0.4958658E-03
   maximum displ.:     0.2683850 α      in ANC's #11, #9, #4, ...
 * RMSD in coord.:     0.9043636 α      energy gain  -0.1148669E-01 Eh

generating ANC from exact Hessian ...
Using Lindh-Hessian (1995)
 Shifting diagonal of input Hessian by   1.021502836993053E-002
 Lowest  eigenvalues of input Hessian
    0.010000    0.010073    0.000000    0.000000    0.000000    0.000000
    0.000000    0.000000    0.010280    0.010373    0.010406    0.010487
    0.010527    0.010773    0.010941    0.010980    0.011185    0.011281
 Highest eigenvalues
    1.953897    2.010581    2.111438    2.167180    2.319247    2.341348
 

........................................................................
.............................. CYCLE   67 ..............................
........................................................................

 iter      E             dE          RMSdq      gap      omega  full diag
   1    -84.5239553 -0.845240E+02  0.921E-02    2.39       0.0  T
   2    -84.5239770 -0.216922E-04  0.535E-02    2.43       1.0  T
   3    -84.5239723  0.461356E-05  0.162E-02    2.43       1.0  T
   4    -84.5239774 -0.504754E-05  0.715E-03    2.43       1.9  T
   5    -84.5239798 -0.237984E-05  0.220E-03    2.43       6.0  T
   6    -84.5239798 -0.349110E-07  0.127E-03    2.43      10.4  T
   7    -84.5239798 -0.271559E-07  0.390E-04    2.43      33.9  T
   8    -84.5239798 -0.304567E-08  0.130E-04    2.43     101.9  T
     SCC iter.                  ...        0 min,  0.077 sec
     gradient                   ...        0 min,  0.009 sec
 * total energy  :   -83.4312005 Eh     change       -0.1220169E-03 Eh
   gradient norm :     0.0200306 Eh/α   predicted     0.0000000E+00 (-100.00%)
   displ. norm   :     0.1164709 α      lambda       -0.6669388E-03
   maximum displ.:     0.0552212 α      in ANC's #31, #23, #33, ...

........................................................................
.............................. CYCLE   68 ..............................
........................................................................

 iter      E             dE          RMSdq      gap      omega  full diag
   1    -84.5312889 -0.845313E+02  0.391E-02    2.44       0.0  T
   2    -84.5312906 -0.173483E-05  0.236E-02    2.44       1.0  T
   3    -84.5312873  0.335536E-05  0.912E-03    2.44       1.5  T
   4    -84.5312913 -0.402091E-05  0.228E-03    2.44       5.8  T
   5    -84.5312914 -0.159418E-06  0.913E-04    2.44      14.5  T
   6    -84.5312914 -0.491808E-08  0.416E-04    2.44      31.9  T
     SCC iter.                  ...        0 min,  0.052 sec
     gradient                   ...        0 min,  0.015 sec
 * total energy  :   -83.4316292 Eh     change       -0.4286884E-03 Eh
   gradient norm :     0.0067802 Eh/α   predicted    -0.3379951E-03 ( -21.16%)
   displ. norm   :     0.1292663 α      lambda       -0.2241460E-03
   maximum displ.:     0.0491851 α      in ANC's #7, #1, #9, ...

........................................................................
.............................. CYCLE   69 ..............................
........................................................................

 iter      E             dE          RMSdq      gap      omega  full diag
   1    -84.5354877 -0.845355E+02  0.306E-02    2.44       0.0  T
   2    -84.5354887 -0.961725E-06  0.183E-02    2.43       1.0  T
   3    -84.5354882  0.412202E-06  0.408E-03    2.43       3.2  T
   4    -84.5354888 -0.590882E-06  0.151E-03    2.43       8.8  T
   5    -84.5354889 -0.699919E-07  0.641E-04    2.43      20.7  T
   6    -84.5354889 -0.393150E-08  0.337E-04    2.43      39.3  T
     SCC iter.                  ...        0 min,  0.059 sec
     gradient                   ...        0 min,  0.008 sec
 * total energy  :   -83.4317813 Eh     change       -0.1521288E-03 Eh
   gradient norm :     0.0028664 Eh/α   predicted    -0.1141775E-03 ( -24.95%)
   displ. norm   :     0.2167209 α      lambda       -0.1903793E-03
   maximum displ.:     0.0843264 α      in ANC's #9, #7, #1, ...

........................................................................
.............................. CYCLE   70 ..............................
........................................................................

 iter      E             dE          RMSdq      gap      omega  full diag
   1    -84.5365865 -0.845366E+02  0.438E-02    2.43       0.0  T
   2    -84.5365880 -0.145192E-05  0.264E-02    2.43       1.0  T
   3    -84.5365870  0.102644E-05  0.592E-03    2.43       2.2  T
   4    -84.5365884 -0.139776E-05  0.219E-03    2.42       6.0  T
   5    -84.5365885 -0.151666E-06  0.896E-04    2.43      14.8  T
   6    -84.5365885 -0.333236E-08  0.398E-04    2.43      33.3  T
     SCC iter.                  ...        0 min,  0.061 sec
     gradient                   ...        0 min,  0.011 sec
 * total energy  :   -83.4319443 Eh     change       -0.1630089E-03 Eh
   gradient norm :     0.0043703 Eh/α   predicted    -0.9966281E-04 ( -38.86%)
   displ. norm   :     0.5132002 α      lambda       -0.3777053E-03
   maximum displ.:     0.2117795 α      in ANC's #9, #7, #1, ...

........................................................................
.............................. CYCLE   71 ..............................
........................................................................

 iter      E             dE          RMSdq      gap      omega  full diag
   1    -84.5330562 -0.845331E+02  0.964E-02    2.43       0.0  T
   2    -84.5330637 -0.753019E-05  0.579E-02    2.41       1.0  T
   3    -84.5330555  0.819259E-05  0.153E-02    2.41       1.0  T
   4    -84.5330658 -0.102767E-04  0.489E-03    2.41       2.7  T
   5    -84.5330665 -0.713185E-06  0.204E-03    2.41       6.5  T
   6    -84.5330665 -0.208345E-07  0.945E-04    2.41      14.0  T
   7    -84.5330665 -0.131511E-07  0.345E-04    2.41      38.4  T
     SCC iter.                  ...        0 min,  0.078 sec
     gradient                   ...        0 min,  0.006 sec
 * total energy  :   -83.4320932 Eh     change       -0.1489446E-03 Eh
   gradient norm :     0.0169059 Eh/α   predicted    -0.2386083E-03 (  60.20%)
   displ. norm   :     0.1166903 α      lambda       -0.3673969E-03
   maximum displ.:     0.0516193 α      in ANC's #15, #9, #19, ...

........................................................................
.............................. CYCLE   72 ..............................
........................................................................

 iter      E             dE          RMSdq      gap      omega  full diag
   1    -84.5347235 -0.845347E+02  0.279E-02    2.42       0.0  T
   2    -84.5347249 -0.133679E-05  0.168E-02    2.41       1.0  T
   3    -84.5347229  0.195772E-05  0.724E-03    2.41       1.8  T
   4    -84.5347255 -0.260812E-05  0.193E-03    2.41       6.8  T
   5    -84.5347256 -0.423495E-07  0.961E-04    2.41      13.8  T
   6    -84.5347256 -0.180739E-07  0.446E-04    2.41      29.7  T
     SCC iter.                  ...        0 min,  0.067 sec
     gradient                   ...        0 min,  0.010 sec
 * total energy  :   -83.4322857 Eh     change       -0.1924326E-03 Eh
   gradient norm :     0.0057760 Eh/α   predicted    -0.1862021E-03 (  -3.24%)
   displ. norm   :     0.2871847 α      lambda       -0.2560692E-03
   maximum displ.:     0.1278538 α      in ANC's #9, #7, #1, ...

........................................................................
.............................. CYCLE   73 ..............................
........................................................................

 iter      E             dE          RMSdq      gap      omega  full diag
   1    -84.5345705 -0.845346E+02  0.404E-02    2.41       0.0  T
   2    -84.5345718 -0.122135E-05  0.240E-02    2.41       1.0  T
   3    -84.5345712  0.582139E-06  0.491E-03    2.41       2.7  T
   4    -84.5345721 -0.896378E-06  0.191E-03    2.41       6.9  T
   5    -84.5345722 -0.996954E-07  0.836E-04    2.41      15.8  T
   6    -84.5345722 -0.747069E-08  0.368E-04    2.41      36.0  T
     SCC iter.                  ...        0 min,  0.063 sec
     gradient                   ...        0 min,  0.008 sec
 * total energy  :   -83.4324943 Eh     change       -0.2086737E-03 Eh
   gradient norm :     0.0053360 Eh/α   predicted    -0.1385967E-03 ( -33.58%)
   displ. norm   :     0.6556022 α      lambda       -0.4683524E-03
   maximum displ.:     0.2778305 α      in ANC's #1, #7, #9, ...

........................................................................
.............................. CYCLE   74 ..............................
........................................................................

 iter      E             dE          RMSdq      gap      omega  full diag
   1    -84.5304381 -0.845304E+02  0.953E-02    2.40       0.0  T
   2    -84.5304436 -0.553056E-05  0.571E-02    2.39       1.0  T
   3    -84.5304321  0.115308E-04  0.169E-02    2.39       1.0  T
   4    -84.5304460 -0.139039E-04  0.388E-03    2.39       3.4  T
   5    -84.5304463 -0.294544E-06  0.186E-03    2.39       7.1  T
   6    -84.5304463 -0.173095E-07  0.892E-04    2.39      14.9  T
   7    -84.5304463 -0.188273E-07  0.284E-04    2.39      46.7  T
     SCC iter.                  ...        0 min,  0.070 sec
     gradient                   ...        0 min,  0.009 sec
 * total energy  :   -83.4328411 Eh     change       -0.3467436E-03 Eh
   gradient norm :     0.0084897 Eh/α   predicted    -0.3348299E-03 (  -3.44%)
   displ. norm   :     0.4503319 α      lambda       -0.3362375E-03
   maximum displ.:     0.2117714 α      in ANC's #1, #7, #3, ...

........................................................................
.............................. CYCLE   75 ..............................
........................................................................

 iter      E             dE          RMSdq      gap      omega  full diag
   1    -84.5314535 -0.845315E+02  0.563E-02    2.39       0.0  T
   2    -84.5314557 -0.225483E-05  0.334E-02    2.38       1.0  T
   3    -84.5314483  0.737926E-05  0.132E-02    2.38       1.0  T
   4    -84.5314569 -0.858860E-05  0.236E-03    2.38       5.6  T
   5    -84.5314571 -0.126708E-06  0.115E-03    2.38      11.5  T
   6    -84.5314571 -0.116154E-07  0.573E-04    2.38      23.1  T
   7    -84.5314571 -0.658584E-08  0.192E-04    2.38      68.9  T
     SCC iter.                  ...        0 min,  0.070 sec
     gradient                   ...        0 min,  0.006 sec
 * total energy  :   -83.4330575 Eh     change       -0.2164389E-03 Eh
   gradient norm :     0.0086553 Eh/α   predicted    -0.2022171E-03 (  -6.57%)
   displ. norm   :     0.5058778 α      lambda       -0.3941778E-03
   maximum displ.:     0.2437746 α      in ANC's #1, #7, #3, ...

........................................................................
.............................. CYCLE   76 ..............................
........................................................................

 iter      E             dE          RMSdq      gap      omega  full diag
   1    -84.5313145 -0.845313E+02  0.713E-02    2.38       0.0  T
   2    -84.5313173 -0.283445E-05  0.428E-02    2.37       1.0  T
   3    -84.5313112  0.611686E-05  0.122E-02    2.38       1.1  T
   4    -84.5313190 -0.775656E-05  0.289E-03    2.37       4.6  T
   5    -84.5313190 -0.378506E-07  0.170E-03    2.37       7.8  T
   6    -84.5313191 -0.834493E-07  0.575E-04    2.37      23.1  T
   7    -84.5313191 -0.348160E-08  0.189E-04    2.37      70.0  T
     SCC iter.                  ...        0 min,  0.070 sec
     gradient                   ...        0 min,  0.011 sec
 * total energy  :   -83.4331498 Eh     change       -0.9224575E-04 Eh
   gradient norm :     0.0168099 Eh/α   predicted    -0.2475302E-03 ( 168.34%)
   displ. norm   :     0.3252191 α      lambda       -0.5331421E-03
   maximum displ.:     0.1556890 α      in ANC's #7, #1, #3, ...

........................................................................
.............................. CYCLE   77 ..............................
........................................................................

 iter      E             dE          RMSdq      gap      omega  full diag
   1    -84.5302153 -0.845302E+02  0.538E-02    2.39       0.0  T
   2    -84.5302211 -0.586454E-05  0.319E-02    2.38       1.0  T
   3    -84.5302149  0.624782E-05  0.136E-02    2.38       1.0  T
   4    -84.5302226 -0.769426E-05  0.412E-03    2.38       3.2  T
   5    -84.5302232 -0.602988E-06  0.158E-03    2.38       8.4  T
   6    -84.5302232 -0.186898E-07  0.788E-04    2.38      16.8  T
   7    -84.5302232 -0.117896E-07  0.326E-04    2.38      40.7  T
     SCC iter.                  ...        0 min,  0.069 sec
     gradient                   ...        0 min,  0.014 sec
 * total energy  :   -83.4334183 Eh     change       -0.2685106E-03 Eh
   gradient norm :     0.0093101 Eh/α   predicted    -0.2947664E-03 (   9.78%)
   displ. norm   :     0.1988904 α      lambda       -0.3222128E-03
   maximum displ.:     0.0989009 α      in ANC's #7, #1, #3, ...

........................................................................
.............................. CYCLE   78 ..............................
........................................................................

 iter      E             dE          RMSdq      gap      omega  full diag
   1    -84.5368733 -0.845369E+02  0.319E-02    2.38       0.0  T
   2    -84.5368794 -0.612504E-05  0.185E-02    2.38       1.0  T
   3    -84.5368795 -0.978992E-07  0.755E-03    2.38       1.8  T
   4    -84.5368800 -0.513710E-06  0.182E-03    2.38       7.3  T
   5    -84.5368801 -0.114763E-06  0.944E-04    2.38      14.0  T
   6    -84.5368801 -0.329467E-08  0.470E-04    2.38      28.2  T
     SCC iter.                  ...        0 min,  0.066 sec
     gradient                   ...        0 min,  0.009 sec
 * total energy  :   -83.4335685 Eh     change       -0.1502305E-03 Eh
   gradient norm :     0.0090343 Eh/α   predicted    -0.1674814E-03 (  11.48%)
   displ. norm   :     0.5746720 α      lambda       -0.3667249E-03
   maximum displ.:     0.2909767 α      in ANC's #1, #7, #3, ...

........................................................................
.............................. CYCLE   79 ..............................
........................................................................

 iter      E             dE          RMSdq      gap      omega  full diag
   1    -84.5310221 -0.845310E+02  0.776E-02    2.38       0.0  T
   2    -84.5310270 -0.488556E-05  0.465E-02    2.38       1.0  T
   3    -84.5310171  0.986163E-05  0.154E-02    2.38       1.0  T
   4    -84.5310288 -0.116891E-04  0.362E-03    2.37       3.7  T
   5    -84.5310292 -0.354616E-06  0.170E-03    2.37       7.8  T
   6    -84.5310292 -0.272987E-07  0.859E-04    2.37      15.4  T
   7    -84.5310292 -0.132874E-07  0.271E-04    2.37      49.0  T
     SCC iter.                  ...        0 min,  0.066 sec
     gradient                   ...        0 min,  0.006 sec
 * total energy  :   -83.4337797 Eh     change       -0.2111399E-03 Eh
   gradient norm :     0.0125058 Eh/α   predicted    -0.2439184E-03 (  15.52%)
   displ. norm   :     0.4093850 α      lambda       -0.5108257E-03
   maximum displ.:     0.1977299 α      in ANC's #1, #7, #3, ...

........................................................................
.............................. CYCLE   80 ..............................
........................................................................

 iter      E             dE          RMSdq      gap      omega  full diag
   1    -84.5330661 -0.845331E+02  0.601E-02    2.37       0.0  T
   2    -84.5330716 -0.554220E-05  0.358E-02    2.37       1.0  T
   3    -84.5330685  0.314985E-05  0.105E-02    2.37       1.3  T
   4    -84.5330726 -0.412835E-05  0.379E-03    2.37       3.5  T
   5    -84.5330731 -0.482883E-06  0.158E-03    2.37       8.4  T
   6    -84.5330731 -0.372246E-07  0.753E-04    2.37      17.6  T
   7    -84.5330731 -0.979875E-08  0.334E-04    2.37      39.6  T
     SCC iter.                  ...        0 min,  0.069 sec
     gradient                   ...        0 min,  0.010 sec
 * total energy  :   -83.4339165 Eh     change       -0.1368713E-03 Eh
   gradient norm :     0.0153286 Eh/α   predicted    -0.2982193E-03 ( 117.88%)
   displ. norm   :     0.3012534 α      lambda       -0.3920223E-03
   maximum displ.:     0.1514152 α      in ANC's #1, #3, #7, ...

........................................................................
.............................. CYCLE   81 ..............................
........................................................................

 iter      E             dE          RMSdq      gap      omega  full diag
   1    -84.5324472 -0.845324E+02  0.374E-02    2.38       0.0  T
   2    -84.5324488 -0.157752E-05  0.223E-02    2.38       1.0  T
   3    -84.5324485  0.230522E-06  0.466E-03    2.38       2.8  T
   4    -84.5324493 -0.769807E-06  0.225E-03    2.38       5.9  T
   5    -84.5324494 -0.119523E-06  0.917E-04    2.38      14.4  T
   6    -84.5324494 -0.102760E-07  0.465E-04    2.38      28.5  T
     SCC iter.                  ...        0 min,  0.053 sec
     gradient                   ...        0 min,  0.009 sec
 * total energy  :   -83.4341275 Eh     change       -0.2109999E-03 Eh
   gradient norm :     0.0073206 Eh/α   predicted    -0.2138061E-03 (   1.33%)
   displ. norm   :     0.3501784 α      lambda       -0.2782202E-03
   maximum displ.:     0.1971778 α      in ANC's #1, #3, #7, ...

........................................................................
.............................. CYCLE   82 ..............................
........................................................................

 iter      E             dE          RMSdq      gap      omega  full diag
   1    -84.5337827 -0.845338E+02  0.392E-02    2.39       0.0  T
   2    -84.5337851 -0.243914E-05  0.233E-02    2.39       1.0  T
   3    -84.5337807  0.440197E-05  0.110E-02    2.39       1.2  T
   4    -84.5337859 -0.523110E-05  0.263E-03    2.39       5.0  T
   5    -84.5337862 -0.244584E-06  0.962E-04    2.39      13.8  T
   6    -84.5337862 -0.337661E-08  0.510E-04    2.39      26.0  T
     SCC iter.                  ...        0 min,  0.052 sec
     gradient                   ...        0 min,  0.009 sec
 * total energy  :   -83.4342463 Eh     change       -0.1187595E-03 Eh
   gradient norm :     0.0083839 Eh/α   predicted    -0.1561695E-03 (  31.50%)
   displ. norm   :     0.4040297 α      lambda       -0.1940844E-03
   maximum displ.:     0.2214459 α      in ANC's #1, #3, #7, ...

........................................................................
.............................. CYCLE   83 ..............................
........................................................................

 iter      E             dE          RMSdq      gap      omega  full diag
   1    -84.5319275 -0.845319E+02  0.461E-02    2.39       0.0  T
   2    -84.5319296 -0.207732E-05  0.276E-02    2.39       1.0  T
   3    -84.5319281  0.152567E-05  0.699E-03    2.39       1.9  T
   4    -84.5319301 -0.196443E-05  0.245E-03    2.39       5.4  T
   5    -84.5319303 -0.204576E-06  0.103E-03    2.39      12.8  T
   6    -84.5319303 -0.785927E-08  0.493E-04    2.39      26.9  T
   7    -84.5319303 -0.467392E-08  0.191E-04    2.39      69.4  T
     SCC iter.                  ...        0 min,  0.065 sec
     gradient                   ...        0 min,  0.006 sec
 * total energy  :   -83.4343935 Eh     change       -0.1472316E-03 Eh
   gradient norm :     0.0065089 Eh/α   predicted    -0.1128853E-03 ( -23.33%)
   displ. norm   :     0.3806224 α      lambda       -0.3526166E-03
   maximum displ.:     0.2025764 α      in ANC's #1, #3, #5, ...

........................................................................
.............................. CYCLE   84 ..............................
........................................................................

 iter      E             dE          RMSdq      gap      omega  full diag
   1    -84.5418046 -0.845418E+02  0.509E-02    2.40       0.0  T
   2    -84.5418098 -0.513069E-05  0.301E-02    2.41       1.0  T
   3    -84.5418074  0.236333E-05  0.950E-03    2.41       1.4  T
   4    -84.5418104 -0.296623E-05  0.347E-03    2.41       3.8  T
   5    -84.5418109 -0.537335E-06  0.133E-03    2.41       9.9  T
   6    -84.5418109 -0.213295E-07  0.659E-04    2.41      20.1  T
   7    -84.5418109 -0.582038E-08  0.255E-04    2.41      51.9  T
     SCC iter.                  ...        0 min,  0.067 sec
     gradient                   ...        0 min,  0.009 sec
 * total energy  :   -83.4344196 Eh     change       -0.2604862E-04 Eh
   gradient norm :     0.0131667 Eh/α   predicted    -0.2018539E-03 ( 674.91%)
   displ. norm   :     0.3803649 α      lambda       -0.3474789E-03
   maximum displ.:     0.2031998 α      in ANC's #1, #3, #7, ...

........................................................................
.............................. CYCLE   85 ..............................
........................................................................

 iter      E             dE          RMSdq      gap      omega  full diag
   1    -84.5348272 -0.845348E+02  0.465E-02    2.42       0.0  T
   2    -84.5348304 -0.327038E-05  0.275E-02    2.41       1.0  T
   3    -84.5348255  0.495846E-05  0.117E-02    2.42       1.1  T
   4    -84.5348312 -0.577483E-05  0.301E-03    2.41       4.4  T
   5    -84.5348316 -0.373072E-06  0.101E-03    2.41      13.1  T
   6    -84.5348316 -0.463328E-08  0.553E-04    2.41      24.0  T
   7    -84.5348316 -0.432662E-08  0.175E-04    2.41      75.5  T
     SCC iter.                  ...        0 min,  0.128 sec
     gradient                   ...        0 min,  0.008 sec
 * total energy  :   -83.4346265 Eh     change       -0.2069810E-03 Eh
   gradient norm :     0.0055445 Eh/α   predicted    -0.1988764E-03 (  -3.92%)
   displ. norm   :     0.3019896 α      lambda       -0.1343030E-03
   maximum displ.:     0.1809960 α      in ANC's #1, #3, #7, ...

........................................................................
.............................. CYCLE   86 ..............................
........................................................................

 iter      E             dE          RMSdq      gap      omega  full diag
   1    -84.5337311 -0.845337E+02  0.313E-02    2.42       0.0  T
   2    -84.5337326 -0.140861E-05  0.186E-02    2.41       1.0  T
   3    -84.5337317  0.834815E-06  0.541E-03    2.42       2.4  T
   4    -84.5337328 -0.110124E-05  0.191E-03    2.41       6.9  T
   5    -84.5337329 -0.117294E-06  0.804E-04    2.41      16.5  T
   6    -84.5337329 -0.969085E-08  0.383E-04    2.41      34.6  T
     SCC iter.                  ...        0 min,  0.059 sec
     gradient                   ...        0 min,  0.005 sec
 * total energy  :   -83.4347010 Eh     change       -0.7440793E-04 Eh
   gradient norm :     0.0054969 Eh/α   predicted    -0.7327646E-04 (  -1.52%)
   displ. norm   :     0.3208300 α      lambda       -0.1564087E-03
   maximum displ.:     0.1791256 α      in ANC's #1, #3, #5, ...

........................................................................
.............................. CYCLE   87 ..............................
........................................................................

 iter      E             dE          RMSdq      gap      omega  full diag
   1    -84.5354856 -0.845355E+02  0.303E-02    2.42       0.0  T
   2    -84.5354861 -0.525587E-06  0.179E-02    2.41       1.0  T
   3    -84.5354858  0.255883E-06  0.325E-03    2.42       4.1  T
   4    -84.5354862 -0.398136E-06  0.120E-03    2.41      11.0  T
   5    -84.5354863 -0.364489E-07  0.588E-04    2.41      22.5  T
   6    -84.5354863 -0.502949E-08  0.249E-04    2.41      53.2  T
     SCC iter.                  ...        0 min,  0.055 sec
     gradient                   ...        0 min,  0.004 sec
 * total energy  :   -83.4348080 Eh     change       -0.1070280E-03 Eh
   gradient norm :     0.0063293 Eh/α   predicted    -0.8625552E-04 ( -19.41%)
   displ. norm   :     0.4486893 α      lambda       -0.1982718E-03
   maximum displ.:     0.2484150 α      in ANC's #1, #3, #5, ...

........................................................................
.............................. CYCLE   88 ..............................
........................................................................

 iter      E             dE          RMSdq      gap      omega  full diag
   1    -84.5371760 -0.845372E+02  0.474E-02    2.42       0.0  T
   2    -84.5371789 -0.286298E-05  0.278E-02    2.42       1.0  T
   3    -84.5371784  0.471773E-06  0.561E-03    2.42       2.4  T
   4    -84.5371792 -0.820469E-06  0.169E-03    2.41       7.8  T
   5    -84.5371793 -0.875242E-07  0.800E-04    2.42      16.5  T
   6    -84.5371793 -0.808207E-08  0.396E-04    2.41      33.5  T
     SCC iter.                  ...        0 min,  0.063 sec
     gradient                   ...        0 min,  0.009 sec
 * total energy  :   -83.4349551 Eh     change       -0.1471524E-03 Eh
   gradient norm :     0.0049097 Eh/α   predicted    -0.1190966E-03 ( -19.07%)
   displ. norm   :     0.4607402 α      lambda       -0.1952687E-03
   maximum displ.:     0.2250816 α      in ANC's #1, #3, #5, ...

........................................................................
.............................. CYCLE   89 ..............................
........................................................................

 iter      E             dE          RMSdq      gap      omega  full diag
   1    -84.5387916 -0.845388E+02  0.533E-02    2.41       0.0  T
   2    -84.5387945 -0.287252E-05  0.314E-02    2.40       1.0  T
   3    -84.5387932  0.130415E-05  0.650E-03    2.40       2.0  T
   4    -84.5387951 -0.186756E-05  0.193E-03    2.40       6.9  T
   5    -84.5387952 -0.113359E-06  0.890E-04    2.40      14.9  T
   6    -84.5387952 -0.109332E-07  0.443E-04    2.40      29.9  T
     SCC iter.                  ...        0 min,  0.052 sec
     gradient                   ...        0 min,  0.008 sec
 * total energy  :   -83.4350897 Eh     change       -0.1345944E-03 Eh
   gradient norm :     0.0050440 Eh/α   predicted    -0.1183618E-03 ( -12.06%)
   displ. norm   :     0.4862515 α      lambda       -0.1755950E-03
   maximum displ.:     0.2380862 α      in ANC's #3, #1, #5, ...

........................................................................
.............................. CYCLE   90 ..............................
........................................................................

 iter      E             dE          RMSdq      gap      omega  full diag
   1    -84.5367769 -0.845368E+02  0.554E-02    2.39       0.0  T
   2    -84.5367826 -0.567503E-05  0.322E-02    2.38       1.0  T
   3    -84.5367803  0.234749E-05  0.988E-03    2.38       1.3  T
   4    -84.5367828 -0.254077E-05  0.378E-03    2.38       3.5  T
   5    -84.5367835 -0.645478E-06  0.956E-04    2.38      13.9  T
   6    -84.5367835 -0.135732E-07  0.474E-04    2.38      27.9  T
     SCC iter.                  ...        0 min,  0.051 sec
     gradient                   ...        0 min,  0.010 sec
 * total energy  :   -83.4352179 Eh     change       -0.1281824E-03 Eh
   gradient norm :     0.0050232 Eh/α   predicted    -0.1085623E-03 ( -15.31%)
   displ. norm   :     0.4517658 α      lambda       -0.2302294E-03
   maximum displ.:     0.2215853 α      in ANC's #5, #9, #7, ...

........................................................................
.............................. CYCLE   91 ..............................
........................................................................

 iter      E             dE          RMSdq      gap      omega  full diag
   1    -84.5372729 -0.845373E+02  0.624E-02    2.36       0.0  T
   2    -84.5372788 -0.595536E-05  0.367E-02    2.34       1.0  T
   3    -84.5372747  0.415970E-05  0.112E-02    2.34       1.2  T
   4    -84.5372792 -0.451458E-05  0.385E-03    2.34       3.4  T
   5    -84.5372798 -0.636216E-06  0.107E-03    2.34      12.4  T
   6    -84.5372799 -0.162235E-07  0.586E-04    2.34      22.6  T
   7    -84.5372799 -0.376886E-08  0.214E-04    2.34      62.0  T
     SCC iter.                  ...        0 min,  0.064 sec
     gradient                   ...        0 min,  0.006 sec
 * total energy  :   -83.4353566 Eh     change       -0.1386511E-03 Eh
   gradient norm :     0.0068426 Eh/α   predicted    -0.1386106E-03 (  -0.03%)
   displ. norm   :     0.4295772 α      lambda       -0.2230844E-03
   maximum displ.:     0.2068917 α      in ANC's #5, #3, #1, ...

........................................................................
.............................. CYCLE   92 ..............................
........................................................................

 iter      E             dE          RMSdq      gap      omega  full diag
   1    -84.5328842 -0.845329E+02  0.484E-02    2.33       0.0  T
   2    -84.5328884 -0.423654E-05  0.285E-02    2.32       1.0  T
   3    -84.5328836  0.483570E-05  0.119E-02    2.32       1.1  T
   4    -84.5328891 -0.551524E-05  0.324E-03    2.32       4.1  T
   5    -84.5328896 -0.439673E-06  0.911E-04    2.32      14.5  T
   6    -84.5328896 -0.911673E-08  0.492E-04    2.32      26.9  T
     SCC iter.                  ...        0 min,  0.061 sec
     gradient                   ...        0 min,  0.008 sec
 * total energy  :   -83.4354936 Eh     change       -0.1370467E-03 Eh
   gradient norm :     0.0050555 Eh/α   predicted    -0.1321271E-03 (  -3.59%)
   displ. norm   :     0.3268403 α      lambda       -0.1775423E-03
   maximum displ.:     0.1556913 α      in ANC's #5, #9, #7, ...
 * RMSD in coord.:     1.0045448 α      energy gain  -0.4415158E-02 Eh

generating ANC from exact Hessian ...
Using Lindh-Hessian (1995)
 Shifting diagonal of input Hessian by   1.010449249225239E-002
 Lowest  eigenvalues of input Hessian
    0.010000    0.000000    0.000000    0.000000    0.000000    0.000000
    0.000000    0.010147    0.010196    0.010282    0.010328    0.010369
    0.010629    0.010659    0.010855    0.010939    0.011269    0.011456
 Highest eigenvalues
    1.953853    2.015505    2.118351    2.181221    2.315155    2.348046
 

........................................................................
.............................. CYCLE   93 ..............................
........................................................................

 iter      E             dE          RMSdq      gap      omega  full diag
   1    -84.5356125 -0.845356E+02  0.481E-02    2.31       0.0  T
   2    -84.5356163 -0.383309E-05  0.283E-02    2.29       1.0  T
   3    -84.5356145  0.175187E-05  0.752E-03    2.29       1.8  T
   4    -84.5356163 -0.176933E-05  0.320E-03    2.29       4.1  T
   5    -84.5356168 -0.486692E-06  0.768E-04    2.29      17.2  T
   6    -84.5356168 -0.643614E-08  0.431E-04    2.29      30.7  T
     SCC iter.                  ...        0 min,  0.051 sec
     gradient                   ...        0 min,  0.008 sec
 * total energy  :   -83.4355876 Eh     change       -0.9401030E-04 Eh
   gradient norm :     0.0064326 Eh/α   predicted     0.0000000E+00 (-100.00%)
   displ. norm   :     0.0542572 α      lambda       -0.7608921E-04
   maximum displ.:     0.0192220 α      in ANC's #3, #7, #20, ...

........................................................................
.............................. CYCLE   94 ..............................
........................................................................

 iter      E             dE          RMSdq      gap      omega  full diag
   1    -84.5361881 -0.845362E+02  0.150E-02    2.29       0.0  T
   2    -84.5361887 -0.536504E-06  0.895E-03    2.29       1.5  T
   3    -84.5361886  0.292230E-07  0.243E-03    2.29       5.4  T
   4    -84.5361888 -0.120743E-06  0.736E-04    2.29      18.0  T
   5    -84.5361888 -0.132680E-07  0.443E-04    2.29      29.9  T
     SCC iter.                  ...        0 min,  0.045 sec
     gradient                   ...        0 min,  0.008 sec
 * total energy  :   -83.4356503 Eh     change       -0.6269960E-04 Eh
   gradient norm :     0.0022680 Eh/α   predicted    -0.4265305E-04 ( -31.97%)
   displ. norm   :     0.0935063 α      lambda       -0.6594651E-04
   maximum displ.:     0.0402881 α      in ANC's #3, #20, #5, ...

........................................................................
.............................. CYCLE   95 ..............................
........................................................................

 iter      E             dE          RMSdq      gap      omega  full diag
   1    -84.5368070 -0.845368E+02  0.202E-02    2.29       0.0  T
   2    -84.5368076 -0.573345E-06  0.119E-02    2.29       1.1  T
   3    -84.5368075  0.261375E-07  0.240E-03    2.29       5.5  T
   4    -84.5368077 -0.140564E-06  0.718E-04    2.29      18.4  T
   5    -84.5368077 -0.554969E-08  0.472E-04    2.29      28.1  T
     SCC iter.                  ...        0 min,  0.043 sec
     gradient                   ...        0 min,  0.010 sec
 * total energy  :   -83.4356946 Eh     change       -0.4432827E-04 Eh
   gradient norm :     0.0022645 Eh/α   predicted    -0.3326209E-04 ( -24.96%)
   displ. norm   :     0.1006898 α      lambda       -0.3830507E-04
   maximum displ.:     0.0471040 α      in ANC's #3, #5, #20, ...

........................................................................
.............................. CYCLE   96 ..............................
........................................................................

 iter      E             dE          RMSdq      gap      omega  full diag
   1    -84.5371741 -0.845372E+02  0.191E-02    2.29       0.0  T
   2    -84.5371743 -0.186782E-06  0.112E-02    2.29       1.2  T
   3    -84.5371742  0.336647E-07  0.146E-03    2.29       9.1  T
   4    -84.5371743 -0.817348E-07  0.536E-04    2.29      24.7  T
   5    -84.5371743 -0.547517E-08  0.310E-04    2.29      42.8  T
     SCC iter.                  ...        0 min,  0.041 sec
     gradient                   ...        0 min,  0.009 sec
 * total energy  :   -83.4357258 Eh     change       -0.3116967E-04 Eh
   gradient norm :     0.0032225 Eh/α   predicted    -0.1954088E-04 ( -37.31%)
   displ. norm   :     0.1954549 α      lambda       -0.6671163E-04
   maximum displ.:     0.0927751 α      in ANC's #3, #5, #20, ...

........................................................................
.............................. CYCLE   97 ..............................
........................................................................

 iter      E             dE          RMSdq      gap      omega  full diag
   1    -84.5373998 -0.845374E+02  0.360E-02    2.30       0.0  T
   2    -84.5374002 -0.479546E-06  0.211E-02    2.29       1.0  T
   3    -84.5374001  0.131196E-06  0.224E-03    2.29       5.9  T
   4    -84.5374004 -0.251281E-06  0.872E-04    2.29      15.2  T
   5    -84.5374004 -0.221726E-07  0.430E-04    2.29      30.8  T
     SCC iter.                  ...        0 min,  0.044 sec
     gradient                   ...        0 min,  0.004 sec
 * total energy  :   -83.4357770 Eh     change       -0.5116474E-04 Eh
   gradient norm :     0.0032245 Eh/α   predicted    -0.3463061E-04 ( -32.32%)
   displ. norm   :     0.2371773 α      lambda       -0.6868686E-04
   maximum displ.:     0.1178007 α      in ANC's #3, #5, #10, ...

........................................................................
.............................. CYCLE   98 ..............................
........................................................................

 iter      E             dE          RMSdq      gap      omega  full diag
   1    -84.5373673 -0.845374E+02  0.420E-02    2.30       0.0  T
   2    -84.5373679 -0.548308E-06  0.247E-02    2.30       1.0  T
   3    -84.5373677  0.140942E-06  0.234E-03    2.30       5.7  T
   4    -84.5373680 -0.284365E-06  0.965E-04    2.30      13.7  T
   5    -84.5373680 -0.273739E-07  0.480E-04    2.30      27.6  T
     SCC iter.                  ...        0 min,  0.050 sec
     gradient                   ...        0 min,  0.008 sec
 * total energy  :   -83.4358277 Eh     change       -0.5070069E-04 Eh
   gradient norm :     0.0024302 Eh/α   predicted    -0.3627686E-04 ( -28.45%)
   displ. norm   :     0.2196273 α      lambda       -0.5583496E-04
   maximum displ.:     0.1155157 α      in ANC's #3, #5, #2, ...

........................................................................
.............................. CYCLE   99 ..............................
........................................................................

 iter      E             dE          RMSdq      gap      omega  full diag
   1    -84.5372611 -0.845373E+02  0.396E-02    2.30       0.0  T
   2    -84.5372616 -0.549965E-06  0.233E-02    2.29       1.0  T
   3    -84.5372616  0.379603E-08  0.186E-03    2.29       7.1  T
   4    -84.5372618 -0.116662E-06  0.837E-04    2.29      15.8  T
   5    -84.5372618 -0.172411E-07  0.435E-04    2.29      30.4  T
     SCC iter.                  ...        0 min,  0.044 sec
     gradient                   ...        0 min,  0.009 sec
 * total energy  :   -83.4358700 Eh     change       -0.4228734E-04 Eh
   gradient norm :     0.0020275 Eh/α   predicted    -0.2926709E-04 ( -30.79%)
   displ. norm   :     0.1948341 α      lambda       -0.4882327E-04
   maximum displ.:     0.1099967 α      in ANC's #3, #5, #2, ...

........................................................................
.............................. CYCLE  100 ..............................
........................................................................

 iter      E             dE          RMSdq      gap      omega  full diag
   1    -84.5374445 -0.845374E+02  0.317E-02    2.29       0.0  T
   2    -84.5374449 -0.375900E-06  0.187E-02    2.29       1.0  T
   3    -84.5374449  0.199487E-07  0.183E-03    2.29       7.2  T
   4    -84.5374450 -0.104236E-06  0.730E-04    2.29      18.1  T
   5    -84.5374450 -0.797608E-08  0.367E-04    2.29      36.1  T
     SCC iter.                  ...        0 min,  0.048 sec
     gradient                   ...        0 min,  0.006 sec
 * total energy  :   -83.4359079 Eh     change       -0.3794456E-04 Eh
   gradient norm :     0.0019678 Eh/α   predicted    -0.2533860E-04 ( -33.22%)
   displ. norm   :     0.2669758 α      lambda       -0.4185728E-04
   maximum displ.:     0.1606860 α      in ANC's #3, #5, #2, ...

........................................................................
.............................. CYCLE  101 ..............................
........................................................................

 iter      E             dE          RMSdq      gap      omega  full diag
   1    -84.5374389 -0.845374E+02  0.406E-02    2.29       0.0  T
   2    -84.5374397 -0.806996E-06  0.239E-02    2.28       1.0  T
   3    -84.5374394  0.295217E-06  0.340E-03    2.28       3.9  T
   4    -84.5374398 -0.463904E-06  0.110E-03    2.28      12.1  T
   5    -84.5374399 -0.266574E-07  0.514E-04    2.28      25.8  T
   6    -84.5374399 -0.155862E-08  0.265E-04    2.28      49.9  T
     SCC iter.                  ...        0 min,  0.050 sec
     gradient                   ...        0 min,  0.008 sec
 * total energy  :   -83.4359519 Eh     change       -0.4399362E-04 Eh
   gradient norm :     0.0019251 Eh/α   predicted    -0.2159339E-04 ( -50.92%)
   displ. norm   :     0.1712838 α      lambda       -0.2830084E-04
   maximum displ.:     0.1101617 α      in ANC's #3, #2, #5, ...

........................................................................
.............................. CYCLE  102 ..............................
........................................................................

 iter      E             dE          RMSdq      gap      omega  full diag
   1    -84.5377277 -0.845377E+02  0.210E-02    2.28       0.0  T
   2    -84.5377280 -0.262004E-06  0.124E-02    2.28       1.1  T
   3    -84.5377277  0.282049E-06  0.272E-03    2.28       4.9  T
   4    -84.5377281 -0.333517E-06  0.791E-04    2.28      16.7  T
   5    -84.5377281 -0.208811E-07  0.324E-04    2.28      40.8  T
     SCC iter.                  ...        0 min,  0.040 sec
     gradient                   ...        0 min,  0.012 sec
 * total energy  :   -83.4359887 Eh     change       -0.3676392E-04 Eh
   gradient norm :     0.0016664 Eh/α   predicted    -0.1433556E-04 ( -61.01%)
   displ. norm   :     0.2500990 α      lambda       -0.4898711E-04
   maximum displ.:     0.1591243 α      in ANC's #3, #2, #5, ...

........................................................................
.............................. CYCLE  103 ..............................
........................................................................

 iter      E             dE          RMSdq      gap      omega  full diag
   1    -84.5378846 -0.845379E+02  0.286E-02    2.27       0.0  T
   2    -84.5378851 -0.493582E-06  0.170E-02    2.27       1.0  T
   3    -84.5378844  0.700590E-06  0.405E-03    2.27       3.3  T
   4    -84.5378852 -0.825423E-06  0.106E-03    2.26      12.5  T
   5    -84.5378852 -0.330640E-07  0.470E-04    2.27      28.2  T
   6    -84.5378852 -0.197706E-08  0.270E-04    2.27      49.0  T
     SCC iter.                  ...        0 min,  0.055 sec
     gradient                   ...        0 min,  0.009 sec
 * total energy  :   -83.4360501 Eh     change       -0.6145923E-04 Eh
   gradient norm :     0.0017644 Eh/α   predicted    -0.2517475E-04 ( -59.04%)
   displ. norm   :     0.3939912 α      lambda       -0.6882500E-04
   maximum displ.:     0.2480890 α      in ANC's #3, #2, #5, ...

........................................................................
.............................. CYCLE  104 ..............................
........................................................................

 iter      E             dE          RMSdq      gap      omega  full diag
   1    -84.5378567 -0.845379E+02  0.426E-02    2.26       0.0  T
   2    -84.5378577 -0.932356E-06  0.254E-02    2.26       1.0  T
   3    -84.5378547  0.300954E-05  0.808E-03    2.26       1.6  T
   4    -84.5378580 -0.337684E-05  0.141E-03    2.26       9.4  T
   5    -84.5378581 -0.580549E-07  0.576E-04    2.26      23.0  T
   6    -84.5378581 -0.423441E-09  0.276E-04    2.26      47.9  T
     SCC iter.                  ...        0 min,  0.051 sec
     gradient                   ...        0 min,  0.009 sec
 * total energy  :   -83.4361298 Eh     change       -0.7970171E-04 Eh
   gradient norm :     0.0034393 Eh/α   predicted    -0.3678919E-04 ( -53.84%)
   displ. norm   :     0.3152364 α      lambda       -0.7535180E-04
   maximum displ.:     0.2009137 α      in ANC's #3, #2, #5, ...

........................................................................
.............................. CYCLE  105 ..............................
........................................................................

 iter      E             dE          RMSdq      gap      omega  full diag
   1    -84.5375649 -0.845376E+02  0.329E-02    2.25       0.0  T
   2    -84.5375655 -0.543855E-06  0.195E-02    2.25       1.0  T
   3    -84.5375648  0.721290E-06  0.418E-03    2.25       3.2  T
   4    -84.5375656 -0.833849E-06  0.121E-03    2.25      11.0  T
   5    -84.5375657 -0.491372E-07  0.472E-04    2.25      28.1  T
   6    -84.5375657 -0.121678E-08  0.258E-04    2.25      51.4  T
     SCC iter.                  ...        0 min,  0.052 sec
     gradient                   ...        0 min,  0.004 sec
 * total energy  :   -83.4361928 Eh     change       -0.6292652E-04 Eh
   gradient norm :     0.0024790 Eh/α   predicted    -0.4142510E-04 ( -34.17%)
   displ. norm   :     0.3794778 α      lambda       -0.8219531E-04
   maximum displ.:     0.2430580 α      in ANC's #3, #2, #5, ...

........................................................................
.............................. CYCLE  106 ..............................
........................................................................

 iter      E             dE          RMSdq      gap      omega  full diag
   1    -84.5371295 -0.845371E+02  0.389E-02    2.25       0.0  T
   2    -84.5371305 -0.101862E-05  0.230E-02    2.24       1.0  T
   3    -84.5371291  0.140360E-05  0.577E-03    2.24       2.3  T
   4    -84.5371306 -0.155261E-05  0.174E-03    2.24       7.6  T
   5    -84.5371307 -0.122692E-06  0.549E-04    2.24      24.1  T
   6    -84.5371308 -0.139762E-08  0.266E-04    2.24      49.8  T
     SCC iter.                  ...        0 min,  0.051 sec
     gradient                   ...        0 min,  0.005 sec
 * total energy  :   -83.4362639 Eh     change       -0.7109672E-04 Eh
   gradient norm :     0.0024783 Eh/α   predicted    -0.4701692E-04 ( -33.87%)
   displ. norm   :     0.4204622 α      lambda       -0.9717039E-04
   maximum displ.:     0.2716484 α      in ANC's #3, #2, #5, ...

........................................................................
.............................. CYCLE  107 ..............................
........................................................................

 iter      E             dE          RMSdq      gap      omega  full diag
   1    -84.5379647 -0.845380E+02  0.397E-02    2.24       0.0  T
   2    -84.5379659 -0.125583E-05  0.234E-02    2.23       1.0  T
   3    -84.5379647  0.124038E-05  0.552E-03    2.23       2.4  T
   4    -84.5379660 -0.130809E-05  0.198E-03    2.23       6.7  T
   5    -84.5379662 -0.181347E-06  0.506E-04    2.23      26.2  T
   6    -84.5379662 -0.145167E-08  0.245E-04    2.23      54.0  T
     SCC iter.                  ...        0 min,  0.051 sec
     gradient                   ...        0 min,  0.005 sec
 * total energy  :   -83.4363416 Eh     change       -0.7769992E-04 Eh
   gradient norm :     0.0026467 Eh/α   predicted    -0.5718014E-04 ( -26.41%)
   displ. norm   :     0.5271908 α      lambda       -0.1111063E-03
   maximum displ.:     0.3440579 α      in ANC's #3, #2, #5, ...

........................................................................
.............................. CYCLE  108 ..............................
........................................................................

 iter      E             dE          RMSdq      gap      omega  full diag
   1    -84.5367753 -0.845368E+02  0.539E-02    2.23       0.0  T
   2    -84.5367774 -0.205954E-05  0.318E-02    2.22       1.0  T
   3    -84.5367758  0.162234E-05  0.660E-03    2.22       2.0  T
   4    -84.5367776 -0.181042E-05  0.261E-03    2.22       5.1  T
   5    -84.5367779 -0.292465E-06  0.831E-04    2.22      15.9  T
   6    -84.5367779 -0.362485E-08  0.367E-04    2.22      36.1  T
     SCC iter.                  ...        0 min,  0.042 sec
     gradient                   ...        0 min,  0.020 sec
 * total energy  :   -83.4364240 Eh     change       -0.8242391E-04 Eh
   gradient norm :     0.0036231 Eh/α   predicted    -0.7099666E-04 ( -13.86%)
   displ. norm   :     0.3334696 α      lambda       -0.7749408E-04
   maximum displ.:     0.2238626 α      in ANC's #3, #2, #5, ...

........................................................................
.............................. CYCLE  109 ..............................
........................................................................

 iter      E             dE          RMSdq      gap      omega  full diag
   1    -84.5376919 -0.845377E+02  0.320E-02    2.22       0.0  T
   2    -84.5376926 -0.658468E-06  0.188E-02    2.22       1.0  T
   3    -84.5376921  0.502059E-06  0.362E-03    2.21       3.7  T
   4    -84.5376926 -0.535647E-06  0.144E-03    2.21       9.2  T
   5    -84.5376927 -0.941832E-07  0.402E-04    2.21      33.0  T
   6    -84.5376927 -0.702983E-09  0.183E-04    2.21      72.4  T
     SCC iter.                  ...        0 min,  0.051 sec
     gradient                   ...        0 min,  0.009 sec
 * total energy  :   -83.4364889 Eh     change       -0.6496235E-04 Eh
   gradient norm :     0.0032280 Eh/α   predicted    -0.4305528E-04 ( -33.72%)
   displ. norm   :     0.4419629 α      lambda       -0.1047545E-03
   maximum displ.:     0.3012627 α      in ANC's #3, #2, #5, ...

........................................................................
.............................. CYCLE  110 ..............................
........................................................................

 iter      E             dE          RMSdq      gap      omega  full diag
   1    -84.5388644 -0.845389E+02  0.441E-02    2.21       0.0  T
   2    -84.5388656 -0.115947E-05  0.259E-02    2.21       1.0  T
   3    -84.5388650  0.525477E-06  0.397E-03    2.20       3.3  T
   4    -84.5388656 -0.564817E-06  0.184E-03    2.20       7.2  T
   5    -84.5388658 -0.154678E-06  0.528E-04    2.20      25.1  T
   6    -84.5388658 -0.137004E-08  0.257E-04    2.20      51.5  T
     SCC iter.                  ...        0 min,  0.054 sec
     gradient                   ...        0 min,  0.008 sec
 * total energy  :   -83.4365709 Eh     change       -0.8194429E-04 Eh
   gradient norm :     0.0033296 Eh/α   predicted    -0.6260831E-04 ( -23.60%)
   displ. norm   :     0.5125132 α      lambda       -0.1139907E-03
   maximum displ.:     0.3537309 α      in ANC's #3, #2, #5, ...

........................................................................
.............................. CYCLE  111 ..............................
........................................................................

 iter      E             dE          RMSdq      gap      omega  full diag
   1    -84.5382352 -0.845382E+02  0.546E-02    2.20       0.0  T
   2    -84.5382365 -0.133556E-05  0.322E-02    2.19       1.0  T
   3    -84.5382344  0.209995E-05  0.692E-03    2.19       1.9  T
   4    -84.5382368 -0.234385E-05  0.185E-03    2.19       7.2  T
   5    -84.5382369 -0.138246E-06  0.637E-04    2.19      20.8  T
   6    -84.5382369 -0.137358E-08  0.319E-04    2.19      41.5  T
     SCC iter.                  ...        0 min,  0.052 sec
     gradient                   ...        0 min,  0.009 sec
 * total energy  :   -83.4366556 Eh     change       -0.8469342E-04 Eh
   gradient norm :     0.0036218 Eh/α   predicted    -0.7196507E-04 ( -15.03%)
   displ. norm   :     0.3091912 α      lambda       -0.8108222E-04
   maximum displ.:     0.2202475 α      in ANC's #3, #2, #5, ...

........................................................................
.............................. CYCLE  112 ..............................
........................................................................

 iter      E             dE          RMSdq      gap      omega  full diag
   1    -84.5395420 -0.845395E+02  0.332E-02    2.18       0.0  T
   2    -84.5395426 -0.563120E-06  0.196E-02    2.18       1.0  T
   3    -84.5395422  0.407810E-06  0.334E-03    2.18       4.0  T
   4    -84.5395426 -0.479419E-06  0.124E-03    2.18      10.7  T
   5    -84.5395427 -0.610097E-07  0.453E-04    2.18      29.2  T
   6    -84.5395427 -0.850434E-09  0.234E-04    2.18      56.7  T
     SCC iter.                  ...        0 min,  0.050 sec
     gradient                   ...        0 min,  0.006 sec
 * total energy  :   -83.4367213 Eh     change       -0.6571497E-04 Eh
   gradient norm :     0.0024266 Eh/α   predicted    -0.4441967E-04 ( -32.41%)
   displ. norm   :     0.3920439 α      lambda       -0.9862579E-04
   maximum displ.:     0.2795284 α      in ANC's #3, #2, #5, ...

........................................................................
.............................. CYCLE  113 ..............................
........................................................................

 iter      E             dE          RMSdq      gap      omega  full diag
   1    -84.5388304 -0.845388E+02  0.437E-02    2.17       0.0  T
   2    -84.5388312 -0.832038E-06  0.258E-02    2.16       1.0  T
   3    -84.5388301  0.115369E-05  0.525E-03    2.16       2.5  T
   4    -84.5388314 -0.133316E-05  0.150E-03    2.16       8.9  T
   5    -84.5388315 -0.818594E-07  0.583E-04    2.16      22.7  T
   6    -84.5388315 -0.729614E-09  0.283E-04    2.16      46.7  T
     SCC iter.                  ...        0 min,  0.053 sec
     gradient                   ...        0 min,  0.004 sec
 * total energy  :   -83.4367983 Eh     change       -0.7704061E-04 Eh
   gradient norm :     0.0027075 Eh/α   predicted    -0.5689309E-04 ( -26.15%)
   displ. norm   :     0.3510010 α      lambda       -0.8589366E-04
   maximum displ.:     0.2543380 α      in ANC's #3, #2, #5, ...

........................................................................
.............................. CYCLE  114 ..............................
........................................................................

 iter      E             dE          RMSdq      gap      omega  full diag
   1    -84.5391975 -0.845392E+02  0.370E-02    2.16       0.0  T
   2    -84.5391980 -0.541411E-06  0.219E-02    2.15       1.0  T
   3    -84.5391967  0.132370E-05  0.545E-03    2.15       2.4  T
   4    -84.5391982 -0.151597E-05  0.114E-03    2.15      11.6  T
   5    -84.5391983 -0.400415E-07  0.499E-04    2.15      26.6  T
   6    -84.5391983 -0.597510E-09  0.235E-04    2.15      56.2  T
     SCC iter.                  ...        0 min,  0.062 sec
     gradient                   ...        0 min,  0.005 sec
 * total energy  :   -83.4368720 Eh     change       -0.7370030E-04 Eh
   gradient norm :     0.0026258 Eh/α   predicted    -0.4824025E-04 ( -34.55%)
   displ. norm   :     0.3561087 α      lambda       -0.8402873E-04
   maximum displ.:     0.2592458 α      in ANC's #3, #2, #5, ...

........................................................................
.............................. CYCLE  115 ..............................
........................................................................

 iter      E             dE          RMSdq      gap      omega  full diag
   1    -84.5395905 -0.845396E+02  0.352E-02    2.15       0.0  T
   2    -84.5395909 -0.386644E-06  0.209E-02    2.15       1.0  T
   3    -84.5395899  0.931430E-06  0.459E-03    2.15       2.9  T
   4    -84.5395910 -0.107679E-05  0.997E-04    2.15      13.3  T
   5    -84.5395910 -0.283329E-07  0.450E-04    2.15      29.4  T
   6    -84.5395910 -0.874934E-09  0.202E-04    2.15      65.6  T
     SCC iter.                  ...        0 min,  0.051 sec
     gradient                   ...        0 min,  0.004 sec
 * total energy  :   -83.4369468 Eh     change       -0.7481636E-04 Eh
   gradient norm :     0.0023643 Eh/α   predicted    -0.4734646E-04 ( -36.72%)
   displ. norm   :     0.3951829 α      lambda       -0.8904522E-04
   maximum displ.:     0.2876577 α      in ANC's #3, #2, #1, ...

........................................................................
.............................. CYCLE  116 ..............................
........................................................................

 iter      E             dE          RMSdq      gap      omega  full diag
   1    -84.5396224 -0.845396E+02  0.382E-02    2.15       0.0  T
   2    -84.5396228 -0.386788E-06  0.226E-02    2.14       1.0  T
   3    -84.5396216  0.116962E-05  0.508E-03    2.14       2.6  T
   4    -84.5396230 -0.134785E-05  0.991E-04    2.14      13.4  T
   5    -84.5396230 -0.244412E-07  0.473E-04    2.14      28.0  T
   6    -84.5396230 -0.106141E-08  0.194E-04    2.14      68.4  T
     SCC iter.                  ...        0 min,  0.052 sec
     gradient                   ...        0 min,  0.007 sec
 * total energy  :   -83.4370246 Eh     change       -0.7779794E-04 Eh
   gradient norm :     0.0020714 Eh/α   predicted    -0.5147904E-04 ( -33.83%)
   displ. norm   :     0.4178276 α      lambda       -0.8405955E-04
   maximum displ.:     0.3068784 α      in ANC's #3, #2, #1, ...

........................................................................
.............................. CYCLE  117 ..............................
........................................................................

 iter      E             dE          RMSdq      gap      omega  full diag
   1    -84.5399553 -0.845400E+02  0.410E-02    2.14       0.0  T
   2    -84.5399556 -0.336715E-06  0.243E-02    2.14       1.0  T
   3    -84.5399550  0.645554E-06  0.388E-03    2.14       3.4  T
   4    -84.5399557 -0.785480E-06  0.982E-04    2.14      13.5  T
   5    -84.5399558 -0.213134E-07  0.480E-04    2.14      27.6  T
     SCC iter.                  ...        0 min,  0.048 sec
     gradient                   ...        0 min,  0.003 sec
 * total energy  :   -83.4370953 Eh     change       -0.7065205E-04 Eh
   gradient norm :     0.0018914 Eh/α   predicted    -0.4937057E-04 ( -30.12%)
   displ. norm   :     0.6296997 α      lambda       -0.7892858E-04
   maximum displ.:     0.4629385 α      in ANC's #3, #2, #1, ...

........................................................................
.............................. CYCLE  118 ..............................
........................................................................

 iter      E             dE          RMSdq      gap      omega  full diag
   1    -84.5397504 -0.845398E+02  0.625E-02    2.14       0.0  T
   2    -84.5397512 -0.817163E-06  0.369E-02    2.14       1.0  T
   3    -84.5397489  0.227993E-05  0.703E-03    2.14       1.9  T
   4    -84.5397516 -0.265893E-05  0.145E-03    2.14       9.2  T
   5    -84.5397516 -0.479152E-07  0.695E-04    2.14      19.0  T
   6    -84.5397516 -0.145026E-08  0.280E-04    2.14      47.3  T
     SCC iter.                  ...        0 min,  0.051 sec
     gradient                   ...        0 min,  0.006 sec
 * total energy  :   -83.4371749 Eh     change       -0.7963170E-04 Eh
   gradient norm :     0.0040781 Eh/α   predicted    -0.4642075E-04 ( -41.71%)
   displ. norm   :     0.3648421 α      lambda       -0.7254923E-04
   maximum displ.:     0.2697443 α      in ANC's #3, #2, #1, ...

........................................................................
.............................. CYCLE  119 ..............................
........................................................................

 iter      E             dE          RMSdq      gap      omega  full diag
   1    -84.5392865 -0.845393E+02  0.380E-02    2.13       0.0  T
   2    -84.5392868 -0.278914E-06  0.224E-02    2.13       1.0  T
   3    -84.5392862  0.549086E-06  0.348E-03    2.13       3.8  T
   4    -84.5392869 -0.675492E-06  0.847E-04    2.13      15.6  T
   5    -84.5392869 -0.125827E-07  0.467E-04    2.13      28.3  T
     SCC iter.                  ...        0 min,  0.043 sec
     gradient                   ...        0 min,  0.010 sec
 * total energy  :   -83.4372333 Eh     change       -0.5838193E-04 Eh
   gradient norm :     0.0024682 Eh/α   predicted    -0.4110663E-04 ( -29.59%)
   displ. norm   :     0.3483233 α      lambda       -0.7587661E-04
   maximum displ.:     0.2620338 α      in ANC's #3, #2, #1, ...

........................................................................
.............................. CYCLE  120 ..............................
........................................................................

 iter      E             dE          RMSdq      gap      omega  full diag
   1    -84.5411680 -0.845412E+02  0.397E-02    2.13       0.0  T
   2    -84.5411684 -0.484871E-06  0.233E-02    2.13       1.0  T
   3    -84.5411678  0.603849E-06  0.363E-03    2.13       3.6  T
   4    -84.5411686 -0.721954E-06  0.108E-03    2.13      12.2  T
   5    -84.5411686 -0.367254E-07  0.478E-04    2.13      27.7  T
   6    -84.5411686 -0.152575E-08  0.269E-04    2.13      49.3  T
     SCC iter.                  ...        0 min,  0.052 sec
     gradient                   ...        0 min,  0.009 sec
 * total energy  :   -83.4372897 Eh     change       -0.5636465E-04 Eh
   gradient norm :     0.0032989 Eh/α   predicted    -0.4254346E-04 ( -24.52%)
   displ. norm   :     0.4660765 α      lambda       -0.9068364E-04
   maximum displ.:     0.3437732 α      in ANC's #3, #2, #1, ...
 * RMSD in coord.:     0.9621698 α      energy gain  -0.1796071E-02 Eh

generating ANC from exact Hessian ...
Using Lindh-Hessian (1995)
 Shifting diagonal of input Hessian by   1.011401665050709E-002
 Lowest  eigenvalues of input Hessian
    0.010000    0.000000    0.000000    0.000000    0.000000    0.000000
    0.000000    0.010160    0.010226    0.010298    0.010367    0.010459
    0.010633    0.010717    0.010875    0.010945    0.011388    0.011529
 Highest eigenvalues
    1.957452    2.019165    2.123896    2.199804    2.315142    2.348489
 

........................................................................
.............................. CYCLE  121 ..............................
........................................................................

 iter      E             dE          RMSdq      gap      omega  full diag
   1    -84.5403756 -0.845404E+02  0.509E-02    2.12       0.0  T
   2    -84.5403763 -0.689463E-06  0.300E-02    2.12       1.0  T
   3    -84.5403748  0.147611E-05  0.566E-03    2.12       2.3  T
   4    -84.5403766 -0.172373E-05  0.129E-03    2.12      10.3  T
   5    -84.5403766 -0.456200E-07  0.619E-04    2.12      21.4  T
   6    -84.5403766 -0.361392E-08  0.300E-04    2.12      44.1  T
     SCC iter.                  ...        0 min,  0.050 sec
     gradient                   ...        0 min,  0.009 sec
 * total energy  :   -83.4373623 Eh     change       -0.7263423E-04 Eh
   gradient norm :     0.0040962 Eh/α   predicted     0.0000000E+00 (-100.00%)
   displ. norm   :     0.0355307 α      lambda       -0.3060612E-04
   maximum displ.:     0.0123469 α      in ANC's #2, #1, #4, ...

........................................................................
.............................. CYCLE  122 ..............................
........................................................................

 iter      E             dE          RMSdq      gap      omega  full diag
   1    -84.5409184 -0.845409E+02  0.781E-03    2.12       0.0  T
   2    -84.5409184 -0.565224E-07  0.469E-03    2.12       2.8  T
   3    -84.5409184  0.302769E-08  0.791E-04    2.12      16.7  T
   4    -84.5409184 -0.224672E-07  0.327E-04    2.12      40.5  T
     SCC iter.                  ...        0 min,  0.035 sec
     gradient                   ...        0 min,  0.005 sec
 * total energy  :   -83.4373879 Eh     change       -0.2561093E-04 Eh
   gradient norm :     0.0015623 Eh/α   predicted    -0.1611026E-04 ( -37.10%)
   displ. norm   :     0.1397087 α      lambda       -0.4491385E-04
   maximum displ.:     0.0531379 α      in ANC's #1, #4, #2, ...

........................................................................
.............................. CYCLE  123 ..............................
........................................................................

 iter      E             dE          RMSdq      gap      omega  full diag
   1    -84.5416981 -0.845417E+02  0.257E-02    2.11       0.0  T
   2    -84.5416985 -0.377219E-06  0.154E-02    2.11       1.0  T
   3    -84.5416983  0.131700E-06  0.250E-03    2.11       5.3  T
   4    -84.5416986 -0.272461E-06  0.101E-03    2.11      13.1  T
   5    -84.5416986 -0.165934E-07  0.550E-04    2.11      24.1  T
   6    -84.5416986 -0.304451E-08  0.224E-04    2.11      59.2  T
     SCC iter.                  ...        0 min,  0.041 sec
     gradient                   ...        0 min,  0.019 sec
 * total energy  :   -83.4374235 Eh     change       -0.3553653E-04 Eh
   gradient norm :     0.0041230 Eh/α   predicted    -0.2265191E-04 ( -36.26%)
   displ. norm   :     0.0598416 α      lambda       -0.2057118E-04
   maximum displ.:     0.0259849 α      in ANC's #1, #4, #2, ...

........................................................................
.............................. CYCLE  124 ..............................
........................................................................

 iter      E             dE          RMSdq      gap      omega  full diag
   1    -84.5415667 -0.845416E+02  0.943E-03    2.11       0.0  T
   2    -84.5415667 -0.353337E-07  0.560E-03    2.11       2.4  T
   3    -84.5415667 -0.612279E-08  0.530E-04    2.11      25.0  T
   4    -84.5415667 -0.668473E-08  0.297E-04    2.11      44.6  T
     SCC iter.                  ...        0 min,  0.035 sec
     gradient                   ...        0 min,  0.014 sec
 * total energy  :   -83.4374426 Eh     change       -0.1914498E-04 Eh
   gradient norm :     0.0034768 Eh/α   predicted    -0.1032624E-04 ( -46.06%)
   displ. norm   :     0.2545033 α      lambda       -0.8291648E-04
   maximum displ.:     0.1122212 α      in ANC's #1, #4, #2, ...

........................................................................
.............................. CYCLE  125 ..............................
........................................................................

 iter      E             dE          RMSdq      gap      omega  full diag
   1    -84.5406887 -0.845407E+02  0.381E-02    2.11       0.0  T
   2    -84.5406893 -0.659766E-06  0.226E-02    2.11       1.0  T
   3    -84.5406894 -0.835558E-07  0.223E-03    2.11       5.9  T
   4    -84.5406896 -0.135265E-06  0.120E-03    2.11      11.0  T
   5    -84.5406896 -0.219637E-07  0.603E-04    2.11      22.0  T
   6    -84.5406896 -0.847383E-08  0.244E-04    2.11      54.4  T
     SCC iter.                  ...        0 min,  0.054 sec
     gradient                   ...        0 min,  0.009 sec
 * total energy  :   -83.4375030 Eh     change       -0.6036963E-04 Eh
   gradient norm :     0.0015141 Eh/α   predicted    -0.4416273E-04 ( -26.85%)
   displ. norm   :     0.3451650 α      lambda       -0.4478393E-04
   maximum displ.:     0.1570294 α      in ANC's #1, #4, #2, ...

........................................................................
.............................. CYCLE  126 ..............................
........................................................................

 iter      E             dE          RMSdq      gap      omega  full diag
   1    -84.5396643 -0.845397E+02  0.483E-02    2.11       0.0  T
   2    -84.5396654 -0.107726E-05  0.285E-02    2.11       1.0  T
   3    -84.5396655 -0.127657E-06  0.288E-03    2.11       4.6  T
   4    -84.5396657 -0.197508E-06  0.159E-03    2.11       8.3  T
   5    -84.5396658 -0.452096E-07  0.801E-04    2.11      16.5  T
   6    -84.5396658 -0.127875E-07  0.324E-04    2.11      40.8  T
     SCC iter.                  ...        0 min,  0.050 sec
     gradient                   ...        0 min,  0.009 sec
 * total energy  :   -83.4375426 Eh     change       -0.3957980E-04 Eh
   gradient norm :     0.0040818 Eh/α   predicted    -0.2360120E-04 ( -40.37%)
   displ. norm   :     0.1176119 α      lambda       -0.3432664E-04
   maximum displ.:     0.0574672 α      in ANC's #4, #1, #2, ...

........................................................................
.............................. CYCLE  127 ..............................
........................................................................

 iter      E             dE          RMSdq      gap      omega  full diag
   1    -84.5404002 -0.845404E+02  0.138E-02    2.11       0.0  T
   2    -84.5404005 -0.213626E-06  0.810E-03    2.11       1.6  T
   3    -84.5404003  0.115684E-06  0.190E-03    2.11       7.0  T
   4    -84.5404005 -0.139037E-06  0.713E-04    2.11      18.6  T
   5    -84.5404005 -0.209078E-07  0.264E-04    2.11      50.1  T
     SCC iter.                  ...        0 min,  0.041 sec
     gradient                   ...        0 min,  0.008 sec
 * total energy  :   -83.4375710 Eh     change       -0.2846416E-04 Eh
   gradient norm :     0.0033551 Eh/α   predicted    -0.1740103E-04 ( -38.87%)
   displ. norm   :     0.2796251 α      lambda       -0.7517971E-04
   maximum displ.:     0.1332024 α      in ANC's #1, #4, #2, ...

........................................................................
.............................. CYCLE  128 ..............................
........................................................................

 iter      E             dE          RMSdq      gap      omega  full diag
   1    -84.5418013 -0.845418E+02  0.340E-02    2.11       0.0  T
   2    -84.5418023 -0.938434E-06  0.200E-02    2.10       1.0  T
   3    -84.5418012  0.104940E-05  0.512E-03    2.10       2.6  T
   4    -84.5418024 -0.120318E-05  0.161E-03    2.10       8.2  T
   5    -84.5418025 -0.106468E-06  0.592E-04    2.10      22.4  T
   6    -84.5418025 -0.307450E-08  0.292E-04    2.10      45.3  T
     SCC iter.                  ...        0 min,  0.053 sec
     gradient                   ...        0 min,  0.009 sec
 * total energy  :   -83.4376320 Eh     change       -0.6102242E-04 Eh
   gradient norm :     0.0026564 Eh/α   predicted    -0.4052979E-04 ( -33.58%)
   displ. norm   :     0.4451995 α      lambda       -0.8714338E-04
   maximum displ.:     0.2123624 α      in ANC's #1, #4, #2, ...

........................................................................
.............................. CYCLE  129 ..............................
........................................................................

 iter      E             dE          RMSdq      gap      omega  full diag
   1    -84.5415009 -0.845415E+02  0.547E-02    2.10       0.0  T
   2    -84.5415024 -0.146844E-05  0.323E-02    2.09       1.0  T
   3    -84.5415003  0.214214E-05  0.709E-03    2.09       1.9  T
   4    -84.5415028 -0.252607E-05  0.204E-03    2.09       6.5  T
   5    -84.5415029 -0.135768E-06  0.901E-04    2.09      14.7  T
   6    -84.5415029 -0.782950E-08  0.430E-04    2.09      30.8  T
     SCC iter.                  ...        0 min,  0.050 sec
     gradient                   ...        0 min,  0.007 sec
 * total energy  :   -83.4376986 Eh     change       -0.6656625E-04 Eh
   gradient norm :     0.0019427 Eh/α   predicted    -0.5220889E-04 ( -21.57%)
   displ. norm   :     0.6155722 α      lambda       -0.7101103E-04
   maximum displ.:     0.2949926 α      in ANC's #4, #1, #2, ...

........................................................................
.............................. CYCLE  130 ..............................
........................................................................

 iter      E             dE          RMSdq      gap      omega  full diag
   1    -84.5408822 -0.845409E+02  0.769E-02    2.09       0.0  T
   2    -84.5408842 -0.197657E-05  0.454E-02    2.08       1.0  T
   3    -84.5408796  0.458153E-05  0.958E-03    2.08       1.4  T
   4    -84.5408849 -0.526241E-05  0.231E-03    2.08       5.7  T
   5    -84.5408850 -0.178477E-06  0.104E-03    2.08      12.8  T
   6    -84.5408850 -0.957598E-08  0.522E-04    2.08      25.4  T
   7    -84.5408850 -0.648664E-08  0.152E-04    2.08      87.1  T
     SCC iter.                  ...        0 min,  0.062 sec
     gradient                   ...        0 min,  0.010 sec
 * total energy  :   -83.4377632 Eh     change       -0.6456777E-04 Eh
   gradient norm :     0.0037035 Eh/α   predicted    -0.4148670E-04 ( -35.75%)
   displ. norm   :     0.3085004 α      lambda       -0.5873904E-04
   maximum displ.:     0.1529603 α      in ANC's #1, #4, #2, ...

........................................................................
.............................. CYCLE  131 ..............................
........................................................................

 iter      E             dE          RMSdq      gap      omega  full diag
   1    -84.5406355 -0.845406E+02  0.392E-02    2.08       0.0  T
   2    -84.5406360 -0.480131E-06  0.232E-02    2.08       1.0  T
   3    -84.5406354  0.598593E-06  0.365E-03    2.07       3.6  T
   4    -84.5406361 -0.742834E-06  0.110E-03    2.07      12.1  T
   5    -84.5406362 -0.328879E-07  0.564E-04    2.07      23.5  T
   6    -84.5406362 -0.361094E-08  0.272E-04    2.07      48.7  T
     SCC iter.                  ...        0 min,  0.054 sec
     gradient                   ...        0 min,  0.007 sec
 * total energy  :   -83.4378075 Eh     change       -0.4428679E-04 Eh
   gradient norm :     0.0022869 Eh/α   predicted    -0.3216607E-04 ( -27.37%)
   displ. norm   :     0.3113385 α      lambda       -0.8640375E-04
   maximum displ.:     0.1515177 α      in ANC's #1, #4, #2, ...

........................................................................
.............................. CYCLE  132 ..............................
........................................................................

 iter      E             dE          RMSdq      gap      omega  full diag
   1    -84.5429194 -0.845429E+02  0.449E-02    2.07       0.0  T
   2    -84.5429202 -0.757260E-06  0.265E-02    2.07       1.0  T
   3    -84.5429198  0.372366E-06  0.322E-03    2.07       4.1  T
   4    -84.5429204 -0.551144E-06  0.112E-03    2.07      11.8  T
   5    -84.5429204 -0.340625E-07  0.531E-04    2.07      24.9  T
   6    -84.5429204 -0.415875E-08  0.222E-04    2.07      59.8  T
     SCC iter.                  ...        0 min,  0.059 sec
     gradient                   ...        0 min,  0.008 sec
 * total energy  :   -83.4378662 Eh     change       -0.5872926E-04 Eh
   gradient norm :     0.0032194 Eh/α   predicted    -0.4739475E-04 ( -19.30%)
   displ. norm   :     0.4305200 α      lambda       -0.7706910E-04
   maximum displ.:     0.2177874 α      in ANC's #1, #4, #2, ...

........................................................................
.............................. CYCLE  133 ..............................
........................................................................

 iter      E             dE          RMSdq      gap      omega  full diag
   1    -84.5420861 -0.845421E+02  0.580E-02    2.07       0.0  T
   2    -84.5420866 -0.514104E-06  0.342E-02    2.07       1.0  T
   3    -84.5420866 -0.339165E-07  0.214E-03    2.07       6.2  T
   4    -84.5420868 -0.134877E-06  0.112E-03    2.07      11.8  T
   5    -84.5420868 -0.205931E-07  0.579E-04    2.07      22.9  T
   6    -84.5420868 -0.608659E-08  0.213E-04    2.07      62.1  T
     SCC iter.                  ...        0 min,  0.059 sec
     gradient                   ...        0 min,  0.009 sec
 * total energy  :   -83.4379268 Eh     change       -0.6061126E-04 Eh
   gradient norm :     0.0032861 Eh/α   predicted    -0.4568308E-04 ( -24.63%)
   displ. norm   :     0.4043039 α      lambda       -0.8525525E-04
   maximum displ.:     0.2017401 α      in ANC's #1, #2, #4, ...

........................................................................
.............................. CYCLE  134 ..............................
........................................................................

 iter      E             dE          RMSdq      gap      omega  full diag
   1    -84.5417953 -0.845418E+02  0.579E-02    2.06       0.0  T
   2    -84.5417958 -0.529594E-06  0.341E-02    2.06       1.0  T
   3    -84.5417958  0.365156E-08  0.230E-03    2.06       5.8  T
   4    -84.5417960 -0.159947E-06  0.956E-04    2.06      13.9  T
   5    -84.5417960 -0.101810E-07  0.526E-04    2.06      25.2  T
     SCC iter.                  ...        0 min,  0.041 sec
     gradient                   ...        0 min,  0.006 sec
 * total energy  :   -83.4379942 Eh     change       -0.6735279E-04 Eh
   gradient norm :     0.0029052 Eh/α   predicted    -0.4959872E-04 ( -26.36%)
   displ. norm   :     0.4025282 α      lambda       -0.8433071E-04
   maximum displ.:     0.1977016 α      in ANC's #1, #2, #4, ...

........................................................................
.............................. CYCLE  135 ..............................
........................................................................

 iter      E             dE          RMSdq      gap      omega  full diag
   1    -84.5415131 -0.845415E+02  0.595E-02    2.06       0.0  T
   2    -84.5415136 -0.555914E-06  0.350E-02    2.06       1.0  T
   3    -84.5415133  0.296297E-06  0.332E-03    2.06       4.0  T
   4    -84.5415138 -0.456169E-06  0.116E-03    2.06      11.4  T
   5    -84.5415138 -0.344839E-07  0.577E-04    2.06      23.0  T
   6    -84.5415138 -0.313860E-08  0.256E-04    2.06      51.8  T
     SCC iter.                  ...        0 min,  0.050 sec
     gradient                   ...        0 min,  0.009 sec
 * total energy  :   -83.4380607 Eh     change       -0.6654724E-04 Eh
   gradient norm :     0.0024202 Eh/α   predicted    -0.4900304E-04 ( -26.36%)
   displ. norm   :     0.4418036 α      lambda       -0.8069906E-04
   maximum displ.:     0.2203656 α      in ANC's #2, #1, #4, ...

........................................................................
.............................. CYCLE  136 ..............................
........................................................................

 iter      E             dE          RMSdq      gap      omega  full diag
   1    -84.5407929 -0.845408E+02  0.659E-02    2.05       0.0  T
   2    -84.5407935 -0.611709E-06  0.387E-02    2.05       1.0  T
   3    -84.5407924  0.107534E-05  0.508E-03    2.05       2.6  T
   4    -84.5407938 -0.132239E-05  0.134E-03    2.05       9.8  T
   5    -84.5407938 -0.490190E-07  0.637E-04    2.05      20.8  T
   6    -84.5407938 -0.262432E-08  0.242E-04    2.05      54.7  T
     SCC iter.                  ...        0 min,  0.051 sec
     gradient                   ...        0 min,  0.003 sec
 * total energy  :   -83.4381243 Eh     change       -0.6359197E-04 Eh
   gradient norm :     0.0028400 Eh/α   predicted    -0.4822765E-04 ( -24.16%)
   displ. norm   :     0.3861049 α      lambda       -0.8106919E-04
   maximum displ.:     0.1969588 α      in ANC's #2, #1, #4, ...

........................................................................
.............................. CYCLE  137 ..............................
........................................................................

 iter      E             dE          RMSdq      gap      omega  full diag
   1    -84.5421462 -0.845421E+02  0.593E-02    2.05       0.0  T
   2    -84.5421470 -0.843180E-06  0.348E-02    2.05       1.0  T
   3    -84.5421455  0.152532E-05  0.599E-03    2.05       2.2  T
   4    -84.5421472 -0.176854E-05  0.161E-03    2.05       8.2  T
   5    -84.5421473 -0.981123E-07  0.639E-04    2.05      20.7  T
   6    -84.5421473 -0.175818E-08  0.274E-04    2.05      48.4  T
     SCC iter.                  ...        0 min,  0.051 sec
     gradient                   ...        0 min,  0.007 sec
 * total energy  :   -83.4381746 Eh     change       -0.5032141E-04 Eh
   gradient norm :     0.0028014 Eh/α   predicted    -0.4657945E-04 (  -7.44%)
   displ. norm   :     0.5272241 α      lambda       -0.8195209E-04
   maximum displ.:     0.2760907 α      in ANC's #2, #1, #4, ...

........................................................................
.............................. CYCLE  138 ..............................
........................................................................

 iter      E             dE          RMSdq      gap      omega  full diag
   1    -84.5393530 -0.845394E+02  0.762E-02    2.04       0.0  T
   2    -84.5393539 -0.914207E-06  0.449E-02    2.04       1.0  T
   3    -84.5393491  0.474259E-05  0.957E-03    2.04       1.4  T
   4    -84.5393545 -0.536857E-05  0.155E-03    2.04       8.5  T
   5    -84.5393546 -0.476185E-07  0.766E-04    2.04      17.3  T
   6    -84.5393546 -0.210923E-08  0.306E-04    2.04      43.3  T
     SCC iter.                  ...        0 min,  0.049 sec
     gradient                   ...        0 min,  0.021 sec
 * total energy  :   -83.4382133 Eh     change       -0.3866465E-04 Eh
   gradient norm :     0.0042746 Eh/α   predicted    -0.5236685E-04 (  35.44%)
   displ. norm   :     0.0775015 α      lambda       -0.3896808E-04
   maximum displ.:     0.0442276 α      in ANC's #2, #1, #4, ...

........................................................................
.............................. CYCLE  139 ..............................
........................................................................

 iter      E             dE          RMSdq      gap      omega  full diag
   1    -84.5412071 -0.845412E+02  0.115E-02    2.04       0.0  T
   2    -84.5412072 -0.111689E-06  0.678E-03    2.05       2.0  T
   3    -84.5412072  0.351645E-07  0.116E-03    2.05      11.4  T
   4    -84.5412073 -0.570301E-07  0.355E-04    2.05      37.4  T
   5    -84.5412073 -0.332477E-08  0.187E-04    2.05      71.0  T
     SCC iter.                  ...        0 min,  0.045 sec
     gradient                   ...        0 min,  0.009 sec
 * total energy  :   -83.4382438 Eh     change       -0.3049505E-04 Eh
   gradient norm :     0.0020656 Eh/α   predicted    -0.1960433E-04 ( -35.71%)
   displ. norm   :     0.2862520 α      lambda       -0.5952706E-04
   maximum displ.:     0.1700346 α      in ANC's #2, #1, #4, ...

........................................................................
.............................. CYCLE  140 ..............................
........................................................................

 iter      E             dE          RMSdq      gap      omega  full diag
   1    -84.5430471 -0.845430E+02  0.375E-02    2.05       0.0  T
   2    -84.5430475 -0.438069E-06  0.221E-02    2.05       1.0  T
   3    -84.5430470  0.520424E-06  0.315E-03    2.05       4.2  T
   4    -84.5430477 -0.661988E-06  0.973E-04    2.05      13.6  T
   5    -84.5430477 -0.222159E-07  0.511E-04    2.05      25.9  T
     SCC iter.                  ...        0 min,  0.045 sec
     gradient                   ...        0 min,  0.006 sec
 * total energy  :   -83.4382869 Eh     change       -0.4312096E-04 Eh
   gradient norm :     0.0022472 Eh/α   predicted    -0.3220334E-04 ( -25.32%)
   displ. norm   :     0.3578644 α      lambda       -0.5130823E-04
   maximum displ.:     0.2159559 α      in ANC's #2, #1, #4, ...

........................................................................
.............................. CYCLE  141 ..............................
........................................................................

 iter      E             dE          RMSdq      gap      omega  full diag
   1    -84.5438876 -0.845439E+02  0.453E-02    2.04       0.0  T
   2    -84.5438881 -0.521226E-06  0.267E-02    2.04       1.0  T
   3    -84.5438876  0.485371E-06  0.313E-03    2.04       4.2  T
   4    -84.5438883 -0.664558E-06  0.982E-04    2.04      13.5  T
   5    -84.5438883 -0.192119E-07  0.474E-04    2.04      27.9  T
     SCC iter.                  ...        0 min,  0.046 sec
     gradient                   ...        0 min,  0.008 sec
 * total energy  :   -83.4383270 Eh     change       -0.4006989E-04 Eh
   gradient norm :     0.0027624 Eh/α   predicted    -0.2894094E-04 ( -27.77%)
   displ. norm   :     0.3003841 α      lambda       -0.5513452E-04
   maximum displ.:     0.1874733 α      in ANC's #2, #1, #4, ...

........................................................................
.............................. CYCLE  142 ..............................
........................................................................

 iter      E             dE          RMSdq      gap      omega  full diag
   1    -84.5442193 -0.845442E+02  0.373E-02    2.04       0.0  T
   2    -84.5442198 -0.405893E-06  0.221E-02    2.04       1.0  T
   3    -84.5442194  0.345373E-06  0.290E-03    2.04       4.6  T
   4    -84.5442199 -0.519689E-06  0.967E-04    2.04      13.7  T
   5    -84.5442199 -0.106936E-07  0.480E-04    2.04      27.6  T
     SCC iter.                  ...        0 min,  0.039 sec
     gradient                   ...        0 min,  0.012 sec
 * total energy  :   -83.4383694 Eh     change       -0.4238940E-04 Eh
   gradient norm :     0.0030059 Eh/α   predicted    -0.3005743E-04 ( -29.09%)
   displ. norm   :     0.2346592 α      lambda       -0.5676409E-04
   maximum displ.:     0.1439291 α      in ANC's #2, #1, #5, ...

........................................................................
.............................. CYCLE  143 ..............................
........................................................................

 iter      E             dE          RMSdq      gap      omega  full diag
   1    -84.5436184 -0.845436E+02  0.271E-02    2.04       0.0  T
   2    -84.5436188 -0.324564E-06  0.160E-02    2.03       1.0  T
   3    -84.5436184  0.406282E-06  0.318E-03    2.03       4.2  T
   4    -84.5436189 -0.505425E-06  0.940E-04    2.03      14.1  T
   5    -84.5436189 -0.247124E-07  0.453E-04    2.03      29.3  T
     SCC iter.                  ...        0 min,  0.042 sec
     gradient                   ...        0 min,  0.004 sec
 * total energy  :   -83.4384104 Eh     change       -0.4101801E-04 Eh
   gradient norm :     0.0022024 Eh/α   predicted    -0.2994853E-04 ( -26.99%)
   displ. norm   :     0.2528153 α      lambda       -0.4802459E-04
   maximum displ.:     0.1525929 α      in ANC's #2, #1, #5, ...

........................................................................
.............................. CYCLE  144 ..............................
........................................................................

 iter      E             dE          RMSdq      gap      omega  full diag
   1    -84.5430025 -0.845430E+02  0.322E-02    2.03       0.0  T
   2    -84.5430029 -0.400326E-06  0.190E-02    2.03       1.0  T
   3    -84.5430025  0.388823E-06  0.292E-03    2.03       4.5  T
   4    -84.5430030 -0.542518E-06  0.891E-04    2.03      14.9  T
   5    -84.5430030 -0.131613E-07  0.452E-04    2.03      29.3  T
     SCC iter.                  ...        0 min,  0.053 sec
     gradient                   ...        0 min,  0.009 sec
 * total energy  :   -83.4384453 Eh     change       -0.3487945E-04 Eh
   gradient norm :     0.0021108 Eh/α   predicted    -0.2554900E-04 ( -26.75%)
   displ. norm   :     0.2276432 α      lambda       -0.4165478E-04
   maximum displ.:     0.1357212 α      in ANC's #2, #1, #5, ...

........................................................................
.............................. CYCLE  145 ..............................
........................................................................

 iter      E             dE          RMSdq      gap      omega  full diag
   1    -84.5416628 -0.845417E+02  0.296E-02    2.02       0.0  T
   2    -84.5416631 -0.362282E-06  0.174E-02    2.02       1.0  T
   3    -84.5416629  0.222447E-06  0.243E-03    2.02       5.5  T
   4    -84.5416632 -0.319303E-06  0.735E-04    2.02      18.0  T
   5    -84.5416633 -0.133193E-07  0.380E-04    2.02      34.9  T
     SCC iter.                  ...        0 min,  0.044 sec
     gradient                   ...        0 min,  0.008 sec
 * total energy  :   -83.4384750 Eh     change       -0.2974877E-04 Eh
   gradient norm :     0.0024187 Eh/α   predicted    -0.2190866E-04 ( -26.35%)
   displ. norm   :     0.2710809 α      lambda       -0.4638460E-04
   maximum displ.:     0.1404181 α      in ANC's #2, #9, #6, ...

........................................................................
.............................. CYCLE  146 ..............................
........................................................................

 iter      E             dE          RMSdq      gap      omega  full diag
   1    -84.5421473 -0.845421E+02  0.347E-02    2.02       0.0  T
   2    -84.5421477 -0.369655E-06  0.204E-02    2.02       1.0  T
   3    -84.5421470  0.716374E-06  0.373E-03    2.02       3.5  T
   4    -84.5421479 -0.910237E-06  0.940E-04    2.02      14.1  T
   5    -84.5421479 -0.934995E-08  0.575E-04    2.02      23.0  T
     SCC iter.                  ...        0 min,  0.047 sec
     gradient                   ...        0 min,  0.003 sec
 * total energy  :   -83.4385096 Eh     change       -0.3462724E-04 Eh
   gradient norm :     0.0026819 Eh/α   predicted    -0.2489802E-04 ( -28.10%)
   displ. norm   :     0.2838514 α      lambda       -0.4749013E-04
   maximum displ.:     0.1514087 α      in ANC's #2, #1, #6, ...

........................................................................
.............................. CYCLE  147 ..............................
........................................................................

 iter      E             dE          RMSdq      gap      omega  full diag
   1    -84.5416048 -0.845416E+02  0.392E-02    2.03       0.0  T
   2    -84.5416052 -0.377628E-06  0.230E-02    2.03       1.0  T
   3    -84.5416043  0.900829E-06  0.400E-03    2.03       3.3  T
   4    -84.5416054 -0.111172E-05  0.905E-04    2.03      14.6  T
   5    -84.5416054 -0.669007E-08  0.561E-04    2.03      23.6  T
   6    -84.5416055 -0.677889E-08  0.204E-04    2.03      64.8  T
     SCC iter.                  ...        0 min,  0.053 sec
     gradient                   ...        0 min,  0.008 sec
 * total energy  :   -83.4385460 Eh     change       -0.3641145E-04 Eh
   gradient norm :     0.0025182 Eh/α   predicted    -0.2566258E-04 ( -29.52%)
   displ. norm   :     0.2991138 α      lambda       -0.4880914E-04
   maximum displ.:     0.1475619 α      in ANC's #2, #6, #3, ...

........................................................................
.............................. CYCLE  148 ..............................
........................................................................

 iter      E             dE          RMSdq      gap      omega  full diag
   1    -84.5416369 -0.845416E+02  0.413E-02    2.03       0.0  T
   2    -84.5416375 -0.596689E-06  0.242E-02    2.04       1.0  T
   3    -84.5416369  0.591257E-06  0.373E-03    2.04       3.6  T
   4    -84.5416377 -0.805624E-06  0.108E-03    2.04      12.3  T
   5    -84.5416377 -0.174787E-07  0.598E-04    2.04      22.1  T
   6    -84.5416377 -0.693008E-08  0.290E-04    2.04      45.7  T
     SCC iter.                  ...        0 min,  0.042 sec
     gradient                   ...        0 min,  0.021 sec
 * total energy  :   -83.4385809 Eh     change       -0.3490964E-04 Eh
   gradient norm :     0.0021377 Eh/α   predicted    -0.2659014E-04 ( -23.83%)
   displ. norm   :     0.2575782 α      lambda       -0.3956011E-04
   maximum displ.:     0.1217247 α      in ANC's #2, #6, #3, ...

........................................................................
.............................. CYCLE  149 ..............................
........................................................................

 iter      E             dE          RMSdq      gap      omega  full diag
   1    -84.5418379 -0.845418E+02  0.376E-02    2.04       0.0  T
   2    -84.5418383 -0.451322E-06  0.221E-02    2.05       1.0  T
   3    -84.5418377  0.631845E-06  0.375E-03    2.05       3.5  T
   4    -84.5418385 -0.790399E-06  0.964E-04    2.05      13.7  T
   5    -84.5418385 -0.202354E-07  0.540E-04    2.05      24.5  T
     SCC iter.                  ...        0 min,  0.043 sec
     gradient                   ...        0 min,  0.008 sec
 * total energy  :   -83.4386086 Eh     change       -0.2765976E-04 Eh
   gradient norm :     0.0027200 Eh/α   predicted    -0.2109747E-04 ( -23.73%)
   displ. norm   :     0.2203447 α      lambda       -0.3186180E-04
   maximum displ.:     0.1019288 α      in ANC's #6, #2, #3, ...

........................................................................
.............................. CYCLE  150 ..............................
........................................................................

 iter      E             dE          RMSdq      gap      omega  full diag
   1    -84.5416227 -0.845416E+02  0.339E-02    2.05       0.0  T
   2    -84.5416232 -0.447535E-06  0.199E-02    2.06       1.0  T
   3    -84.5416230  0.170714E-06  0.265E-03    2.06       5.0  T
   4    -84.5416233 -0.273621E-06  0.726E-04    2.06      18.2  T
   5    -84.5416233 -0.932695E-08  0.332E-04    2.06      39.9  T
     SCC iter.                  ...        0 min,  0.046 sec
     gradient                   ...        0 min,  0.006 sec
 * total energy  :   -83.4386328 Eh     change       -0.2423128E-04 Eh
   gradient norm :     0.0022600 Eh/α   predicted    -0.1670684E-04 ( -31.05%)
   displ. norm   :     0.2321953 α      lambda       -0.3591485E-04
   maximum displ.:     0.1092256 α      in ANC's #6, #3, #2, ...
 * RMSD in coord.:     0.7419169 α      energy gain  -0.1343163E-02 Eh

generating ANC from exact Hessian ...
Using Lindh-Hessian (1995)
 Shifting diagonal of input Hessian by   1.011612681533948E-002
 Lowest  eigenvalues of input Hessian
    0.010000    0.000000    0.000000    0.000000    0.000000    0.000000
    0.000000    0.010183    0.010204    0.010339    0.010463    0.010514
    0.010603    0.010763    0.010878    0.010990    0.011396    0.011553
 Highest eigenvalues
    1.956078    2.017216    2.119964    2.203500    2.313835    2.348851
 

........................................................................
.............................. CYCLE  151 ..............................
........................................................................

 iter      E             dE          RMSdq      gap      omega  full diag
   1    -84.5417833 -0.845418E+02  0.375E-02    2.06       0.0  T
   2    -84.5417839 -0.616374E-06  0.219E-02    2.07       1.0  T
   3    -84.5417836  0.276520E-06  0.310E-03    2.07       4.3  T
   4    -84.5417840 -0.375853E-06  0.884E-04    2.07      15.0  T
   5    -84.5417840 -0.218800E-07  0.415E-04    2.07      31.9  T
     SCC iter.                  ...        0 min,  0.050 sec
     gradient                   ...        0 min,  0.009 sec
 * total energy  :   -83.4386592 Eh     change       -0.2640732E-04 Eh
   gradient norm :     0.0022536 Eh/α   predicted     0.0000000E+00 (-100.00%)
   displ. norm   :     0.0266413 α      lambda       -0.1639268E-04
   maximum displ.:     0.0153527 α      in ANC's #10, #4, #7, ...

........................................................................
.............................. CYCLE  152 ..............................
........................................................................

 iter      E             dE          RMSdq      gap      omega  full diag
   1    -84.5421952 -0.845422E+02  0.634E-03    2.07       0.0  T
   2    -84.5421953 -0.506117E-07  0.382E-03    2.07       3.5  T
   3    -84.5421952  0.114533E-06  0.164E-03    2.07       8.1  T
   4    -84.5421953 -0.135542E-06  0.357E-04    2.07      37.1  T
   5    -84.5421953 -0.391343E-08  0.158E-04    2.07      84.0  T
     SCC iter.                  ...        0 min,  0.040 sec
     gradient                   ...        0 min,  0.008 sec
 * total energy  :   -83.4386729 Eh     change       -0.1360873E-04 Eh
   gradient norm :     0.0010031 Eh/α   predicted    -0.8426889E-05 ( -38.08%)
   displ. norm   :     0.1172683 α      lambda       -0.3018906E-04
   maximum displ.:     0.0612915 α      in ANC's #10, #4, #9, ...

........................................................................
.............................. CYCLE  153 ..............................
........................................................................

 iter      E             dE          RMSdq      gap      omega  full diag
   1    -84.5428535 -0.845429E+02  0.231E-02    2.07       0.0  T
   2    -84.5428540 -0.521157E-06  0.138E-02    2.07       1.0  T
   3    -84.5428532  0.801961E-06  0.436E-03    2.07       3.0  T
   4    -84.5428543 -0.101815E-05  0.111E-03    2.07      12.0  T
   5    -84.5428543 -0.232916E-07  0.600E-04    2.07      22.1  T
   6    -84.5428543 -0.390894E-08  0.259E-04    2.07      51.2  T
     SCC iter.                  ...        0 min,  0.052 sec
     gradient                   ...        0 min,  0.008 sec
 * total energy  :   -83.4386970 Eh     change       -0.2418023E-04 Eh
   gradient norm :     0.0024621 Eh/α   predicted    -0.1518805E-04 ( -37.19%)
   displ. norm   :     0.0470858 α      lambda       -0.1258131E-04
   maximum displ.:     0.0212972 α      in ANC's #4, #10, #9, ...

........................................................................
.............................. CYCLE  154 ..............................
........................................................................

 iter      E             dE          RMSdq      gap      omega  full diag
   1    -84.5426580 -0.845427E+02  0.869E-03    2.07       0.0  T
   2    -84.5426581 -0.524657E-07  0.521E-03    2.07       2.5  T
   3    -84.5426580  0.861751E-07  0.130E-03    2.07      10.2  T
   4    -84.5426581 -0.110194E-06  0.362E-04    2.07      36.6  T
   5    -84.5426581 -0.166810E-08  0.210E-04    2.07      63.0  T
     SCC iter.                  ...        0 min,  0.036 sec
     gradient                   ...        0 min,  0.013 sec
 * total energy  :   -83.4387081 Eh     change       -0.1108262E-04 Eh
   gradient norm :     0.0019672 Eh/α   predicted    -0.6304813E-05 ( -43.11%)
   displ. norm   :     0.2748079 α      lambda       -0.4346984E-04
   maximum displ.:     0.1208279 α      in ANC's #4, #10, #9, ...

........................................................................
.............................. CYCLE  155 ..............................
........................................................................

 iter      E             dE          RMSdq      gap      omega  full diag
   1    -84.5410836 -0.845411E+02  0.449E-02    2.07       0.0  T
   2    -84.5410854 -0.183116E-05  0.269E-02    2.08       1.0  T
   3    -84.5410832  0.222804E-05  0.685E-03    2.08       1.9  T
   4    -84.5410861 -0.295017E-05  0.195E-03    2.08       6.8  T
   5    -84.5410862 -0.481606E-07  0.111E-03    2.08      11.9  T
   6    -84.5410862 -0.292508E-07  0.475E-04    2.08      27.9  T
   7    -84.5410862 -0.346836E-08  0.188E-04    2.08      70.6  T
     SCC iter.                  ...        0 min,  0.061 sec
     gradient                   ...        0 min,  0.005 sec
 * total energy  :   -83.4387286 Eh     change       -0.2043914E-04 Eh
   gradient norm :     0.0040385 Eh/α   predicted    -0.2246475E-04 (   9.91%)
   displ. norm   :     0.0201772 α      lambda       -0.1890293E-04
   maximum displ.:     0.0068262 α      in ANC's #10, #9, #17, ...

........................................................................
.............................. CYCLE  156 ..............................
........................................................................

 iter      E             dE          RMSdq      gap      omega  full diag
   1    -84.5418325 -0.845418E+02  0.795E-03    2.08       0.0  T
   2    -84.5418325 -0.826292E-07  0.475E-03    2.08       2.8  T
   3    -84.5418324  0.949640E-07  0.149E-03    2.08       8.9  T
   4    -84.5418326 -0.115009E-06  0.491E-04    2.08      27.0  T
   5    -84.5418326 -0.800424E-08  0.205E-04    2.08      64.6  T
     SCC iter.                  ...        0 min,  0.049 sec
     gradient                   ...        0 min,  0.006 sec
 * total energy  :   -83.4387415 Eh     change       -0.1291705E-04 Eh
   gradient norm :     0.0019362 Eh/α   predicted    -0.9470996E-05 ( -26.68%)
   displ. norm   :     0.0495643 α      lambda       -0.1229651E-04
   maximum displ.:     0.0232753 α      in ANC's #2, #4, #8, ...

........................................................................
.............................. CYCLE  157 ..............................
........................................................................

 iter      E             dE          RMSdq      gap      omega  full diag
   1    -84.5427540 -0.845428E+02  0.776E-03    2.08       0.0  T
   2    -84.5427541 -0.124647E-06  0.462E-03    2.08       2.9  T
   3    -84.5427538  0.296888E-06  0.291E-03    2.08       4.6  T
   4    -84.5427542 -0.386888E-06  0.538E-04    2.08      24.6  T
   5    -84.5427542 -0.867904E-08  0.226E-04    2.08      58.6  T
     SCC iter.                  ...        0 min,  0.042 sec
     gradient                   ...        0 min,  0.008 sec
 * total energy  :   -83.4387526 Eh     change       -0.1112319E-04 Eh
   gradient norm :     0.0010743 Eh/α   predicted    -0.6156747E-05 ( -44.65%)
   displ. norm   :     0.0920292 α      lambda       -0.7571916E-05
   maximum displ.:     0.0447273 α      in ANC's #4, #2, #9, ...

........................................................................
.............................. CYCLE  158 ..............................
........................................................................

 iter      E             dE          RMSdq      gap      omega  full diag
   1    -84.5426785 -0.845427E+02  0.112E-02    2.08       0.0  T
   2    -84.5426786 -0.990466E-07  0.674E-03    2.08       2.0  T
   3    -84.5426782  0.404215E-06  0.296E-03    2.08       4.5  T
   4    -84.5426787 -0.470424E-06  0.498E-04    2.08      26.6  T
   5    -84.5426787 -0.668142E-08  0.250E-04    2.08      53.0  T
     SCC iter.                  ...        0 min,  0.038 sec
     gradient                   ...        0 min,  0.013 sec
 * total energy  :   -83.4387623 Eh     change       -0.9684216E-05 Eh
   gradient norm :     0.0010782 Eh/α   predicted    -0.3803370E-05 ( -60.73%)
   displ. norm   :     0.1691047 α      lambda       -0.1221064E-04
   maximum displ.:     0.0814412 α      in ANC's #4, #2, #8, ...

........................................................................
.............................. CYCLE  159 ..............................
........................................................................

 iter      E             dE          RMSdq      gap      omega  full diag
   1    -84.5422597 -0.845423E+02  0.194E-02    2.08       0.0  T
   2    -84.5422600 -0.266065E-06  0.117E-02    2.09       1.1  T
   3    -84.5422590  0.100080E-05  0.465E-03    2.09       2.8  T
   4    -84.5422601 -0.116298E-05  0.796E-04    2.09      16.6  T
   5    -84.5422601 -0.146589E-07  0.423E-04    2.09      31.3  T
   6    -84.5422601 -0.275949E-08  0.189E-04    2.09      70.1  T
     SCC iter.                  ...        0 min,  0.055 sec
     gradient                   ...        0 min,  0.009 sec
 * total energy  :   -83.4387763 Eh     change       -0.1398340E-04 Eh
   gradient norm :     0.0008256 Eh/α   predicted    -0.6185234E-05 ( -55.77%)
   displ. norm   :     0.1612835 α      lambda       -0.8498674E-05
   maximum displ.:     0.0787914 α      in ANC's #2, #4, #8, ...

........................................................................
.............................. CYCLE  160 ..............................
........................................................................

 iter      E             dE          RMSdq      gap      omega  full diag
   1    -84.5419398 -0.845419E+02  0.166E-02    2.09       0.0  T
   2    -84.5419400 -0.169167E-06  0.100E-02    2.09       1.3  T
   3    -84.5419393  0.640940E-06  0.374E-03    2.09       3.5  T
   4    -84.5419401 -0.742525E-06  0.642E-04    2.09      20.6  T
   5    -84.5419401 -0.839795E-08  0.344E-04    2.09      38.5  T
     SCC iter.                  ...        0 min,  0.045 sec
     gradient                   ...        0 min,  0.005 sec
 * total energy  :   -83.4387861 Eh     change       -0.9880291E-05 Eh
   gradient norm :     0.0008281 Eh/α   predicted    -0.4302885E-05 ( -56.45%)
   displ. norm   :     0.1305283 α      lambda       -0.7169041E-05
   maximum displ.:     0.0695620 α      in ANC's #2, #4, #1, ...

........................................................................
.............................. CYCLE  161 ..............................
........................................................................

 iter      E             dE          RMSdq      gap      omega  full diag
   1    -84.5420929 -0.845421E+02  0.121E-02    2.10       0.0  T
   2    -84.5420930 -0.867713E-07  0.722E-03    2.10       1.8  T
   3    -84.5420927  0.306753E-06  0.258E-03    2.10       5.1  T
   4    -84.5420930 -0.352304E-06  0.450E-04    2.10      29.4  T
   5    -84.5420930 -0.435412E-08  0.222E-04    2.10      59.7  T
     SCC iter.                  ...        0 min,  0.045 sec
     gradient                   ...        0 min,  0.012 sec
 * total energy  :   -83.4387947 Eh     change       -0.8550529E-05 Eh
   gradient norm :     0.0006356 Eh/α   predicted    -0.3612312E-05 ( -57.75%)
   displ. norm   :     0.1493360 α      lambda       -0.8418390E-05
   maximum displ.:     0.0819104 α      in ANC's #2, #4, #1, ...

........................................................................
.............................. CYCLE  162 ..............................
........................................................................

 iter      E             dE          RMSdq      gap      omega  full diag
   1    -84.5419480 -0.845419E+02  0.142E-02    2.10       0.0  T
   2    -84.5419481 -0.109498E-06  0.850E-03    2.10       1.6  T
   3    -84.5419480  0.170202E-06  0.214E-03    2.10       6.2  T
   4    -84.5419482 -0.211831E-06  0.589E-04    2.10      22.5  T
   5    -84.5419482 -0.882682E-08  0.300E-04    2.10      44.1  T
     SCC iter.                  ...        0 min,  0.042 sec
     gradient                   ...        0 min,  0.010 sec
 * total energy  :   -83.4388040 Eh     change       -0.9338994E-05 Eh
   gradient norm :     0.0007631 Eh/α   predicted    -0.4251346E-05 ( -54.48%)
   displ. norm   :     0.1405337 α      lambda       -0.8609802E-05
   maximum displ.:     0.0812687 α      in ANC's #2, #1, #4, ...

........................................................................
.............................. CYCLE  163 ..............................
........................................................................

 iter      E             dE          RMSdq      gap      omega  full diag
   1    -84.5421490 -0.845421E+02  0.146E-02    2.10       0.0  T
   2    -84.5421491 -0.113337E-06  0.860E-03    2.10       1.5  T
   3    -84.5421490  0.124977E-06  0.174E-03    2.10       7.6  T
   4    -84.5421491 -0.168508E-06  0.465E-04    2.10      28.5  T
   5    -84.5421491 -0.364621E-08  0.255E-04    2.10      52.0  T
     SCC iter.                  ...        0 min,  0.049 sec
     gradient                   ...        0 min,  0.009 sec
 * total energy  :   -83.4388137 Eh     change       -0.9702328E-05 Eh
   gradient norm :     0.0009475 Eh/α   predicted    -0.4343885E-05 ( -55.23%)
   displ. norm   :     0.1475038 α      lambda       -0.8367576E-05
   maximum displ.:     0.0863910 α      in ANC's #2, #1, #4, ...

........................................................................
.............................. CYCLE  164 ..............................
........................................................................

 iter      E             dE          RMSdq      gap      omega  full diag
   1    -84.5421582 -0.845422E+02  0.147E-02    2.09       0.0  T
   2    -84.5421583 -0.108605E-06  0.867E-03    2.09       1.5  T
   3    -84.5421582  0.152480E-06  0.190E-03    2.09       7.0  T
   4    -84.5421584 -0.199912E-06  0.441E-04    2.09      30.0  T
   5    -84.5421584 -0.254477E-08  0.249E-04    2.09      53.3  T
     SCC iter.                  ...        0 min,  0.045 sec
     gradient                   ...        0 min,  0.009 sec
 * total energy  :   -83.4388237 Eh     change       -0.9955775E-05 Eh
   gradient norm :     0.0010145 Eh/α   predicted    -0.4228681E-05 ( -57.53%)
   displ. norm   :     0.1737577 α      lambda       -0.1040874E-04
   maximum displ.:     0.1031923 α      in ANC's #2, #1, #4, ...

........................................................................
.............................. CYCLE  165 ..............................
........................................................................

 iter      E             dE          RMSdq      gap      omega  full diag
   1    -84.5419726 -0.845420E+02  0.184E-02    2.09       0.0  T
   2    -84.5419728 -0.166443E-06  0.109E-02    2.09       1.2  T
   3    -84.5419726  0.137623E-06  0.213E-03    2.08       6.2  T
   4    -84.5419729 -0.204607E-06  0.681E-04    2.08      19.4  T
   5    -84.5419729 -0.530409E-08  0.388E-04    2.08      34.2  T
     SCC iter.                  ...        0 min,  0.046 sec
     gradient                   ...        0 min,  0.009 sec
 * total energy  :   -83.4388354 Eh     change       -0.1172677E-04 Eh
   gradient norm :     0.0010187 Eh/α   predicted    -0.5277541E-05 ( -55.00%)
   displ. norm   :     0.1708908 α      lambda       -0.1023849E-04
   maximum displ.:     0.1018349 α      in ANC's #2, #1, #3, ...

........................................................................
.............................. CYCLE  166 ..............................
........................................................................

 iter      E             dE          RMSdq      gap      omega  full diag
   1    -84.5419825 -0.845420E+02  0.171E-02    2.08       0.0  T
   2    -84.5419826 -0.146311E-06  0.100E-02    2.08       1.3  T
   3    -84.5419826  0.444082E-07  0.147E-03    2.08       9.0  T
   4    -84.5419827 -0.962763E-07  0.526E-04    2.08      25.2  T
   5    -84.5419827 -0.274754E-08  0.259E-04    2.08      51.1  T
     SCC iter.                  ...        0 min,  0.035 sec
     gradient                   ...        0 min,  0.019 sec
 * total energy  :   -83.4388470 Eh     change       -0.1162289E-04 Eh
   gradient norm :     0.0006928 Eh/α   predicted    -0.5188551E-05 ( -55.36%)
   displ. norm   :     0.1882866 α      lambda       -0.9654157E-05
   maximum displ.:     0.1128382 α      in ANC's #2, #1, #3, ...

........................................................................
.............................. CYCLE  167 ..............................
........................................................................

 iter      E             dE          RMSdq      gap      omega  full diag
   1    -84.5418269 -0.845418E+02  0.197E-02    2.08       0.0  T
   2    -84.5418271 -0.161073E-06  0.116E-02    2.08       1.1  T
   3    -84.5418271  0.550169E-07  0.160E-03    2.08       8.3  T
   4    -84.5418272 -0.115995E-06  0.553E-04    2.08      23.9  T
   5    -84.5418272 -0.194268E-08  0.282E-04    2.08      46.9  T
     SCC iter.                  ...        0 min,  0.045 sec
     gradient                   ...        0 min,  0.009 sec
 * total energy  :   -83.4388584 Eh     change       -0.1131694E-04 Eh
   gradient norm :     0.0009481 Eh/α   predicted    -0.4904445E-05 ( -56.66%)
   displ. norm   :     0.2136070 α      lambda       -0.1058942E-04
   maximum displ.:     0.1279343 α      in ANC's #2, #1, #3, ...

........................................................................
.............................. CYCLE  168 ..............................
........................................................................

 iter      E             dE          RMSdq      gap      omega  full diag
   1    -84.5418092 -0.845418E+02  0.238E-02    2.08       0.0  T
   2    -84.5418095 -0.212168E-06  0.140E-02    2.08       1.0  T
   3    -84.5418093  0.166635E-06  0.228E-03    2.08       5.8  T
   4    -84.5418095 -0.252501E-06  0.650E-04    2.08      20.4  T
   5    -84.5418095 -0.289525E-08  0.363E-04    2.08      36.5  T
     SCC iter.                  ...        0 min,  0.037 sec
     gradient                   ...        0 min,  0.013 sec
 * total energy  :   -83.4388713 Eh     change       -0.1289421E-04 Eh
   gradient norm :     0.0010210 Eh/α   predicted    -0.5403480E-05 ( -58.09%)
   displ. norm   :     0.2834150 α      lambda       -0.1346994E-04
   maximum displ.:     0.1687684 α      in ANC's #2, #1, #3, ...

........................................................................
.............................. CYCLE  169 ..............................
........................................................................

 iter      E             dE          RMSdq      gap      omega  full diag
   1    -84.5414895 -0.845415E+02  0.338E-02    2.09       0.0  T
   2    -84.5414900 -0.440661E-06  0.199E-02    2.09       1.0  T
   3    -84.5414897  0.320223E-06  0.319E-03    2.09       4.2  T
   4    -84.5414901 -0.470927E-06  0.840E-04    2.09      15.8  T
   5    -84.5414901 -0.715818E-08  0.455E-04    2.09      29.1  T
     SCC iter.                  ...        0 min,  0.052 sec
     gradient                   ...        0 min,  0.009 sec
 * total energy  :   -83.4388873 Eh     change       -0.1603605E-04 Eh
   gradient norm :     0.0010733 Eh/α   predicted    -0.6978397E-05 ( -56.48%)
   displ. norm   :     0.3272467 α      lambda       -0.1460010E-04
   maximum displ.:     0.1951402 α      in ANC's #2, #1, #3, ...

........................................................................
.............................. CYCLE  170 ..............................
........................................................................

 iter      E             dE          RMSdq      gap      omega  full diag
   1    -84.5413194 -0.845413E+02  0.411E-02    2.10       0.0  T
   2    -84.5413201 -0.716383E-06  0.242E-02    2.10       1.0  T
   3    -84.5413197  0.423164E-06  0.377E-03    2.10       3.5  T
   4    -84.5413203 -0.588343E-06  0.123E-03    2.10      10.8  T
   5    -84.5413203 -0.379275E-07  0.624E-04    2.10      21.2  T
   6    -84.5413203 -0.590141E-08  0.326E-04    2.10      40.6  T
     SCC iter.                  ...        0 min,  0.053 sec
     gradient                   ...        0 min,  0.010 sec
 * total energy  :   -83.4389042 Eh     change       -0.1694318E-04 Eh
   gradient norm :     0.0009752 Eh/α   predicted    -0.7650915E-05 ( -54.84%)
   displ. norm   :     0.3328561 α      lambda       -0.1452933E-04
   maximum displ.:     0.1987993 α      in ANC's #2, #3, #1, ...

........................................................................
.............................. CYCLE  171 ..............................
........................................................................

 iter      E             dE          RMSdq      gap      omega  full diag
   1    -84.5411114 -0.845411E+02  0.436E-02    2.11       0.0  T
   2    -84.5411122 -0.773681E-06  0.257E-02    2.12       1.0  T
   3    -84.5411119  0.302773E-06  0.334E-03    2.12       4.0  T
   4    -84.5411124 -0.441495E-06  0.137E-03    2.12       9.7  T
   5    -84.5411124 -0.617840E-07  0.616E-04    2.12      21.5  T
   6    -84.5411124 -0.484893E-08  0.311E-04    2.12      42.7  T
     SCC iter.                  ...        0 min,  0.054 sec
     gradient                   ...        0 min,  0.009 sec
 * total energy  :   -83.4389210 Eh     change       -0.1673564E-04 Eh
   gradient norm :     0.0009824 Eh/α   predicted    -0.7624378E-05 ( -54.44%)
   displ. norm   :     0.3154750 α      lambda       -0.1442478E-04
   maximum displ.:     0.1886411 α      in ANC's #2, #3, #1, ...

........................................................................
.............................. CYCLE  172 ..............................
........................................................................

 iter      E             dE          RMSdq      gap      omega  full diag
   1    -84.5411041 -0.845411E+02  0.428E-02    2.12       0.0  T
   2    -84.5411048 -0.710430E-06  0.252E-02    2.12       1.0  T
   3    -84.5411041  0.687395E-06  0.401E-03    2.12       3.3  T
   4    -84.5411049 -0.860339E-06  0.137E-03    2.13       9.7  T
   5    -84.5411050 -0.626742E-07  0.602E-04    2.12      22.0  T
   6    -84.5411050 -0.236015E-08  0.305E-04    2.12      43.4  T
     SCC iter.                  ...        0 min,  0.050 sec
     gradient                   ...        0 min,  0.012 sec
 * total energy  :   -83.4389376 Eh     change       -0.1658041E-04 Eh
   gradient norm :     0.0010069 Eh/α   predicted    -0.7535244E-05 ( -54.55%)
   displ. norm   :     0.2540098 α      lambda       -0.1279030E-04
   maximum displ.:     0.1512064 α      in ANC's #2, #3, #1, ...

........................................................................
.............................. CYCLE  173 ..............................
........................................................................

 iter      E             dE          RMSdq      gap      omega  full diag
   1    -84.5414267 -0.845414E+02  0.360E-02    2.12       0.0  T
   2    -84.5414271 -0.424432E-06  0.212E-02    2.13       1.0  T
   3    -84.5414267  0.411653E-06  0.304E-03    2.13       4.4  T
   4    -84.5414273 -0.557895E-06  0.988E-04    2.13      13.4  T
   5    -84.5414273 -0.243995E-07  0.542E-04    2.13      24.4  T
     SCC iter.                  ...        0 min,  0.046 sec
     gradient                   ...        0 min,  0.009 sec
 * total energy  :   -83.4389520 Eh     change       -0.1442927E-04 Eh
   gradient norm :     0.0008949 Eh/α   predicted    -0.6580498E-05 ( -54.39%)
   displ. norm   :     0.2667039 α      lambda       -0.1100048E-04
   maximum displ.:     0.1597870 α      in ANC's #2, #3, #1, ...

........................................................................
.............................. CYCLE  174 ..............................
........................................................................

 iter      E             dE          RMSdq      gap      omega  full diag
   1    -84.5407261 -0.845407E+02  0.374E-02    2.12       0.0  T
   2    -84.5407264 -0.355159E-06  0.221E-02    2.13       1.0  T
   3    -84.5407261  0.294649E-06  0.275E-03    2.13       4.8  T
   4    -84.5407266 -0.466017E-06  0.855E-04    2.13      15.5  T
   5    -84.5407266 -0.458897E-08  0.469E-04    2.13      28.3  T
     SCC iter.                  ...        0 min,  0.047 sec
     gradient                   ...        0 min,  0.005 sec
 * total energy  :   -83.4389634 Eh     change       -0.1146547E-04 Eh
   gradient norm :     0.0013900 Eh/α   predicted    -0.5677915E-05 ( -50.48%)
   displ. norm   :     0.1961816 α      lambda       -0.9015015E-05
   maximum displ.:     0.1177414 α      in ANC's #2, #3, #1, ...

........................................................................
.............................. CYCLE  175 ..............................
........................................................................

 iter      E             dE          RMSdq      gap      omega  full diag
   1    -84.5419255 -0.845419E+02  0.288E-02    2.13       0.0  T
   2    -84.5419257 -0.273204E-06  0.170E-02    2.13       1.0  T
   3    -84.5419256  0.117066E-06  0.195E-03    2.13       6.8  T
   4    -84.5419258 -0.202845E-06  0.775E-04    2.13      17.1  T
   5    -84.5419258 -0.152913E-07  0.431E-04    2.13      30.8  T
     SCC iter.                  ...        0 min,  0.052 sec
     gradient                   ...        0 min,  0.009 sec
 * total energy  :   -83.4389714 Eh     change       -0.7962460E-05 Eh
   gradient norm :     0.0008782 Eh/α   predicted    -0.4586587E-05 ( -42.40%)
   displ. norm   :     0.2208252 α      lambda       -0.6392479E-05
   maximum displ.:     0.1372439 α      in ANC's #2, #3, #1, ...

........................................................................
.............................. CYCLE  176 ..............................
........................................................................

 iter      E             dE          RMSdq      gap      omega  full diag
   1    -84.5407464 -0.845407E+02  0.309E-02    2.13       0.0  T
   2    -84.5407467 -0.325499E-06  0.183E-02    2.13       1.0  T
   3    -84.5407466  0.878789E-07  0.219E-03    2.13       6.0  T
   4    -84.5407468 -0.198992E-06  0.786E-04    2.13      16.8  T
   5    -84.5407468 -0.448580E-08  0.507E-04    2.13      26.1  T
     SCC iter.                  ...        0 min,  0.043 sec
     gradient                   ...        0 min,  0.007 sec
 * total energy  :   -83.4389763 Eh     change       -0.4877705E-05 Eh
   gradient norm :     0.0017801 Eh/α   predicted    -0.3269327E-05 ( -32.97%)
   displ. norm   :     0.0879844 α      lambda       -0.5214826E-05
   maximum displ.:     0.0552420 α      in ANC's #2, #3, #1, ...

........................................................................
.............................. CYCLE  177 ..............................
........................................................................

 iter      E             dE          RMSdq      gap      omega  full diag
   1    -84.5411813 -0.845412E+02  0.124E-02    2.13       0.0  T
   2    -84.5411814 -0.934954E-07  0.729E-03    2.13       1.8  T
   3    -84.5411813  0.792514E-07  0.149E-03    2.13       8.9  T
   4    -84.5411814 -0.110204E-06  0.379E-04    2.13      35.0  T
   5    -84.5411814 -0.265352E-08  0.201E-04    2.13      66.0  T
     SCC iter.                  ...        0 min,  0.048 sec
     gradient                   ...        0 min,  0.010 sec
 * total energy  :   -83.4389806 Eh     change       -0.4302240E-05 Eh
   gradient norm :     0.0010842 Eh/α   predicted    -0.2619068E-05 ( -39.12%)
   displ. norm   :     0.0817368 α      lambda       -0.4908622E-05
   maximum displ.:     0.0512387 α      in ANC's #2, #3, #1, ...

........................................................................
.............................. CYCLE  178 ..............................
........................................................................

 iter      E             dE          RMSdq      gap      omega  full diag
   1    -84.5416225 -0.845416E+02  0.119E-02    2.14       0.0  T
   2    -84.5416226 -0.137922E-06  0.701E-03    2.14       1.9  T
   3    -84.5416224  0.262426E-06  0.256E-03    2.14       5.2  T
   4    -84.5416227 -0.315506E-06  0.564E-04    2.14      23.5  T
   5    -84.5416227 -0.923744E-08  0.269E-04    2.14      49.2  T
     SCC iter.                  ...        0 min,  0.035 sec
     gradient                   ...        0 min,  0.020 sec
 * total energy  :   -83.4389841 Eh     change       -0.3524563E-05 Eh
   gradient norm :     0.0009988 Eh/α   predicted    -0.2463920E-05 ( -30.09%)
   displ. norm   :     0.0640546 α      lambda       -0.2522495E-05
   maximum displ.:     0.0405991 α      in ANC's #2, #3, #1, ...

........................................................................
.............................. CYCLE  179 ..............................
........................................................................

 iter      E             dE          RMSdq      gap      omega  full diag
   1    -84.5415055 -0.845415E+02  0.862E-03    2.14       0.0  T
   2    -84.5415056 -0.101308E-06  0.509E-03    2.14       2.6  T
   3    -84.5415056  0.248233E-07  0.115E-03    2.14      11.5  T
   4    -84.5415057 -0.373693E-07  0.307E-04    2.14      43.2  T
   5    -84.5415057 -0.256142E-08  0.136E-04    2.14      97.4  T
     SCC iter.                  ...        0 min,  0.048 sec
     gradient                   ...        0 min,  0.010 sec
 * total energy  :   -83.4389867 Eh     change       -0.2572074E-05 Eh
   gradient norm :     0.0005255 Eh/α   predicted    -0.1267425E-05 ( -50.72%)
   displ. norm   :     0.0848072 α      lambda       -0.2467816E-05
   maximum displ.:     0.0530896 α      in ANC's #2, #3, #1, ...

........................................................................
.............................. CYCLE  180 ..............................
........................................................................

 iter      E             dE          RMSdq      gap      omega  full diag
   1    -84.5412762 -0.845413E+02  0.996E-03    2.14       0.0  T
   2    -84.5412763 -0.103222E-06  0.589E-03    2.14       2.2  T
   3    -84.5412763  0.760353E-08  0.829E-04    2.15      16.0  T
   4    -84.5412763 -0.152085E-07  0.389E-04    2.15      34.1  T
     SCC iter.                  ...        0 min,  0.035 sec
     gradient                   ...        0 min,  0.007 sec
 * total energy  :   -83.4389894 Eh     change       -0.2747654E-05 Eh
   gradient norm :     0.0005282 Eh/α   predicted    -0.1241064E-05 ( -54.83%)
   displ. norm   :     0.1127923 α      lambda       -0.2520505E-05
   maximum displ.:     0.0706595 α      in ANC's #2, #3, #1, ...

........................................................................
.............................. CYCLE  181 ..............................
........................................................................

 iter      E             dE          RMSdq      gap      omega  full diag
   1    -84.5410208 -0.845410E+02  0.130E-02    2.15       0.0  T
   2    -84.5410209 -0.181596E-06  0.770E-03    2.15       1.7  T
   3    -84.5410209  0.875905E-07  0.155E-03    2.15       8.5  T
   4    -84.5410210 -0.956083E-07  0.658E-04    2.15      20.1  T
   5    -84.5410210 -0.216373E-07  0.222E-04    2.15      59.8  T
     SCC iter.                  ...        0 min,  0.033 sec
     gradient                   ...        0 min,  0.021 sec
 * total energy  :   -83.4389919 Eh     change       -0.2512239E-05 Eh
   gradient norm :     0.0006376 Eh/α   predicted    -0.1272368E-05 ( -49.35%)
   displ. norm   :     0.1109647 α      lambda        0.3883351E-06
   maximum displ.:     0.0694915 α      in ANC's #2, #3, #1, ...

........................................................................
.............................. CYCLE  182 ..............................
........................................................................

 iter      E             dE          RMSdq      gap      omega  full diag
   1    -84.5406646 -0.845407E+02  0.128E-02    2.15       0.0  T
   2    -84.5406648 -0.191034E-06  0.757E-03    2.15       1.7  T
   3    -84.5406648  0.507881E-07  0.130E-03    2.15      10.2  T
   4    -84.5406648 -0.618957E-07  0.552E-04    2.15      24.0  T
   5    -84.5406649 -0.154910E-07  0.221E-04    2.15      59.9  T
     SCC iter.                  ...        0 min,  0.049 sec
     gradient                   ...        0 min,  0.008 sec
 * total energy  :   -83.4389917 Eh     change        0.2897820E-06 Eh
   gradient norm :     0.0012265 Eh/α   predicted     0.1950405E-06 ( -32.69%)
   displ. norm   :     0.0138813 α      lambda       -0.2358229E-05
   maximum displ.:     0.0047173 α      in ANC's #17, #4, #15, ...

........................................................................
.............................. CYCLE  183 ..............................
........................................................................

 iter      E             dE          RMSdq      gap      omega  full diag
   1    -84.5412918 -0.845413E+02  0.346E-03    2.16       0.0  T
   2    -84.5412919 -0.812498E-07  0.205E-03    2.15       6.5  T
   3    -84.5412919  0.228951E-09  0.794E-04    2.15      16.7  T
   4    -84.5412919 -0.484012E-08  0.194E-04    2.15      68.2  T
     SCC iter.                  ...        0 min,  0.034 sec
     gradient                   ...        0 min,  0.008 sec
 * total energy  :   -83.4389935 Eh     change       -0.1861647E-05 Eh
   gradient norm :     0.0006840 Eh/α   predicted    -0.1181330E-05 ( -36.54%)
   displ. norm   :     0.0196935 α      lambda       -0.1348735E-05
   maximum displ.:     0.0078080 α      in ANC's #17, #18, #25, ...
 * RMSD in coord.:     0.4632344 α      energy gain  -0.3606755E-03 Eh

generating ANC from exact Hessian ...
Using Lindh-Hessian (1995)
 Shifting diagonal of input Hessian by   1.012844384541225E-002
 Lowest  eigenvalues of input Hessian
    0.010000    0.000000    0.000000    0.000000    0.000000    0.000000
    0.000000    0.010179    0.010213    0.010309    0.010422    0.010501
    0.010572    0.010709    0.010779    0.011002    0.011398    0.011550
 Highest eigenvalues
    1.958671    2.014632    2.117128    2.199383    2.315519    2.347879
 

........................................................................
.............................. CYCLE  184 ..............................
........................................................................

 iter      E             dE          RMSdq      gap      omega  full diag
   1    -84.5413897 -0.845414E+02  0.453E-03    2.15       0.0  T
   2    -84.5413897 -0.277541E-07  0.262E-03    2.15       5.0  T
   3    -84.5413897  0.165269E-07  0.716E-04    2.15      18.5  T
   4    -84.5413897 -0.186519E-07  0.255E-04    2.15      51.9  T
     SCC iter.                  ...        0 min,  0.035 sec
     gradient                   ...        0 min,  0.009 sec
 * total energy  :   -83.4389947 Eh     change       -0.1160554E-05 Eh
   gradient norm :     0.0003412 Eh/α   predicted     0.0000000E+00 (-100.00%)
   displ. norm   :     0.0077462 α      lambda       -0.1151065E-06
   maximum displ.:     0.0034044 α      in ANC's #8, #7, #10, ...

........................................................................
.............................. CYCLE  185 ..............................
........................................................................

 iter      E             dE          RMSdq      gap      omega  full diag
   1    -84.5413775 -0.845414E+02  0.190E-03    2.15       0.0  T
   2    -84.5413775 -0.420899E-08  0.112E-03    2.15      11.8  T
   3    -84.5413775  0.699501E-09  0.203E-04    2.15      65.1  T
   4    -84.5413775 -0.120977E-08  0.502E-05    2.15     263.9  T
     SCC iter.                  ...        0 min,  0.035 sec
     gradient                   ...        0 min,  0.004 sec
 * total energy  :   -83.4389952 Eh     change       -0.5506208E-06 Eh
   gradient norm :     0.0001314 Eh/α   predicted    -0.2826436E-06 ( -48.67%)
   displ. norm   :     0.0176574 α      lambda       -0.6794240E-06
   maximum displ.:     0.0077272 α      in ANC's #8, #7, #10, ...

   *** GEOMETRY OPTIMIZATION CONVERGED AFTER 185 ITERATIONS ***

------------------------------------------------------------------------
 total energy gain   :        -0.1337379 Eh      -83.9218 kcal/mol
 total RMSD          :         3.4252272 a0        1.8126 Å
 total power (kW/mol):        -1.8979931 (step)  -26.5263 (real)
------------------------------------------------------------------------

 ANCopt (total)                0 d,  0 h,  0 min, 13.237 sec
 optimizer setup                ...        0 min,  0.001 sec (  0.008%)
 model hessian                  ...        0 min,  0.151 sec (  1.141%)
 ANC generation                 ...        0 min,  0.079 sec (  0.597%)
 coordinate transformation      ...        0 min,  0.029 sec (  0.219%)
 single point calculation       ...        0 min, 12.857 sec ( 97.129%)
 optimization log               ...        0 min,  0.062 sec (  0.468%)
 hessian update                 ...        0 min,  0.015 sec (  0.113%)
 rational function              ...        0 min,  0.031 sec (  0.234%)

================
 final structure:
================
57
 xtb: 6.7.1pre (5071a88)
N           -0.43550110987799       -0.70232835863668       -0.24389239901178
C            0.93745556160175       -0.63493771987871       -0.14013937808879
C            1.52403169845149        0.12586043458729        0.87380380336286
C            2.89016472952478        0.30187530226929        0.91494682494935
C            3.71859417933559       -0.27516138663732       -0.04201348242299
C            3.13510783269681       -1.05016814947122       -1.03623828304285
C            1.76688650779870       -1.23336839836834       -1.08840945875831
C            5.19848565494391       -0.01875351789054       -0.02819387956065
C            5.51670743829529        1.38192882730153       -0.55890574440605
C           -1.15005386626301        1.16046114428735       -1.69748144135913
C            0.09995316358334        1.86010373520131       -1.44072194907018
C            0.20841527285215        2.80175701546534       -0.50061527703488
C            1.44833473722555        3.54871568575672       -0.17627314494156
C            1.31395519732568        5.03524879174373       -0.53505720773303
C            2.58255408677297        5.80081630115569       -0.18327424095931
O           -2.22419695968865        1.43371094491302       -1.19141981249497
O           -4.01877971578934        0.81048675597801        0.77449312172192
H           -0.94650721896765       -0.48907812342436        0.61170322737258
H           -0.80348696024890       -1.48657290255285       -0.76036742735733
H            0.88555773128477        0.56861415301574        1.62278109079631
H            3.32799531738656        0.89344961421001        1.70618341774998
H            3.76050226099573       -1.53269334103227       -1.77619663938906
H            1.33044610377258       -1.83993442767400       -1.87012822543264
H            5.72726611177499       -0.74782503659941       -0.64503786401623
H            5.59546240556008       -0.09331045138788        0.98519845348737
H            5.13838659206534        2.15278658906792        0.12392063692618
H            4.60465496236789        0.75437704068496       -2.35035290386655
H            6.63476505399189        3.54783914668261       -1.00029877296132
H           -1.09657513285205        0.40643720998785       -2.50287290207259
H            0.95595252900469        1.55675709490151       -2.02532132645040
H           -0.67774005319368        3.06654149891690        0.06248006134479
H            1.64038270309555        3.46724248876913        0.89661607430862
H            2.29888320313788        3.12256728185938       -0.70980716688253
H            1.11731319043676        5.12413302430231       -1.60557500919236
H            0.46075879989347        5.46178301481149       -0.00264184468227
H            2.49035878766820        6.84400944058691       -0.47611383348813
H            2.76796027834683        5.76002547666717        0.88799550802623
H            3.43860164041820        5.37083017481122       -0.69748509070568
H           -4.36179662931857        1.66765284888984        1.03411587700180
H           -3.48664487907441        0.97038257110730       -0.02402876251171
O           -1.94121608153506       -0.23662297201894        2.17208820643169
H           -2.26411372244884       -0.98471776496494        2.67669874196390
H           -2.72742606319853        0.16086016839628        1.74341763414623
N            4.86009996127404        1.58503491548534       -1.83975516785582
C            7.04197985873586        1.57620998077542       -0.71814089597578
O            7.82991432929234        0.65380696697758       -0.68533803173351
C            3.74868022701425        2.77478945678536       -3.60706224516665
C            4.52660105488430        2.79744980003119       -2.31224680462651
O            4.84170116502506        3.83018133533862       -1.74076343067943
H            2.95217259618433        2.03588054039588       -3.56800671749614
H            4.41961783003418        2.52354923297029       -4.42657597439904
H            3.32687671997660        3.75885418499460       -3.78996700931356
N            7.37737617154608        2.86316475592470       -0.89591157346546
C            8.73605944647266        3.28591516514696       -1.13059860065885
H            9.02512322913676        4.04682966837971       -0.40423240378891
H            8.84760485685477        3.69471054329871       -2.13701318418984
H            9.38033721442834        2.41484222744829       -1.02096717236293
 
 Bond Distances (Angstroems)
 ---------------------------
N1-C2=1.3785         N1-H18=1.0191        N1-H19=1.0086        C2-N1=1.3785         C2-C3=1.3968         C2-C7=1.3947         
C3-C2=1.3968         C3-C4=1.3780         C3-H20=1.0792        C4-C3=1.3780         C4-C5=1.3911         C4-H21=1.0806        
C5-C4=1.3911         C5-C6=1.3891         C5-C8=1.5020         C6-C5=1.3891         C6-C7=1.3814         C6-H22=1.0824        
C7-C2=1.3947         C7-C6=1.3814         C7-H23=1.0814        C8-C5=1.5020         C8-C9=1.5313         C8-H24=1.0916        
C8-H25=1.0909        C9-C8=1.5313         C9-H26=1.0971        C9-N44=1.4536        C9-C45=1.5458        C10-C11=1.4553       
C10-O16=1.2184       C10-H29=1.1046       C11-C10=1.4553       C11-C12=1.3350       C11-H30=1.0801       C12-C11=1.3350       
C12-C13=1.4834       C12-H31=1.0828       C13-C12=1.4834       C13-C14=1.5351       C13-H32=1.0930       C13-H33=1.0907       
C14-C13=1.5351       C14-C15=1.5229       C14-H34=1.0921       C14-H35=1.0924       C15-C14=1.5229       C15-H36=1.0874       
C15-H37=1.0880       C15-H38=1.0873       O16-C10=1.2184       O17-H39=0.9591       O17-H40=0.9728       H18-N1=1.0191        
H19-N1=1.0086        H20-C3=1.0792        H21-C4=1.0806        H22-C6=1.0824        H23-C7=1.0814        H24-C8=1.0916        
H25-C8=1.0909        H26-C9=1.0971        H27-N44=1.0079       H28-N53=1.0155       H29-C10=1.1046       H30-C11=1.0801       
H31-C12=1.0828       H32-C13=1.0930       H33-C13=1.0907       H34-C14=1.0921       H35-C14=1.0924       H36-C15=1.0874       
H37-C15=1.0880       H38-C15=1.0873       H39-O17=0.9591       H40-O17=0.9728       O41-H42=0.9584       O41-H43=0.9797       
H42-O41=0.9584       H43-O41=0.9797       N44-C9=1.4536        N44-H27=1.0079       N44-C48=1.3433       C45-C9=1.5458        
C45-O46=1.2136       C45-N53=1.3418       O46-C45=1.2136       C47-C48=1.5107       C47-H50=1.0872       C47-H51=1.0885       
C47-H52=1.0862       C48-N44=1.3433       C48-C47=1.5107       C48-O49=1.2216       O49-C48=1.2216       H50-C47=1.0872       
H51-C47=1.0885       H52-C47=1.0862       N53-H28=1.0155       N53-C45=1.3418       N53-C54=1.4422       C54-N53=1.4422       
C54-H55=1.0909       C54-H56=1.0920       C54-H57=1.0890       H55-C54=1.0909       H56-C54=1.0920       H57-C54=1.0890       
 C  H  Rav=1.0885 sigma=0.0058  Rmin=1.0792  Rmax=1.1046    23
 C  C  Rav=1.4502 sigma=0.0693  Rmin=1.3350  Rmax=1.5458    15
 N  H  Rav=1.0128 sigma=0.0047  Rmin=1.0079  Rmax=1.0191     4
 N  C  Rav=1.3919 sigma=0.0477  Rmin=1.3418  Rmax=1.4536     5
 O  H  Rav=0.9675 sigma=0.0091  Rmin=0.9584  Rmax=0.9797     4
 O  C  Rav=1.2179 sigma=0.0033  Rmin=1.2136  Rmax=1.2216     3
 
 selected bond angles (degree)
 --------------------
H18-N1-C2=115.21               H19-N1-C2=116.10               H19-N1-H18=114.18              C3-C2-N1=119.97                
C7-C2-N1=121.34                C7-C2-C3=118.52                C4-C3-C2=120.50                H20-C3-C2=118.61               
H20-C3-C4=120.89               C5-C4-C3=121.12                H21-C4-C3=119.57               H21-C4-C5=119.31               
C6-C5-C4=118.27                C8-C5-C4=120.64                C8-C5-C6=121.04                C7-C6-C5=121.14                
H22-C6-C5=119.69               H22-C6-C7=119.17               C6-C7-C2=120.43                H23-C7-C2=119.48               
H23-C7-C6=120.09               C9-C8-C5=110.96                H24-C8-C5=110.98               H24-C8-C9=108.33               
H25-C8-C5=110.82               H25-C8-C9=107.99               H25-C8-H24=107.64              H26-C9-C8=110.81               
N44-C9-C8=109.84               N44-C9-H26=107.13              C45-C9-C8=110.84               C45-C9-H26=108.42              
C45-C9-N44=109.72              O16-C10-C11=125.18             H29-C10-C11=114.53             H29-C10-O16=119.91             
 
 selected dihedral angles (degree)
 ---------------------------------
C3-C2-N1-H18=337.79           C3-C2-N1-H19=200.49           C7-C2-N1-H18=162.56           C7-C2-N1-H19= 25.26           
C4-C3-C2-N1=186.01            C4-C3-C2-C7=  1.38            H20-C3-C2-N1=  6.18           H20-C3-C2-C7=181.54           
C5-C4-C3-C2=359.67            C5-C4-C3-H20=179.50           H21-C4-C3-C2=180.00           H21-C4-C3-H20=359.83          
C6-C5-C4-C3=359.25            C6-C5-C4-H21=178.91           C8-C5-C4-C3=176.84            C8-C5-C4-H21=356.51           
C7-C6-C5-C4=  0.79            C7-C6-C5-C8=183.20            H22-C6-C5-C4=181.71           H22-C6-C5-C8=  4.12           
C6-C7-C2-N1=173.95            C6-C7-C2-C3=358.66            H23-C7-C2-N1=354.24           H23-C7-C2-C3=178.94           
C2-C7-C6-C5=  0.27            C2-C7-C6-H22=179.35           H23-C7-C6-C5=179.98           H23-C7-C6-H22=359.06          
C9-C8-C5-C4=284.38            C9-C8-C5-C6=101.91            H24-C8-C5-C4=163.88           H24-C8-C5-C6=341.41           
H25-C8-C5-C4= 44.35           H25-C8-C5-C6=221.87           H26-C9-C8-C5= 66.99           H26-C9-C8-H24=189.05          
H26-C9-C8-H25=305.35          N44-C9-C8-C5=308.82           N44-C9-C8-H24= 70.88          N44-C9-C8-H25=187.19          
C45-C9-C8-C5=187.42           C45-C9-C8-H24=309.48          C45-C9-C8-H25= 65.78          
 
 CMA Distance (Angstroems)
 ---------------------------
R(CMA):  5.1443
           -------------------------------------------------
          |                Final Singlepoint                |
           -------------------------------------------------

          ...................................................
          :                      SETUP                      :
          :.................................................:
          :  # basis functions                 135          :
          :  # atomic orbitals                 135          :
          :  # shells                           83          :
          :  # electrons                       148          :
          :  max. iterations                   250          :
          :  Hamiltonian                  GFN2-xTB          :
          :  restarted?                      false          :
          :  GBSA solvation                  false          :
          :  PC potential                    false          :
          :  electronic temp.            0.0000000     K    :
          :  accuracy                    1.0000000          :
          :  -> integral cutoff          0.2500000E+02      :
          :  -> integral neglect         0.1000000E-07      :
          :  -> SCF convergence          0.1000000E-05 Eh   :
          :  -> wf. convergence          0.1000000E-03 e    :
          :  Broyden damping             0.4000000          :
          :  net charge                          0          :
          :  unpaired electrons                  0          :
          ...................................................

 iter      E             dE          RMSdq      gap      omega  full diag
   1    -84.5413775 -0.845414E+02  0.249E-05    2.15       0.0  T
   2    -84.5413775 -0.410694E-11  0.151E-05    2.15     879.3  T
   3    -84.5413775 -0.103739E-11  0.931E-06    2.15    1422.8  T

   *** convergence criteria satisfied after 3 iterations ***

         #    Occupation            Energy/Eh            Energy/eV
      -------------------------------------------------------------
         1        2.0000           -0.7095242             -19.3071
       ...           ...                  ...                  ...
        68        2.0000           -0.4123230             -11.2199
        69        2.0000           -0.4080106             -11.1025
        70        2.0000           -0.4012866             -10.9196
        71        2.0000           -0.3971383             -10.8067
        72        2.0000           -0.3940653             -10.7231
        73        2.0000           -0.3843197             -10.4579
        74        2.0000           -0.3598582              -9.7922 (HOMO)
        75                         -0.2808204              -7.6415 (LUMO)
        76                         -0.2206875              -6.0052
        77                         -0.2185623              -5.9474
        78                         -0.2098648              -5.7107
        79                         -0.2053764              -5.5886
       ...                                ...                  ...
       135                          0.6731479              18.3173
      -------------------------------------------------------------
                  HL-Gap            0.0790378 Eh            2.1507 eV
             Fermi-level            0.0000000 Eh            0.0000 eV

 SCC (total)                   0 d,  0 h,  0 min,  0.042 sec
 SCC setup                      ...        0 min,  0.000 sec (  0.000%)
 Dispersion                     ...        0 min,  0.000 sec (  0.000%)
 classical contributions        ...        0 min,  0.000 sec (  0.000%)
 integral evaluation            ...        0 min,  0.011 sec ( 26.191%)
 iterations                     ...        0 min,  0.022 sec ( 52.381%)
 molecular gradient             ...        0 min,  0.009 sec ( 21.428%)
 printout                       ...        0 min,  0.000 sec (  0.000%)

         :::::::::::::::::::::::::::::::::::::::::::::::::::::
         ::                     SUMMARY                     ::
         :::::::::::::::::::::::::::::::::::::::::::::::::::::
         :: total energy             -83.438995226811 Eh    ::
         :: gradient norm              0.000131452027 Eh/a0 ::
         :: HOMO-LUMO gap              2.150728543578 eV    ::
         ::.................................................::
         :: SCC energy               -84.539412753209 Eh    ::
         :: -> isotropic ES            0.174136336550 Eh    ::
         :: -> anisotropic ES         -0.001818757535 Eh    ::
         :: -> anisotropic XC          0.029695660101 Eh    ::
         :: -> dispersion             -0.057213668954 Eh    ::
         :: repulsion energy           1.100417526398 Eh    ::
         :: add. restraining           0.000000000000 Eh    ::
         :: total charge              -0.000000000000 e     ::
         :::::::::::::::::::::::::::::::::::::::::::::::::::::

           -------------------------------------------------
          |                Property Printout                |
           -------------------------------------------------

    * Orbital Energies and Occupations

         #    Occupation            Energy/Eh            Energy/eV
      -------------------------------------------------------------
         1        2.0000           -0.7095242             -19.3071
       ...           ...                  ...                  ...
        62        2.0000           -0.4357777             -11.8581
        63        2.0000           -0.4312559             -11.7351
        64        2.0000           -0.4308396             -11.7237
        65        2.0000           -0.4305644             -11.7163
        66        2.0000           -0.4245348             -11.5522
        67        2.0000           -0.4168307             -11.3425
        68        2.0000           -0.4123230             -11.2199
        69        2.0000           -0.4080106             -11.1025
        70        2.0000           -0.4012866             -10.9196
        71        2.0000           -0.3971383             -10.8067
        72        2.0000           -0.3940653             -10.7231
        73        2.0000           -0.3843197             -10.4579
        74        2.0000           -0.3598582              -9.7922 (HOMO)
        75                         -0.2808204              -7.6415 (LUMO)
        76                         -0.2206875              -6.0052
        77                         -0.2185623              -5.9474
        78                         -0.2098648              -5.7107
        79                         -0.2053764              -5.5886
        80                         -0.1658560              -4.5132
        81                         -0.0871235              -2.3708
        82                          0.0011266               0.0307
        83                          0.0102903               0.2800
        84                          0.0320430               0.8719
        85                          0.0699979               1.9047
       ...                                ...                  ...
       135                          0.6731479              18.3173
      -------------------------------------------------------------
                  HL-Gap            0.0790378 Eh            2.1507 eV
             Fermi-level            0.0000000 Eh            0.0000 eV

     #   Z          covCN         q      C6AA      α(0)
     1   7 N        2.642    -0.284    27.332     7.764
     2   6 C        2.899     0.077    26.269     8.404
     3   6 C        2.923    -0.060    29.494     8.906
     4   6 C        2.924    -0.039    28.960     8.825
     5   6 C        2.970    -0.007    28.196     8.710
     6   6 C        2.924    -0.045    29.114     8.849
     7   6 C        2.921    -0.065    29.606     8.923
     8   6 C        3.812    -0.070    21.826     6.650
     9   6 C        3.796     0.020    20.238     6.406
    10   6 C        2.768     0.214    23.481     7.936
    11   6 C        2.890    -0.064    29.579     8.917
    12   6 C        2.897    -0.000    28.035     8.681
    13   6 C        3.807    -0.060    21.656     6.625
    14   6 C        3.802    -0.046    21.399     6.586
    15   6 C        3.752    -0.111    22.677     6.791
    16   8 O        0.856    -0.408    21.839     6.266
    17   8 O        1.609    -0.594    25.040     6.754
    18   1 H        0.860     0.215     1.033     1.592
    19   1 H        0.860     0.161     1.331     1.807
    20   1 H        0.926     0.043     2.407     2.426
    21   1 H        0.926     0.030     2.590     2.517
    22   1 H        0.925     0.021     2.714     2.576
    23   1 H        0.925     0.021     2.714     2.576
    24   1 H        0.924     0.061     2.185     2.312
    25   1 H        0.924     0.057     2.236     2.338
    26   1 H        0.924     0.060     2.204     2.321
    27   1 H        0.860     0.183     1.198     1.714
    28   1 H        0.860     0.206     1.074     1.623
    29   1 H        0.923     0.009     2.913     2.669
    30   1 H        0.926     0.035     2.511     2.478
    31   1 H        0.925     0.068     2.112     2.273
    32   1 H        0.924     0.057     2.240     2.341
    33   1 H        0.924     0.044     2.399     2.422
    34   1 H        0.924     0.031     2.572     2.508
    35   1 H        0.924     0.033     2.548     2.496
    36   1 H        0.925     0.035     2.518     2.481
    37   1 H        0.925     0.033     2.540     2.492
    38   1 H        0.925     0.063     2.169     2.303
    39   1 H        0.805     0.284     0.772     1.380
    40   1 H        0.804     0.330     0.636     1.253
    41   8 O        1.608    -0.605    25.307     6.790
    42   1 H        0.806     0.273     0.807     1.411
    43   1 H        0.803     0.320     0.663     1.279
    44   7 N        2.692    -0.181    24.920     7.414
    45   6 C        2.753     0.264    22.554     7.777
    46   8 O        0.858    -0.435    22.400     6.346
    47   6 C        3.757    -0.141    23.267     6.877
    48   6 C        2.749     0.277    22.313     7.735
    49   8 O        0.859    -0.462    22.958     6.424
    50   1 H        0.925     0.052     2.298     2.371
    51   1 H        0.925     0.063     2.169     2.303
    52   1 H        0.925     0.074     2.042     2.235
    53   7 N        2.686    -0.178    24.848     7.403
    54   6 C        3.690    -0.042    21.520     6.639
    55   1 H        0.924     0.052     2.291     2.367
    56   1 H        0.924     0.049     2.334     2.389
    57   1 H        0.925     0.082     1.958     2.188

 Mol. C6AA /au·bohr⁶  :      29556.833287
 Mol. C8AA /au·bohr⁸  :     658034.706633
 Mol. α(0) /au        :        262.839159


Wiberg/Mayer (AO) data.
largest (>0.10) Wiberg bond orders for each atom

 ---------------------------------------------------------------------------
     #   Z sym  total        # sym  WBO       # sym  WBO       # sym  WBO
 ---------------------------------------------------------------------------
     1   7 N    3.325 --     2 C    1.159    19 H    0.954    18 H    0.896
     2   6 C    3.972 --     7 C    1.351     3 C    1.336     1 N    1.159
     3   6 C    3.989 --     4 C    1.475     2 C    1.336    20 H    0.967
                             6 C    0.101
     4   6 C    3.992 --     3 C    1.475     5 C    1.393    21 H    0.969
                             7 C    0.101
     5   6 C    3.979 --     6 C    1.405     4 C    1.393     8 C    1.009
     6   6 C    3.991 --     7 C    1.456     5 C    1.405    22 H    0.968
                             3 C    0.101
     7   6 C    3.987 --     6 C    1.456     2 C    1.351    23 H    0.969
                             4 C    0.101
     8   6 C    3.990 --     5 C    1.009     9 C    0.981    24 H    0.969
                            25 H    0.966
     9   6 C    3.961 --     8 C    0.981    44 N    0.973    26 H    0.953
                            45 C    0.914
    10   6 C    3.926 --    16 O    1.743    11 C    1.094    29 H    0.937
    11   6 C    3.989 --    12 C    1.806    10 C    1.094    30 H    0.965
    12   6 C    3.978 --    11 C    1.806    13 C    1.047    31 H    0.961
    13   6 C    3.996 --    12 C    1.047    14 C    0.977    33 H    0.972
                            32 H    0.953
    14   6 C    3.995 --    15 C    1.018    34 H    0.980    35 H    0.979
                            13 C    0.977
    15   6 C    3.993 --    14 C    1.018    37 H    0.988    36 H    0.986
                            38 H    0.980
    16   8 O    2.029 --    10 C    1.743
    17   8 O    1.877 --    39 H    0.917    40 H    0.853
    18   1 H    0.953 --     1 N    0.896
    19   1 H    0.974 --     1 N    0.954
    20   1 H    0.998 --     3 C    0.967
    21   1 H    0.999 --     4 C    0.969
    22   1 H    0.999 --     6 C    0.968
    23   1 H    0.999 --     7 C    0.969
    24   1 H    0.996 --     8 C    0.969
    25   1 H    0.995 --     8 C    0.966
    26   1 H    0.996 --     9 C    0.953
    27   1 H    0.966 --    44 N    0.932
    28   1 H    0.957 --    53 N    0.904
    29   1 H    1.000 --    10 C    0.937
    30   1 H    0.999 --    11 C    0.965
    31   1 H    0.995 --    12 C    0.961
    32   1 H    0.997 --    13 C    0.953
    33   1 H    0.998 --    13 C    0.972
    34   1 H    0.999 --    14 C    0.980
    35   1 H    0.999 --    14 C    0.979
    36   1 H    0.997 --    15 C    0.986
    37   1 H    0.999 --    15 C    0.988
    38   1 H    0.996 --    15 C    0.980
    39   1 H    0.920 --    17 O    0.917
    40   1 H    0.891 --    17 O    0.853
    41   8 O    1.854 --    42 H    0.922    43 H    0.839
    42   1 H    0.925 --    41 O    0.922
    43   1 H    0.897 --    41 O    0.839
    44   7 N    3.459 --    48 C    1.280     9 C    0.973    27 H    0.932
                            49 O    0.192
    45   6 C    3.956 --    46 O    1.679    53 N    1.291     9 C    0.914
    46   8 O    2.011 --    45 C    1.679    53 N    0.212
    47   6 C    3.993 --    48 C    0.984    52 H    0.982    50 H    0.975
                            51 H    0.965
    48   6 C    3.951 --    49 O    1.632    44 N    1.280    47 C    0.984
    49   8 O    1.986 --    48 C    1.632    44 N    0.192
    50   1 H    0.997 --    47 C    0.975
    51   1 H    0.996 --    47 C    0.965
    52   1 H    0.994 --    47 C    0.982
    53   7 N    3.465 --    45 C    1.291    54 C    1.006    28 H    0.904
                            46 O    0.212
    54   6 C    3.966 --    53 N    1.006    55 H    0.977    57 H    0.977
                            56 H    0.976
    55   1 H    0.997 --    54 C    0.977
    56   1 H    0.998 --    54 C    0.976
    57   1 H    0.993 --    54 C    0.977
 ---------------------------------------------------------------------------

Topologies differ in total number of bonds
Writing topology from bond orders to xtbtopo.mol

molecular dipole:
                 x           y           z       tot (Debye)
 q only:       -0.373       0.399      -0.358
   full:       -0.784       0.208      -0.669       2.672
molecular quadrupole (traceless):
                xx          xy          yy          xz          yz          zz
 q only:      -18.675      11.993       8.133      -8.018       0.500      10.541
  q+dip:      -27.815       9.740       8.588     -12.827       4.598      19.227
   full:      -28.631       9.914       9.463     -12.264       1.037      19.168

           -------------------------------------------------
          |                Geometry Summary                 |
           -------------------------------------------------

      molecular mass/u    :      369.4565437
   center of mass at/Å    :        2.5739155       1.5433426      -0.6308945
  moments of inertia/u·Å² :        0.1631915E+04   0.4774726E+04   0.5579282E+04
rotational constants/cm⁻¹ :        0.1032997E-01   0.3530597E-02   0.3021470E-02

 * 49 selected distances

     #   Z          #   Z                                           value/Å
     1   7 N        2   6 C                                       1.3785197
     2   6 C        3   6 C                                       1.3967700
     3   6 C        4   6 C                                       1.3780398
     4   6 C        5   6 C                                       1.3910572
     5   6 C        6   6 C                                       1.3890915
     2   6 C        7   6 C                                       1.3947371
     6   6 C        7   6 C                                       1.3814174
     8   6 C        9   6 C                                       1.5312843
    11   6 C       12   6 C                                       1.3350190
    12   6 C       13   6 C                                       1.4834237
    13   6 C       14   6 C                                       1.5351107 (max)
    14   6 C       15   6 C                                       1.5228882
    10   6 C       16   8 O                                       1.2184201
     1   7 N       18   1 H                                       1.0191403
     1   7 N       19   1 H                                       1.0085632
     3   6 C       20   1 H                                       1.0791881
     4   6 C       21   1 H                                       1.0806069
     6   6 C       22   1 H                                       1.0823527
     7   6 C       23   1 H                                       1.0814282
     8   6 C       24   1 H                                       1.0916276
     8   6 C       25   1 H                                       1.0909232
     9   6 C       26   1 H                                       1.0970873
    11   6 C       30   1 H                                       1.0800513
    12   6 C       31   1 H                                       1.0828013
    13   6 C       32   1 H                                       1.0929830
    13   6 C       33   1 H                                       1.0907309
    14   6 C       34   1 H                                       1.0920518
    14   6 C       35   1 H                                       1.0924019
    15   6 C       36   1 H                                       1.0874314
    15   6 C       37   1 H                                       1.0879607
    15   6 C       38   1 H                                       1.0872527
    17   8 O       39   1 H                                       0.9590612
    17   8 O       40   1 H                                       0.9728163
    41   8 O       42   1 H                                       0.9584053 (min)
    41   8 O       43   1 H                                       0.9797334
     9   6 C       44   7 N                                       1.4536028
    27   1 H       44   7 N                                       1.0079459
    45   6 C       46   8 O                                       1.2135668
    44   7 N       48   6 C                                       1.3432870
    48   6 C       49   8 O                                       1.2216448
    47   6 C       50   1 H                                       1.0871690
    47   6 C       51   1 H                                       1.0885228
    47   6 C       52   1 H                                       1.0861657
    28   1 H       53   7 N                                       1.0154542
    45   6 C       53   7 N                                       1.3417697
    53   7 N       54   6 C                                       1.4421569
    54   6 C       55   1 H                                       1.0909431
    54   6 C       56   1 H                                       1.0919829
    54   6 C       57   1 H                                       1.0889817

 * 6 distinct bonds (by element types)

   Z      Z             #   av. dist./Å        max./Å        min./Å
   1 H    6 C          22     1.0877566     1.0970873     1.0791881
   6 C    6 C          11     1.4308035     1.5351107     1.3350190
   1 H    7 N           4     1.0127759     1.0191403     1.0079459
   6 C    7 N           5     1.3918672     1.4536028     1.3417697
   1 H    8 O           4     0.9675041     0.9797334     0.9584053
   6 C    8 O           3     1.2178772     1.2216448     1.2135668


optimized geometry written to: xtbopt.xyz


           -------------------------------------------------
          | TOTAL ENERGY              -83.438995226811 Eh   |
          | GRADIENT NORM               0.000131452027 Eh/α |
          | HOMO-LUMO GAP               2.150728543578 eV   |
           -------------------------------------------------

------------------------------------------------------------------------
 * finished run on 2026/08/20 at 20:26:09.924     
------------------------------------------------------------------------
 total:
 * wall-time:     0 d,  0 h,  0 min, 13.419 sec
 *  cpu-time:     0 d,  0 h,  0 min, 27.641 sec
 * ratio c/w:     2.060 speedup
 SCF:
 * wall-time:     0 d,  0 h,  0 min,  0.116 sec
 *  cpu-time:     0 d,  0 h,  0 min,  0.172 sec
 * ratio c/w:     1.482 speedup
 ANC optimizer:
 * wall-time:     0 d,  0 h,  0 min, 13.279 sec
 *  cpu-time:     0 d,  0 h,  0 min, 27.438 sec
 * ratio c/w:     2.066 speedup



===== STDERR =====

normal termination of xtb
