      -----------------------------------------------------------      
     |                   =====================                   |     
     |                           x T B                           |     
     |                   =====================                   |     
     |                         S. Grimme                         |     
     |          Mulliken Center for Theoretical Chemistry        |     
     |                    University of Bonn                     |     
      -----------------------------------------------------------      

   * xtb version 6.7.1pre (5071a88) compiled by 'Marcel@Raven' on 2024-07-23

   xtb is free software: you can redistribute it and/or modify it under
   the terms of the GNU Lesser General Public License as published by
   the Free Software Foundation, either version 3 of the License, or
   (at your option) any later version.
   
   xtb is distributed in the hope that it will be useful,
   but WITHOUT ANY WARRANTY; without even the implied warranty of
   MERCHANTABILITY or FITNESS FOR A PARTICULAR PURPOSE.  See the
   GNU Lesser General Public License for more details.
   
   Cite this work as:
   * C. Bannwarth, E. Caldeweyher, S. Ehlert, A. Hansen, P. Pracht,
     J. Seibert, S. Spicher, S. Grimme, WIREs Comput. Mol. Sci., 2020, 11,
     e01493. DOI: 10.1002/wcms.1493
   
   for GFN2-xTB:
   * C. Bannwarth, S. Ehlert and S. Grimme., J. Chem. Theory Comput., 2019,
     15, 1652-1671. DOI: 10.1021/acs.jctc.8b01176
   for GFN1-xTB:
   * S. Grimme, C. Bannwarth, P. Shushkov, J. Chem. Theory Comput., 2017,
     13, 1989-2009. DOI: 10.1021/acs.jctc.7b00118
   for GFN0-xTB:
   * P. Pracht, E. Caldeweyher, S. Ehlert, S. Grimme, ChemRxiv, 2019, preprint.
     DOI: 10.26434/chemrxiv.8326202.v1
   for GFN-FF:
   * S. Spicher and S. Grimme, Angew. Chem. Int. Ed., 2020, 59, 15665-15673.
     DOI: 10.1002/anie.202004239
   
   for ALPB and GBSA implicit solvation:
   * S. Ehlert, M. Stahn, S. Spicher, S. Grimme, J. Chem. Theory Comput.,
     2021, 17, 4250-4261. DOI: 10.1021/acs.jctc.1c00471
   
   for ddCOSMO and CPCM-X implicit solvation:
   * M. Stahn, S. Ehlert, S. Grimme, J. Phys. Chem. A,
     2023, XX, XXXX-XXXX. DOI: 10.1021/acs.jpca.3c04382
   
   for DFT-D4:
   * E. Caldeweyher, C. Bannwarth and S. Grimme, J. Chem. Phys., 2017,
     147, 034112. DOI: 10.1063/1.4993215
   * E. Caldeweyher, S. Ehlert, A. Hansen, H. Neugebauer, S. Spicher,
     C. Bannwarth and S. Grimme, J. Chem. Phys., 2019, 150, 154122.
     DOI: 10.1063/1.5090222
   * E. Caldeweyher, J.-M. Mewes, S. Ehlert and S. Grimme, Phys. Chem. Chem. Phys.
     2020, 22, 8499-8512. DOI: 10.1039/D0CP00502A
   
   for sTDA-xTB:
   * S. Grimme and C. Bannwarth, J. Chem. Phys., 2016, 145, 054103.
     DOI: 10.1063/1.4959605
   
   in the mass-spec context:
   * V. Asgeirsson, C. Bauer and S. Grimme, Chem. Sci., 2017, 8, 4879.
     DOI: 10.1039/c7sc00601b
   * J. Koopman and S. Grimme, ACS Omega 2019, 4, 12, 15120-15133.
     DOI: 10.1021/acsomega.9b02011
   
   for metadynamics refer to:
   * S. Grimme, J. Chem. Theory Comput., 2019, 155, 2847-2862
     DOI: 10.1021/acs.jctc.9b00143
   
   for SPH calculations refer to:
   * S. Spicher and S. Grimme, J. Chem. Theory Comput., 2021, 17, 1701-1714
     DOI: 10.1021/acs.jctc.0c01306
   
   for ONIOM refer to:
   * C. Plett, A. Katbashev, S. Ehlert, S. Grimme, M. Bursch,
     Phys. Chem. Chem. Phys., 2023, 25, 17860-17868. DOI: 10.1039/D3CP02178E
   
   for DIPRO refer to:
   * J. Kohn, N. Gildemeister, S. Grimme, D. Fazzi, A. Hansen,
     J. Chem. Phys., 2023, just accepted.
   
   for PTB refer to:
   * S. Grimme, M. Mueller, A. Hansen, J. Chem. Phys., 2023, 158, 124111.
     DOI: 10.1063/5.0137838
   
   with help from (in alphabetical order)
   P. Atkinson, C. Bannwarth, F. Bohle, G. Brandenburg, E. Caldeweyher
   M. Checinski, S. Dohm, S. Ehlert, S. Ehrlich, I. Gerasimov, C. Hölzer
   A. Katbashev, J. Kohn, J. Koopman, C. Lavigne, S. Lehtola, F. März, M. Müller,
   F. Musil, H. Neugebauer, J. Pisarek, C. Plett, P. Pracht, F. Pultar,
   J. Seibert, P. Shushkov, S. Spicher, M. Stahn, M. Steiner, T. Strunk,
   J. Stückrath, T. Rose, and J. Unsleber
   
 * started run on 2026/08/20 at 20:26:25.108     
   ID    Z sym.   atoms
    1    7 N      1, 44, 53
    2    6 C      2-15, 45, 47, 48, 54
    3    8 O      16, 17, 41, 46, 49
    4    1 H      18-40, 42, 43, 50-52, 55-57

           -------------------------------------------------
          |                Calculation Setup                |
           -------------------------------------------------

          program call               : C:\Users\Nayanika\Downloads\xtb-6.7.1pre-windows-x86_64\xtb-6.7.1\bin\xtb.exe D:\PhD_Thesis\LmrR_EVB\charges\fast_lmrr_5QM\xtb_preparation\stage2_five_xtb_protocols\GFN2_tight\RS1_1_to_TS1_2\RS1_1_to_TS1_2_PS_xtbopt.xyz --gfn 2 --chrg 0 --uhf 0 --hess --etemp 0
          coordinate file            : D:\PhD_Thesis\LmrR_EVB\charges\fast_lmrr_5QM\xtb_preparation\stage2_five_xtb_protocols\GFN2_tight\RS1_1_to_TS1_2\RS1_1_to_TS1_2_PS_xtbopt.xyz
          omp threads                :                     8


molecular fragmentation (1/2 indicates fragments):
111111111222222221111111111122222222222222211111111111111
# atoms in fragment 1/2:    34    23
 fragment masses (1/2) :      235.28      134.17
CMA distance (Bohr)    :   9.692
constraining FC (au)   :  0.0500

           -------------------------------------------------
          |                 G F N 2 - x T B                 |
           -------------------------------------------------

        Reference                      10.1021/acs.jctc.8b01176
      * Hamiltonian:
        H0-scaling (s, p, d)           1.850000    2.230000    2.230000
        zeta-weighting                 0.500000
      * Dispersion:
        s8                             2.700000
        a1                             0.520000
        a2                             5.000000
        s9                             5.000000
      * Repulsion:
        kExp                           1.500000    1.000000
        rExp                           1.000000
      * Coulomb:
        alpha                          2.000000
        third order                    shell-resolved
        anisotropic                    true
        a3                             3.000000
        a5                             4.000000
        cn-shift                       1.200000
        cn-exp                         4.000000
        max-rad                        5.000000

q/qsh data taken from xtbrestart
CAMM data taken from xtbrestart

          ...................................................
          :                      SETUP                      :
          :.................................................:
          :  # basis functions                 135          :
          :  # atomic orbitals                 135          :
          :  # shells                           83          :
          :  # electrons                       148          :
          :  max. iterations                   250          :
          :  Hamiltonian                  GFN2-xTB          :
          :  restarted?                       true          :
          :  GBSA solvation                  false          :
          :  PC potential                    false          :
          :  electronic temp.            0.0000000     K    :
          :  accuracy                    1.0000000          :
          :  -> integral cutoff          0.2500000E+02      :
          :  -> integral neglect         0.1000000E-07      :
          :  -> SCF convergence          0.1000000E-05 Eh   :
          :  -> wf. convergence          0.1000000E-03 e    :
          :  Broyden damping             0.4000000          :
          :  net charge                          0          :
          :  unpaired electrons                  0          :
          ...................................................

 iter      E             dE          RMSdq      gap      omega  full diag
   1    -84.5401471 -0.845401E+02  0.875E-07    2.25       0.0  T
   2    -84.5401471  0.000000E+00  0.587E-07    2.25   22571.9  T
   3    -84.5401471  0.852651E-13  0.295E-07    2.25   44957.5  T

   *** convergence criteria satisfied after 3 iterations ***

         #    Occupation            Energy/Eh            Energy/eV
      -------------------------------------------------------------
         1        2.0000           -0.7127490             -19.3949
       ...           ...                  ...                  ...
        68        2.0000           -0.4184027             -11.3853
        69        2.0000           -0.4110642             -11.1856
        70        2.0000           -0.4083106             -11.1107
        71        2.0000           -0.4009562             -10.9106
        72        2.0000           -0.4001394             -10.8883
        73        2.0000           -0.3882059             -10.5636
        74        2.0000           -0.3684014             -10.0247 (HOMO)
        75                         -0.2858693              -7.7789 (LUMO)
        76                         -0.2260931              -6.1523
        77                         -0.2235440              -6.0829
        78                         -0.2166523              -5.8954
        79                         -0.2089586              -5.6861
       ...                                ...                  ...
       135                          0.6566889              17.8694
      -------------------------------------------------------------
                  HL-Gap            0.0825322 Eh            2.2458 eV
             Fermi-level            0.0000000 Eh            0.0000 eV

 SCC (total)                   0 d,  0 h,  0 min,  0.042 sec
 SCC setup                      ...        0 min,  0.000 sec (  0.000%)
 Dispersion                     ...        0 min,  0.002 sec (  4.762%)
 classical contributions        ...        0 min,  0.000 sec (  0.000%)
 integral evaluation            ...        0 min,  0.003 sec (  7.143%)
 iterations                     ...        0 min,  0.028 sec ( 66.667%)
 molecular gradient             ...        0 min,  0.008 sec ( 19.047%)
 printout                       ...        0 min,  0.001 sec (  2.381%)

         :::::::::::::::::::::::::::::::::::::::::::::::::::::
         ::                     SUMMARY                     ::
         :::::::::::::::::::::::::::::::::::::::::::::::::::::
         :: total energy             -83.437279487034 Eh    ::
         :: gradient norm              0.000255419056 Eh/a0 ::
         :: HOMO-LUMO gap              2.245814197098 eV    ::
         ::.................................................::
         :: SCC energy               -84.538291645117 Eh    ::
         :: -> isotropic ES            0.177557615936 Eh    ::
         :: -> anisotropic ES         -0.001978293571 Eh    ::
         :: -> anisotropic XC          0.029689723407 Eh    ::
         :: -> dispersion             -0.057653618076 Eh    ::
         :: repulsion energy           1.101012158083 Eh    ::
         :: add. restraining           0.000000000000 Eh    ::
         :: total charge               0.000000000000 e     ::
         :::::::::::::::::::::::::::::::::::::::::::::::::::::

           ------------------------------------------------- 
          |                Numerical Hessian                |
           ------------------------------------------------- 
step length          :   0.00500
SCC accuracy         :   0.30000
Hessian scale factor :   1.00000
frozen atoms in %    :   0.00000    0
RMS gradient         :   0.00026
estimated CPU  time      4.40 min
estimated wall time      0.62 min

writing file <hessian>.

 projected vibrational frequencies (cm⁻¹)
eigval :       -0.00    -0.00     0.00     0.00     0.00     0.00
eigval :       13.11    17.66    23.98    25.05    34.02    39.34
eigval :       53.16    54.70    60.38    63.73    64.82    70.06
eigval :       77.61    83.67    84.71    95.94   102.87   108.48
eigval :      119.14   125.27   131.88   142.54   157.93   159.19
eigval :      171.89   176.81   194.48   201.16   234.44   239.00
eigval :      247.12   261.38   290.70   295.04   301.51   323.25
eigval :      345.03   354.62   376.98   382.39   389.39   392.91
eigval :      409.04   415.50   446.50   452.09   477.02   491.21
eigval :      527.13   533.29   566.15   578.75   601.81   614.27
eigval :      617.37   639.99   672.04   689.96   720.06   728.07
eigval :      764.36   771.44   792.33   803.48   809.09   862.74
eigval :      871.69   882.42   893.95   906.83   920.91   924.63
eigval :      930.12   938.97   976.62   992.00   995.21  1001.87
eigval :     1010.41  1015.04  1018.76  1037.30  1073.59  1078.42
eigval :     1089.63  1104.62  1108.68  1118.16  1130.16  1144.07
eigval :     1156.68  1163.92  1195.96  1208.27  1218.41  1220.45
eigval :     1222.14  1241.61  1254.15  1266.24  1280.63  1283.78
eigval :     1285.97  1295.26  1313.38  1320.98  1342.42  1347.09
eigval :     1374.81  1383.27  1393.12  1419.94  1423.90  1428.48
eigval :     1433.77  1455.55  1462.50  1465.10  1476.60  1477.48
eigval :     1484.26  1486.21  1496.29  1500.74  1504.63  1515.72
eigval :     1550.00  1559.67  1577.27  1615.05  1637.58  1677.89
eigval :     1709.63  1759.39  2807.13  2918.79  2960.42  2970.27
eigval :     2970.37  2982.82  2989.65  2991.48  3000.32  3001.39
eigval :     3020.44  3032.91  3033.08  3033.96  3038.39  3052.16
eigval :     3058.32  3060.61  3063.79  3075.23  3080.43  3082.94
eigval :     3088.31  3334.20  3369.86  3399.11  3442.28  3456.25
eigval :     3543.94  3577.93  3663.16
           -------------------------------------------------
          |                Property Printout                |
           -------------------------------------------------

    * Orbital Energies and Occupations

         #    Occupation            Energy/Eh            Energy/eV
      -------------------------------------------------------------
         1        2.0000           -0.7127490             -19.3949
       ...           ...                  ...                  ...
        62        2.0000           -0.4407177             -11.9925
        63        2.0000           -0.4378459             -11.9144
        64        2.0000           -0.4346220             -11.8267
        65        2.0000           -0.4294954             -11.6872
        66        2.0000           -0.4261873             -11.5971
        67        2.0000           -0.4227512             -11.5036
        68        2.0000           -0.4184027             -11.3853
        69        2.0000           -0.4110642             -11.1856
        70        2.0000           -0.4083106             -11.1107
        71        2.0000           -0.4009562             -10.9106
        72        2.0000           -0.4001394             -10.8883
        73        2.0000           -0.3882059             -10.5636
        74        2.0000           -0.3684014             -10.0247 (HOMO)
        75                         -0.2858693              -7.7789 (LUMO)
        76                         -0.2260931              -6.1523
        77                         -0.2235440              -6.0829
        78                         -0.2166523              -5.8954
        79                         -0.2089586              -5.6861
        80                         -0.1713908              -4.6638
        81                         -0.0941382              -2.5616
        82                         -0.0025671              -0.0699
        83                          0.0058937               0.1604
        84                          0.0174597               0.4751
        85                          0.0730232               1.9871
       ...                                ...                  ...
       135                          0.6566889              17.8694
      -------------------------------------------------------------
                  HL-Gap            0.0825322 Eh            2.2458 eV
             Fermi-level            0.0000000 Eh            0.0000 eV

     #   Z          covCN         q      C6AA      α(0)
     1   7 N        2.653    -0.266    26.892     7.702
     2   6 C        2.900     0.075    26.313     8.411
     3   6 C        2.923    -0.059    29.464     8.902
     4   6 C        2.924    -0.038    28.948     8.823
     5   6 C        2.970    -0.004    28.124     8.699
     6   6 C        2.924    -0.043    29.070     8.842
     7   6 C        2.922    -0.062    29.537     8.912
     8   6 C        3.811    -0.070    21.826     6.650
     9   6 C        3.797     0.020    20.246     6.407
    10   6 C        2.778     0.209    23.571     7.952
    11   6 C        2.890    -0.065    29.611     8.922
    12   6 C        2.896    -0.003    28.104     8.692
    13   6 C        3.808    -0.061    21.676     6.628
    14   6 C        3.802    -0.045    21.386     6.584
    15   6 C        3.753    -0.111    22.676     6.791
    16   8 O        0.856    -0.431    22.305     6.332
    17   8 O        1.610    -0.600    25.186     6.773
    18   1 H        0.860     0.199     1.110     1.650
    19   1 H        0.860     0.197     1.120     1.658
    20   1 H        0.926     0.032     2.555     2.500
    21   1 H        0.926     0.032     2.558     2.501
    22   1 H        0.925     0.027     2.634     2.538
    23   1 H        0.926     0.031     2.573     2.509
    24   1 H        0.924     0.062     2.180     2.309
    25   1 H        0.924     0.058     2.217     2.328
    26   1 H        0.924     0.062     2.172     2.305
    27   1 H        0.860     0.181     1.207     1.721
    28   1 H        0.860     0.204     1.087     1.633
    29   1 H        0.923     0.015     2.808     2.621
    30   1 H        0.926     0.037     2.489     2.467
    31   1 H        0.925     0.062     2.177     2.308
    32   1 H        0.924     0.053     2.281     2.362
    33   1 H        0.924     0.048     2.350     2.397
    34   1 H        0.924     0.030     2.588     2.516
    35   1 H        0.924     0.032     2.555     2.500
    36   1 H        0.925     0.035     2.514     2.479
    37   1 H        0.925     0.034     2.528     2.486
    38   1 H        0.925     0.062     2.173     2.305
    39   1 H        0.805     0.294     0.740     1.351
    40   1 H        0.805     0.298     0.727     1.339
    41   8 O        1.609    -0.608    25.370     6.798
    42   1 H        0.806     0.277     0.796     1.401
    43   1 H        0.804     0.320     0.664     1.280
    44   7 N        2.692    -0.181    24.917     7.414
    45   6 C        2.753     0.264    22.556     7.777
    46   8 O        0.858    -0.433    22.361     6.340
    47   6 C        3.757    -0.141    23.276     6.879
    48   6 C        2.749     0.277    22.312     7.735
    49   8 O        0.859    -0.462    22.963     6.425
    50   1 H        0.925     0.052     2.298     2.371
    51   1 H        0.925     0.064     2.157     2.297
    52   1 H        0.925     0.075     2.035     2.231
    53   7 N        2.686    -0.176    24.818     7.399
    54   6 C        3.690    -0.043    21.530     6.640
    55   1 H        0.924     0.053     2.284     2.363
    56   1 H        0.924     0.049     2.327     2.385
    57   1 H        0.925     0.083     1.949     2.183

 Mol. C6AA /au·bohr⁶  :      29533.164483
 Mol. C8AA /au·bohr⁸  :     657683.052168
 Mol. α(0) /au        :        262.720868


Wiberg/Mayer (AO) data.
largest (>0.10) Wiberg bond orders for each atom

 ---------------------------------------------------------------------------
     #   Z sym  total        # sym  WBO       # sym  WBO       # sym  WBO
 ---------------------------------------------------------------------------
     1   7 N    3.369 --     2 C    1.150    18 H    0.930    19 H    0.929
                            10 C    0.116
     2   6 C    3.971 --     7 C    1.351     3 C    1.341     1 N    1.150
     3   6 C    3.989 --     4 C    1.472     2 C    1.341    20 H    0.968
                             6 C    0.101
     4   6 C    3.992 --     3 C    1.472     5 C    1.395    21 H    0.969
                             7 C    0.103
     5   6 C    3.982 --     6 C    1.405     4 C    1.395     8 C    1.009
     6   6 C    3.991 --     7 C    1.458     5 C    1.405    22 H    0.968
                             3 C    0.101
     7   6 C    3.987 --     6 C    1.458     2 C    1.351    23 H    0.969
                             4 C    0.103
     8   6 C    3.990 --     5 C    1.009     9 C    0.982    24 H    0.970
                            25 H    0.965
     9   6 C    3.962 --     8 C    0.982    44 N    0.973    26 H    0.952
                            45 C    0.914
    10   6 C    3.930 --    16 O    1.697    11 C    1.092    29 H    0.939
                             1 N    0.116
    11   6 C    3.989 --    12 C    1.812    10 C    1.092    30 H    0.964
    12   6 C    3.980 --    11 C    1.812    13 C    1.045    31 H    0.962
    13   6 C    3.996 --    12 C    1.045    14 C    0.975    33 H    0.972
                            32 H    0.957
    14   6 C    3.994 --    15 C    1.018    34 H    0.980    35 H    0.979
                            13 C    0.975
    15   6 C    3.993 --    14 C    1.018    37 H    0.988    36 H    0.986
                            38 H    0.981
    16   8 O    2.011 --    10 C    1.697
    17   8 O    1.834 --    39 H    0.901    40 H    0.895
    18   1 H    0.960 --     1 N    0.930
    19   1 H    0.961 --     1 N    0.929
    20   1 H    0.999 --     3 C    0.968
    21   1 H    0.999 --     4 C    0.969
    22   1 H    0.999 --     6 C    0.968
    23   1 H    0.999 --     7 C    0.969
    24   1 H    0.996 --     8 C    0.970
    25   1 H    0.995 --     8 C    0.965
    26   1 H    0.996 --     9 C    0.952
    27   1 H    0.967 --    44 N    0.934
    28   1 H    0.958 --    53 N    0.909
    29   1 H    0.999 --    10 C    0.939
    30   1 H    0.999 --    11 C    0.964
    31   1 H    0.996 --    12 C    0.962
    32   1 H    0.997 --    13 C    0.957
    33   1 H    0.998 --    13 C    0.972
    34   1 H    0.999 --    14 C    0.980
    35   1 H    0.999 --    14 C    0.979
    36   1 H    0.997 --    15 C    0.986
    37   1 H    0.999 --    15 C    0.988
    38   1 H    0.996 --    15 C    0.981
    39   1 H    0.914 --    17 O    0.901
    40   1 H    0.911 --    17 O    0.895
    41   8 O    1.829 --    42 H    0.919    43 H    0.854
    42   1 H    0.923 --    41 O    0.919
    43   1 H    0.897 --    41 O    0.854
    44   7 N    3.458 --    48 C    1.278     9 C    0.973    27 H    0.934
                            49 O    0.192
    45   6 C    3.956 --    46 O    1.681    53 N    1.289     9 C    0.914
    46   8 O    2.013 --    45 C    1.681    53 N    0.212
    47   6 C    3.993 --    48 C    0.985    52 H    0.981    50 H    0.975
                            51 H    0.964
    48   6 C    3.950 --    49 O    1.636    44 N    1.278    47 C    0.985
    49   8 O    1.984 --    48 C    1.636    44 N    0.192
    50   1 H    0.997 --    47 C    0.975
    51   1 H    0.996 --    47 C    0.964
    52   1 H    0.994 --    47 C    0.981
    53   7 N    3.465 --    45 C    1.289    54 C    1.005    28 H    0.909
                            46 O    0.212
    54   6 C    3.965 --    53 N    1.005    55 H    0.977    57 H    0.977
                            56 H    0.976
    55   1 H    0.997 --    54 C    0.977
    56   1 H    0.997 --    54 C    0.976
    57   1 H    0.993 --    54 C    0.977
 ---------------------------------------------------------------------------

Topologies differ in total number of bonds
Writing topology from bond orders to xtbtopo.mol

molecular dipole:
                 x           y           z       tot (Debye)
 q only:        0.156       1.012      -0.342
   full:       -0.260       1.171      -0.522       3.324
molecular quadrupole (traceless):
                xx          xy          yy          xz          yz          zz
 q only:      -16.931       5.770       5.268     -10.306       1.203      11.664
  q+dip:      -24.614       0.647       6.579     -14.682       7.166      18.036
   full:      -25.683       0.882       5.569     -14.055       3.799      20.114

           -------------------------------------------------
          |               Frequency Printout                |
           -------------------------------------------------
 projected vibrational frequencies (cm⁻¹)
eigval :       -0.00    -0.00     0.00     0.00     0.00     0.00
eigval :       13.11    17.66    23.98    25.05    34.02    39.34
eigval :       53.16    54.70    60.38    63.73    64.82    70.06
eigval :       77.61    83.67    84.71    95.94   102.87   108.48
eigval :      119.14   125.27   131.88   142.54   157.93   159.19
eigval :      171.89   176.81   194.48   201.16   234.44   239.00
eigval :      247.12   261.38   290.70   295.04   301.51   323.25
eigval :      345.03   354.62   376.98   382.39   389.39   392.91
eigval :      409.04   415.50   446.50   452.09   477.02   491.21
eigval :      527.13   533.29   566.15   578.75   601.81   614.27
eigval :      617.37   639.99   672.04   689.96   720.06   728.07
eigval :      764.36   771.44   792.33   803.48   809.09   862.74
eigval :      871.69   882.42   893.95   906.83   920.91   924.63
eigval :      930.12   938.97   976.62   992.00   995.21  1001.87
eigval :     1010.41  1015.04  1018.76  1037.30  1073.59  1078.42
eigval :     1089.63  1104.62  1108.68  1118.16  1130.16  1144.07
eigval :     1156.68  1163.92  1195.96  1208.27  1218.41  1220.45
eigval :     1222.14  1241.61  1254.15  1266.24  1280.63  1283.78
eigval :     1285.97  1295.26  1313.38  1320.98  1342.42  1347.09
eigval :     1374.81  1383.27  1393.12  1419.94  1423.90  1428.48
eigval :     1433.77  1455.55  1462.50  1465.10  1476.60  1477.48
eigval :     1484.26  1486.21  1496.29  1500.74  1504.63  1515.72
eigval :     1550.00  1559.67  1577.27  1615.05  1637.58  1677.89
eigval :     1709.63  1759.39  2807.13  2918.79  2960.42  2970.27
eigval :     2970.37  2982.82  2989.65  2991.48  3000.32  3001.39
eigval :     3020.44  3032.91  3033.08  3033.96  3038.39  3052.16
eigval :     3058.32  3060.61  3063.79  3075.23  3080.43  3082.94
eigval :     3088.31  3334.20  3369.86  3399.11  3442.28  3456.25
eigval :     3543.94  3577.93  3663.16
 reduced masses (amu)
   1: 12.11   2: 12.56   3: 12.61   4: 11.22   5: 12.08   6: 12.47   7: 11.17   8: 12.46
   9: 12.86  10: 11.52  11: 11.38  12: 12.15  13: 10.10  14: 12.41  15:  9.91  16:  8.66
  17:  8.65  18: 10.05  19: 11.39  20:  8.67  21: 10.68  22: 11.76  23: 11.86  24:  8.98
  25: 11.60  26:  2.26  27: 11.20  28: 10.70  29:  9.55  30:  9.55  31: 11.40  32: 10.93
  33: 11.56  34: 11.48  35: 11.40  36: 12.00  37:  3.16  38:  2.05  39: 12.05  40:  9.31
  41:  9.89  42: 10.64  43:  9.02  44: 10.80  45:  8.27  46:  3.90  47:  5.48  48:  5.70
  49:  8.33  50:  9.72  51:  4.54  52:  9.52  53: 10.16  54: 10.77  55:  4.07  56:  8.24
  57:  2.52  58:  8.04  59: 10.00  60: 11.09  61:  2.15  62:  7.99  63:  9.74  64:  8.23
  65:  9.81  66: 11.43  67:  6.36  68:  7.40  69:  2.45  70:  5.85  71:  5.56  72:  3.35
  73:  8.38  74: 10.31  75:  3.73  76:  2.79  77:  4.19  78:  5.06  79:  8.55  80:  6.11
  81: 10.90  82:  5.65  83:  6.40  84:  5.31  85:  2.49  86:  4.17  87:  7.93  88:  8.26
  89:  5.45  90:  6.86  91:  8.81  92:  3.85  93:  7.24  94:  7.92  95:  7.29  96:  3.66
  97:  8.46  98:  5.98  99:  1.79 100:  5.29 101:  4.69 102:  5.02 103:  5.87 104:  3.39
 105:  4.57 106:  2.43 107:  4.26 108:  3.94 109:  3.45 110:  3.80 111:  6.63 112:  9.18
 113: 10.84 114:  4.86 115:  3.28 116:  3.32 117:  2.62 118:  3.43 119:  9.71 120:  9.73
 121:  8.62 122:  1.68 123:  1.57 124:  1.67 125:  2.11 126:  2.14 127:  2.47 128:  4.46
 129:  1.85 130:  1.52 131:  1.65 132:  8.59 133:  2.15 134:  2.70 135: 11.52 136: 11.56
 137: 12.12 138: 11.90 139: 13.12 140: 13.20 141:  1.71 142:  1.74 143:  1.84 144:  1.86
 145:  1.89 146:  1.53 147:  1.97 148:  1.49 149:  1.51 150:  1.69 151:  1.79 152:  1.73
 153:  1.87 154:  1.62 155:  1.59 156:  1.70 157:  1.81 158:  1.79 159:  1.75 160:  1.78
 161:  1.86 162:  1.83 163:  1.88 164:  1.88 165:  1.86 166:  1.56 167:  2.09 168:  1.85
 169:  2.02 170:  1.68 171:  1.84
 IR intensities (km·mol⁻¹)
   1:  0.02   2:  0.06   3:  0.03   4:  0.26   5:  0.04   6:  0.04   7:  0.28   8:  0.77
   9:  1.50  10:  0.25  11:  1.28  12:  3.75  13:  2.55  14:  8.95  15:  0.42  16:  0.88
  17:  4.61  18:  1.35  19:  3.26  20:  4.30  21:  4.24  22:  8.31  23:  9.80  24: 12.48
  25: 10.60  26:  0.90  27: 12.37  28: 29.87  29: 38.24  30: 21.23  31: 29.33  32:  3.79
  33: 11.70  34: 26.93  35: 13.30  36:  3.76  37: 45.15  38:  0.39  39:  6.26  40: 14.69
  41:  2.27  42:  8.93  43: 32.42  44: 27.43  45:  5.84  46:  1.39  47: 56.22  48: 44.05
  49: 39.21  50: 14.25  51:155.24  52:  4.99  53: 22.60  54:  3.67  55:527.38  56:117.65
  57: 93.29  58:  5.69  59: 38.45  60:  3.44  61:169.02  62: 65.31  63: 19.58  64: 16.51
  65: 46.00  66:  9.92  67:  6.74  68: 60.88  69: 18.00  70: 73.61  71: 90.96  72:  0.52
  73:  2.80  74:  1.86  75:  7.75  76:  0.22  77:  0.43  78: 54.36  79:  2.99  80:  3.68
  81: 20.23  82:  4.06  83: 25.56  84: 22.48  85: 21.75  86:  0.76  87:  0.21  88: 23.42
  89:  7.25  90: 19.71  91:  0.03  92:  0.53  93: 13.90  94: 28.87  95: 22.09  96:  1.50
  97:  1.01  98:  1.23  99:  4.65 100:  3.05 101:  7.64 102:  1.28 103:  9.49 104: 10.32
 105: 35.38 106:  0.82 107: 15.69 108:  6.82 109:  1.61 110:  1.24 111: 23.42 112: 23.74
 113:  7.15 114:  7.89 115: 19.85 116: 27.56 117:  2.95 118: 10.89 119:195.32 120: 19.75
 121:224.85 122:  3.90 123: 10.50 124:  8.86 125:  3.24 126:  0.55 127: 27.25 128: 16.75
 129:  0.72 130:  4.52 131:  3.15 132:237.31 133:167.08 134:204.04 135:  3.49 136: 17.49
 137:569.18 138:162.21 139:318.10 140:563.71 141: 90.27 142: 13.84 143:  4.03 144: 20.66
 145: 54.69 146: 31.91 147: 15.59 148: 42.70 149: 22.12 150: 19.69 151:  9.92 152:  8.08
 153: 48.04 154:  8.13 155: 46.91 156:  3.56 157: 11.25 158: 31.83 159:  6.18 160: 18.19
 161: 51.03 162: 37.45 163: 27.53 164:111.93 165:240.56 166:162.85 167: 49.64 168: 16.19
 169:104.68 170: 51.25 171:  8.68
 Raman intensities (Ä⁴*amu⁻¹)
   1:  0.00   2:  0.00   3:  0.00   4:  0.00   5:  0.00   6:  0.00   7:  0.00   8:  0.00
   9:  0.00  10:  0.00  11:  0.00  12:  0.00  13:  0.00  14:  0.00  15:  0.00  16:  0.00
  17:  0.00  18:  0.00  19:  0.00  20:  0.00  21:  0.00  22:  0.00  23:  0.00  24:  0.00
  25:  0.00  26:  0.00  27:  0.00  28:  0.00  29:  0.00  30:  0.00  31:  0.00  32:  0.00
  33:  0.00  34:  0.00  35:  0.00  36:  0.00  37:  0.00  38:  0.00  39:  0.00  40:  0.00
  41:  0.00  42:  0.00  43:  0.00  44:  0.00  45:  0.00  46:  0.00  47:  0.00  48:  0.00
  49:  0.00  50:  0.00  51:  0.00  52:  0.00  53:  0.00  54:  0.00  55:  0.00  56:  0.00
  57:  0.00  58:  0.00  59:  0.00  60:  0.00  61:  0.00  62:  0.00  63:  0.00  64:  0.00
  65:  0.00  66:  0.00  67:  0.00  68:  0.00  69:  0.00  70:  0.00  71:  0.00  72:  0.00
  73:  0.00  74:  0.00  75:  0.00  76:  0.00  77:  0.00  78:  0.00  79:  0.00  80:  0.00
  81:  0.00  82:  0.00  83:  0.00  84:  0.00  85:  0.00  86:  0.00  87:  0.00  88:  0.00
  89:  0.00  90:  0.00  91:  0.00  92:  0.00  93:  0.00  94:  0.00  95:  0.00  96:  0.00
  97:  0.00  98:  0.00  99:  0.00 100:  0.00 101:  0.00 102:  0.00 103:  0.00 104:  0.00
 105:  0.00 106:  0.00 107:  0.00 108:  0.00 109:  0.00 110:  0.00 111:  0.00 112:  0.00
 113:  0.00 114:  0.00 115:  0.00 116:  0.00 117:  0.00 118:  0.00 119:  0.00 120:  0.00
 121:  0.00 122:  0.00 123:  0.00 124:  0.00 125:  0.00 126:  0.00 127:  0.00 128:  0.00
 129:  0.00 130:  0.00 131:  0.00 132:  0.00 133:  0.00 134:  0.00 135:  0.00 136:  0.00
 137:  0.00 138:  0.00 139:  0.00 140:  0.00 141:  0.00 142:  0.00 143:  0.00 144:  0.00
 145:  0.00 146:  0.00 147:  0.00 148:  0.00 149:  0.00 150:  0.00 151:  0.00 152:  0.00
 153:  0.00 154:  0.00 155:  0.00 156:  0.00 157:  0.00 158:  0.00 159:  0.00 160:  0.00
 161:  0.00 162:  0.00 163:  0.00 164:  0.00 165:  0.00 166:  0.00 167:  0.00 168:  0.00
 169:  0.00 170:  0.00 171:  0.00
 output can be read by thermo (or use thermo option).
 writing <g98.out> molden fake output.
 recommended (thermochemical) frequency scaling factor: 1.0
           -------------------------------------------------
          |             Thermodynamic Functions             |
           -------------------------------------------------

Refinement of some symmetry elements was terminated before convergence was reached.
Some symmetry elements may remain unidentified.
Molecule has no symmetry elements
It seems to be the C1 point group
c1  symmetry found (for desy threshold:  0.10E+00) used in thermo

          ...................................................
          :                      SETUP                      :
          :.................................................:
          :  # frequencies                         165      :
          :  # imaginary freq.                       0      :
          :  linear?                             false      :
          :  only rotor calc.                    false      :
          :  symmetry                               c1      :
          :  rotational number                       1      :
          :  scaling factor                  1.0000000      :
          :  rotor cutoff                   50.0000000 cm⁻¹ :
          :  imag. cutoff                  -20.0000000 cm⁻¹ :
          :.................................................:

    mode    ω/cm⁻¹     T·S(HO)/kcal·mol⁻¹    T·S(FR)/kcal·mol⁻¹   T·S(vib)
   ------------------------------------------------------------------------
       1     13.11    -2.22809 (  0.47%)    -1.45301 ( 99.53%)    -1.45666
       2     17.66    -2.05179 (  1.53%)    -1.36485 ( 98.47%)    -1.37537
       3     23.98    -1.87050 (  5.03%)    -1.27415 ( 94.97%)    -1.30413
       4     25.05    -1.84476 (  5.93%)    -1.26127 ( 94.07%)    -1.29584
       5     34.02    -1.66368 ( 17.65%)    -1.17059 ( 82.35%)    -1.25762
       6     39.34    -1.57786 ( 27.70%)    -1.12757 ( 72.30%)    -1.25230
       7     53.16    -1.40017 ( 56.10%)    -1.03837 ( 43.90%)    -1.24134
       8     54.70    -1.38332 ( 58.89%)    -1.02989 ( 41.11%)    -1.23804
       9     60.38    -1.32519 ( 68.02%)    -1.00064 ( 31.98%)    -1.22139
      10     63.73    -1.29346 ( 72.52%)    -0.98467 ( 27.48%)    -1.20860
      11     64.82    -1.28344 ( 73.86%)    -0.97961 ( 26.14%)    -1.20401
      12     70.06    -1.23785 ( 79.40%)    -0.95662 ( 20.60%)    -1.17991
      13     77.61    -1.17781 ( 85.31%)    -0.92628 ( 14.69%)    -1.14085
      14     83.67    -1.13380 ( 88.69%)    -0.90400 ( 11.31%)    -1.10782
      15     84.71    -1.12658 ( 89.18%)    -0.90034 ( 10.82%)    -1.10209
      16     95.94    -1.05401 ( 93.13%)    -0.86348 (  6.87%)    -1.04092
      17    102.87    -1.01346 ( 94.71%)    -0.84281 (  5.29%)    -1.00444
      18    108.48    -0.98269 ( 95.68%)    -0.82709 (  4.32%)    -0.97597
      19    119.14    -0.92852 ( 96.99%)    -0.79932 (  3.01%)    -0.92463
      20    125.27    -0.89962 ( 97.53%)    -0.78445 (  2.47%)    -0.89677
      21    131.88    -0.87012 ( 97.98%)    -0.76922 (  2.02%)    -0.86808
      22    142.54    -0.82571 ( 98.51%)    -0.74619 (  1.49%)    -0.82452
      23    157.93    -0.76757 ( 99.01%)    -0.71583 (  0.99%)    -0.76705
      24    159.19    -0.76308 ( 99.04%)    -0.71347 (  0.96%)    -0.76261
      25    171.89    -0.71995 ( 99.29%)    -0.69074 (  0.71%)    -0.71974
      26    176.81    -0.70417 ( 99.36%)    -0.68237 (  0.64%)    -0.70403
      27    194.48    -0.65138 ( 99.56%)    -0.65416 (  0.44%)    -0.65139
      28    201.16    -0.63280 ( 99.62%)    -0.64415 (  0.38%)    -0.63285
      29    234.44    -0.54999 ( 99.79%)    -0.59880 (  0.21%)    -0.55009
      30    239.00    -0.53975 ( 99.81%)    -0.59309 (  0.19%)    -0.53985
      31    247.12    -0.52208 ( 99.83%)    -0.58320 (  0.17%)    -0.52218
      32    261.38    -0.49271 ( 99.87%)    -0.56658 (  0.13%)    -0.49281
      33    290.70    -0.43824 ( 99.91%)    -0.53508 (  0.09%)    -0.43833
      34    295.04    -0.43079 ( 99.92%)    -0.53069 (  0.08%)    -0.43087
   ------------------------------------------------------------------------

   temp. (K)  partition function   enthalpy   heat capacity  entropy
                                   cal/mol     cal/K/mol   cal/K/mol   J/K/mol
 298.15  VIB  0.147E+18            19966.102    107.506    131.937
         ROT  0.159E+08              888.752      2.981     35.937
         INT  0.235E+25            20854.855    110.487    167.875
         TR   0.687E+28             1481.254      4.968     43.594
         TOT                       22336.1087   115.4552   211.4685   884.7840

       T/K    H(0)-H(T)+PV         H(T)/Eh          T*S/Eh         G(T)/Eh
   ------------------------------------------------------------------------
    298.15    0.355949E-01    0.503123E+00    0.100475E+00    0.402648E+00
   ------------------------------------------------------------------------

         :::::::::::::::::::::::::::::::::::::::::::::::::::::
         ::                  THERMODYNAMIC                  ::
         :::::::::::::::::::::::::::::::::::::::::::::::::::::
         :: total free energy         -83.034631711953 Eh   ::
         ::.................................................::
         :: total energy              -83.437279487033 Eh   ::
         :: zero point energy           0.467528408247 Eh   ::
         :: G(RRHO) w/o ZPVE           -0.064880633167 Eh   ::
         :: G(RRHO) contrib.            0.402647775081 Eh   ::
         :::::::::::::::::::::::::::::::::::::::::::::::::::::

           -------------------------------------------------
          | TOTAL ENERGY              -83.437279487033 Eh   |
          | TOTAL ENTHALPY            -82.934156223814 Eh   |
          | TOTAL FREE ENERGY         -83.034631711953 Eh   |
          | GRADIENT NORM               0.000255414280 Eh/α |
          | HOMO-LUMO GAP               2.245814193655 eV   |
           -------------------------------------------------

------------------------------------------------------------------------
 * finished run on 2026/08/20 at 20:26:29.816     
------------------------------------------------------------------------
 total:
 * wall-time:     0 d,  0 h,  0 min,  4.706 sec
 *  cpu-time:     0 d,  0 h,  0 min, 31.859 sec
 * ratio c/w:     6.770 speedup
 SCF:
 * wall-time:     0 d,  0 h,  0 min,  0.043 sec
 *  cpu-time:     0 d,  0 h,  0 min,  0.016 sec
 * ratio c/w:     0.363 speedup
 analytical hessian:
 * wall-time:     0 d,  0 h,  0 min,  4.619 sec
 *  cpu-time:     0 d,  0 h,  0 min, 31.797 sec
 * ratio c/w:     6.884 speedup



===== STDERR =====

normal termination of xtb
