      -----------------------------------------------------------      
     |                   =====================                   |     
     |                           x T B                           |     
     |                   =====================                   |     
     |                         S. Grimme                         |     
     |          Mulliken Center for Theoretical Chemistry        |     
     |                    University of Bonn                     |     
      -----------------------------------------------------------      

   * xtb version 6.7.1pre (5071a88) compiled by 'Marcel@Raven' on 2024-07-23

   xtb is free software: you can redistribute it and/or modify it under
   the terms of the GNU Lesser General Public License as published by
   the Free Software Foundation, either version 3 of the License, or
   (at your option) any later version.
   
   xtb is distributed in the hope that it will be useful,
   but WITHOUT ANY WARRANTY; without even the implied warranty of
   MERCHANTABILITY or FITNESS FOR A PARTICULAR PURPOSE.  See the
   GNU Lesser General Public License for more details.
   
   Cite this work as:
   * C. Bannwarth, E. Caldeweyher, S. Ehlert, A. Hansen, P. Pracht,
     J. Seibert, S. Spicher, S. Grimme, WIREs Comput. Mol. Sci., 2020, 11,
     e01493. DOI: 10.1002/wcms.1493
   
   for GFN2-xTB:
   * C. Bannwarth, S. Ehlert and S. Grimme., J. Chem. Theory Comput., 2019,
     15, 1652-1671. DOI: 10.1021/acs.jctc.8b01176
   for GFN1-xTB:
   * S. Grimme, C. Bannwarth, P. Shushkov, J. Chem. Theory Comput., 2017,
     13, 1989-2009. DOI: 10.1021/acs.jctc.7b00118
   for GFN0-xTB:
   * P. Pracht, E. Caldeweyher, S. Ehlert, S. Grimme, ChemRxiv, 2019, preprint.
     DOI: 10.26434/chemrxiv.8326202.v1
   for GFN-FF:
   * S. Spicher and S. Grimme, Angew. Chem. Int. Ed., 2020, 59, 15665-15673.
     DOI: 10.1002/anie.202004239
   
   for ALPB and GBSA implicit solvation:
   * S. Ehlert, M. Stahn, S. Spicher, S. Grimme, J. Chem. Theory Comput.,
     2021, 17, 4250-4261. DOI: 10.1021/acs.jctc.1c00471
   
   for ddCOSMO and CPCM-X implicit solvation:
   * M. Stahn, S. Ehlert, S. Grimme, J. Phys. Chem. A,
     2023, XX, XXXX-XXXX. DOI: 10.1021/acs.jpca.3c04382
   
   for DFT-D4:
   * E. Caldeweyher, C. Bannwarth and S. Grimme, J. Chem. Phys., 2017,
     147, 034112. DOI: 10.1063/1.4993215
   * E. Caldeweyher, S. Ehlert, A. Hansen, H. Neugebauer, S. Spicher,
     C. Bannwarth and S. Grimme, J. Chem. Phys., 2019, 150, 154122.
     DOI: 10.1063/1.5090222
   * E. Caldeweyher, J.-M. Mewes, S. Ehlert and S. Grimme, Phys. Chem. Chem. Phys.
     2020, 22, 8499-8512. DOI: 10.1039/D0CP00502A
   
   for sTDA-xTB:
   * S. Grimme and C. Bannwarth, J. Chem. Phys., 2016, 145, 054103.
     DOI: 10.1063/1.4959605
   
   in the mass-spec context:
   * V. Asgeirsson, C. Bauer and S. Grimme, Chem. Sci., 2017, 8, 4879.
     DOI: 10.1039/c7sc00601b
   * J. Koopman and S. Grimme, ACS Omega 2019, 4, 12, 15120-15133.
     DOI: 10.1021/acsomega.9b02011
   
   for metadynamics refer to:
   * S. Grimme, J. Chem. Theory Comput., 2019, 155, 2847-2862
     DOI: 10.1021/acs.jctc.9b00143
   
   for SPH calculations refer to:
   * S. Spicher and S. Grimme, J. Chem. Theory Comput., 2021, 17, 1701-1714
     DOI: 10.1021/acs.jctc.0c01306
   
   for ONIOM refer to:
   * C. Plett, A. Katbashev, S. Ehlert, S. Grimme, M. Bursch,
     Phys. Chem. Chem. Phys., 2023, 25, 17860-17868. DOI: 10.1039/D3CP02178E
   
   for DIPRO refer to:
   * J. Kohn, N. Gildemeister, S. Grimme, D. Fazzi, A. Hansen,
     J. Chem. Phys., 2023, just accepted.
   
   for PTB refer to:
   * S. Grimme, M. Mueller, A. Hansen, J. Chem. Phys., 2023, 158, 124111.
     DOI: 10.1063/5.0137838
   
   with help from (in alphabetical order)
   P. Atkinson, C. Bannwarth, F. Bohle, G. Brandenburg, E. Caldeweyher
   M. Checinski, S. Dohm, S. Ehlert, S. Ehrlich, I. Gerasimov, C. Hölzer
   A. Katbashev, J. Kohn, J. Koopman, C. Lavigne, S. Lehtola, F. März, M. Müller,
   F. Musil, H. Neugebauer, J. Pisarek, C. Plett, P. Pracht, F. Pultar,
   J. Seibert, P. Shushkov, S. Spicher, M. Stahn, M. Steiner, T. Strunk,
   J. Stückrath, T. Rose, and J. Unsleber
   
 * started run on 2026/08/31 at 13:16:02.468     
   ID    Z sym.   atoms
    1    7 N      1, 44, 53
    2    6 C      2-15, 45, 47, 48, 54
    3    8 O      16, 17, 41, 46, 49
    4    1 H      18-40, 42, 43, 50-52, 55-57

           -------------------------------------------------
          |                Calculation Setup                |
           -------------------------------------------------

          program call               : C:\Users\Nayanika\Downloads\xtb-6.7.1pre-windows-x86_64\xtb-6.7.1\bin\xtb.exe D:\PhD_Thesis\LmrR_EVB\charges\fast_lmrr_5QM\xtb_preparation\stage2_five_xtb_protocols\GFN2_tight\RS1_1_to_TS1_2\RS1_1_to_TS1_2_TS_xtbopt.xyz --gfn 2 --chrg 0 --uhf 0 --etemp 0
          coordinate file            : D:\PhD_Thesis\LmrR_EVB\charges\fast_lmrr_5QM\xtb_preparation\stage2_five_xtb_protocols\GFN2_tight\RS1_1_to_TS1_2\RS1_1_to_TS1_2_TS_xtbopt.xyz
          omp threads                :                     1


molecular fragmentation (1/2 indicates fragments):
111111111222222221111111111122222222222222211111111111111
# atoms in fragment 1/2:    34    23
 fragment masses (1/2) :      235.28      134.17
CMA distance (Bohr)    :   9.721
constraining FC (au)   :  0.0500

           -------------------------------------------------
          |                 G F N 2 - x T B                 |
           -------------------------------------------------

        Reference                      10.1021/acs.jctc.8b01176
      * Hamiltonian:
        H0-scaling (s, p, d)           1.850000    2.230000    2.230000
        zeta-weighting                 0.500000
      * Dispersion:
        s8                             2.700000
        a1                             0.520000
        a2                             5.000000
        s9                             5.000000
      * Repulsion:
        kExp                           1.500000    1.000000
        rExp                           1.000000
      * Coulomb:
        alpha                          2.000000
        third order                    shell-resolved
        anisotropic                    true
        a3                             3.000000
        a5                             4.000000
        cn-shift                       1.200000
        cn-exp                         4.000000
        max-rad                        5.000000

q/qsh data taken from xtbrestart
CAMM data taken from xtbrestart

          ...................................................
          :                      SETUP                      :
          :.................................................:
          :  # basis functions                 135          :
          :  # atomic orbitals                 135          :
          :  # shells                           83          :
          :  # electrons                       148          :
          :  max. iterations                   250          :
          :  Hamiltonian                  GFN2-xTB          :
          :  restarted?                       true          :
          :  GBSA solvation                  false          :
          :  PC potential                    false          :
          :  electronic temp.            0.0000000     K    :
          :  accuracy                    1.0000000          :
          :  -> integral cutoff          0.2500000E+02      :
          :  -> integral neglect         0.1000000E-07      :
          :  -> SCF convergence          0.1000000E-05 Eh   :
          :  -> wf. convergence          0.1000000E-03 e    :
          :  Broyden damping             0.4000000          :
          :  net charge                          0          :
          :  unpaired electrons                  0          :
          ...................................................

 iter      E             dE          RMSdq      gap      omega  full diag
   1    -84.5289300 -0.845289E+02  0.324E+00    2.07       0.0  T
   2    -84.5378234 -0.889341E-02  0.192E+00    2.16       1.0  T
   3    -84.5330595  0.476388E-02  0.428E-01    2.12       1.0  T
   4    -84.5405922 -0.753266E-02  0.171E-01    2.17       1.0  T
   5    -84.5412693 -0.677155E-03  0.861E-02    2.14       1.0  T
   6    -84.5413475 -0.781798E-04  0.361E-02    2.15       1.0  T
   7    -84.5413736 -0.261263E-04  0.144E-02    2.15       1.0  T
   8    -84.5413771 -0.348348E-05  0.459E-03    2.15       2.9  T
   9    -84.5413774 -0.351785E-06  0.217E-03    2.15       6.1  T
  10    -84.5413775 -0.337796E-07  0.688E-04    2.15      19.3  T
  11    -84.5413775 -0.593980E-08  0.196E-04    2.15      67.5  T

   *** convergence criteria satisfied after 11 iterations ***

         #    Occupation            Energy/Eh            Energy/eV
      -------------------------------------------------------------
         1        2.0000           -0.7095247             -19.3071
       ...           ...                  ...                  ...
        68        2.0000           -0.4123225             -11.2199
        69        2.0000           -0.4080108             -11.1025
        70        2.0000           -0.4012856             -10.9195
        71        2.0000           -0.3971393             -10.8067
        72        2.0000           -0.3940651             -10.7231
        73        2.0000           -0.3843211             -10.4579
        74        2.0000           -0.3598570              -9.7922 (HOMO)
        75                         -0.2808193              -7.6415 (LUMO)
        76                         -0.2206877              -6.0052
        77                         -0.2185615              -5.9474
        78                         -0.2098643              -5.7107
        79                         -0.2053779              -5.5886
       ...                                ...                  ...
       135                          0.6731488              18.3173
      -------------------------------------------------------------
                  HL-Gap            0.0790376 Eh            2.1507 eV
             Fermi-level            0.0000000 Eh            0.0000 eV

 SCC (total)                   0 d,  0 h,  0 min,  0.205 sec
 SCC setup                      ...        0 min,  0.004 sec (  1.951%)
 Dispersion                     ...        0 min,  0.002 sec (  0.976%)
 classical contributions        ...        0 min,  0.000 sec (  0.000%)
 integral evaluation            ...        0 min,  0.018 sec (  8.780%)
 iterations                     ...        0 min,  0.117 sec ( 57.073%)
 molecular gradient             ...        0 min,  0.063 sec ( 30.732%)
 printout                       ...        0 min,  0.001 sec (  0.488%)

         :::::::::::::::::::::::::::::::::::::::::::::::::::::
         ::                     SUMMARY                     ::
         :::::::::::::::::::::::::::::::::::::::::::::::::::::
         :: total energy             -83.438995226233 Eh    ::
         :: gradient norm              0.000130758890 Eh/a0 ::
         :: HOMO-LUMO gap              2.150723725226 eV    ::
         ::.................................................::
         :: SCC energy               -84.539412752631 Eh    ::
         :: -> isotropic ES            0.174137864358 Eh    ::
         :: -> anisotropic ES         -0.001818791218 Eh    ::
         :: -> anisotropic XC          0.029695696591 Eh    ::
         :: -> dispersion             -0.057213662373 Eh    ::
         :: repulsion energy           1.100417526398 Eh    ::
         :: add. restraining           0.000000000000 Eh    ::
         :: total charge              -0.000000000000 e     ::
         :::::::::::::::::::::::::::::::::::::::::::::::::::::

           -------------------------------------------------
          |                Property Printout                |
           -------------------------------------------------

    * Orbital Energies and Occupations

         #    Occupation            Energy/Eh            Energy/eV
      -------------------------------------------------------------
         1        2.0000           -0.7095247             -19.3071
       ...           ...                  ...                  ...
        62        2.0000           -0.4357773             -11.8581
        63        2.0000           -0.4312557             -11.7351
        64        2.0000           -0.4308401             -11.7238
        65        2.0000           -0.4305638             -11.7162
        66        2.0000           -0.4245350             -11.5522
        67        2.0000           -0.4168298             -11.3425
        68        2.0000           -0.4123225             -11.2199
        69        2.0000           -0.4080108             -11.1025
        70        2.0000           -0.4012856             -10.9195
        71        2.0000           -0.3971393             -10.8067
        72        2.0000           -0.3940651             -10.7231
        73        2.0000           -0.3843211             -10.4579
        74        2.0000           -0.3598570              -9.7922 (HOMO)
        75                         -0.2808193              -7.6415 (LUMO)
        76                         -0.2206877              -6.0052
        77                         -0.2185615              -5.9474
        78                         -0.2098643              -5.7107
        79                         -0.2053779              -5.5886
        80                         -0.1658551              -4.5131
        81                         -0.0871223              -2.3707
        82                          0.0011258               0.0306
        83                          0.0102891               0.2800
        84                          0.0320444               0.8720
        85                          0.0699981               1.9047
       ...                                ...                  ...
       135                          0.6731488              18.3173
      -------------------------------------------------------------
                  HL-Gap            0.0790376 Eh            2.1507 eV
             Fermi-level            0.0000000 Eh            0.0000 eV

     #   Z          covCN         q      C6AA      α(0)
     1   7 N        2.642    -0.284    27.332     7.765
     2   6 C        2.899     0.078    26.269     8.404
     3   6 C        2.923    -0.060    29.493     8.906
     4   6 C        2.924    -0.039    28.960     8.825
     5   6 C        2.970    -0.007    28.196     8.710
     6   6 C        2.924    -0.045    29.114     8.849
     7   6 C        2.921    -0.065    29.607     8.923
     8   6 C        3.812    -0.070    21.826     6.650
     9   6 C        3.796     0.020    20.238     6.406
    10   6 C        2.768     0.214    23.481     7.936
    11   6 C        2.890    -0.064    29.579     8.917
    12   6 C        2.897    -0.000    28.035     8.681
    13   6 C        3.807    -0.060    21.656     6.625
    14   6 C        3.802    -0.046    21.399     6.586
    15   6 C        3.752    -0.111    22.677     6.791
    16   8 O        0.856    -0.408    21.840     6.266
    17   8 O        1.609    -0.594    25.040     6.754
    18   1 H        0.860     0.215     1.033     1.592
    19   1 H        0.860     0.161     1.331     1.807
    20   1 H        0.926     0.043     2.407     2.426
    21   1 H        0.926     0.030     2.590     2.517
    22   1 H        0.925     0.021     2.714     2.576
    23   1 H        0.925     0.021     2.713     2.576
    24   1 H        0.924     0.061     2.185     2.312
    25   1 H        0.924     0.057     2.236     2.338
    26   1 H        0.924     0.060     2.203     2.321
    27   1 H        0.860     0.183     1.198     1.714
    28   1 H        0.860     0.206     1.074     1.623
    29   1 H        0.923     0.009     2.913     2.669
    30   1 H        0.926     0.035     2.511     2.478
    31   1 H        0.925     0.068     2.112     2.273
    32   1 H        0.924     0.057     2.240     2.341
    33   1 H        0.924     0.044     2.399     2.422
    34   1 H        0.924     0.031     2.572     2.508
    35   1 H        0.924     0.033     2.548     2.496
    36   1 H        0.925     0.035     2.518     2.481
    37   1 H        0.925     0.033     2.540     2.492
    38   1 H        0.925     0.063     2.169     2.303
    39   1 H        0.805     0.284     0.772     1.380
    40   1 H        0.804     0.330     0.636     1.253
    41   8 O        1.608    -0.605    25.307     6.790
    42   1 H        0.806     0.273     0.807     1.411
    43   1 H        0.803     0.320     0.663     1.279
    44   7 N        2.692    -0.181    24.920     7.414
    45   6 C        2.753     0.264    22.554     7.777
    46   8 O        0.858    -0.435    22.400     6.346
    47   6 C        3.757    -0.141    23.267     6.877
    48   6 C        2.749     0.277    22.313     7.735
    49   8 O        0.859    -0.462    22.958     6.424
    50   1 H        0.925     0.052     2.298     2.371
    51   1 H        0.925     0.063     2.169     2.303
    52   1 H        0.925     0.074     2.042     2.235
    53   7 N        2.686    -0.178    24.848     7.403
    54   6 C        3.690    -0.042    21.520     6.639
    55   1 H        0.924     0.052     2.291     2.367
    56   1 H        0.924     0.049     2.334     2.389
    57   1 H        0.925     0.082     1.958     2.188

 Mol. C6AA /au·bohr⁶  :      29556.825875
 Mol. C8AA /au·bohr⁸  :     658034.632815
 Mol. α(0) /au        :        262.839125


Wiberg/Mayer (AO) data.
largest (>0.10) Wiberg bond orders for each atom

 ---------------------------------------------------------------------------
     #   Z sym  total        # sym  WBO       # sym  WBO       # sym  WBO
 ---------------------------------------------------------------------------
     1   7 N    3.325 --     2 C    1.159    19 H    0.954    18 H    0.896
     2   6 C    3.972 --     7 C    1.351     3 C    1.336     1 N    1.159
     3   6 C    3.989 --     4 C    1.475     2 C    1.336    20 H    0.967
                             6 C    0.101
     4   6 C    3.992 --     3 C    1.475     5 C    1.393    21 H    0.969
                             7 C    0.101
     5   6 C    3.979 --     6 C    1.405     4 C    1.393     8 C    1.009
     6   6 C    3.991 --     7 C    1.456     5 C    1.405    22 H    0.968
                             3 C    0.101
     7   6 C    3.987 --     6 C    1.456     2 C    1.351    23 H    0.969
                             4 C    0.101
     8   6 C    3.990 --     5 C    1.009     9 C    0.981    24 H    0.969
                            25 H    0.966
     9   6 C    3.961 --     8 C    0.981    44 N    0.973    26 H    0.953
                            45 C    0.914
    10   6 C    3.926 --    16 O    1.743    11 C    1.094    29 H    0.937
    11   6 C    3.989 --    12 C    1.806    10 C    1.094    30 H    0.965
    12   6 C    3.978 --    11 C    1.806    13 C    1.047    31 H    0.961
    13   6 C    3.996 --    12 C    1.047    14 C    0.977    33 H    0.972
                            32 H    0.953
    14   6 C    3.995 --    15 C    1.018    34 H    0.980    35 H    0.979
                            13 C    0.977
    15   6 C    3.993 --    14 C    1.018    37 H    0.988    36 H    0.986
                            38 H    0.980
    16   8 O    2.029 --    10 C    1.743
    17   8 O    1.877 --    39 H    0.917    40 H    0.853
    18   1 H    0.953 --     1 N    0.896
    19   1 H    0.974 --     1 N    0.954
    20   1 H    0.998 --     3 C    0.967
    21   1 H    0.999 --     4 C    0.969
    22   1 H    0.999 --     6 C    0.968
    23   1 H    0.999 --     7 C    0.969
    24   1 H    0.996 --     8 C    0.969
    25   1 H    0.995 --     8 C    0.966
    26   1 H    0.996 --     9 C    0.953
    27   1 H    0.966 --    44 N    0.932
    28   1 H    0.957 --    53 N    0.904
    29   1 H    1.000 --    10 C    0.937
    30   1 H    0.999 --    11 C    0.965
    31   1 H    0.995 --    12 C    0.961
    32   1 H    0.997 --    13 C    0.953
    33   1 H    0.998 --    13 C    0.972
    34   1 H    0.999 --    14 C    0.980
    35   1 H    0.999 --    14 C    0.979
    36   1 H    0.997 --    15 C    0.986
    37   1 H    0.999 --    15 C    0.988
    38   1 H    0.996 --    15 C    0.980
    39   1 H    0.920 --    17 O    0.917
    40   1 H    0.891 --    17 O    0.853
    41   8 O    1.854 --    42 H    0.922    43 H    0.839
    42   1 H    0.925 --    41 O    0.922
    43   1 H    0.897 --    41 O    0.839
    44   7 N    3.459 --    48 C    1.280     9 C    0.973    27 H    0.932
                            49 O    0.192
    45   6 C    3.956 --    46 O    1.679    53 N    1.291     9 C    0.914
    46   8 O    2.011 --    45 C    1.679    53 N    0.212
    47   6 C    3.993 --    48 C    0.984    52 H    0.982    50 H    0.975
                            51 H    0.965
    48   6 C    3.951 --    49 O    1.632    44 N    1.280    47 C    0.984
    49   8 O    1.986 --    48 C    1.632    44 N    0.192
    50   1 H    0.997 --    47 C    0.975
    51   1 H    0.996 --    47 C    0.965
    52   1 H    0.994 --    47 C    0.982
    53   7 N    3.465 --    45 C    1.291    54 C    1.006    28 H    0.904
                            46 O    0.212
    54   6 C    3.966 --    53 N    1.006    55 H    0.977    57 H    0.977
                            56 H    0.976
    55   1 H    0.997 --    54 C    0.977
    56   1 H    0.998 --    54 C    0.976
    57   1 H    0.993 --    54 C    0.977
 ---------------------------------------------------------------------------

Topologies differ in total number of bonds
Writing topology from bond orders to xtbtopo.mol

molecular dipole:
                 x           y           z       tot (Debye)
 q only:       -0.373       0.399      -0.358
   full:       -0.784       0.208      -0.669       2.673
molecular quadrupole (traceless):
                xx          xy          yy          xz          yz          zz
 q only:      -18.677      11.992       8.135      -8.017       0.500      10.543
  q+dip:      -27.816       9.739       8.588     -12.827       4.598      19.228
   full:      -28.632       9.914       9.464     -12.264       1.037      19.168


           -------------------------------------------------
          | TOTAL ENERGY              -83.438995226233 Eh   |
          | GRADIENT NORM               0.000130758890 Eh/α |
          | HOMO-LUMO GAP               2.150723725226 eV   |
           -------------------------------------------------

------------------------------------------------------------------------
 * finished run on 2026/08/31 at 13:16:02.772     
------------------------------------------------------------------------
 total:
 * wall-time:     0 d,  0 h,  0 min,  0.301 sec
 *  cpu-time:     0 d,  0 h,  0 min,  0.172 sec
 * ratio c/w:     0.571 speedup
 SCF:
 * wall-time:     0 d,  0 h,  0 min,  0.205 sec
 *  cpu-time:     0 d,  0 h,  0 min,  0.141 sec
 * ratio c/w:     0.686 speedup



===== STDERR =====

normal termination of xtb
