      -----------------------------------------------------------      
     |                   =====================                   |     
     |                           x T B                           |     
     |                   =====================                   |     
     |                         S. Grimme                         |     
     |          Mulliken Center for Theoretical Chemistry        |     
     |                    University of Bonn                     |     
      -----------------------------------------------------------      

   * xtb version 6.7.1pre (5071a88) compiled by 'Marcel@Raven' on 2024-07-23

   xtb is free software: you can redistribute it and/or modify it under
   the terms of the GNU Lesser General Public License as published by
   the Free Software Foundation, either version 3 of the License, or
   (at your option) any later version.
   
   xtb is distributed in the hope that it will be useful,
   but WITHOUT ANY WARRANTY; without even the implied warranty of
   MERCHANTABILITY or FITNESS FOR A PARTICULAR PURPOSE.  See the
   GNU Lesser General Public License for more details.
   
   Cite this work as:
   * C. Bannwarth, E. Caldeweyher, S. Ehlert, A. Hansen, P. Pracht,
     J. Seibert, S. Spicher, S. Grimme, WIREs Comput. Mol. Sci., 2020, 11,
     e01493. DOI: 10.1002/wcms.1493
   
   for GFN2-xTB:
   * C. Bannwarth, S. Ehlert and S. Grimme., J. Chem. Theory Comput., 2019,
     15, 1652-1671. DOI: 10.1021/acs.jctc.8b01176
   for GFN1-xTB:
   * S. Grimme, C. Bannwarth, P. Shushkov, J. Chem. Theory Comput., 2017,
     13, 1989-2009. DOI: 10.1021/acs.jctc.7b00118
   for GFN0-xTB:
   * P. Pracht, E. Caldeweyher, S. Ehlert, S. Grimme, ChemRxiv, 2019, preprint.
     DOI: 10.26434/chemrxiv.8326202.v1
   for GFN-FF:
   * S. Spicher and S. Grimme, Angew. Chem. Int. Ed., 2020, 59, 15665-15673.
     DOI: 10.1002/anie.202004239
   
   for ALPB and GBSA implicit solvation:
   * S. Ehlert, M. Stahn, S. Spicher, S. Grimme, J. Chem. Theory Comput.,
     2021, 17, 4250-4261. DOI: 10.1021/acs.jctc.1c00471
   
   for ddCOSMO and CPCM-X implicit solvation:
   * M. Stahn, S. Ehlert, S. Grimme, J. Phys. Chem. A,
     2023, XX, XXXX-XXXX. DOI: 10.1021/acs.jpca.3c04382
   
   for DFT-D4:
   * E. Caldeweyher, C. Bannwarth and S. Grimme, J. Chem. Phys., 2017,
     147, 034112. DOI: 10.1063/1.4993215
   * E. Caldeweyher, S. Ehlert, A. Hansen, H. Neugebauer, S. Spicher,
     C. Bannwarth and S. Grimme, J. Chem. Phys., 2019, 150, 154122.
     DOI: 10.1063/1.5090222
   * E. Caldeweyher, J.-M. Mewes, S. Ehlert and S. Grimme, Phys. Chem. Chem. Phys.
     2020, 22, 8499-8512. DOI: 10.1039/D0CP00502A
   
   for sTDA-xTB:
   * S. Grimme and C. Bannwarth, J. Chem. Phys., 2016, 145, 054103.
     DOI: 10.1063/1.4959605
   
   in the mass-spec context:
   * V. Asgeirsson, C. Bauer and S. Grimme, Chem. Sci., 2017, 8, 4879.
     DOI: 10.1039/c7sc00601b
   * J. Koopman and S. Grimme, ACS Omega 2019, 4, 12, 15120-15133.
     DOI: 10.1021/acsomega.9b02011
   
   for metadynamics refer to:
   * S. Grimme, J. Chem. Theory Comput., 2019, 155, 2847-2862
     DOI: 10.1021/acs.jctc.9b00143
   
   for SPH calculations refer to:
   * S. Spicher and S. Grimme, J. Chem. Theory Comput., 2021, 17, 1701-1714
     DOI: 10.1021/acs.jctc.0c01306
   
   for ONIOM refer to:
   * C. Plett, A. Katbashev, S. Ehlert, S. Grimme, M. Bursch,
     Phys. Chem. Chem. Phys., 2023, 25, 17860-17868. DOI: 10.1039/D3CP02178E
   
   for DIPRO refer to:
   * J. Kohn, N. Gildemeister, S. Grimme, D. Fazzi, A. Hansen,
     J. Chem. Phys., 2023, just accepted.
   
   for PTB refer to:
   * S. Grimme, M. Mueller, A. Hansen, J. Chem. Phys., 2023, 158, 124111.
     DOI: 10.1063/5.0137838
   
   with help from (in alphabetical order)
   P. Atkinson, C. Bannwarth, F. Bohle, G. Brandenburg, E. Caldeweyher
   M. Checinski, S. Dohm, S. Ehlert, S. Ehrlich, I. Gerasimov, C. Hölzer
   A. Katbashev, J. Kohn, J. Koopman, C. Lavigne, S. Lehtola, F. März, M. Müller,
   F. Musil, H. Neugebauer, J. Pisarek, C. Plett, P. Pracht, F. Pultar,
   J. Seibert, P. Shushkov, S. Spicher, M. Stahn, M. Steiner, T. Strunk,
   J. Stückrath, T. Rose, and J. Unsleber
   
 * started run on 2026/08/20 at 20:25:51.068     
   ID    Z sym.   atoms
    1    7 N      1, 44, 53
    2    6 C      2-15, 45, 47, 48, 54
    3    8 O      16, 17, 41, 46, 49
    4    1 H      18-40, 42, 43, 50-52, 55-57

           -------------------------------------------------
          |                Calculation Setup                |
           -------------------------------------------------

          program call               : C:\Users\Nayanika\Downloads\xtb-6.7.1pre-windows-x86_64\xtb-6.7.1\bin\xtb.exe D:\PhD_Thesis\LmrR_EVB\charges\fast_lmrr_5QM\xtb_preparation\stage2_five_xtb_protocols\GFN2_tight\RS1_1_to_TS1_2\RS1_1_to_TS1_2_RS_xtbopt.xyz --gfn 2 --chrg 0 --uhf 0 --hess --etemp 0
          coordinate file            : D:\PhD_Thesis\LmrR_EVB\charges\fast_lmrr_5QM\xtb_preparation\stage2_five_xtb_protocols\GFN2_tight\RS1_1_to_TS1_2\RS1_1_to_TS1_2_RS_xtbopt.xyz
          omp threads                :                     8


molecular fragmentation (1/2 indicates fragments):
111111111222222221111111111122222222222222211111111111111
# atoms in fragment 1/2:    34    23
 fragment masses (1/2) :      235.28      134.17
CMA distance (Bohr)    :   7.272
constraining FC (au)   :  0.0500

           -------------------------------------------------
          |                 G F N 2 - x T B                 |
           -------------------------------------------------

        Reference                      10.1021/acs.jctc.8b01176
      * Hamiltonian:
        H0-scaling (s, p, d)           1.850000    2.230000    2.230000
        zeta-weighting                 0.500000
      * Dispersion:
        s8                             2.700000
        a1                             0.520000
        a2                             5.000000
        s9                             5.000000
      * Repulsion:
        kExp                           1.500000    1.000000
        rExp                           1.000000
      * Coulomb:
        alpha                          2.000000
        third order                    shell-resolved
        anisotropic                    true
        a3                             3.000000
        a5                             4.000000
        cn-shift                       1.200000
        cn-exp                         4.000000
        max-rad                        5.000000

q/qsh data taken from xtbrestart
CAMM data taken from xtbrestart

          ...................................................
          :                      SETUP                      :
          :.................................................:
          :  # basis functions                 135          :
          :  # atomic orbitals                 135          :
          :  # shells                           83          :
          :  # electrons                       148          :
          :  max. iterations                   250          :
          :  Hamiltonian                  GFN2-xTB          :
          :  restarted?                       true          :
          :  GBSA solvation                  false          :
          :  PC potential                    false          :
          :  electronic temp.            0.0000000     K    :
          :  accuracy                    1.0000000          :
          :  -> integral cutoff          0.2500000E+02      :
          :  -> integral neglect         0.1000000E-07      :
          :  -> SCF convergence          0.1000000E-05 Eh   :
          :  -> wf. convergence          0.1000000E-03 e    :
          :  Broyden damping             0.4000000          :
          :  net charge                          0          :
          :  unpaired electrons                  0          :
          ...................................................

 iter      E             dE          RMSdq      gap      omega  full diag
   1    -84.5444992 -0.845445E+02  0.964E-07    1.04       0.0  T
   2    -84.5444992  0.156319E-12  0.765E-07    1.04   17304.6  T
   3    -84.5444992 -0.142109E-12  0.329E-07    1.04   40293.0  T

   *** convergence criteria satisfied after 3 iterations ***

         #    Occupation            Energy/Eh            Energy/eV
      -------------------------------------------------------------
         1        2.0000           -0.7301736             -19.8690
       ...           ...                  ...                  ...
        68        2.0000           -0.4141281             -11.2690
        69        2.0000           -0.4103519             -11.1662
        70        2.0000           -0.3961049             -10.7786
        71        2.0000           -0.3939600             -10.7202
        72        2.0000           -0.3874544             -10.5432
        73        2.0000           -0.3763639             -10.2414
        74        2.0000           -0.3493327              -9.5058 (HOMO)
        75                         -0.3109943              -8.4626 (LUMO)
        76                         -0.2121370              -5.7725
        77                         -0.2113013              -5.7498
        78                         -0.2039480              -5.5497
        79                         -0.1938314              -5.2744
       ...                                ...                  ...
       135                          0.6707005              18.2507
      -------------------------------------------------------------
                  HL-Gap            0.0383385 Eh            1.0432 eV
             Fermi-level            0.0000000 Eh            0.0000 eV

 SCC (total)                   0 d,  0 h,  0 min,  0.037 sec
 SCC setup                      ...        0 min,  0.000 sec (  0.000%)
 Dispersion                     ...        0 min,  0.002 sec (  5.405%)
 classical contributions        ...        0 min,  0.000 sec (  0.000%)
 integral evaluation            ...        0 min,  0.003 sec (  8.108%)
 iterations                     ...        0 min,  0.028 sec ( 75.676%)
 molecular gradient             ...        0 min,  0.004 sec ( 10.811%)
 printout                       ...        0 min,  0.000 sec (  0.000%)

         :::::::::::::::::::::::::::::::::::::::::::::::::::::
         ::                     SUMMARY                     ::
         :::::::::::::::::::::::::::::::::::::::::::::::::::::
         :: total energy             -83.440789931204 Eh    ::
         :: gradient norm              0.000202768315 Eh/a0 ::
         :: HOMO-LUMO gap              1.043242900989 eV    ::
         ::.................................................::
         :: SCC energy               -84.542711633351 Eh    ::
         :: -> isotropic ES            0.177199110062 Eh    ::
         :: -> anisotropic ES         -0.004714522522 Eh    ::
         :: -> anisotropic XC          0.030277217118 Eh    ::
         :: -> dispersion             -0.058743649707 Eh    ::
         :: repulsion energy           1.101921702147 Eh    ::
         :: add. restraining           0.000000000000 Eh    ::
         :: total charge              -0.000000000000 e     ::
         :::::::::::::::::::::::::::::::::::::::::::::::::::::

           ------------------------------------------------- 
          |                Numerical Hessian                |
           ------------------------------------------------- 
step length          :   0.00500
SCC accuracy         :   0.30000
Hessian scale factor :   1.00000
frozen atoms in %    :   0.00000    0
RMS gradient         :   0.00020
estimated CPU  time      4.62 min
estimated wall time      0.70 min

writing file <hessian>.

 projected vibrational frequencies (cm⁻¹)
eigval :       -0.00    -0.00    -0.00     0.00     0.00     0.00
eigval :       -3.01    10.09    22.37    28.68    32.41    35.95
eigval :       45.60    48.27    55.26    59.97    68.69    72.16
eigval :       79.11    85.36    88.09   104.16   107.03   108.53
eigval :      120.55   122.97   125.73   143.57   159.00   168.31
eigval :      175.90   182.82   190.44   200.89   209.24   230.83
eigval :      233.36   245.12   262.92   293.44   309.81   311.62
eigval :      349.55   365.72   371.84   377.11   385.95   396.82
eigval :      411.92   419.40   433.77   470.87   484.79   506.60
eigval :      518.04   537.37   577.85   586.46   597.65   615.02
eigval :      630.14   647.33   652.63   687.51   705.11   721.10
eigval :      735.83   760.01   785.57   788.80   808.91   852.52
eigval :      865.98   883.79   889.95   904.61   916.15   921.37
eigval :      923.83   936.17   937.34  1000.78  1004.77  1009.98
eigval :     1019.85  1033.52  1035.46  1053.14  1088.66  1089.75
eigval :     1105.22  1105.56  1113.86  1132.35  1142.91  1146.69
eigval :     1163.33  1166.40  1198.98  1207.56  1216.55  1224.11
eigval :     1225.82  1245.58  1258.49  1265.14  1280.71  1291.52
eigval :     1293.80  1305.89  1324.79  1331.89  1345.91  1348.60
eigval :     1376.72  1383.01  1392.52  1417.54  1429.75  1432.94
eigval :     1441.29  1456.10  1457.41  1464.00  1467.12  1467.62
eigval :     1486.33  1487.07  1492.65  1499.62  1502.27  1526.07
eigval :     1542.82  1559.48  1575.98  1623.50  1653.04  1692.13
eigval :     1708.35  1746.31  2848.61  2945.48  2957.56  2969.58
eigval :     2975.26  2988.29  2988.41  2990.61  2997.56  3008.92
eigval :     3019.70  3027.84  3037.16  3041.22  3045.14  3052.40
eigval :     3054.84  3056.09  3061.41  3067.73  3070.57  3076.89
eigval :     3107.99  3229.52  3329.83  3384.31  3391.02  3415.01
eigval :     3495.22  3652.31  3669.33
           -------------------------------------------------
          |                Property Printout                |
           -------------------------------------------------

    * Orbital Energies and Occupations

         #    Occupation            Energy/Eh            Energy/eV
      -------------------------------------------------------------
         1        2.0000           -0.7301736             -19.8690
       ...           ...                  ...                  ...
        62        2.0000           -0.4448321             -12.1045
        63        2.0000           -0.4360072             -11.8644
        64        2.0000           -0.4305508             -11.7159
        65        2.0000           -0.4280596             -11.6481
        66        2.0000           -0.4265145             -11.6061
        67        2.0000           -0.4203097             -11.4372
        68        2.0000           -0.4141281             -11.2690
        69        2.0000           -0.4103519             -11.1662
        70        2.0000           -0.3961049             -10.7786
        71        2.0000           -0.3939600             -10.7202
        72        2.0000           -0.3874544             -10.5432
        73        2.0000           -0.3763638             -10.2414
        74        2.0000           -0.3493328              -9.5058 (HOMO)
        75                         -0.3109943              -8.4626 (LUMO)
        76                         -0.2121370              -5.7725
        77                         -0.2113013              -5.7498
        78                         -0.2039480              -5.5497
        79                         -0.1938314              -5.2744
        80                         -0.1918259              -5.2198
        81                         -0.0806520              -2.1947
        82                         -0.0011246              -0.0306
        83                          0.0264977               0.7210
        84                          0.0316733               0.8619
        85                          0.0584412               1.5903
       ...                                ...                  ...
       135                          0.6707005              18.2507
      -------------------------------------------------------------
                  HL-Gap            0.0383385 Eh            1.0432 eV
             Fermi-level            0.0000000 Eh            0.0000 eV

     #   Z          covCN         q      C6AA      α(0)
     1   7 N        2.641    -0.293    27.552     7.796
     2   6 C        2.899     0.075    26.319     8.412
     3   6 C        2.922    -0.070    29.747     8.944
     4   6 C        2.924    -0.046    29.130     8.851
     5   6 C        2.972    -0.011    28.297     8.726
     6   6 C        2.924    -0.042    29.041     8.837
     7   6 C        2.924    -0.071    29.765     8.947
     8   6 C        3.809    -0.069    21.813     6.648
     9   6 C        3.792     0.019    20.268     6.411
    10   6 C        2.768     0.209    23.578     7.952
    11   6 C        2.891    -0.071    29.756     8.943
    12   6 C        2.899     0.003    27.957     8.669
    13   6 C        3.807    -0.063    21.712     6.633
    14   6 C        3.802    -0.050    21.467     6.596
    15   6 C        3.753    -0.107    22.607     6.780
    16   8 O        0.857    -0.387    21.428     6.206
    17   8 O        1.609    -0.603    25.270     6.785
    18   1 H        0.860     0.200     1.105     1.647
    19   1 H        0.860     0.150     1.398     1.852
    20   1 H        0.925     0.017     2.781     2.608
    21   1 H        0.925     0.021     2.713     2.576
    22   1 H        0.926     0.026     2.642     2.542
    23   1 H        0.926     0.047     2.361     2.403
    24   1 H        0.925     0.060     2.201     2.320
    25   1 H        0.924     0.043     2.405     2.425
    26   1 H        0.924     0.056     2.244     2.342
    27   1 H        0.860     0.195     1.134     1.668
    28   1 H        0.860     0.220     1.008     1.573
    29   1 H        0.923     0.037     2.493     2.469
    30   1 H        0.925     0.067     2.124     2.279
    31   1 H        0.925     0.064     2.155     2.295
    32   1 H        0.924     0.073     2.055     2.242
    33   1 H        0.924     0.059     2.212     2.326
    34   1 H        0.924     0.037     2.491     2.468
    35   1 H        0.924     0.038     2.473     2.459
    36   1 H        0.925     0.041     2.430     2.438
    37   1 H        0.925     0.041     2.440     2.443
    38   1 H        0.925     0.043     2.405     2.425
    39   1 H        0.804     0.316     0.674     1.289
    40   1 H        0.806     0.271     0.814     1.417
    41   8 O        1.609    -0.597    25.123     6.765
    42   1 H        0.804     0.317     0.671     1.287
    43   1 H        0.805     0.283     0.774     1.382
    44   7 N        2.688    -0.188    25.086     7.439
    45   6 C        2.753     0.264    22.540     7.774
    46   8 O        0.858    -0.456    22.823     6.405
    47   6 C        3.758    -0.148    23.401     6.897
    48   6 C        2.745     0.282    22.229     7.720
    49   8 O        0.858    -0.459    22.885     6.414
    50   1 H        0.925     0.068     2.105     2.269
    51   1 H        0.925     0.065     2.138     2.287
    52   1 H        0.925     0.066     2.126     2.280
    53   7 N        2.684    -0.180    24.900     7.411
    54   6 C        3.691    -0.041    21.488     6.633
    55   1 H        0.924     0.048     2.349     2.397
    56   1 H        0.924     0.050     2.319     2.382
    57   1 H        0.925     0.078     1.995     2.209

 Mol. C6AA /au·bohr⁶  :      29502.975861
 Mol. C8AA /au·bohr⁸  :     657502.907401
 Mol. α(0) /au        :        262.593772


Wiberg/Mayer (AO) data.
largest (>0.10) Wiberg bond orders for each atom

 ---------------------------------------------------------------------------
     #   Z sym  total        # sym  WBO       # sym  WBO       # sym  WBO
 ---------------------------------------------------------------------------
     1   7 N    3.256 --     2 C    1.176    19 H    0.956    18 H    0.920
     2   6 C    3.973 --     3 C    1.340     7 C    1.333     1 N    1.176
     3   6 C    3.985 --     4 C    1.462     2 C    1.340    20 H    0.969
     4   6 C    3.991 --     3 C    1.462     5 C    1.401    21 H    0.969
                             7 C    0.101
     5   6 C    3.986 --     4 C    1.401     6 C    1.393     8 C    1.011
     6   6 C    3.991 --     7 C    1.470     5 C    1.393    22 H    0.968
     7   6 C    3.987 --     6 C    1.470     2 C    1.333    23 H    0.963
                             4 C    0.101
     8   6 C    3.992 --     5 C    1.011    25 H    0.971    24 H    0.967
                             9 C    0.957
     9   6 C    3.962 --    44 N    0.977    26 H    0.963     8 C    0.957
                            45 C    0.924
    10   6 C    3.918 --    16 O    1.771    11 C    1.131    29 H    0.934
    11   6 C    3.987 --    12 C    1.772    10 C    1.131    30 H    0.954
    12   6 C    3.971 --    11 C    1.772    13 C    1.056    31 H    0.959
                            16 O    0.101
    13   6 C    3.994 --    12 C    1.056    14 C    0.979    33 H    0.972
                            32 H    0.937
    14   6 C    3.990 --    15 C    1.019    34 H    0.979    13 C    0.979
                            35 H    0.978
    15   6 C    3.994 --    14 C    1.019    37 H    0.987    38 H    0.987
                            36 H    0.985
    16   8 O    2.054 --    10 C    1.771    12 C    0.101
    17   8 O    1.836 --    40 H    0.923    39 H    0.853
    18   1 H    0.959 --     1 N    0.920
    19   1 H    0.977 --     1 N    0.956
    20   1 H    0.999 --     3 C    0.969
    21   1 H    0.999 --     4 C    0.969
    22   1 H    0.999 --     6 C    0.968
    23   1 H    0.997 --     7 C    0.963
    24   1 H    0.996 --     8 C    0.967
    25   1 H    0.997 --     8 C    0.971
    26   1 H    0.997 --     9 C    0.963
    27   1 H    0.962 --    44 N    0.922
    28   1 H    0.951 --    53 N    0.878
    29   1 H    0.999 --    10 C    0.934
    30   1 H    0.996 --    11 C    0.954
    31   1 H    0.996 --    12 C    0.959
    32   1 H    0.989 --    13 C    0.937
    33   1 H    0.997 --    13 C    0.972
    34   1 H    0.998 --    14 C    0.979
    35   1 H    0.999 --    14 C    0.978
    36   1 H    0.997 --    15 C    0.985
    37   1 H    0.998 --    15 C    0.987
    38   1 H    0.998 --    15 C    0.987
    39   1 H    0.900 --    17 O    0.853
    40   1 H    0.926 --    17 O    0.923
    41   8 O    1.861 --    43 H    0.917    42 H    0.858
    42   1 H    0.899 --    41 O    0.858
    43   1 H    0.920 --    41 O    0.917
    44   7 N    3.453 --    48 C    1.280     9 C    0.977    27 H    0.922
                            49 O    0.188
    45   6 C    3.957 --    46 O    1.654    53 N    1.311     9 C    0.924
    46   8 O    1.984 --    45 C    1.654    53 N    0.213
    47   6 C    3.992 --    48 C    0.986    50 H    0.980    52 H    0.974
                            51 H    0.962
    48   6 C    3.948 --    49 O    1.630    44 N    1.280    47 C    0.986
    49   8 O    2.002 --    48 C    1.630    44 N    0.188
    50   1 H    0.995 --    47 C    0.980
    51   1 H    0.996 --    47 C    0.962
    52   1 H    0.996 --    47 C    0.974
    53   7 N    3.473 --    45 C    1.311    54 C    1.007    28 H    0.878
                            46 O    0.213
    54   6 C    3.968 --    53 N    1.007    57 H    0.977    56 H    0.977
                            55 H    0.977
    55   1 H    0.998 --    54 C    0.977
    56   1 H    0.997 --    54 C    0.977
    57   1 H    0.994 --    54 C    0.977
 ---------------------------------------------------------------------------

Topologies differ in total number of bonds
Writing topology from bond orders to xtbtopo.mol

molecular dipole:
                 x           y           z       tot (Debye)
 q only:       -1.291       0.672      -0.622
   full:       -1.560       0.380      -0.737       4.491
molecular quadrupole (traceless):
                xx          xy          yy          xz          yz          zz
 q only:      -17.239      -8.245       8.614       2.553      -3.283       8.626
  q+dip:      -20.136     -14.841       9.941      -0.181       1.386      10.195
   full:      -21.640     -14.215       8.086       0.071       0.208      13.554

           -------------------------------------------------
          |               Frequency Printout                |
           -------------------------------------------------
 projected vibrational frequencies (cm⁻¹)
eigval :       -0.00    -0.00    -0.00     0.00     0.00     0.00
eigval :       -3.01    10.09    22.37    28.68    32.41    35.95
eigval :       45.60    48.27    55.26    59.97    68.69    72.16
eigval :       79.11    85.36    88.09   104.16   107.03   108.53
eigval :      120.55   122.97   125.73   143.57   159.00   168.31
eigval :      175.90   182.82   190.44   200.89   209.24   230.83
eigval :      233.36   245.12   262.92   293.44   309.81   311.62
eigval :      349.55   365.72   371.84   377.11   385.95   396.82
eigval :      411.92   419.40   433.77   470.87   484.79   506.60
eigval :      518.04   537.37   577.85   586.46   597.65   615.02
eigval :      630.14   647.33   652.63   687.51   705.11   721.10
eigval :      735.83   760.01   785.57   788.80   808.91   852.52
eigval :      865.98   883.79   889.95   904.61   916.15   921.37
eigval :      923.83   936.17   937.34  1000.78  1004.77  1009.98
eigval :     1019.85  1033.52  1035.46  1053.14  1088.66  1089.75
eigval :     1105.22  1105.56  1113.86  1132.35  1142.91  1146.69
eigval :     1163.33  1166.40  1198.98  1207.56  1216.55  1224.11
eigval :     1225.82  1245.58  1258.49  1265.14  1280.71  1291.52
eigval :     1293.80  1305.89  1324.79  1331.89  1345.91  1348.60
eigval :     1376.72  1383.01  1392.52  1417.54  1429.75  1432.94
eigval :     1441.29  1456.10  1457.41  1464.00  1467.12  1467.62
eigval :     1486.33  1487.07  1492.65  1499.62  1502.27  1526.07
eigval :     1542.82  1559.48  1575.98  1623.50  1653.04  1692.13
eigval :     1708.35  1746.31  2848.61  2945.48  2957.56  2969.58
eigval :     2975.26  2988.29  2988.41  2990.61  2997.56  3008.92
eigval :     3019.70  3027.84  3037.16  3041.22  3045.14  3052.40
eigval :     3054.84  3056.09  3061.41  3067.73  3070.57  3076.89
eigval :     3107.99  3229.52  3329.83  3384.31  3391.02  3415.01
eigval :     3495.22  3652.31  3669.33
 reduced masses (amu)
   1: 11.96   2: 12.45   3: 12.20   4: 12.16   5: 11.14   6: 12.36   7: 11.53   8: 11.43
   9: 10.48  10: 12.45  11: 12.70  12: 10.63  13: 10.43  14: 11.34  15: 12.92  16: 12.13
  17: 10.73  18: 10.11  19: 11.37  20: 10.76  21: 10.32  22: 10.49  23: 11.17  24:  5.32
  25:  8.97  26:  4.13  27:  7.86  28:  9.87  29: 10.20  30: 10.54  31: 11.52  32: 11.13
  33:  5.93  34: 10.07  35:  8.52  36: 11.15  37:  4.26  38: 11.22  39:  9.50  40: 10.58
  41:  9.79  42: 10.53  43: 10.36  44: 11.69  45:  9.63  46:  7.55  47:  2.57  48:  6.04
  49:  8.28  50:  7.07  51:  3.67  52: 10.59  53:  8.98  54: 10.31  55:  7.78  56:  8.45
  57: 10.71  58:  7.64  59:  3.38  60: 10.70  61:  3.60  62:  9.97  63: 10.65  64: 10.43
  65:  2.99  66:  5.87  67:  7.86  68:  4.33  69:  9.40  70:  2.98  71:  6.12  72: 10.63
  73:  3.35  74: 10.86  75:  3.54  76:  2.73  77:  6.26  78:  6.44  79:  5.13  80:  9.27
  81:  6.24  82:  5.61  83:  1.97  84:  5.83  85:  8.39  86:  4.37  87:  7.62  88:  4.39
  89:  8.95  90:  9.50  91:  4.76  92:  7.35  93:  7.72  94:  8.08  95:  3.56  96:  8.01
  97:  7.61  98:  4.72  99:  1.74 100:  4.94 101:  4.68 102:  3.58 103:  6.16 104:  4.71
 105:  3.77 106:  4.81 107:  3.48 108:  3.31 109:  3.56 110:  4.49 111:  4.80 112:  8.55
 113: 11.17 114:  4.75 115:  3.30 116:  3.52 117:  2.63 118:  3.13 119:  8.69 120:  9.69
 121:  8.57 122:  1.75 123:  2.05 124:  1.58 125:  2.02 126:  1.78 127:  2.90 128:  4.28
 129:  1.86 130:  1.53 131:  1.62 132:  8.93 133:  2.21 134:  2.10 135: 11.51 136: 11.51
 137: 11.47 138: 13.21 139: 13.05 140: 13.07 141:  1.72 142:  1.77 143:  1.75 144:  1.93
 145:  1.93 146:  1.51 147:  1.47 148:  1.79 149:  1.70 150:  1.70 151:  1.77 152:  1.73
 153:  1.90 154:  1.94 155:  1.32 156:  1.42 157:  1.81 158:  1.77 159:  1.98 160:  1.84
 161:  1.87 162:  1.81 163:  1.84 164:  1.91 165:  1.87 166:  1.83 167:  1.66 168:  1.86
 169:  2.00 170:  1.83 171:  1.84
 IR intensities (km·mol⁻¹)
   1:  0.01   2:  0.04   3:  0.15   4:  0.07   5:  0.04   6:  0.18   7:  1.15   8:  1.06
   9:  0.43  10:  0.39  11:  1.89  12:  0.74  13:  0.95  14:  2.04  15:  2.35  16:  4.27
  17:  1.25  18:  0.27  19:  1.86  20:  1.62  21:  2.40  22:  8.18  23:  5.30  24:  1.54
  25:  2.07  26:  0.21  27: 32.28  28: 13.61  29: 59.26  30:  9.40  31:  7.75  32:  2.04
  33: 61.04  34:  7.22  35: 47.99  36:  4.88  37:  5.44  38: 33.94  39: 19.52  40:  7.36
  41:  6.97  42: 11.23  43:  5.79  44: 12.68  45:  1.91  46:  5.45  47: 50.01  48: 28.28
  49: 19.39  50: 41.38  51:113.22  52:  7.70  53:  6.37  54: 18.71  55: 23.57  56: 78.45
  57:  9.21  58: 20.22  59:193.03  60:  2.73  61:212.61  62: 19.32  63: 36.70  64: 18.31
  65:347.38  66: 72.75  67: 32.97  68:  1.54  69: 23.72  70: 17.07  71: 28.97  72:  3.80
  73:  3.39  74:  0.21  75: 12.30  76:  0.53  77: 14.36  78:  4.50  79:  1.45  80:  7.47
  81:  4.69  82: 30.04  83: 22.00  84:  6.73  85:  1.50  86: 18.73  87:  2.33  88:  4.70
  89:  1.52  90: 34.91  91: 18.69  92: 33.17  93: 29.82  94: 15.71  95:  3.78  96:  7.24
  97: 31.19  98: 38.05  99:  7.69 100:  5.59 101:  9.38 102:  4.58 103: 16.21 104: 16.03
 105:  8.87 106: 22.81 107:  9.73 108:  0.32 109:  1.38 110:  6.55 111: 30.93 112: 49.00
 113: 10.05 114: 16.39 115: 41.59 116: 13.07 117:  4.31 118:  2.07 119:191.54 120:  1.23
 121:264.71 122:  7.23 123:  3.01 124:  9.78 125:  8.28 126:  2.56 127: 42.30 128:  8.57
 129:  0.54 130:  4.22 131:  2.64 132:183.41 133:125.30 134:235.24 135:  2.48 136:137.32
 137:433.13 138:332.10 139:231.51 140:666.74 141: 45.64 142:  4.72 143: 16.79 144: 30.26
 145: 25.97 146: 48.31 147: 26.98 148: 21.21 149: 22.53 150: 12.83 151:  8.76 152: 14.30
 153: 45.11 154: 40.99 155: 27.83 156:  3.48 157:  2.44 158: 25.48 159:  7.88 160: 35.42
 161: 61.54 162: 18.53 163: 12.75 164:347.72 165:479.25 166:620.97 167:134.95 168:116.02
 169: 20.00 170: 11.78 171:  3.35
 Raman intensities (Ä⁴*amu⁻¹)
   1:  0.00   2:  0.00   3:  0.00   4:  0.00   5:  0.00   6:  0.00   7:  0.00   8:  0.00
   9:  0.00  10:  0.00  11:  0.00  12:  0.00  13:  0.00  14:  0.00  15:  0.00  16:  0.00
  17:  0.00  18:  0.00  19:  0.00  20:  0.00  21:  0.00  22:  0.00  23:  0.00  24:  0.00
  25:  0.00  26:  0.00  27:  0.00  28:  0.00  29:  0.00  30:  0.00  31:  0.00  32:  0.00
  33:  0.00  34:  0.00  35:  0.00  36:  0.00  37:  0.00  38:  0.00  39:  0.00  40:  0.00
  41:  0.00  42:  0.00  43:  0.00  44:  0.00  45:  0.00  46:  0.00  47:  0.00  48:  0.00
  49:  0.00  50:  0.00  51:  0.00  52:  0.00  53:  0.00  54:  0.00  55:  0.00  56:  0.00
  57:  0.00  58:  0.00  59:  0.00  60:  0.00  61:  0.00  62:  0.00  63:  0.00  64:  0.00
  65:  0.00  66:  0.00  67:  0.00  68:  0.00  69:  0.00  70:  0.00  71:  0.00  72:  0.00
  73:  0.00  74:  0.00  75:  0.00  76:  0.00  77:  0.00  78:  0.00  79:  0.00  80:  0.00
  81:  0.00  82:  0.00  83:  0.00  84:  0.00  85:  0.00  86:  0.00  87:  0.00  88:  0.00
  89:  0.00  90:  0.00  91:  0.00  92:  0.00  93:  0.00  94:  0.00  95:  0.00  96:  0.00
  97:  0.00  98:  0.00  99:  0.00 100:  0.00 101:  0.00 102:  0.00 103:  0.00 104:  0.00
 105:  0.00 106:  0.00 107:  0.00 108:  0.00 109:  0.00 110:  0.00 111:  0.00 112:  0.00
 113:  0.00 114:  0.00 115:  0.00 116:  0.00 117:  0.00 118:  0.00 119:  0.00 120:  0.00
 121:  0.00 122:  0.00 123:  0.00 124:  0.00 125:  0.00 126:  0.00 127:  0.00 128:  0.00
 129:  0.00 130:  0.00 131:  0.00 132:  0.00 133:  0.00 134:  0.00 135:  0.00 136:  0.00
 137:  0.00 138:  0.00 139:  0.00 140:  0.00 141:  0.00 142:  0.00 143:  0.00 144:  0.00
 145:  0.00 146:  0.00 147:  0.00 148:  0.00 149:  0.00 150:  0.00 151:  0.00 152:  0.00
 153:  0.00 154:  0.00 155:  0.00 156:  0.00 157:  0.00 158:  0.00 159:  0.00 160:  0.00
 161:  0.00 162:  0.00 163:  0.00 164:  0.00 165:  0.00 166:  0.00 167:  0.00 168:  0.00
 169:  0.00 170:  0.00 171:  0.00
 output can be read by thermo (or use thermo option).
 writing <g98.out> molden fake output.
 recommended (thermochemical) frequency scaling factor: 1.0
           -------------------------------------------------
          |             Thermodynamic Functions             |
           -------------------------------------------------

Refinement of some symmetry elements was terminated before convergence was reached.
Some symmetry elements may remain unidentified.
Molecule has no symmetry elements
It seems to be the C1 point group
c1  symmetry found (for desy threshold:  0.10E+00) used in thermo
 inverting freq            1   3.01408898220965     

          ...................................................
          :                      SETUP                      :
          :.................................................:
          :  # frequencies                         165      :
          :  # imaginary freq.                       0      :
          :  linear?                             false      :
          :  only rotor calc.                    false      :
          :  symmetry                               c1      :
          :  rotational number                       1      :
          :  scaling factor                  1.0000000      :
          :  rotor cutoff                   50.0000000 cm⁻¹ :
          :  imag. cutoff                  -20.0000000 cm⁻¹ :
          :.................................................:

    mode    ω/cm⁻¹     T·S(HO)/kcal·mol⁻¹    T·S(FR)/kcal·mol⁻¹   T·S(vib)
   ------------------------------------------------------------------------
       1      3.01    -3.09900 (  0.00%)    -1.88815 (100.00%)    -1.88817
       2     10.09    -2.38326 (  0.17%)    -1.53058 ( 99.83%)    -1.53199
       3     22.37    -1.91156 (  3.86%)    -1.29469 ( 96.14%)    -1.31847
       4     28.68    -1.76472 (  9.76%)    -1.22119 ( 90.24%)    -1.27426
       5     32.41    -1.69234 ( 15.01%)    -1.18494 ( 84.99%)    -1.26108
       6     35.95    -1.63099 ( 21.10%)    -1.15420 ( 78.90%)    -1.25479
       7     45.60    -1.49065 ( 40.89%)    -1.08381 ( 59.11%)    -1.25017
       8     48.27    -1.45710 ( 46.48%)    -1.06697 ( 53.52%)    -1.24830
       9     55.26    -1.37734 ( 59.87%)    -1.02689 ( 40.13%)    -1.23672
      10     59.97    -1.32916 ( 67.43%)    -1.00264 ( 32.57%)    -1.22281
      11     68.69    -1.24937 ( 78.08%)    -0.96243 ( 21.92%)    -1.18648
      12     72.16    -1.22046 ( 81.27%)    -0.94783 ( 18.73%)    -1.16940
      13     79.11    -1.16663 ( 86.24%)    -0.92062 ( 13.76%)    -1.13277
      14     85.36    -1.12211 ( 89.47%)    -0.89807 ( 10.53%)    -1.09852
      15     88.09    -1.10380 ( 90.59%)    -0.88878 (  9.41%)    -1.08357
      16    104.16    -1.00626 ( 94.96%)    -0.83914 (  5.04%)    -0.99783
      17    107.03    -0.99048 ( 95.45%)    -0.83107 (  4.55%)    -0.98324
      18    108.53    -0.98241 ( 95.69%)    -0.82695 (  4.31%)    -0.97571
      19    120.55    -0.92176 ( 97.13%)    -0.79584 (  2.87%)    -0.91814
      20    122.97    -0.91031 ( 97.34%)    -0.78995 (  2.66%)    -0.90710
      21    125.73    -0.89752 ( 97.56%)    -0.78336 (  2.44%)    -0.89473
      22    143.57    -0.82163 ( 98.55%)    -0.74407 (  1.45%)    -0.82050
      23    159.00    -0.76375 ( 99.03%)    -0.71382 (  0.97%)    -0.76327
      24    168.31    -0.73176 ( 99.23%)    -0.69698 (  0.77%)    -0.73149
      25    175.90    -0.70706 ( 99.35%)    -0.68390 (  0.65%)    -0.70691
      26    182.82    -0.68556 ( 99.44%)    -0.67246 (  0.56%)    -0.68549
      27    190.44    -0.66295 ( 99.53%)    -0.66037 (  0.47%)    -0.66293
      28    200.89    -0.63355 ( 99.62%)    -0.64455 (  0.38%)    -0.63359
      29    209.24    -0.61130 ( 99.67%)    -0.63249 (  0.33%)    -0.61137
      30    230.83    -0.55827 ( 99.78%)    -0.60339 (  0.22%)    -0.55837
      31    233.36    -0.55245 ( 99.79%)    -0.60016 (  0.21%)    -0.55255
      32    245.12    -0.52636 ( 99.83%)    -0.58560 (  0.17%)    -0.52646
      33    262.92    -0.48965 ( 99.87%)    -0.56483 (  0.13%)    -0.48975
      34    293.44    -0.43353 ( 99.92%)    -0.53230 (  0.08%)    -0.43361
   ------------------------------------------------------------------------

   temp. (K)  partition function   enthalpy   heat capacity  entropy
                                   cal/mol     cal/K/mol   cal/K/mol   J/K/mol
 298.15  VIB  0.154E+19            20054.971    107.206    134.139
         ROT  0.157E+08              888.752      2.981     35.905
         INT  0.241E+26            20943.724    110.187    170.044
         TR   0.687E+28             1481.254      4.968     43.594
         TOT                       22424.9777   115.1553   213.6380   893.8613

       T/K    H(0)-H(T)+PV         H(T)/Eh          T*S/Eh         G(T)/Eh
   ------------------------------------------------------------------------
    298.15    0.357365E-01    0.503029E+00    0.101506E+00    0.401523E+00
   ------------------------------------------------------------------------

         :::::::::::::::::::::::::::::::::::::::::::::::::::::
         ::                  THERMODYNAMIC                  ::
         :::::::::::::::::::::::::::::::::::::::::::::::::::::
         :: total free energy         -83.039267273281 Eh   ::
         ::.................................................::
         :: total energy              -83.440789931204 Eh   ::
         :: zero point energy           0.467292476462 Eh   ::
         :: G(RRHO) w/o ZPVE           -0.065769818539 Eh   ::
         :: G(RRHO) contrib.            0.401522657923 Eh   ::
         :::::::::::::::::::::::::::::::::::::::::::::::::::::

           -------------------------------------------------
          | TOTAL ENERGY              -83.440789931204 Eh   |
          | TOTAL ENTHALPY            -82.937760978100 Eh   |
          | TOTAL FREE ENERGY         -83.039267273281 Eh   |
          | GRADIENT NORM               0.000202765292 Eh/α |
          | HOMO-LUMO GAP               1.043243061527 eV   |
           -------------------------------------------------

------------------------------------------------------------------------
 * finished run on 2026/08/20 at 20:25:56.463     
------------------------------------------------------------------------
 total:
 * wall-time:     0 d,  0 h,  0 min,  5.394 sec
 *  cpu-time:     0 d,  0 h,  0 min, 35.219 sec
 * ratio c/w:     6.529 speedup
 SCF:
 * wall-time:     0 d,  0 h,  0 min,  0.037 sec
 *  cpu-time:     0 d,  0 h,  0 min,  0.062 sec
 * ratio c/w:     1.689 speedup
 analytical hessian:
 * wall-time:     0 d,  0 h,  0 min,  5.303 sec
 *  cpu-time:     0 d,  0 h,  0 min, 35.125 sec
 * ratio c/w:     6.624 speedup



===== STDERR =====

normal termination of xtb
