57
 energy: -83.437279487025 gnorm: 0.000255239903 xtb: 6.7.1pre (5071a88)
N           -0.16591886237307       -0.63884118061983        0.57144150979863
C            1.21157545971165       -0.57878104583236        0.60321216480009
C            1.85418517484491        0.39377942149353        1.37190976173334
C            3.21987474488912        0.56101901066652        1.29025284870226
C            3.98971820794531       -0.23094944170758        0.44507330436190
C            3.35242300135867       -1.21986592712366       -0.29378560190904
C            1.98505513057666       -1.40031676162813       -0.21608021387005
C            5.45932177340968        0.03576538443161        0.28521022904106
C            5.68002312713705        1.34030720078359       -0.48494668805036
C           -0.93443164010090        0.67582987513497       -1.21666574992205
C            0.20214853265877        1.57922673476231       -1.10523469612545
C            0.14640315027064        2.75685122234784       -0.47989518972333
C            1.28982835079150        3.69602065617615       -0.35774117940927
C            1.08593293643158        4.93704694067586       -1.23866851315607
C            2.28341882012076        5.87322826136472       -1.14650711177366
O           -2.06846776904406        0.90454644099963       -0.81217180232189
O           -2.82053203924463       -1.70843646743493        0.23225383921015
H           -0.64720009539329       -0.18153863643178        1.33486683139004
H           -0.60147233587434       -1.51227492044647        0.30259986176762
H            1.26427835029544        1.02085834754113        2.02385184723609
H            3.69941056459891        1.32146462070060        1.88939701189378
H            3.93467422325823       -1.86467604588950       -0.93822591951884
H            1.50260293880801       -2.17070024242472       -0.80015109686773
H            5.94919562297751       -0.77550735887999       -0.25596559786027
H            5.94758505321279        0.12845303050157        1.25647790344389
H            5.33084190220780        2.19989110842900        0.09998298783370
H            4.69211556141923        0.42162757697928       -2.10520202731751
H            6.65079822743444        3.44677930361284       -1.34398026299073
H           -0.75317948735279       -0.19895156825532       -1.86324010246773
H            1.12835731804132        1.23512909622972       -1.54157737698261
H           -0.79719188021259        3.08088169128613       -0.05903444737614
H            1.38310043830622        4.01960186639907        0.68181536884257
H            2.21701244805135        3.20021484659730       -0.64877910592666
H            0.94982252351120        4.61594467952345       -2.27368031793649
H            0.17715041696474        5.45874281274989       -0.93001804518696
H            2.15041972923933        6.72671615445708       -1.80711870122147
H            2.40276663418566        6.24141022788480       -0.12980845492763
H            3.19356031919299        5.35077012714314       -1.43170094672450
H           -2.93083990277764       -1.27960065572370        1.08797082698143
H           -2.86045481408389       -0.98882231138957       -0.40914985255729
O           -2.53248415480632        0.73274135677621        1.87675275847952
H           -3.23463086958866        1.27214074204120        2.24354727114098
H           -2.46567643604126        0.96898671663393        0.93462340477924
N            4.90559005288534        1.32586465919988       -1.71488850726125
C            7.17346449379735        1.55285955697630       -0.81680754003336
O            8.00343322056746        0.67340957587637       -0.71987075427261
C            3.58724793929582        2.21021051010846       -3.52052304541183
C            4.44849312745721        2.44490172096223       -2.30233478850570
O            4.72522715879104        3.55802606382143       -1.88281799806018
H            2.86912934945765        1.41352498650648       -3.34318680118725
H            4.22146303064516        1.92874870051923       -4.35947272169146
H            3.06330608839738        3.12768511874195       -3.77274505648699
N            7.42815763986176        2.80535566824019       -1.22699380385202
C            8.73816342726734        3.23333173676037       -1.65199648343785
H            9.05652121679423        4.10403444161069       -1.07701936323654
H            8.73788978782103        3.48900916481768       -2.71358663394793
H            9.42979307197930        2.41032520529486       -1.47866723188297
