      -----------------------------------------------------------      
     |                   =====================                   |     
     |                           x T B                           |     
     |                   =====================                   |     
     |                         S. Grimme                         |     
     |          Mulliken Center for Theoretical Chemistry        |     
     |                    University of Bonn                     |     
      -----------------------------------------------------------      

   * xtb version 6.7.1pre (5071a88) compiled by 'Marcel@Raven' on 2024-07-23

   xtb is free software: you can redistribute it and/or modify it under
   the terms of the GNU Lesser General Public License as published by
   the Free Software Foundation, either version 3 of the License, or
   (at your option) any later version.
   
   xtb is distributed in the hope that it will be useful,
   but WITHOUT ANY WARRANTY; without even the implied warranty of
   MERCHANTABILITY or FITNESS FOR A PARTICULAR PURPOSE.  See the
   GNU Lesser General Public License for more details.
   
   Cite this work as:
   * C. Bannwarth, E. Caldeweyher, S. Ehlert, A. Hansen, P. Pracht,
     J. Seibert, S. Spicher, S. Grimme, WIREs Comput. Mol. Sci., 2020, 11,
     e01493. DOI: 10.1002/wcms.1493
   
   for GFN2-xTB:
   * C. Bannwarth, S. Ehlert and S. Grimme., J. Chem. Theory Comput., 2019,
     15, 1652-1671. DOI: 10.1021/acs.jctc.8b01176
   for GFN1-xTB:
   * S. Grimme, C. Bannwarth, P. Shushkov, J. Chem. Theory Comput., 2017,
     13, 1989-2009. DOI: 10.1021/acs.jctc.7b00118
   for GFN0-xTB:
   * P. Pracht, E. Caldeweyher, S. Ehlert, S. Grimme, ChemRxiv, 2019, preprint.
     DOI: 10.26434/chemrxiv.8326202.v1
   for GFN-FF:
   * S. Spicher and S. Grimme, Angew. Chem. Int. Ed., 2020, 59, 15665-15673.
     DOI: 10.1002/anie.202004239
   
   for ALPB and GBSA implicit solvation:
   * S. Ehlert, M. Stahn, S. Spicher, S. Grimme, J. Chem. Theory Comput.,
     2021, 17, 4250-4261. DOI: 10.1021/acs.jctc.1c00471
   
   for ddCOSMO and CPCM-X implicit solvation:
   * M. Stahn, S. Ehlert, S. Grimme, J. Phys. Chem. A,
     2023, XX, XXXX-XXXX. DOI: 10.1021/acs.jpca.3c04382
   
   for DFT-D4:
   * E. Caldeweyher, C. Bannwarth and S. Grimme, J. Chem. Phys., 2017,
     147, 034112. DOI: 10.1063/1.4993215
   * E. Caldeweyher, S. Ehlert, A. Hansen, H. Neugebauer, S. Spicher,
     C. Bannwarth and S. Grimme, J. Chem. Phys., 2019, 150, 154122.
     DOI: 10.1063/1.5090222
   * E. Caldeweyher, J.-M. Mewes, S. Ehlert and S. Grimme, Phys. Chem. Chem. Phys.
     2020, 22, 8499-8512. DOI: 10.1039/D0CP00502A
   
   for sTDA-xTB:
   * S. Grimme and C. Bannwarth, J. Chem. Phys., 2016, 145, 054103.
     DOI: 10.1063/1.4959605
   
   in the mass-spec context:
   * V. Asgeirsson, C. Bauer and S. Grimme, Chem. Sci., 2017, 8, 4879.
     DOI: 10.1039/c7sc00601b
   * J. Koopman and S. Grimme, ACS Omega 2019, 4, 12, 15120-15133.
     DOI: 10.1021/acsomega.9b02011
   
   for metadynamics refer to:
   * S. Grimme, J. Chem. Theory Comput., 2019, 155, 2847-2862
     DOI: 10.1021/acs.jctc.9b00143
   
   for SPH calculations refer to:
   * S. Spicher and S. Grimme, J. Chem. Theory Comput., 2021, 17, 1701-1714
     DOI: 10.1021/acs.jctc.0c01306
   
   for ONIOM refer to:
   * C. Plett, A. Katbashev, S. Ehlert, S. Grimme, M. Bursch,
     Phys. Chem. Chem. Phys., 2023, 25, 17860-17868. DOI: 10.1039/D3CP02178E
   
   for DIPRO refer to:
   * J. Kohn, N. Gildemeister, S. Grimme, D. Fazzi, A. Hansen,
     J. Chem. Phys., 2023, just accepted.
   
   for PTB refer to:
   * S. Grimme, M. Mueller, A. Hansen, J. Chem. Phys., 2023, 158, 124111.
     DOI: 10.1063/5.0137838
   
   with help from (in alphabetical order)
   P. Atkinson, C. Bannwarth, F. Bohle, G. Brandenburg, E. Caldeweyher
   M. Checinski, S. Dohm, S. Ehlert, S. Ehrlich, I. Gerasimov, C. Hölzer
   A. Katbashev, J. Kohn, J. Koopman, C. Lavigne, S. Lehtola, F. März, M. Müller,
   F. Musil, H. Neugebauer, J. Pisarek, C. Plett, P. Pracht, F. Pultar,
   J. Seibert, P. Shushkov, S. Spicher, M. Stahn, M. Steiner, T. Strunk,
   J. Stückrath, T. Rose, and J. Unsleber
   
 * started run on 2026/08/20 at 18:19:23.304     
   ID    Z sym.   atoms
    1    7 N      1, 44, 53
    2    6 C      2-15, 45, 47, 48, 54
    3    8 O      16, 17, 41, 46, 49
    4    1 H      18-40, 42, 43, 50-52, 55-57

           -------------------------------------------------
          |                Calculation Setup                |
           -------------------------------------------------

          program call               : C:\Users\Nayanika\Downloads\xtb-6.7.1pre-windows-x86_64\xtb-6.7.1\bin\xtb.exe D:\PhD_Thesis\LmrR_EVB\charges\fast_lmrr_5QM\xtb_preparation\TS1_2_to_PS1_2b\TS1_2_to_PS1_2b_TS_xtbopt.xyz --gfn 2 --chrg 0 --uhf 0 --hess --etemp 0
          coordinate file            : D:\PhD_Thesis\LmrR_EVB\charges\fast_lmrr_5QM\xtb_preparation\TS1_2_to_PS1_2b\TS1_2_to_PS1_2b_TS_xtbopt.xyz
          omp threads                :                     1


molecular fragmentation (1/2 indicates fragments):
111111111222222221111111111122222222222222211111111111111
# atoms in fragment 1/2:    34    23
 fragment masses (1/2) :      235.28      134.17
CMA distance (Bohr)    :   9.584
constraining FC (au)   :  0.0500

           -------------------------------------------------
          |                 G F N 2 - x T B                 |
           -------------------------------------------------

        Reference                      10.1021/acs.jctc.8b01176
      * Hamiltonian:
        H0-scaling (s, p, d)           1.850000    2.230000    2.230000
        zeta-weighting                 0.500000
      * Dispersion:
        s8                             2.700000
        a1                             0.520000
        a2                             5.000000
        s9                             5.000000
      * Repulsion:
        kExp                           1.500000    1.000000
        rExp                           1.000000
      * Coulomb:
        alpha                          2.000000
        third order                    shell-resolved
        anisotropic                    true
        a3                             3.000000
        a5                             4.000000
        cn-shift                       1.200000
        cn-exp                         4.000000
        max-rad                        5.000000

q/qsh data taken from xtbrestart
CAMM data taken from xtbrestart

          ...................................................
          :                      SETUP                      :
          :.................................................:
          :  # basis functions                 135          :
          :  # atomic orbitals                 135          :
          :  # shells                           83          :
          :  # electrons                       148          :
          :  max. iterations                   250          :
          :  Hamiltonian                  GFN2-xTB          :
          :  restarted?                       true          :
          :  GBSA solvation                  false          :
          :  PC potential                    false          :
          :  electronic temp.            0.0000000     K    :
          :  accuracy                    1.0000000          :
          :  -> integral cutoff          0.2500000E+02      :
          :  -> integral neglect         0.1000000E-07      :
          :  -> SCF convergence          0.1000000E-05 Eh   :
          :  -> wf. convergence          0.1000000E-03 e    :
          :  Broyden damping             0.4000000          :
          :  net charge                          0          :
          :  unpaired electrons                  0          :
          ...................................................

 iter      E             dE          RMSdq      gap      omega  full diag
   1    -84.5400919 -0.845401E+02  0.685E-07    2.21       0.0  T
   2    -84.5400919 -0.426326E-13  0.569E-07    2.21   23273.1  T
   3    -84.5400919  0.000000E+00  0.234E-07    2.21   56515.7  T

   *** convergence criteria satisfied after 3 iterations ***

         #    Occupation            Energy/Eh            Energy/eV
      -------------------------------------------------------------
         1        2.0000           -0.7123078             -19.3829
       ...           ...                  ...                  ...
        68        2.0000           -0.4166005             -11.3363
        69        2.0000           -0.4111156             -11.1870
        70        2.0000           -0.4062564             -11.0548
        71        2.0000           -0.4005481             -10.8995
        72        2.0000           -0.3995326             -10.8718
        73        2.0000           -0.3870431             -10.5320
        74        2.0000           -0.3662890              -9.9672 (HOMO)
        75                         -0.2851026              -7.7580 (LUMO)
        76                         -0.2247156              -6.1148
        77                         -0.2225087              -6.0548
        78                         -0.2154145              -5.8617
        79                         -0.2078902              -5.6570
       ...                                ...                  ...
       135                          0.6581066              17.9080
      -------------------------------------------------------------
                  HL-Gap            0.0811864 Eh            2.2092 eV
             Fermi-level            0.0000000 Eh            0.0000 eV

 SCC (total)                   0 d,  0 h,  0 min,  0.140 sec
 SCC setup                      ...        0 min,  0.001 sec (  0.714%)
 Dispersion                     ...        0 min,  0.002 sec (  1.428%)
 classical contributions        ...        0 min,  0.001 sec (  0.714%)
 integral evaluation            ...        0 min,  0.029 sec ( 20.714%)
 iterations                     ...        0 min,  0.038 sec ( 27.143%)
 molecular gradient             ...        0 min,  0.067 sec ( 47.857%)
 printout                       ...        0 min,  0.001 sec (  0.714%)

         :::::::::::::::::::::::::::::::::::::::::::::::::::::
         ::                     SUMMARY                     ::
         :::::::::::::::::::::::::::::::::::::::::::::::::::::
         :: total energy             -83.439180339329 Eh    ::
         :: gradient norm              0.000194417201 Eh/a0 ::
         :: HOMO-LUMO gap              2.209193675633 eV    ::
         ::.................................................::
         :: SCC energy               -84.538140657065 Eh    ::
         :: -> isotropic ES            0.175871599464 Eh    ::
         :: -> anisotropic ES         -0.001640582208 Eh    ::
         :: -> anisotropic XC          0.029476018426 Eh    ::
         :: -> dispersion             -0.058005051520 Eh    ::
         :: repulsion energy           1.098960317736 Eh    ::
         :: add. restraining           0.000000000000 Eh    ::
         :: total charge               0.000000000000 e     ::
         :::::::::::::::::::::::::::::::::::::::::::::::::::::

           ------------------------------------------------- 
          |                Numerical Hessian                |
           ------------------------------------------------- 
step length          :   0.00500
SCC accuracy         :   0.30000
Hessian scale factor :   1.00000
frozen atoms in %    :   0.00000    0
RMS gradient         :   0.00019
estimated CPU  time      0.62 min
estimated wall time      0.81 min

writing file <hessian>.

 projected vibrational frequencies (cm⁻¹)
eigval :       -0.00    -0.00    -0.00     0.00     0.00     0.00
eigval :       12.66    18.12    27.24    29.40    33.58    39.13
eigval :       48.39    54.86    59.87    61.90    71.52    76.49
eigval :       80.16    83.78    88.66    99.24   109.15   117.60
eigval :      125.36   129.74   140.14   156.64   157.65   171.35
eigval :      182.87   193.80   205.46   212.17   230.25   240.17
eigval :      262.03   289.77   291.01   296.61   301.98   330.26
eigval :      349.52   355.81   382.54   386.53   393.61   406.86
eigval :      416.48   435.80   443.99   450.17   477.19   488.59
eigval :      531.78   567.80   577.26   602.23   613.70   629.65
eigval :      643.11   673.28   675.59   692.98   725.82   728.09
eigval :      756.92   779.30   791.69   809.73   843.45   864.86
eigval :      869.84   883.42   893.09   908.76   922.11   923.32
eigval :      928.88   940.25   975.75   992.17   997.00  1002.35
eigval :     1009.93  1018.92  1033.94  1048.83  1073.73  1077.27
eigval :     1089.64  1104.64  1110.03  1117.13  1130.53  1144.58
eigval :     1160.22  1164.11  1196.36  1209.24  1219.68  1222.54
eigval :     1222.73  1239.23  1252.18  1265.74  1281.76  1284.98
eigval :     1287.12  1295.62  1312.24  1322.53  1342.67  1348.04
eigval :     1374.33  1381.92  1393.05  1418.99  1423.91  1430.05
eigval :     1433.85  1456.95  1462.62  1466.13  1473.12  1478.57
eigval :     1481.69  1484.40  1493.95  1501.27  1504.52  1514.30
eigval :     1548.35  1551.47  1577.09  1615.16  1636.21  1677.84
eigval :     1710.07  1759.22  2804.16  2914.11  2956.48  2969.99
eigval :     2970.46  2985.55  2991.21  2991.81  3003.09  3008.16
eigval :     3021.53  3030.79  3031.93  3032.55  3039.68  3051.46
eigval :     3055.47  3057.01  3063.74  3070.68  3075.36  3082.57
eigval :     3095.14  3220.42  3314.15  3321.35  3453.27  3455.93
eigval :     3465.91  3575.19  3667.07
           -------------------------------------------------
          |                Property Printout                |
           -------------------------------------------------

    * Orbital Energies and Occupations

         #    Occupation            Energy/Eh            Energy/eV
      -------------------------------------------------------------
         1        2.0000           -0.7123078             -19.3829
       ...           ...                  ...                  ...
        62        2.0000           -0.4363093             -11.8726
        63        2.0000           -0.4361630             -11.8686
        64        2.0000           -0.4338034             -11.8044
        65        2.0000           -0.4308804             -11.7249
        66        2.0000           -0.4267935             -11.6136
        67        2.0000           -0.4209065             -11.4534
        68        2.0000           -0.4166005             -11.3363
        69        2.0000           -0.4111156             -11.1870
        70        2.0000           -0.4062565             -11.0548
        71        2.0000           -0.4005481             -10.8995
        72        2.0000           -0.3995326             -10.8718
        73        2.0000           -0.3870431             -10.5320
        74        2.0000           -0.3662890              -9.9672 (HOMO)
        75                         -0.2851026              -7.7580 (LUMO)
        76                         -0.2247156              -6.1148
        77                         -0.2225087              -6.0548
        78                         -0.2154145              -5.8617
        79                         -0.2078902              -5.6570
        80                         -0.1699154              -4.6236
        81                         -0.0924771              -2.5164
        82                         -0.0016499              -0.0449
        83                          0.0079575               0.2165
        84                          0.0280485               0.7632
        85                          0.0734409               1.9984
       ...                                ...                  ...
       135                          0.6581066              17.9080
      -------------------------------------------------------------
                  HL-Gap            0.0811864 Eh            2.2092 eV
             Fermi-level            0.0000000 Eh            0.0000 eV

     #   Z          covCN         q      C6AA      α(0)
     1   7 N        2.649    -0.278    27.182     7.743
     2   6 C        2.900     0.077    26.289     8.407
     3   6 C        2.923    -0.059    29.459     8.901
     4   6 C        2.924    -0.038    28.947     8.823
     5   6 C        2.970    -0.005    28.136     8.701
     6   6 C        2.924    -0.044    29.090     8.845
     7   6 C        2.922    -0.063    29.571     8.918
     8   6 C        3.812    -0.070    21.828     6.650
     9   6 C        3.796     0.020    20.239     6.406
    10   6 C        2.775     0.209    23.578     7.953
    11   6 C        2.890    -0.064    29.587     8.918
    12   6 C        2.896    -0.001    28.043     8.683
    13   6 C        3.807    -0.061    21.664     6.626
    14   6 C        3.802    -0.046    21.402     6.586
    15   6 C        3.753    -0.110    22.670     6.790
    16   8 O        0.856    -0.426    22.198     6.317
    17   8 O        1.609    -0.608    25.372     6.798
    18   1 H        0.859     0.217     1.022     1.584
    19   1 H        0.860     0.169     1.276     1.770
    20   1 H        0.926     0.040     2.452     2.449
    21   1 H        0.926     0.031     2.565     2.505
    22   1 H        0.925     0.023     2.690     2.565
    23   1 H        0.925     0.024     2.669     2.555
    24   1 H        0.924     0.062     2.180     2.309
    25   1 H        0.924     0.058     2.218     2.329
    26   1 H        0.924     0.060     2.197     2.318
    27   1 H        0.860     0.183     1.195     1.713
    28   1 H        0.860     0.206     1.078     1.626
    29   1 H        0.923     0.011     2.874     2.651
    30   1 H        0.926     0.037     2.496     2.470
    31   1 H        0.925     0.064     2.153     2.294
    32   1 H        0.924     0.056     2.250     2.346
    33   1 H        0.924     0.046     2.369     2.407
    34   1 H        0.924     0.032     2.553     2.499
    35   1 H        0.924     0.033     2.544     2.494
    36   1 H        0.925     0.036     2.508     2.476
    37   1 H        0.925     0.033     2.542     2.493
    38   1 H        0.925     0.062     2.177     2.308
    39   1 H        0.803     0.319     0.667     1.283
    40   1 H        0.806     0.275     0.802     1.407
    41   8 O        1.609    -0.595    25.061     6.756
    42   1 H        0.805     0.297     0.729     1.341
    43   1 H        0.804     0.312     0.687     1.302
    44   7 N        2.692    -0.182    24.936     7.417
    45   6 C        2.753     0.264    22.552     7.776
    46   8 O        0.858    -0.434    22.375     6.342
    47   6 C        3.757    -0.141    23.274     6.878
    48   6 C        2.749     0.277    22.317     7.735
    49   8 O        0.859    -0.462    22.956     6.424
    50   1 H        0.925     0.051     2.307     2.375
    51   1 H        0.925     0.063     2.159     2.298
    52   1 H        0.925     0.074     2.042     2.234
    53   7 N        2.686    -0.177    24.839     7.402
    54   6 C        3.690    -0.043    21.526     6.640
    55   1 H        0.924     0.053     2.285     2.364
    56   1 H        0.924     0.049     2.330     2.387
    57   1 H        0.925     0.082     1.954     2.186

 Mol. C6AA /au·bohr⁶  :      29543.852470
 Mol. C8AA /au·bohr⁸  :     657868.035978
 Mol. α(0) /au        :        262.771606


Wiberg/Mayer (AO) data.
largest (>0.10) Wiberg bond orders for each atom

 ---------------------------------------------------------------------------
     #   Z sym  total        # sym  WBO       # sym  WBO       # sym  WBO
 ---------------------------------------------------------------------------
     1   7 N    3.355 --     2 C    1.156    19 H    0.951    18 H    0.887
                            10 C    0.108
     2   6 C    3.972 --     7 C    1.351     3 C    1.339     1 N    1.156
     3   6 C    3.989 --     4 C    1.472     2 C    1.339    20 H    0.967
                             6 C    0.101
     4   6 C    3.992 --     3 C    1.472     5 C    1.395    21 H    0.969
                             7 C    0.102
     5   6 C    3.976 --     6 C    1.403     4 C    1.395     8 C    1.010
     6   6 C    3.991 --     7 C    1.458     5 C    1.403    22 H    0.967
                             3 C    0.101
     7   6 C    3.988 --     6 C    1.458     2 C    1.351    23 H    0.969
                             4 C    0.102
     8   6 C    3.990 --     5 C    1.010     9 C    0.980    24 H    0.969
                            25 H    0.967
     9   6 C    3.961 --     8 C    0.980    44 N    0.973    26 H    0.953
                            45 C    0.913
    10   6 C    3.927 --    16 O    1.703    11 C    1.098    29 H    0.940
                             1 N    0.108
    11   6 C    3.989 --    12 C    1.804    10 C    1.098    30 H    0.965
    12   6 C    3.978 --    11 C    1.804    13 C    1.047    31 H    0.961
    13   6 C    3.996 --    12 C    1.047    14 C    0.977    33 H    0.972
                            32 H    0.952
    14   6 C    3.994 --    15 C    1.018    34 H    0.980    35 H    0.979
                            13 C    0.977
    15   6 C    3.993 --    14 C    1.018    37 H    0.988    36 H    0.986
                            38 H    0.981
    16   8 O    2.023 --    10 C    1.703
    17   8 O    1.835 --    40 H    0.922    39 H    0.850
    18   1 H    0.952 --     1 N    0.887
    19   1 H    0.971 --     1 N    0.951
    20   1 H    0.998 --     3 C    0.967
    21   1 H    0.999 --     4 C    0.969
    22   1 H    0.999 --     6 C    0.967
    23   1 H    0.999 --     7 C    0.969
    24   1 H    0.996 --     8 C    0.969
    25   1 H    0.995 --     8 C    0.967
    26   1 H    0.996 --     9 C    0.953
    27   1 H    0.966 --    44 N    0.931
    28   1 H    0.958 --    53 N    0.906
    29   1 H    0.999 --    10 C    0.940
    30   1 H    0.999 --    11 C    0.965
    31   1 H    0.996 --    12 C    0.961
    32   1 H    0.997 --    13 C    0.952
    33   1 H    0.998 --    13 C    0.972
    34   1 H    0.999 --    14 C    0.980
    35   1 H    0.999 --    14 C    0.979
    36   1 H    0.997 --    15 C    0.986
    37   1 H    0.999 --    15 C    0.988
    38   1 H    0.996 --    15 C    0.981
    39   1 H    0.898 --    17 O    0.850
    40   1 H    0.924 --    17 O    0.922
    41   8 O    1.875 --    42 H    0.899    43 H    0.876
    42   1 H    0.911 --    41 O    0.899
    43   1 H    0.903 --    41 O    0.876
    44   7 N    3.459 --    48 C    1.280     9 C    0.973    27 H    0.931
                            49 O    0.192
    45   6 C    3.956 --    46 O    1.680    53 N    1.291     9 C    0.913
    46   8 O    2.012 --    45 C    1.680    53 N    0.212
    47   6 C    3.993 --    48 C    0.984    52 H    0.981    50 H    0.976
                            51 H    0.965
    48   6 C    3.951 --    49 O    1.633    44 N    1.280    47 C    0.984
    49   8 O    1.985 --    48 C    1.633    44 N    0.192
    50   1 H    0.997 --    47 C    0.976
    51   1 H    0.996 --    47 C    0.965
    52   1 H    0.994 --    47 C    0.981
    53   7 N    3.465 --    45 C    1.291    54 C    1.006    28 H    0.906
                            46 O    0.212
    54   6 C    3.965 --    53 N    1.006    55 H    0.977    57 H    0.977
                            56 H    0.976
    55   1 H    0.997 --    54 C    0.977
    56   1 H    0.998 --    54 C    0.976
    57   1 H    0.993 --    54 C    0.977
 ---------------------------------------------------------------------------

Topologies differ in total number of bonds
Writing topology from bond orders to xtbtopo.mol

molecular dipole:
                 x           y           z       tot (Debye)
 q only:       -0.158       0.453      -0.940
   full:       -0.665       0.314      -1.458       4.151
molecular quadrupole (traceless):
                xx          xy          yy          xz          yz          zz
 q only:      -14.478       9.841       7.402      -4.576       2.086       7.076
  q+dip:      -20.612       6.183       8.096      -6.523       7.860      12.516
   full:      -21.059       6.332       8.162      -5.646       4.377      12.897

           -------------------------------------------------
          |               Frequency Printout                |
           -------------------------------------------------
 projected vibrational frequencies (cm⁻¹)
eigval :       -0.00    -0.00    -0.00     0.00     0.00     0.00
eigval :       12.66    18.12    27.24    29.40    33.58    39.13
eigval :       48.39    54.86    59.87    61.90    71.52    76.49
eigval :       80.16    83.78    88.66    99.24   109.15   117.60
eigval :      125.36   129.74   140.14   156.64   157.65   171.35
eigval :      182.87   193.80   205.46   212.17   230.25   240.17
eigval :      262.03   289.77   291.01   296.61   301.98   330.26
eigval :      349.52   355.81   382.54   386.53   393.61   406.86
eigval :      416.48   435.80   443.99   450.17   477.19   488.59
eigval :      531.78   567.80   577.26   602.23   613.70   629.65
eigval :      643.11   673.28   675.59   692.98   725.82   728.09
eigval :      756.92   779.30   791.69   809.73   843.45   864.86
eigval :      869.84   883.42   893.09   908.76   922.11   923.32
eigval :      928.88   940.25   975.75   992.17   997.00  1002.35
eigval :     1009.93  1018.92  1033.94  1048.83  1073.73  1077.27
eigval :     1089.64  1104.64  1110.03  1117.13  1130.53  1144.58
eigval :     1160.22  1164.11  1196.36  1209.24  1219.68  1222.54
eigval :     1222.73  1239.23  1252.18  1265.74  1281.76  1284.98
eigval :     1287.12  1295.62  1312.24  1322.53  1342.67  1348.04
eigval :     1374.33  1381.92  1393.05  1418.99  1423.91  1430.05
eigval :     1433.85  1456.95  1462.62  1466.13  1473.12  1478.57
eigval :     1481.69  1484.40  1493.95  1501.27  1504.52  1514.30
eigval :     1548.35  1551.47  1577.09  1615.16  1636.21  1677.84
eigval :     1710.07  1759.22  2804.16  2914.11  2956.48  2969.99
eigval :     2970.46  2985.55  2991.21  2991.81  3003.09  3008.16
eigval :     3021.53  3030.79  3031.93  3032.55  3039.68  3051.46
eigval :     3055.47  3057.01  3063.74  3070.68  3075.36  3082.57
eigval :     3095.14  3220.42  3314.15  3321.35  3453.27  3455.93
eigval :     3465.91  3575.19  3667.07
 reduced masses (amu)
   1: 11.51   2: 12.55   3: 12.19   4: 11.98   5: 12.46   6: 12.40   7: 11.58   8: 12.15
   9: 12.90  10: 11.81  11: 12.43  12: 11.98  13: 11.28  14: 12.77  15:  9.87  16: 10.94
  17:  4.64  18:  6.79  19: 10.33  20: 11.05  21: 10.62  22:  9.24  23: 11.48  24: 11.91
  25:  2.50  26: 11.47  27: 11.15  28:  6.65  29: 11.28  30: 12.05  31: 12.35  32: 11.32
  33: 10.76  34: 11.65  35: 10.86  36: 12.38  37:  2.00  38:  8.56  39:  6.97  40:  9.03
  41:  9.88  42:  9.75  43:  8.96  44: 10.78  45:  8.97  46:  3.23  47:  8.47  48:  6.75
  49:  9.65  50:  5.85  51:  4.61  52:  9.42  53: 10.47  54: 10.73  55:  9.58  56:  2.94
  57:  8.19  58: 10.09  59: 10.95  60:  2.43  61:  8.46  62:  6.86  63:  4.98  64:  7.72
  65:  9.72  66: 11.44  67:  5.97  68:  9.23  69:  2.51  70:  6.07  71:  3.70  72:  3.43
  73:  8.37  74:  9.89  75:  3.69  76:  2.69  77:  4.50  78:  4.71  79:  8.59  80:  6.06
  81: 10.97  82:  5.67  83:  5.19  84:  5.27  85:  3.65  86:  8.36  87:  7.73  88:  4.34
  89:  5.40  90:  6.71  91:  8.81  92:  3.91  93:  7.23  94:  8.09  95:  7.37  96:  3.24
  97:  8.47  98:  6.15  99:  1.85 100:  5.25 101:  4.99 102:  5.98 103:  4.54 104:  3.42
 105:  4.63 106:  2.46 107:  4.26 108:  3.26 109:  3.75 110:  4.01 111:  5.79 112:  9.66
 113: 11.11 114:  4.96 115:  3.28 116:  3.42 117:  2.62 118:  3.24 119:  9.96 120:  9.73
 121:  8.60 122:  1.68 123:  1.57 124:  1.67 125:  2.12 126:  2.15 127:  3.78 128:  2.47
 129:  1.87 130:  1.52 131:  1.63 132:  9.13 133:  2.32 134:  2.46 135: 11.54 136: 11.54
 137: 12.08 138: 12.02 139: 13.11 140: 13.20 141:  1.70 142:  1.74 143:  1.78 144:  1.90
 145:  1.89 146:  1.54 147:  1.49 148:  1.94 149:  1.54 150:  1.70 151:  1.81 152:  1.81
 153:  1.61 154:  1.73 155:  1.65 156:  1.79 157:  1.72 158:  1.79 159:  1.75 160:  1.86
 161:  1.80 162:  1.83 163:  1.86 164:  1.78 165:  1.87 166:  1.88 167:  1.84 168:  1.90
 169:  1.88 170:  1.78 171:  1.84
 IR intensities (km·mol⁻¹)
   1:  0.29   2:  0.01   3:  0.03   4:  0.07   5:  0.11   6:  0.16   7:  0.10   8:  0.26
   9:  0.61  10:  0.19  11:  2.92  12:  1.49  13:  4.71  14:  5.25  15:  1.80  16:  0.26
  17:  2.89  18:  3.34  19:  1.03  20:  8.34  21:  0.49  22:  7.12  23: 17.19  24: 14.60
  25:  0.75  26:  5.55  27:  8.98  28: 32.17  29: 20.63  30:  9.97  31: 21.75  32: 23.77
  33: 34.03  34: 36.04  35: 26.44  36:  7.73  37:  0.48  38: 19.92  39: 32.88  40:  7.53
  41:  7.07  42: 19.99  43: 22.93  44: 29.75  45:  2.13  46: 38.39  47: 34.43  48: 85.57
  49: 16.51  50:152.25  51: 94.26  52:  5.68  53:  2.40  54:  0.36  55: 12.26  56: 49.21
  57:  5.36  58: 31.88  59: 11.57  60:560.65  61: 52.52  62: 21.97  63:161.47  64: 26.53
  65: 72.82  66: 13.64  67:  4.08  68:  8.26  69: 17.08  70: 19.58  71:151.59  72:  6.37
  73:  2.64  74:  1.43  75:  8.73  76:  0.65  77:  8.86  78: 37.82  79:  2.80  80:  3.69
  81: 19.61  82:  4.07  83: 21.22  84: 22.81  85: 21.32  86:  0.08  87: 18.88  88:  3.00
  89:  7.66  90: 24.47  91:  0.07  92:  0.54  93: 11.56  94: 27.89  95: 23.83  96:  1.50
  97:  1.00  98:  1.93  99:  4.12 100:  2.98 101:  1.28 102:  9.97 103:  6.49 104: 11.14
 105: 32.45 106:  0.69 107: 13.58 108:  1.72 109:  4.33 110:  1.43 111: 16.31 112: 32.96
 113:  7.73 114:  7.41 115: 18.41 116: 24.20 117:  2.96 118:  3.02 119:208.12 120: 17.03
 121:234.44 122:  3.44 123: 10.19 124:  9.45 125:  5.74 126:  1.36 127: 19.55 128: 22.97
 129:  1.62 130:  3.94 131:  5.05 132:182.46 133:200.49 134: 23.24 135:  3.14 136: 11.39
 137:716.52 138:176.59 139:317.43 140:574.38 141: 96.46 142: 15.31 143:  4.78 144: 25.79
 145: 46.04 146: 31.05 147: 41.92 148: 14.58 149: 17.38 150: 21.22 151: 10.71 152: 50.25
 153: 12.17 154:  5.97 155: 45.20 156: 34.48 157:  0.34 158: 16.64 159:  5.63 160: 58.27
 161: 18.51 162: 36.55 163: 23.50 164:509.00 165:756.06 166:129.01 167: 23.45 168:218.63
 169: 31.56 170: 41.87 171:  9.12
 Raman intensities (Ä⁴*amu⁻¹)
   1:  0.00   2:  0.00   3:  0.00   4:  0.00   5:  0.00   6:  0.00   7:  0.00   8:  0.00
   9:  0.00  10:  0.00  11:  0.00  12:  0.00  13:  0.00  14:  0.00  15:  0.00  16:  0.00
  17:  0.00  18:  0.00  19:  0.00  20:  0.00  21:  0.00  22:  0.00  23:  0.00  24:  0.00
  25:  0.00  26:  0.00  27:  0.00  28:  0.00  29:  0.00  30:  0.00  31:  0.00  32:  0.00
  33:  0.00  34:  0.00  35:  0.00  36:  0.00  37:  0.00  38:  0.00  39:  0.00  40:  0.00
  41:  0.00  42:  0.00  43:  0.00  44:  0.00  45:  0.00  46:  0.00  47:  0.00  48:  0.00
  49:  0.00  50:  0.00  51:  0.00  52:  0.00  53:  0.00  54:  0.00  55:  0.00  56:  0.00
  57:  0.00  58:  0.00  59:  0.00  60:  0.00  61:  0.00  62:  0.00  63:  0.00  64:  0.00
  65:  0.00  66:  0.00  67:  0.00  68:  0.00  69:  0.00  70:  0.00  71:  0.00  72:  0.00
  73:  0.00  74:  0.00  75:  0.00  76:  0.00  77:  0.00  78:  0.00  79:  0.00  80:  0.00
  81:  0.00  82:  0.00  83:  0.00  84:  0.00  85:  0.00  86:  0.00  87:  0.00  88:  0.00
  89:  0.00  90:  0.00  91:  0.00  92:  0.00  93:  0.00  94:  0.00  95:  0.00  96:  0.00
  97:  0.00  98:  0.00  99:  0.00 100:  0.00 101:  0.00 102:  0.00 103:  0.00 104:  0.00
 105:  0.00 106:  0.00 107:  0.00 108:  0.00 109:  0.00 110:  0.00 111:  0.00 112:  0.00
 113:  0.00 114:  0.00 115:  0.00 116:  0.00 117:  0.00 118:  0.00 119:  0.00 120:  0.00
 121:  0.00 122:  0.00 123:  0.00 124:  0.00 125:  0.00 126:  0.00 127:  0.00 128:  0.00
 129:  0.00 130:  0.00 131:  0.00 132:  0.00 133:  0.00 134:  0.00 135:  0.00 136:  0.00
 137:  0.00 138:  0.00 139:  0.00 140:  0.00 141:  0.00 142:  0.00 143:  0.00 144:  0.00
 145:  0.00 146:  0.00 147:  0.00 148:  0.00 149:  0.00 150:  0.00 151:  0.00 152:  0.00
 153:  0.00 154:  0.00 155:  0.00 156:  0.00 157:  0.00 158:  0.00 159:  0.00 160:  0.00
 161:  0.00 162:  0.00 163:  0.00 164:  0.00 165:  0.00 166:  0.00 167:  0.00 168:  0.00
 169:  0.00 170:  0.00 171:  0.00
 output can be read by thermo (or use thermo option).
 writing <g98.out> molden fake output.
 recommended (thermochemical) frequency scaling factor: 1.0
           -------------------------------------------------
          |             Thermodynamic Functions             |
           -------------------------------------------------

Refinement of some symmetry elements was terminated before convergence was reached.
Some symmetry elements may remain unidentified.
Molecule has no symmetry elements
It seems to be the C1 point group
c1  symmetry found (for desy threshold:  0.10E+00) used in thermo

          ...................................................
          :                      SETUP                      :
          :.................................................:
          :  # frequencies                         165      :
          :  # imaginary freq.                       0      :
          :  linear?                             false      :
          :  only rotor calc.                    false      :
          :  symmetry                               c1      :
          :  rotational number                       1      :
          :  scaling factor                  1.0000000      :
          :  rotor cutoff                   50.0000000 cm⁻¹ :
          :  imag. cutoff                  -20.0000000 cm⁻¹ :
          :.................................................:

    mode    ω/cm⁻¹     T·S(HO)/kcal·mol⁻¹    T·S(FR)/kcal·mol⁻¹   T·S(vib)
   ------------------------------------------------------------------------
       1     12.66    -2.24893 (  0.41%)    -1.46344 ( 99.59%)    -1.46665
       2     18.12    -2.03648 (  1.70%)    -1.35719 ( 98.30%)    -1.36871
       3     27.24    -1.79508 (  8.10%)    -1.23640 ( 91.90%)    -1.28164
       4     29.40    -1.74993 ( 10.68%)    -1.21379 ( 89.32%)    -1.27106
       5     33.58    -1.67140 ( 16.90%)    -1.17445 ( 83.10%)    -1.25845
       6     39.13    -1.58096 ( 27.28%)    -1.12913 ( 72.72%)    -1.25239
       7     48.39    -1.45566 ( 46.72%)    -1.06625 ( 53.28%)    -1.24819
       8     54.86    -1.38167 ( 59.17%)    -1.02907 ( 40.83%)    -1.23768
       9     59.87    -1.33022 ( 67.27%)    -1.00318 ( 32.73%)    -1.22317
      10     61.90    -1.31055 ( 70.14%)    -0.99328 ( 29.86%)    -1.21582
      11     71.52    -1.22568 ( 80.72%)    -0.95048 ( 19.28%)    -1.17263
      12     76.49    -1.18629 ( 84.56%)    -0.93057 ( 15.44%)    -1.14682
      13     80.16    -1.15887 ( 86.85%)    -0.91670 ( 13.15%)    -1.12703
      14     83.78    -1.13309 ( 88.74%)    -0.90364 ( 11.26%)    -1.10725
      15     88.66    -1.10001 ( 90.81%)    -0.88686 (  9.19%)    -1.08043
      16     99.24    -1.03436 ( 93.95%)    -0.85347 (  6.05%)    -1.02341
      17    109.15    -0.97911 ( 95.78%)    -0.82526 (  4.22%)    -0.97262
      18    117.60    -0.93604 ( 96.84%)    -0.80318 (  3.16%)    -0.93184
      19    125.36    -0.89923 ( 97.53%)    -0.78424 (  2.47%)    -0.89639
      20    129.74    -0.87950 ( 97.84%)    -0.77406 (  2.16%)    -0.87722
      21    140.14    -0.83541 ( 98.41%)    -0.75123 (  1.59%)    -0.83407
      22    156.64    -0.77219 ( 98.97%)    -0.71825 (  1.03%)    -0.77163
      23    157.65    -0.76856 ( 99.00%)    -0.71634 (  1.00%)    -0.76803
      24    171.35    -0.72169 ( 99.28%)    -0.69166 (  0.72%)    -0.72148
      25    182.87    -0.68541 ( 99.44%)    -0.67238 (  0.56%)    -0.68533
      26    193.80    -0.65328 ( 99.56%)    -0.65519 (  0.44%)    -0.65329
      27    205.46    -0.62124 ( 99.65%)    -0.63789 (  0.35%)    -0.62129
      28    212.17    -0.60372 ( 99.69%)    -0.62836 (  0.31%)    -0.60380
      29    230.25    -0.55962 ( 99.78%)    -0.60414 (  0.22%)    -0.55972
      30    240.17    -0.53715 ( 99.81%)    -0.59165 (  0.19%)    -0.53726
      31    262.03    -0.49141 ( 99.87%)    -0.56584 (  0.13%)    -0.49151
      32    289.77    -0.43986 ( 99.91%)    -0.53603 (  0.09%)    -0.43995
      33    291.01    -0.43771 ( 99.91%)    -0.53476 (  0.09%)    -0.43779
      34    296.61    -0.42813 ( 99.92%)    -0.52912 (  0.08%)    -0.42822
   ------------------------------------------------------------------------

   temp. (K)  partition function   enthalpy   heat capacity  entropy
                                   cal/mol     cal/K/mol   cal/K/mol   J/K/mol
 298.15  VIB  0.519E+17            19676.746    106.850    129.282
         ROT  0.156E+08              888.752      2.981     35.891
         INT  0.807E+24            20565.499    109.831    165.173
         TR   0.687E+28             1481.254      4.968     43.594
         TOT                       22046.7528   114.7992   208.7669   873.4805

       T/K    H(0)-H(T)+PV         H(T)/Eh          T*S/Eh         G(T)/Eh
   ------------------------------------------------------------------------
    298.15    0.351337E-01    0.503005E+00    0.991919E-01    0.403813E+00
   ------------------------------------------------------------------------

         :::::::::::::::::::::::::::::::::::::::::::::::::::::
         ::                  THERMODYNAMIC                  ::
         :::::::::::::::::::::::::::::::::::::::::::::::::::::
         :: total free energy         -83.035367440119 Eh   ::
         ::.................................................::
         :: total energy              -83.439180339329 Eh   ::
         :: zero point energy           0.467871033223 Eh   ::
         :: G(RRHO) w/o ZPVE           -0.064058134014 Eh   ::
         :: G(RRHO) contrib.            0.403812899210 Eh   ::
         :::::::::::::::::::::::::::::::::::::::::::::::::::::

           -------------------------------------------------
          | TOTAL ENERGY              -83.439180339329 Eh   |
          | TOTAL ENTHALPY            -82.936175569219 Eh   |
          | TOTAL FREE ENERGY         -83.035367440119 Eh   |
          | GRADIENT NORM               0.000194422026 Eh/α |
          | HOMO-LUMO GAP               2.209193628669 eV   |
           -------------------------------------------------

------------------------------------------------------------------------
 * finished run on 2026/08/20 at 18:19:49.121     
------------------------------------------------------------------------
 total:
 * wall-time:     0 d,  0 h,  0 min, 25.810 sec
 *  cpu-time:     0 d,  0 h,  0 min, 24.406 sec
 * ratio c/w:     0.946 speedup
 SCF:
 * wall-time:     0 d,  0 h,  0 min,  0.142 sec
 *  cpu-time:     0 d,  0 h,  0 min,  0.125 sec
 * ratio c/w:     0.880 speedup
 analytical hessian:
 * wall-time:     0 d,  0 h,  0 min, 25.579 sec
 *  cpu-time:     0 d,  0 h,  0 min, 24.219 sec
 * ratio c/w:     0.947 speedup



================ STDERR ================

normal termination of xtb
