      -----------------------------------------------------------      
     |                   =====================                   |     
     |                           x T B                           |     
     |                   =====================                   |     
     |                         S. Grimme                         |     
     |          Mulliken Center for Theoretical Chemistry        |     
     |                    University of Bonn                     |     
      -----------------------------------------------------------      

   * xtb version 6.7.1pre (5071a88) compiled by 'Marcel@Raven' on 2024-07-23

   xtb is free software: you can redistribute it and/or modify it under
   the terms of the GNU Lesser General Public License as published by
   the Free Software Foundation, either version 3 of the License, or
   (at your option) any later version.
   
   xtb is distributed in the hope that it will be useful,
   but WITHOUT ANY WARRANTY; without even the implied warranty of
   MERCHANTABILITY or FITNESS FOR A PARTICULAR PURPOSE.  See the
   GNU Lesser General Public License for more details.
   
   Cite this work as:
   * C. Bannwarth, E. Caldeweyher, S. Ehlert, A. Hansen, P. Pracht,
     J. Seibert, S. Spicher, S. Grimme, WIREs Comput. Mol. Sci., 2020, 11,
     e01493. DOI: 10.1002/wcms.1493
   
   for GFN2-xTB:
   * C. Bannwarth, S. Ehlert and S. Grimme., J. Chem. Theory Comput., 2019,
     15, 1652-1671. DOI: 10.1021/acs.jctc.8b01176
   for GFN1-xTB:
   * S. Grimme, C. Bannwarth, P. Shushkov, J. Chem. Theory Comput., 2017,
     13, 1989-2009. DOI: 10.1021/acs.jctc.7b00118
   for GFN0-xTB:
   * P. Pracht, E. Caldeweyher, S. Ehlert, S. Grimme, ChemRxiv, 2019, preprint.
     DOI: 10.26434/chemrxiv.8326202.v1
   for GFN-FF:
   * S. Spicher and S. Grimme, Angew. Chem. Int. Ed., 2020, 59, 15665-15673.
     DOI: 10.1002/anie.202004239
   
   for ALPB and GBSA implicit solvation:
   * S. Ehlert, M. Stahn, S. Spicher, S. Grimme, J. Chem. Theory Comput.,
     2021, 17, 4250-4261. DOI: 10.1021/acs.jctc.1c00471
   
   for ddCOSMO and CPCM-X implicit solvation:
   * M. Stahn, S. Ehlert, S. Grimme, J. Phys. Chem. A,
     2023, XX, XXXX-XXXX. DOI: 10.1021/acs.jpca.3c04382
   
   for DFT-D4:
   * E. Caldeweyher, C. Bannwarth and S. Grimme, J. Chem. Phys., 2017,
     147, 034112. DOI: 10.1063/1.4993215
   * E. Caldeweyher, S. Ehlert, A. Hansen, H. Neugebauer, S. Spicher,
     C. Bannwarth and S. Grimme, J. Chem. Phys., 2019, 150, 154122.
     DOI: 10.1063/1.5090222
   * E. Caldeweyher, J.-M. Mewes, S. Ehlert and S. Grimme, Phys. Chem. Chem. Phys.
     2020, 22, 8499-8512. DOI: 10.1039/D0CP00502A
   
   for sTDA-xTB:
   * S. Grimme and C. Bannwarth, J. Chem. Phys., 2016, 145, 054103.
     DOI: 10.1063/1.4959605
   
   in the mass-spec context:
   * V. Asgeirsson, C. Bauer and S. Grimme, Chem. Sci., 2017, 8, 4879.
     DOI: 10.1039/c7sc00601b
   * J. Koopman and S. Grimme, ACS Omega 2019, 4, 12, 15120-15133.
     DOI: 10.1021/acsomega.9b02011
   
   for metadynamics refer to:
   * S. Grimme, J. Chem. Theory Comput., 2019, 155, 2847-2862
     DOI: 10.1021/acs.jctc.9b00143
   
   for SPH calculations refer to:
   * S. Spicher and S. Grimme, J. Chem. Theory Comput., 2021, 17, 1701-1714
     DOI: 10.1021/acs.jctc.0c01306
   
   for ONIOM refer to:
   * C. Plett, A. Katbashev, S. Ehlert, S. Grimme, M. Bursch,
     Phys. Chem. Chem. Phys., 2023, 25, 17860-17868. DOI: 10.1039/D3CP02178E
   
   for DIPRO refer to:
   * J. Kohn, N. Gildemeister, S. Grimme, D. Fazzi, A. Hansen,
     J. Chem. Phys., 2023, just accepted.
   
   for PTB refer to:
   * S. Grimme, M. Mueller, A. Hansen, J. Chem. Phys., 2023, 158, 124111.
     DOI: 10.1063/5.0137838
   
   with help from (in alphabetical order)
   P. Atkinson, C. Bannwarth, F. Bohle, G. Brandenburg, E. Caldeweyher
   M. Checinski, S. Dohm, S. Ehlert, S. Ehrlich, I. Gerasimov, C. Hölzer
   A. Katbashev, J. Kohn, J. Koopman, C. Lavigne, S. Lehtola, F. März, M. Müller,
   F. Musil, H. Neugebauer, J. Pisarek, C. Plett, P. Pracht, F. Pultar,
   J. Seibert, P. Shushkov, S. Spicher, M. Stahn, M. Steiner, T. Strunk,
   J. Stückrath, T. Rose, and J. Unsleber
   
 * started run on 2026/08/20 at 18:18:20.942     
   ID    Z sym.   atoms
    1    7 N      1, 44, 53
    2    6 C      2-15, 45, 47, 48, 54
    3    8 O      16, 17, 41, 46, 49
    4    1 H      18-40, 42, 43, 50-52, 55-57

           -------------------------------------------------
          |                Calculation Setup                |
           -------------------------------------------------

          program call               : C:\Users\Nayanika\Downloads\xtb-6.7.1pre-windows-x86_64\xtb-6.7.1\bin\xtb.exe D:\PhD_Thesis\LmrR_EVB\charges\fast_lmrr_5QM\xtb_preparation\TS1_2_to_PS1_2b\TS1_2_to_PS1_2b_RS_xtbopt.xyz --gfn 2 --chrg 0 --uhf 0 --hess --etemp 0
          coordinate file            : D:\PhD_Thesis\LmrR_EVB\charges\fast_lmrr_5QM\xtb_preparation\TS1_2_to_PS1_2b\TS1_2_to_PS1_2b_RS_xtbopt.xyz
          omp threads                :                     1


molecular fragmentation (1/2 indicates fragments):
111111111222222221111111111122222222222222211111111111111
# atoms in fragment 1/2:    34    23
 fragment masses (1/2) :      235.28      134.17
CMA distance (Bohr)    :   9.588
constraining FC (au)   :  0.0500

           -------------------------------------------------
          |                 G F N 2 - x T B                 |
           -------------------------------------------------

        Reference                      10.1021/acs.jctc.8b01176
      * Hamiltonian:
        H0-scaling (s, p, d)           1.850000    2.230000    2.230000
        zeta-weighting                 0.500000
      * Dispersion:
        s8                             2.700000
        a1                             0.520000
        a2                             5.000000
        s9                             5.000000
      * Repulsion:
        kExp                           1.500000    1.000000
        rExp                           1.000000
      * Coulomb:
        alpha                          2.000000
        third order                    shell-resolved
        anisotropic                    true
        a3                             3.000000
        a5                             4.000000
        cn-shift                       1.200000
        cn-exp                         4.000000
        max-rad                        5.000000

q/qsh data taken from xtbrestart
CAMM data taken from xtbrestart

          ...................................................
          :                      SETUP                      :
          :.................................................:
          :  # basis functions                 135          :
          :  # atomic orbitals                 135          :
          :  # shells                           83          :
          :  # electrons                       148          :
          :  max. iterations                   250          :
          :  Hamiltonian                  GFN2-xTB          :
          :  restarted?                       true          :
          :  GBSA solvation                  false          :
          :  PC potential                    false          :
          :  electronic temp.            0.0000000     K    :
          :  accuracy                    1.0000000          :
          :  -> integral cutoff          0.2500000E+02      :
          :  -> integral neglect         0.1000000E-07      :
          :  -> SCF convergence          0.1000000E-05 Eh   :
          :  -> wf. convergence          0.1000000E-03 e    :
          :  Broyden damping             0.4000000          :
          :  net charge                          0          :
          :  unpaired electrons                  0          :
          ...................................................

 iter      E             dE          RMSdq      gap      omega  full diag
   1    -84.5403200 -0.845403E+02  0.111E-06    2.21       0.0  T
   2    -84.5403200 -0.426326E-13  0.823E-07    2.21   16100.2  T
   3    -84.5403200  0.000000E+00  0.438E-07    2.21   30241.4  T

   *** convergence criteria satisfied after 3 iterations ***

         #    Occupation            Energy/Eh            Energy/eV
      -------------------------------------------------------------
         1        2.0000           -0.7122651             -19.3817
       ...           ...                  ...                  ...
        68        2.0000           -0.4162286             -11.3262
        69        2.0000           -0.4110935             -11.1864
        70        2.0000           -0.4060038             -11.0479
        71        2.0000           -0.4004571             -10.8970
        72        2.0000           -0.3995122             -10.8713
        73        2.0000           -0.3869500             -10.5294
        74        2.0000           -0.3660314              -9.9602 (HOMO)
        75                         -0.2849697              -7.7544 (LUMO)
        76                         -0.2245069              -6.1091
        77                         -0.2223382              -6.0501
        78                         -0.2151348              -5.8541
        79                         -0.2078838              -5.6568
       ...                                ...                  ...
       135                          0.6585902              17.9212
      -------------------------------------------------------------
                  HL-Gap            0.0810617 Eh            2.2058 eV
             Fermi-level            0.0000000 Eh            0.0000 eV

 SCC (total)                   0 d,  0 h,  0 min,  0.091 sec
 SCC setup                      ...        0 min,  0.001 sec (  1.099%)
 Dispersion                     ...        0 min,  0.001 sec (  1.099%)
 classical contributions        ...        0 min,  0.001 sec (  1.099%)
 integral evaluation            ...        0 min,  0.014 sec ( 15.385%)
 iterations                     ...        0 min,  0.024 sec ( 26.374%)
 molecular gradient             ...        0 min,  0.048 sec ( 52.747%)
 printout                       ...        0 min,  0.002 sec (  2.198%)

         :::::::::::::::::::::::::::::::::::::::::::::::::::::
         ::                     SUMMARY                     ::
         :::::::::::::::::::::::::::::::::::::::::::::::::::::
         :: total energy             -83.439246252049 Eh    ::
         :: gradient norm              0.000240721135 Eh/a0 ::
         :: HOMO-LUMO gap              2.205799893194 eV    ::
         ::.................................................::
         :: SCC energy               -84.538362667971 Eh    ::
         :: -> isotropic ES            0.175849979818 Eh    ::
         :: -> anisotropic ES         -0.001583143563 Eh    ::
         :: -> anisotropic XC          0.029480131520 Eh    ::
         :: -> dispersion             -0.057910996784 Eh    ::
         :: repulsion energy           1.099116415922 Eh    ::
         :: add. restraining           0.000000000000 Eh    ::
         :: total charge               0.000000000000 e     ::
         :::::::::::::::::::::::::::::::::::::::::::::::::::::

           ------------------------------------------------- 
          |                Numerical Hessian                |
           ------------------------------------------------- 
step length          :   0.00500
SCC accuracy         :   0.30000
Hessian scale factor :   1.00000
frozen atoms in %    :   0.00000    0
RMS gradient         :   0.00024
estimated CPU  time      0.66 min
estimated wall time      0.77 min

writing file <hessian>.

 projected vibrational frequencies (cm⁻¹)
eigval :       -0.00    -0.00    -0.00     0.00     0.00     0.00
eigval :       12.72    18.04    27.40    29.37    33.39    38.76
eigval :       47.35    54.44    59.55    61.60    72.62    75.70
eigval :       80.42    84.50    89.87    99.51   107.83   116.98
eigval :      125.63   129.85   139.95   156.03   156.76   171.12
eigval :      182.66   193.53   204.81   211.58   228.97   239.93
eigval :      261.79   289.23   290.46   295.72   301.16   330.86
eigval :      350.16   355.32   382.73   386.30   393.44   406.52
eigval :      415.74   436.87   445.05   449.27   476.28   488.72
eigval :      531.03   566.56   577.61   601.88   613.65   626.55
eigval :      643.10   669.84   674.01   692.26   725.33   728.58
eigval :      755.20   779.37   791.65   809.82   844.26   865.40
eigval :      870.17   883.45   892.65   908.79   921.86   923.10
eigval :      927.89   940.71   975.29   992.14   997.10  1002.54
eigval :     1010.05  1019.07  1034.53  1051.35  1073.61  1077.41
eigval :     1089.72  1104.64  1110.56  1116.83  1130.58  1144.87
eigval :     1160.36  1164.45  1196.47  1209.14  1219.47  1222.49
eigval :     1223.15  1238.81  1251.80  1265.60  1281.47  1284.83
eigval :     1287.38  1296.11  1312.45  1322.24  1343.14  1348.69
eigval :     1374.09  1381.20  1393.07  1418.88  1423.78  1430.17
eigval :     1433.80  1457.27  1462.65  1466.23  1472.21  1478.47
eigval :     1480.36  1484.39  1493.80  1501.40  1504.71  1514.04
eigval :     1547.88  1551.30  1577.43  1615.29  1635.87  1677.83
eigval :     1711.26  1758.92  2805.22  2913.54  2954.95  2969.89
eigval :     2970.23  2985.86  2991.17  2991.96  3003.44  3008.86
eigval :     3022.56  3030.10  3030.17  3032.32  3039.44  3051.43
eigval :     3055.06  3056.60  3064.90  3070.57  3074.86  3081.93
eigval :     3095.59  3219.05  3320.99  3323.18  3454.54  3460.44
eigval :     3467.23  3569.58  3667.05
           -------------------------------------------------
          |                Property Printout                |
           -------------------------------------------------

    * Orbital Energies and Occupations

         #    Occupation            Energy/Eh            Energy/eV
      -------------------------------------------------------------
         1        2.0000           -0.7122651             -19.3817
       ...           ...                  ...                  ...
        62        2.0000           -0.4360716             -11.8661
        63        2.0000           -0.4359598             -11.8631
        64        2.0000           -0.4337583             -11.8032
        65        2.0000           -0.4307856             -11.7223
        66        2.0000           -0.4267255             -11.6118
        67        2.0000           -0.4205471             -11.4437
        68        2.0000           -0.4162286             -11.3262
        69        2.0000           -0.4110935             -11.1864
        70        2.0000           -0.4060038             -11.0479
        71        2.0000           -0.4004571             -10.8970
        72        2.0000           -0.3995122             -10.8713
        73        2.0000           -0.3869500             -10.5294
        74        2.0000           -0.3660314              -9.9602 (HOMO)
        75                         -0.2849697              -7.7544 (LUMO)
        76                         -0.2245069              -6.1091
        77                         -0.2223382              -6.0501
        78                         -0.2151348              -5.8541
        79                         -0.2078838              -5.6568
        80                         -0.1697907              -4.6202
        81                         -0.0921151              -2.5066
        82                         -0.0015923              -0.0433
        83                          0.0079679               0.2168
        84                          0.0284799               0.7750
        85                          0.0736057               2.0029
       ...                                ...                  ...
       135                          0.6585901              17.9212
      -------------------------------------------------------------
                  HL-Gap            0.0810617 Eh            2.2058 eV
             Fermi-level            0.0000000 Eh            0.0000 eV

     #   Z          covCN         q      C6AA      α(0)
     1   7 N        2.649    -0.279    27.197     7.745
     2   6 C        2.900     0.077    26.290     8.407
     3   6 C        2.923    -0.059    29.465     8.902
     4   6 C        2.924    -0.038    28.950     8.824
     5   6 C        2.970    -0.005    28.137     8.701
     6   6 C        2.924    -0.044    29.083     8.844
     7   6 C        2.922    -0.063    29.568     8.917
     8   6 C        3.812    -0.070    21.822     6.649
     9   6 C        3.796     0.020    20.240     6.406
    10   6 C        2.775     0.209    23.576     7.952
    11   6 C        2.890    -0.064    29.587     8.918
    12   6 C        2.897    -0.001    28.041     8.682
    13   6 C        3.807    -0.061    21.666     6.626
    14   6 C        3.802    -0.047    21.406     6.587
    15   6 C        3.753    -0.110    22.667     6.789
    16   8 O        0.856    -0.426    22.205     6.318
    17   8 O        1.609    -0.607    25.358     6.796
    18   1 H        0.859     0.218     1.021     1.583
    19   1 H        0.860     0.169     1.281     1.773
    20   1 H        0.926     0.041     2.437     2.441
    21   1 H        0.926     0.031     2.568     2.506
    22   1 H        0.925     0.022     2.696     2.568
    23   1 H        0.925     0.024     2.671     2.556
    24   1 H        0.924     0.061     2.193     2.316
    25   1 H        0.924     0.059     2.209     2.324
    26   1 H        0.924     0.061     2.193     2.316
    27   1 H        0.860     0.183     1.197     1.714
    28   1 H        0.860     0.205     1.079     1.627
    29   1 H        0.923     0.011     2.875     2.651
    30   1 H        0.926     0.036     2.498     2.471
    31   1 H        0.925     0.064     2.153     2.294
    32   1 H        0.924     0.056     2.241     2.341
    33   1 H        0.924     0.046     2.366     2.406
    34   1 H        0.924     0.033     2.549     2.497
    35   1 H        0.924     0.033     2.543     2.494
    36   1 H        0.925     0.036     2.509     2.477
    37   1 H        0.925     0.033     2.544     2.494
    38   1 H        0.925     0.061     2.182     2.310
    39   1 H        0.803     0.319     0.668     1.284
    40   1 H        0.806     0.275     0.802     1.407
    41   8 O        1.609    -0.595    25.066     6.757
    42   1 H        0.805     0.298     0.727     1.339
    43   1 H        0.804     0.311     0.689     1.304
    44   7 N        2.692    -0.182    24.935     7.416
    45   6 C        2.753     0.264    22.554     7.777
    46   8 O        0.858    -0.434    22.374     6.342
    47   6 C        3.757    -0.141    23.278     6.879
    48   6 C        2.749     0.277    22.318     7.736
    49   8 O        0.859    -0.461    22.947     6.422
    50   1 H        0.925     0.053     2.288     2.366
    51   1 H        0.925     0.062     2.174     2.306
    52   1 H        0.925     0.074     2.044     2.236
    53   7 N        2.686    -0.177    24.835     7.401
    54   6 C        3.690    -0.043    21.527     6.640
    55   1 H        0.924     0.053     2.286     2.364
    56   1 H        0.924     0.049     2.329     2.387
    57   1 H        0.925     0.083     1.953     2.186

 Mol. C6AA /au·bohr⁶  :      29543.288555
 Mol. C8AA /au·bohr⁸  :     657859.902076
 Mol. α(0) /au        :        262.769067


Wiberg/Mayer (AO) data.
largest (>0.10) Wiberg bond orders for each atom

 ---------------------------------------------------------------------------
     #   Z sym  total        # sym  WBO       # sym  WBO       # sym  WBO
 ---------------------------------------------------------------------------
     1   7 N    3.354 --     2 C    1.155    19 H    0.951    18 H    0.887
                            10 C    0.107
     2   6 C    3.972 --     7 C    1.351     3 C    1.338     1 N    1.155
     3   6 C    3.989 --     4 C    1.472     2 C    1.338    20 H    0.967
                             6 C    0.101
     4   6 C    3.992 --     3 C    1.472     5 C    1.395    21 H    0.969
                             7 C    0.102
     5   6 C    3.976 --     6 C    1.404     4 C    1.395     8 C    1.010
     6   6 C    3.991 --     7 C    1.458     5 C    1.404    22 H    0.967
                             3 C    0.101
     7   6 C    3.988 --     6 C    1.458     2 C    1.351    23 H    0.969
                             4 C    0.102
     8   6 C    3.990 --     5 C    1.010     9 C    0.980    24 H    0.969
                            25 H    0.966
     9   6 C    3.961 --     8 C    0.980    44 N    0.973    26 H    0.952
                            45 C    0.913
    10   6 C    3.927 --    16 O    1.703    11 C    1.099    29 H    0.940
                             1 N    0.107
    11   6 C    3.989 --    12 C    1.803    10 C    1.099    30 H    0.966
    12   6 C    3.978 --    11 C    1.803    13 C    1.047    31 H    0.961
    13   6 C    3.996 --    12 C    1.047    14 C    0.978    33 H    0.972
                            32 H    0.951
    14   6 C    3.994 --    15 C    1.018    34 H    0.980    35 H    0.979
                            13 C    0.978
    15   6 C    3.993 --    14 C    1.018    37 H    0.988    36 H    0.986
                            38 H    0.981
    16   8 O    2.022 --    10 C    1.703
    17   8 O    1.835 --    40 H    0.922    39 H    0.851
    18   1 H    0.952 --     1 N    0.887
    19   1 H    0.971 --     1 N    0.951
    20   1 H    0.998 --     3 C    0.967
    21   1 H    0.999 --     4 C    0.969
    22   1 H    0.999 --     6 C    0.967
    23   1 H    0.999 --     7 C    0.969
    24   1 H    0.996 --     8 C    0.969
    25   1 H    0.995 --     8 C    0.966
    26   1 H    0.996 --     9 C    0.952
    27   1 H    0.966 --    44 N    0.931
    28   1 H    0.958 --    53 N    0.906
    29   1 H    0.999 --    10 C    0.940
    30   1 H    0.999 --    11 C    0.966
    31   1 H    0.996 --    12 C    0.961
    32   1 H    0.997 --    13 C    0.951
    33   1 H    0.998 --    13 C    0.972
    34   1 H    0.999 --    14 C    0.980
    35   1 H    0.999 --    14 C    0.979
    36   1 H    0.997 --    15 C    0.986
    37   1 H    0.999 --    15 C    0.988
    38   1 H    0.996 --    15 C    0.981
    39   1 H    0.898 --    17 O    0.851
    40   1 H    0.924 --    17 O    0.922
    41   8 O    1.875 --    42 H    0.898    43 H    0.876
    42   1 H    0.911 --    41 O    0.898
    43   1 H    0.903 --    41 O    0.876
    44   7 N    3.458 --    48 C    1.279     9 C    0.973    27 H    0.931
                            49 O    0.192
    45   6 C    3.956 --    46 O    1.680    53 N    1.291     9 C    0.913
    46   8 O    2.012 --    45 C    1.680    53 N    0.212
    47   6 C    3.993 --    48 C    0.984    52 H    0.982    50 H    0.974
                            51 H    0.966
    48   6 C    3.951 --    49 O    1.635    44 N    1.279    47 C    0.984
    49   8 O    1.986 --    48 C    1.635    44 N    0.192
    50   1 H    0.997 --    47 C    0.974
    51   1 H    0.996 --    47 C    0.966
    52   1 H    0.994 --    47 C    0.982
    53   7 N    3.465 --    45 C    1.291    54 C    1.006    28 H    0.906
                            46 O    0.212
    54   6 C    3.965 --    53 N    1.006    55 H    0.977    57 H    0.977
                            56 H    0.976
    55   1 H    0.997 --    54 C    0.977
    56   1 H    0.998 --    54 C    0.976
    57   1 H    0.993 --    54 C    0.977
 ---------------------------------------------------------------------------

Topologies differ in total number of bonds
Writing topology from bond orders to xtbtopo.mol

molecular dipole:
                 x           y           z       tot (Debye)
 q only:       -0.085       0.255      -1.028
   full:       -0.539      -0.008      -1.561       4.197
molecular quadrupole (traceless):
                xx          xy          yy          xz          yz          zz
 q only:      -13.913       7.388       9.248      -8.503       2.370       4.665
  q+dip:      -19.060       2.383      11.428     -11.298       8.067       7.632
   full:      -19.641       2.918      10.447     -10.483       4.890       9.195

           -------------------------------------------------
          |               Frequency Printout                |
           -------------------------------------------------
 projected vibrational frequencies (cm⁻¹)
eigval :       -0.00    -0.00    -0.00     0.00     0.00     0.00
eigval :       12.72    18.04    27.40    29.37    33.39    38.76
eigval :       47.35    54.44    59.55    61.60    72.62    75.70
eigval :       80.42    84.50    89.87    99.51   107.83   116.98
eigval :      125.63   129.85   139.95   156.03   156.76   171.12
eigval :      182.66   193.53   204.81   211.58   228.97   239.93
eigval :      261.79   289.23   290.46   295.72   301.16   330.86
eigval :      350.16   355.32   382.73   386.30   393.44   406.52
eigval :      415.74   436.87   445.05   449.27   476.28   488.72
eigval :      531.03   566.56   577.61   601.88   613.65   626.55
eigval :      643.10   669.84   674.01   692.26   725.33   728.58
eigval :      755.20   779.37   791.65   809.82   844.26   865.40
eigval :      870.17   883.45   892.65   908.79   921.86   923.10
eigval :      927.89   940.71   975.29   992.14   997.10  1002.54
eigval :     1010.05  1019.07  1034.53  1051.35  1073.61  1077.41
eigval :     1089.72  1104.64  1110.56  1116.83  1130.58  1144.87
eigval :     1160.36  1164.45  1196.47  1209.14  1219.47  1222.49
eigval :     1223.15  1238.81  1251.80  1265.60  1281.47  1284.83
eigval :     1287.38  1296.11  1312.45  1322.24  1343.14  1348.69
eigval :     1374.09  1381.20  1393.07  1418.88  1423.78  1430.17
eigval :     1433.80  1457.27  1462.65  1466.23  1472.21  1478.47
eigval :     1480.36  1484.39  1493.80  1501.40  1504.71  1514.04
eigval :     1547.88  1551.30  1577.43  1615.29  1635.87  1677.83
eigval :     1711.26  1758.92  2805.22  2913.54  2954.95  2969.89
eigval :     2970.23  2985.86  2991.17  2991.96  3003.44  3008.86
eigval :     3022.56  3030.10  3030.17  3032.32  3039.44  3051.43
eigval :     3055.06  3056.60  3064.90  3070.57  3074.86  3081.93
eigval :     3095.59  3219.05  3320.99  3323.18  3454.54  3460.44
eigval :     3467.23  3569.58  3667.05
 reduced masses (amu)
   1: 12.50   2: 12.41   3: 12.31   4: 11.67   5: 12.23   6: 11.98   7: 11.59   8: 12.12
   9: 13.03  10: 11.80  11: 12.36  12: 11.93  13: 11.27  14: 12.75  15: 10.28  16: 10.97
  17:  4.78  18:  6.72  19:  9.95  20: 10.71  21: 10.66  22:  9.39  23: 11.55  24: 11.99
  25:  2.37  26: 11.44  27: 11.17  28:  6.60  29: 11.27  30: 12.05  31: 12.36  32: 11.38
  33: 10.72  34: 11.66  35: 11.04  36: 12.36  37:  1.95  38:  7.25  39:  8.78  40:  8.72
  41:  9.77  42:  9.71  43:  9.00  44: 10.70  45:  8.99  46:  3.22  47:  8.58  48:  6.83
  49:  9.58  50:  5.76  51:  4.66  52:  9.36  53: 10.49  54: 10.70  55:  9.53  56:  2.98
  57:  8.19  58: 10.03  59: 10.86  60:  2.52  61:  8.42  62:  2.76  63:  8.95  64:  7.85
  65:  9.82  66: 11.45  67:  5.89  68:  9.25  69:  2.55  70:  6.05  71:  3.73  72:  3.44
  73:  8.31  74:  9.82  75:  3.69  76:  2.70  77:  4.94  78:  4.43  79:  8.52  80:  6.05
  81: 10.94  82:  5.68  83:  4.93  84:  5.30  85:  3.91  86:  8.37  87:  7.90  88:  4.25
  89:  5.39  90:  6.64  91:  8.80  92:  3.90  93:  7.23  94:  8.04  95:  7.37  96:  3.21
  97:  8.47  98:  6.20  99:  1.85 100:  5.25 101:  4.99 102:  5.80 103:  4.74 104:  3.43
 105:  4.63 106:  2.48 107:  4.29 108:  3.22 109:  3.71 110:  4.05 111:  5.87 112:  9.59
 113: 11.12 114:  4.99 115:  3.28 116:  3.43 117:  2.62 118:  3.24 119:  9.99 120:  9.73
 121:  8.60 122:  1.67 123:  1.57 124:  1.64 125:  2.10 126:  2.22 127:  3.61 128:  2.47
 129:  1.87 130:  1.52 131:  1.63 132:  9.23 133:  2.37 134:  2.43 135: 11.54 136: 11.54
 137: 12.07 138: 12.02 139: 13.11 140: 13.20 141:  1.70 142:  1.74 143:  1.77 144:  1.90
 145:  1.89 146:  1.55 147:  1.49 148:  1.94 149:  1.54 150:  1.70 151:  1.84 152:  1.78
 153:  1.61 154:  1.73 155:  1.65 156:  1.79 157:  1.72 158:  1.79 159:  1.75 160:  1.86
 161:  1.80 162:  1.83 163:  1.86 164:  1.78 165:  1.87 166:  1.88 167:  1.84 168:  1.90
 169:  1.89 170:  1.77 171:  1.84
 IR intensities (km·mol⁻¹)
   1:  0.18   2:  0.02   3:  0.00   4:  0.32   5:  0.07   6:  0.11   7:  0.23   8:  0.29
   9:  0.47  10:  0.36  11:  3.01  12:  1.33  13:  4.82  14:  5.34  15:  1.77  16:  0.38
  17:  3.78  18:  3.45  19:  0.68  20:  6.48  21:  0.66  22:  7.36  23: 17.10  24: 14.42
  25:  0.59  26:  5.28  27: 10.52  28: 39.24  29: 15.31  30:  9.81  31: 22.43  32: 23.63
  33: 39.58  34: 23.86  35: 29.01  36:  7.76  37:  0.54  38: 25.53  39: 24.34  40:  7.25
  41:  7.21  42: 20.50  43: 22.42  44: 31.93  45:  2.04  46: 39.65  47: 32.13  48: 81.35
  49: 17.03  50:145.59  51: 92.35  52:  5.87  53:  2.95  54:  0.25  55: 13.35  56: 47.69
  57:  4.99  58: 30.69  59: 16.34  60:560.59  61: 50.65  62:132.31  63: 58.96  64: 26.94
  65: 67.64  66: 12.02  67:  3.89  68:  8.60  69: 19.18  70: 19.21  71:148.28  72:  7.31
  73:  2.35  74:  1.66  75: 10.50  76:  0.76  77: 18.95  78: 27.76  79:  2.90  80:  3.54
  81: 19.53  82:  3.28  83: 18.92  84: 23.93  85: 22.49  86:  0.09  87: 18.87  88:  3.33
  89:  8.09  90: 24.37  91:  0.07  92:  0.49  93: 11.53  94: 28.25  95: 22.86  96:  1.55
  97:  0.42  98:  1.43  99:  4.23 100:  2.66 101:  1.86 102: 11.59 103:  5.41 104: 11.82
 105: 33.80 106:  0.69 107: 14.47 108:  2.32 109:  3.92 110:  2.83 111: 15.47 112: 33.75
 113:  7.65 114:  5.63 115: 18.54 116: 21.75 117:  3.03 118:  2.67 119:209.54 120: 15.24
 121:226.89 122:  2.80 123: 10.38 124: 10.04 125:  5.72 126:  4.02 127: 16.88 128: 23.54
 129:  1.19 130:  4.20 131:  5.09 132:175.30 133:199.14 134: 20.37 135:  3.46 136:  9.38
 137:721.59 138:174.12 139:316.55 140:578.67 141:110.31 142: 13.57 143:  5.27 144: 23.76
 145: 47.77 146: 30.67 147: 41.95 148: 13.77 149: 18.18 150: 22.48 151: 12.05 152: 43.44
 153: 16.49 154:  6.89 155: 46.40 156: 35.32 157:  0.40 158: 17.06 159:  4.16 160: 59.38
 161: 18.07 162: 36.52 163: 22.50 164:512.39 165:747.67 166:102.34 167: 22.43 168:203.73
 169: 44.85 170: 46.01 171:  9.17
 Raman intensities (Ä⁴*amu⁻¹)
   1:  0.00   2:  0.00   3:  0.00   4:  0.00   5:  0.00   6:  0.00   7:  0.00   8:  0.00
   9:  0.00  10:  0.00  11:  0.00  12:  0.00  13:  0.00  14:  0.00  15:  0.00  16:  0.00
  17:  0.00  18:  0.00  19:  0.00  20:  0.00  21:  0.00  22:  0.00  23:  0.00  24:  0.00
  25:  0.00  26:  0.00  27:  0.00  28:  0.00  29:  0.00  30:  0.00  31:  0.00  32:  0.00
  33:  0.00  34:  0.00  35:  0.00  36:  0.00  37:  0.00  38:  0.00  39:  0.00  40:  0.00
  41:  0.00  42:  0.00  43:  0.00  44:  0.00  45:  0.00  46:  0.00  47:  0.00  48:  0.00
  49:  0.00  50:  0.00  51:  0.00  52:  0.00  53:  0.00  54:  0.00  55:  0.00  56:  0.00
  57:  0.00  58:  0.00  59:  0.00  60:  0.00  61:  0.00  62:  0.00  63:  0.00  64:  0.00
  65:  0.00  66:  0.00  67:  0.00  68:  0.00  69:  0.00  70:  0.00  71:  0.00  72:  0.00
  73:  0.00  74:  0.00  75:  0.00  76:  0.00  77:  0.00  78:  0.00  79:  0.00  80:  0.00
  81:  0.00  82:  0.00  83:  0.00  84:  0.00  85:  0.00  86:  0.00  87:  0.00  88:  0.00
  89:  0.00  90:  0.00  91:  0.00  92:  0.00  93:  0.00  94:  0.00  95:  0.00  96:  0.00
  97:  0.00  98:  0.00  99:  0.00 100:  0.00 101:  0.00 102:  0.00 103:  0.00 104:  0.00
 105:  0.00 106:  0.00 107:  0.00 108:  0.00 109:  0.00 110:  0.00 111:  0.00 112:  0.00
 113:  0.00 114:  0.00 115:  0.00 116:  0.00 117:  0.00 118:  0.00 119:  0.00 120:  0.00
 121:  0.00 122:  0.00 123:  0.00 124:  0.00 125:  0.00 126:  0.00 127:  0.00 128:  0.00
 129:  0.00 130:  0.00 131:  0.00 132:  0.00 133:  0.00 134:  0.00 135:  0.00 136:  0.00
 137:  0.00 138:  0.00 139:  0.00 140:  0.00 141:  0.00 142:  0.00 143:  0.00 144:  0.00
 145:  0.00 146:  0.00 147:  0.00 148:  0.00 149:  0.00 150:  0.00 151:  0.00 152:  0.00
 153:  0.00 154:  0.00 155:  0.00 156:  0.00 157:  0.00 158:  0.00 159:  0.00 160:  0.00
 161:  0.00 162:  0.00 163:  0.00 164:  0.00 165:  0.00 166:  0.00 167:  0.00 168:  0.00
 169:  0.00 170:  0.00 171:  0.00
 output can be read by thermo (or use thermo option).
 writing <g98.out> molden fake output.
 recommended (thermochemical) frequency scaling factor: 1.0
           -------------------------------------------------
          |             Thermodynamic Functions             |
           -------------------------------------------------

Refinement of some symmetry elements was terminated before convergence was reached.
Some symmetry elements may remain unidentified.
Molecule has no symmetry elements
It seems to be the C1 point group
c1  symmetry found (for desy threshold:  0.10E+00) used in thermo

          ...................................................
          :                      SETUP                      :
          :.................................................:
          :  # frequencies                         165      :
          :  # imaginary freq.                       0      :
          :  linear?                             false      :
          :  only rotor calc.                    false      :
          :  symmetry                               c1      :
          :  rotational number                       1      :
          :  scaling factor                  1.0000000      :
          :  rotor cutoff                   50.0000000 cm⁻¹ :
          :  imag. cutoff                  -20.0000000 cm⁻¹ :
          :.................................................:

    mode    ω/cm⁻¹     T·S(HO)/kcal·mol⁻¹    T·S(FR)/kcal·mol⁻¹   T·S(vib)
   ------------------------------------------------------------------------
       1     12.72    -2.24586 (  0.42%)    -1.46190 ( 99.58%)    -1.46517
       2     18.04    -2.03913 (  1.67%)    -1.35852 ( 98.33%)    -1.36986
       3     27.40    -1.79158 (  8.28%)    -1.23464 ( 91.72%)    -1.28074
       4     29.37    -1.75066 ( 10.63%)    -1.21416 ( 89.37%)    -1.27121
       5     33.39    -1.67477 ( 16.59%)    -1.17614 ( 83.41%)    -1.25884
       6     38.76    -1.58659 ( 26.53%)    -1.13195 ( 73.47%)    -1.25257
       7     47.35    -1.46839 ( 44.58%)    -1.07264 ( 55.42%)    -1.24907
       8     54.44    -1.38621 ( 58.42%)    -1.03135 ( 41.58%)    -1.23865
       9     59.55    -1.33332 ( 66.80%)    -1.00474 ( 33.20%)    -1.22424
      10     61.60    -1.31347 ( 69.73%)    -0.99474 ( 30.27%)    -1.21698
      11     72.62    -1.21675 ( 81.65%)    -0.94597 ( 18.35%)    -1.16707
      12     75.70    -1.19243 ( 84.01%)    -0.93368 ( 15.99%)    -1.15105
      13     80.42    -1.15698 ( 87.00%)    -0.91574 ( 13.00%)    -1.12562
      14     84.50    -1.12810 ( 89.08%)    -0.90111 ( 10.92%)    -1.10330
      15     89.87    -1.09209 ( 91.26%)    -0.88284 (  8.74%)    -1.07379
      16     99.51    -1.03275 ( 94.01%)    -0.85265 (  5.99%)    -1.02196
      17    107.83    -0.98619 ( 95.58%)    -0.82888 (  4.42%)    -0.97923
      18    116.98    -0.93909 ( 96.77%)    -0.80475 (  3.23%)    -0.93475
      19    125.63    -0.89798 ( 97.55%)    -0.78360 (  2.45%)    -0.89518
      20    129.85    -0.87901 ( 97.85%)    -0.77381 (  2.15%)    -0.87674
      21    139.95    -0.83617 ( 98.40%)    -0.75163 (  1.60%)    -0.83481
      22    156.03    -0.77440 ( 98.96%)    -0.71941 (  1.04%)    -0.77383
      23    156.76    -0.77177 ( 98.98%)    -0.71803 (  1.02%)    -0.77122
      24    171.12    -0.72246 ( 99.28%)    -0.69207 (  0.72%)    -0.72224
      25    182.66    -0.68606 ( 99.44%)    -0.67273 (  0.56%)    -0.68598
      26    193.53    -0.65407 ( 99.56%)    -0.65561 (  0.44%)    -0.65408
      27    204.81    -0.62297 ( 99.65%)    -0.63883 (  0.35%)    -0.62303
      28    211.58    -0.60523 ( 99.69%)    -0.62919 (  0.31%)    -0.60531
      29    228.97    -0.56262 ( 99.77%)    -0.60580 (  0.23%)    -0.56272
      30    239.93    -0.53769 ( 99.81%)    -0.59194 (  0.19%)    -0.53779
      31    261.79    -0.49189 ( 99.87%)    -0.56611 (  0.13%)    -0.49198
      32    289.23    -0.44080 ( 99.91%)    -0.53658 (  0.09%)    -0.44089
      33    290.46    -0.43866 ( 99.91%)    -0.53532 (  0.09%)    -0.43874
      34    295.72    -0.42963 ( 99.92%)    -0.53001 (  0.08%)    -0.42971
   ------------------------------------------------------------------------

   temp. (K)  partition function   enthalpy   heat capacity  entropy
                                   cal/mol     cal/K/mol   cal/K/mol   J/K/mol
 298.15  VIB  0.546E+17            19689.359    106.848    129.355
         ROT  0.156E+08              888.752      2.981     35.890
         INT  0.850E+24            20578.112    109.829    165.245
         TR   0.687E+28             1481.254      4.968     43.594
         TOT                       22059.3656   114.7973   208.8387   873.7812

       T/K    H(0)-H(T)+PV         H(T)/Eh          T*S/Eh         G(T)/Eh
   ------------------------------------------------------------------------
    298.15    0.351538E-01    0.502995E+00    0.992260E-01    0.403769E+00
   ------------------------------------------------------------------------

         :::::::::::::::::::::::::::::::::::::::::::::::::::::
         ::                  THERMODYNAMIC                  ::
         :::::::::::::::::::::::::::::::::::::::::::::::::::::
         :: total free energy         -83.035477276757 Eh   ::
         ::.................................................::
         :: total energy              -83.439246252050 Eh   ::
         :: zero point energy           0.467841156372 Eh   ::
         :: G(RRHO) w/o ZPVE           -0.064072181080 Eh   ::
         :: G(RRHO) contrib.            0.403768975292 Eh   ::
         :::::::::::::::::::::::::::::::::::::::::::::::::::::

           -------------------------------------------------
          | TOTAL ENERGY              -83.439246252050 Eh   |
          | TOTAL ENTHALPY            -82.936251259017 Eh   |
          | TOTAL FREE ENERGY         -83.035477276757 Eh   |
          | GRADIENT NORM               0.000240727229 Eh/α |
          | HOMO-LUMO GAP               2.205800032955 eV   |
           -------------------------------------------------

------------------------------------------------------------------------
 * finished run on 2026/08/20 at 18:19:00.371     
------------------------------------------------------------------------
 total:
 * wall-time:     0 d,  0 h,  0 min, 39.419 sec
 *  cpu-time:     0 d,  0 h,  0 min, 34.500 sec
 * ratio c/w:     0.875 speedup
 SCF:
 * wall-time:     0 d,  0 h,  0 min,  0.092 sec
 *  cpu-time:     0 d,  0 h,  0 min,  0.078 sec
 * ratio c/w:     0.849 speedup
 analytical hessian:
 * wall-time:     0 d,  0 h,  0 min, 39.194 sec
 *  cpu-time:     0 d,  0 h,  0 min, 34.359 sec
 * ratio c/w:     0.877 speedup



================ STDERR ================

normal termination of xtb
