      -----------------------------------------------------------      
     |                   =====================                   |     
     |                           x T B                           |     
     |                   =====================                   |     
     |                         S. Grimme                         |     
     |          Mulliken Center for Theoretical Chemistry        |     
     |                    University of Bonn                     |     
      -----------------------------------------------------------      

   * xtb version 6.7.1pre (5071a88) compiled by 'Marcel@Raven' on 2024-07-23

   xtb is free software: you can redistribute it and/or modify it under
   the terms of the GNU Lesser General Public License as published by
   the Free Software Foundation, either version 3 of the License, or
   (at your option) any later version.
   
   xtb is distributed in the hope that it will be useful,
   but WITHOUT ANY WARRANTY; without even the implied warranty of
   MERCHANTABILITY or FITNESS FOR A PARTICULAR PURPOSE.  See the
   GNU Lesser General Public License for more details.
   
   Cite this work as:
   * C. Bannwarth, E. Caldeweyher, S. Ehlert, A. Hansen, P. Pracht,
     J. Seibert, S. Spicher, S. Grimme, WIREs Comput. Mol. Sci., 2020, 11,
     e01493. DOI: 10.1002/wcms.1493
   
   for GFN2-xTB:
   * C. Bannwarth, S. Ehlert and S. Grimme., J. Chem. Theory Comput., 2019,
     15, 1652-1671. DOI: 10.1021/acs.jctc.8b01176
   for GFN1-xTB:
   * S. Grimme, C. Bannwarth, P. Shushkov, J. Chem. Theory Comput., 2017,
     13, 1989-2009. DOI: 10.1021/acs.jctc.7b00118
   for GFN0-xTB:
   * P. Pracht, E. Caldeweyher, S. Ehlert, S. Grimme, ChemRxiv, 2019, preprint.
     DOI: 10.26434/chemrxiv.8326202.v1
   for GFN-FF:
   * S. Spicher and S. Grimme, Angew. Chem. Int. Ed., 2020, 59, 15665-15673.
     DOI: 10.1002/anie.202004239
   
   for ALPB and GBSA implicit solvation:
   * S. Ehlert, M. Stahn, S. Spicher, S. Grimme, J. Chem. Theory Comput.,
     2021, 17, 4250-4261. DOI: 10.1021/acs.jctc.1c00471
   
   for ddCOSMO and CPCM-X implicit solvation:
   * M. Stahn, S. Ehlert, S. Grimme, J. Phys. Chem. A,
     2023, XX, XXXX-XXXX. DOI: 10.1021/acs.jpca.3c04382
   
   for DFT-D4:
   * E. Caldeweyher, C. Bannwarth and S. Grimme, J. Chem. Phys., 2017,
     147, 034112. DOI: 10.1063/1.4993215
   * E. Caldeweyher, S. Ehlert, A. Hansen, H. Neugebauer, S. Spicher,
     C. Bannwarth and S. Grimme, J. Chem. Phys., 2019, 150, 154122.
     DOI: 10.1063/1.5090222
   * E. Caldeweyher, J.-M. Mewes, S. Ehlert and S. Grimme, Phys. Chem. Chem. Phys.
     2020, 22, 8499-8512. DOI: 10.1039/D0CP00502A
   
   for sTDA-xTB:
   * S. Grimme and C. Bannwarth, J. Chem. Phys., 2016, 145, 054103.
     DOI: 10.1063/1.4959605
   
   in the mass-spec context:
   * V. Asgeirsson, C. Bauer and S. Grimme, Chem. Sci., 2017, 8, 4879.
     DOI: 10.1039/c7sc00601b
   * J. Koopman and S. Grimme, ACS Omega 2019, 4, 12, 15120-15133.
     DOI: 10.1021/acsomega.9b02011
   
   for metadynamics refer to:
   * S. Grimme, J. Chem. Theory Comput., 2019, 155, 2847-2862
     DOI: 10.1021/acs.jctc.9b00143
   
   for SPH calculations refer to:
   * S. Spicher and S. Grimme, J. Chem. Theory Comput., 2021, 17, 1701-1714
     DOI: 10.1021/acs.jctc.0c01306
   
   for ONIOM refer to:
   * C. Plett, A. Katbashev, S. Ehlert, S. Grimme, M. Bursch,
     Phys. Chem. Chem. Phys., 2023, 25, 17860-17868. DOI: 10.1039/D3CP02178E
   
   for DIPRO refer to:
   * J. Kohn, N. Gildemeister, S. Grimme, D. Fazzi, A. Hansen,
     J. Chem. Phys., 2023, just accepted.
   
   for PTB refer to:
   * S. Grimme, M. Mueller, A. Hansen, J. Chem. Phys., 2023, 158, 124111.
     DOI: 10.1063/5.0137838
   
   with help from (in alphabetical order)
   P. Atkinson, C. Bannwarth, F. Bohle, G. Brandenburg, E. Caldeweyher
   M. Checinski, S. Dohm, S. Ehlert, S. Ehrlich, I. Gerasimov, C. Hölzer
   A. Katbashev, J. Kohn, J. Koopman, C. Lavigne, S. Lehtola, F. März, M. Müller,
   F. Musil, H. Neugebauer, J. Pisarek, C. Plett, P. Pracht, F. Pultar,
   J. Seibert, P. Shushkov, S. Spicher, M. Stahn, M. Steiner, T. Strunk,
   J. Stückrath, T. Rose, and J. Unsleber
   
 * started run on 2026/08/20 at 18:20:06.706     
   ID    Z sym.   atoms
    1    7 N      1, 44, 53
    2    6 C      2-15, 45, 47, 48, 54
    3    8 O      16, 17, 41, 46, 49
    4    1 H      18-40, 42, 43, 50-52, 55-57

           -------------------------------------------------
          |                Calculation Setup                |
           -------------------------------------------------

          program call               : C:\Users\Nayanika\Downloads\xtb-6.7.1pre-windows-x86_64\xtb-6.7.1\bin\xtb.exe D:\PhD_Thesis\LmrR_EVB\charges\fast_lmrr_5QM\xtb_preparation\TS1_2_to_PS1_2b\TS1_2_to_PS1_2b_PS_xtbopt.xyz --gfn 2 --chrg 0 --uhf 0 --hess --etemp 0
          coordinate file            : D:\PhD_Thesis\LmrR_EVB\charges\fast_lmrr_5QM\xtb_preparation\TS1_2_to_PS1_2b\TS1_2_to_PS1_2b_PS_xtbopt.xyz
          omp threads                :                     1


molecular fragmentation (1/2 indicates fragments):
111111111222222221111111111122222222222222211111111111111
# atoms in fragment 1/2:    34    23
 fragment masses (1/2) :      235.28      134.17
CMA distance (Bohr)    :   9.640
constraining FC (au)   :  0.0500

           -------------------------------------------------
          |                 G F N 2 - x T B                 |
           -------------------------------------------------

        Reference                      10.1021/acs.jctc.8b01176
      * Hamiltonian:
        H0-scaling (s, p, d)           1.850000    2.230000    2.230000
        zeta-weighting                 0.500000
      * Dispersion:
        s8                             2.700000
        a1                             0.520000
        a2                             5.000000
        s9                             5.000000
      * Repulsion:
        kExp                           1.500000    1.000000
        rExp                           1.000000
      * Coulomb:
        alpha                          2.000000
        third order                    shell-resolved
        anisotropic                    true
        a3                             3.000000
        a5                             4.000000
        cn-shift                       1.200000
        cn-exp                         4.000000
        max-rad                        5.000000

q/qsh data taken from xtbrestart
CAMM data taken from xtbrestart

          ...................................................
          :                      SETUP                      :
          :.................................................:
          :  # basis functions                 135          :
          :  # atomic orbitals                 135          :
          :  # shells                           83          :
          :  # electrons                       148          :
          :  max. iterations                   250          :
          :  Hamiltonian                  GFN2-xTB          :
          :  restarted?                       true          :
          :  GBSA solvation                  false          :
          :  PC potential                    false          :
          :  electronic temp.            0.0000000     K    :
          :  accuracy                    1.0000000          :
          :  -> integral cutoff          0.2500000E+02      :
          :  -> integral neglect         0.1000000E-07      :
          :  -> SCF convergence          0.1000000E-05 Eh   :
          :  -> wf. convergence          0.1000000E-03 e    :
          :  Broyden damping             0.4000000          :
          :  net charge                          0          :
          :  unpaired electrons                  0          :
          ...................................................

 iter      E             dE          RMSdq      gap      omega  full diag
   1    -84.5404353 -0.845404E+02  0.844E-07    2.24       0.0  T
   2    -84.5404353  0.369482E-12  0.601E-07    2.24   22053.3  T
   3    -84.5404353 -0.383693E-12  0.376E-07    2.24   35184.2  T

   *** convergence criteria satisfied after 3 iterations ***

         #    Occupation            Energy/Eh            Energy/eV
      -------------------------------------------------------------
         1        2.0000           -0.7130218             -19.4023
       ...           ...                  ...                  ...
        68        2.0000           -0.4184047             -11.3854
        69        2.0000           -0.4113740             -11.1941
        70        2.0000           -0.4083903             -11.1129
        71        2.0000           -0.4006934             -10.9034
        72        2.0000           -0.4003918             -10.8952
        73        2.0000           -0.3881416             -10.5619
        74        2.0000           -0.3684632             -10.0264 (HOMO)
        75                         -0.2862338              -7.7888 (LUMO)
        76                         -0.2262390              -6.1563
        77                         -0.2236874              -6.0868
        78                         -0.2168507              -5.9008
        79                         -0.2089245              -5.6851
       ...                                ...                  ...
       135                          0.6567435              17.8709
      -------------------------------------------------------------
                  HL-Gap            0.0822294 Eh            2.2376 eV
             Fermi-level            0.0000000 Eh            0.0000 eV

 SCC (total)                   0 d,  0 h,  0 min,  0.061 sec
 SCC setup                      ...        0 min,  0.000 sec (  0.000%)
 Dispersion                     ...        0 min,  0.000 sec (  0.000%)
 classical contributions        ...        0 min,  0.000 sec (  0.000%)
 integral evaluation            ...        0 min,  0.011 sec ( 18.033%)
 iterations                     ...        0 min,  0.015 sec ( 24.590%)
 molecular gradient             ...        0 min,  0.034 sec ( 55.737%)
 printout                       ...        0 min,  0.001 sec (  1.640%)

         :::::::::::::::::::::::::::::::::::::::::::::::::::::
         ::                     SUMMARY                     ::
         :::::::::::::::::::::::::::::::::::::::::::::::::::::
         :: total energy             -83.437287289974 Eh    ::
         :: gradient norm              0.000161497493 Eh/a0 ::
         :: HOMO-LUMO gap              2.237576094702 eV    ::
         ::.................................................::
         :: SCC energy               -84.538540624851 Eh    ::
         :: -> isotropic ES            0.177634121965 Eh    ::
         :: -> anisotropic ES         -0.001968943170 Eh    ::
         :: -> anisotropic XC          0.029671800352 Eh    ::
         :: -> dispersion             -0.057684297119 Eh    ::
         :: repulsion energy           1.101253334877 Eh    ::
         :: add. restraining           0.000000000000 Eh    ::
         :: total charge              -0.000000000000 e     ::
         :::::::::::::::::::::::::::::::::::::::::::::::::::::

           ------------------------------------------------- 
          |                Numerical Hessian                |
           ------------------------------------------------- 
step length          :   0.00500
SCC accuracy         :   0.30000
Hessian scale factor :   1.00000
frozen atoms in %    :   0.00000    0
RMS gradient         :   0.00016
estimated CPU  time      0.36 min
estimated wall time      0.36 min

writing file <hessian>.

 projected vibrational frequencies (cm⁻¹)
eigval :       -0.00    -0.00    -0.00    -0.00     0.00     0.00
eigval :       10.49    18.31    25.27    25.74    34.76    40.03
eigval :       52.67    54.06    59.93    62.59    63.40    70.58
eigval :       77.39    80.53    84.16    96.93   104.19   109.21
eigval :      119.12   125.65   129.58   138.85   146.94   158.45
eigval :      171.67   176.30   195.32   200.77   233.74   239.01
eigval :      252.35   261.42   290.34   293.92   300.79   324.15
eigval :      346.13   354.15   371.50   377.98   386.47   393.75
eigval :      407.41   415.63   446.49   450.60   476.25   490.77
eigval :      518.58   532.24   562.19   578.51   601.68   612.00
eigval :      614.26   641.35   672.33   690.47   719.71   728.28
eigval :      762.59   771.88   792.09   805.04   809.76   863.15
eigval :      871.28   882.37   893.50   906.99   921.04   923.35
eigval :      929.25   939.27   976.33   992.02   995.65  1001.92
eigval :     1009.95  1017.43  1019.99  1037.70  1073.51  1078.23
eigval :     1089.74  1104.72  1109.06  1117.99  1130.27  1144.05
eigval :     1157.19  1164.26  1195.96  1208.71  1219.37  1220.40
eigval :     1222.44  1241.16  1253.48  1266.13  1280.86  1284.38
eigval :     1285.90  1295.64  1313.30  1320.91  1342.97  1347.59
eigval :     1374.51  1382.97  1393.11  1419.90  1424.06  1428.75
eigval :     1433.86  1455.74  1462.50  1465.35  1475.88  1477.76
eigval :     1484.31  1485.63  1495.56  1500.81  1504.48  1515.65
eigval :     1549.18  1561.22  1577.50  1615.15  1636.35  1677.37
eigval :     1710.08  1759.44  2810.25  2916.75  2958.81  2969.60
eigval :     2971.30  2983.70  2990.29  2990.61  3000.83  3002.77
eigval :     3022.03  3032.64  3032.77  3033.13  3038.70  3054.55
eigval :     3057.81  3059.34  3064.82  3075.30  3079.58  3081.91
eigval :     3088.99  3329.50  3371.12  3407.31  3444.21  3455.63
eigval :     3535.41  3593.26  3664.51
           -------------------------------------------------
          |                Property Printout                |
           -------------------------------------------------

    * Orbital Energies and Occupations

         #    Occupation            Energy/Eh            Energy/eV
      -------------------------------------------------------------
         1        2.0000           -0.7130219             -19.4023
       ...           ...                  ...                  ...
        62        2.0000           -0.4408435             -11.9960
        63        2.0000           -0.4379549             -11.9174
        64        2.0000           -0.4347919             -11.8313
        65        2.0000           -0.4290170             -11.6741
        66        2.0000           -0.4257265             -11.5846
        67        2.0000           -0.4225838             -11.4991
        68        2.0000           -0.4184047             -11.3854
        69        2.0000           -0.4113740             -11.1941
        70        2.0000           -0.4083903             -11.1129
        71        2.0000           -0.4006934             -10.9034
        72        2.0000           -0.4003918             -10.8952
        73        2.0000           -0.3881416             -10.5619
        74        2.0000           -0.3684632             -10.0264 (HOMO)
        75                         -0.2862338              -7.7888 (LUMO)
        76                         -0.2262390              -6.1563
        77                         -0.2236874              -6.0868
        78                         -0.2168507              -5.9008
        79                         -0.2089245              -5.6851
        80                         -0.1714867              -4.6664
        81                         -0.0941815              -2.5628
        82                         -0.0026583              -0.0723
        83                          0.0062321               0.1696
        84                          0.0174857               0.4758
        85                          0.0728818               1.9832
       ...                                ...                  ...
       135                          0.6567435              17.8709
      -------------------------------------------------------------
                  HL-Gap            0.0822294 Eh            2.2376 eV
             Fermi-level            0.0000000 Eh            0.0000 eV

     #   Z          covCN         q      C6AA      α(0)
     1   7 N        2.652    -0.266    26.900     7.703
     2   6 C        2.900     0.075    26.313     8.411
     3   6 C        2.923    -0.059    29.465     8.902
     4   6 C        2.924    -0.038    28.949     8.823
     5   6 C        2.971    -0.004    28.127     8.699
     6   6 C        2.924    -0.043    29.070     8.842
     7   6 C        2.922    -0.062    29.539     8.913
     8   6 C        3.812    -0.070    21.825     6.650
     9   6 C        3.797     0.020    20.244     6.407
    10   6 C        2.777     0.209    23.571     7.952
    11   6 C        2.890    -0.064    29.602     8.920
    12   6 C        2.896    -0.003    28.094     8.690
    13   6 C        3.808    -0.061    21.669     6.627
    14   6 C        3.802    -0.046    21.391     6.585
    15   6 C        3.753    -0.111    22.680     6.791
    16   8 O        0.856    -0.430    22.298     6.331
    17   8 O        1.610    -0.600    25.187     6.773
    18   1 H        0.860     0.202     1.094     1.639
    19   1 H        0.860     0.194     1.135     1.669
    20   1 H        0.926     0.033     2.542     2.493
    21   1 H        0.926     0.032     2.560     2.502
    22   1 H        0.925     0.026     2.643     2.542
    23   1 H        0.926     0.030     2.582     2.513
    24   1 H        0.924     0.061     2.185     2.312
    25   1 H        0.924     0.059     2.211     2.325
    26   1 H        0.924     0.062     2.181     2.309
    27   1 H        0.860     0.182     1.204     1.719
    28   1 H        0.860     0.205     1.083     1.630
    29   1 H        0.923     0.016     2.797     2.615
    30   1 H        0.926     0.037     2.491     2.468
    31   1 H        0.925     0.062     2.175     2.306
    32   1 H        0.924     0.054     2.274     2.358
    33   1 H        0.924     0.047     2.360     2.402
    34   1 H        0.924     0.031     2.577     2.510
    35   1 H        0.924     0.032     2.556     2.500
    36   1 H        0.925     0.035     2.513     2.479
    37   1 H        0.925     0.034     2.534     2.489
    38   1 H        0.925     0.063     2.166     2.302
    39   1 H        0.805     0.291     0.748     1.358
    40   1 H        0.805     0.299     0.724     1.336
    41   8 O        1.609    -0.607    25.367     6.798
    42   1 H        0.804     0.320     0.664     1.280
    43   1 H        0.806     0.276     0.797     1.402
    44   7 N        2.692    -0.181    24.920     7.414
    45   6 C        2.753     0.263    22.556     7.777
    46   8 O        0.858    -0.434    22.366     6.341
    47   6 C        3.757    -0.141    23.278     6.879
    48   6 C        2.749     0.277    22.313     7.735
    49   8 O        0.859    -0.462    22.956     6.424
    50   1 H        0.925     0.052     2.290     2.366
    51   1 H        0.925     0.063     2.163     2.300
    52   1 H        0.925     0.074     2.037     2.232
    53   7 N        2.686    -0.177    24.824     7.400
    54   6 C        3.690    -0.043    21.530     6.640
    55   1 H        0.924     0.053     2.285     2.364
    56   1 H        0.924     0.050     2.325     2.385
    57   1 H        0.925     0.083     1.950     2.184

 Mol. C6AA /au·bohr⁶  :      29532.458954
 Mol. C8AA /au·bohr⁸  :     657669.751454
 Mol. α(0) /au        :        262.717640


Wiberg/Mayer (AO) data.
largest (>0.10) Wiberg bond orders for each atom

 ---------------------------------------------------------------------------
     #   Z sym  total        # sym  WBO       # sym  WBO       # sym  WBO
 ---------------------------------------------------------------------------
     1   7 N    3.367 --     2 C    1.151    19 H    0.933    18 H    0.927
                            10 C    0.114
     2   6 C    3.971 --     7 C    1.352     3 C    1.340     1 N    1.151
     3   6 C    3.989 --     4 C    1.472     2 C    1.340    20 H    0.968
                             6 C    0.101
     4   6 C    3.992 --     3 C    1.472     5 C    1.395    21 H    0.969
                             7 C    0.102
     5   6 C    3.977 --     6 C    1.405     4 C    1.395     8 C    1.010
     6   6 C    3.991 --     7 C    1.458     5 C    1.405    22 H    0.968
                             3 C    0.101
     7   6 C    3.987 --     6 C    1.458     2 C    1.352    23 H    0.969
                             4 C    0.102
     8   6 C    3.990 --     5 C    1.010     9 C    0.981    24 H    0.970
                            25 H    0.965
     9   6 C    3.962 --     8 C    0.981    44 N    0.973    26 H    0.952
                            45 C    0.914
    10   6 C    3.925 --    16 O    1.696    11 C    1.093    29 H    0.939
                             1 N    0.114
    11   6 C    3.989 --    12 C    1.810    10 C    1.093    30 H    0.964
    12   6 C    3.980 --    11 C    1.810    13 C    1.046    31 H    0.962
    13   6 C    3.996 --    12 C    1.046    14 C    0.976    33 H    0.972
                            32 H    0.955
    14   6 C    3.994 --    15 C    1.018    34 H    0.980    35 H    0.979
                            13 C    0.976
    15   6 C    3.992 --    14 C    1.018    37 H    0.988    36 H    0.986
                            38 H    0.980
    16   8 O    2.013 --    10 C    1.696
    17   8 O    1.831 --    39 H    0.905    40 H    0.892
    18   1 H    0.959 --     1 N    0.927
    19   1 H    0.962 --     1 N    0.933
    20   1 H    0.999 --     3 C    0.968
    21   1 H    0.999 --     4 C    0.969
    22   1 H    0.999 --     6 C    0.968
    23   1 H    0.999 --     7 C    0.969
    24   1 H    0.996 --     8 C    0.970
    25   1 H    0.995 --     8 C    0.965
    26   1 H    0.996 --     9 C    0.952
    27   1 H    0.967 --    44 N    0.934
    28   1 H    0.958 --    53 N    0.908
    29   1 H    0.999 --    10 C    0.939
    30   1 H    0.999 --    11 C    0.964
    31   1 H    0.996 --    12 C    0.962
    32   1 H    0.997 --    13 C    0.955
    33   1 H    0.998 --    13 C    0.972
    34   1 H    0.999 --    14 C    0.980
    35   1 H    0.999 --    14 C    0.979
    36   1 H    0.997 --    15 C    0.986
    37   1 H    0.999 --    15 C    0.988
    38   1 H    0.996 --    15 C    0.980
    39   1 H    0.915 --    17 O    0.905
    40   1 H    0.911 --    17 O    0.892
    41   8 O    1.828 --    43 H    0.919    42 H    0.854
    42   1 H    0.898 --    41 O    0.854
    43   1 H    0.923 --    41 O    0.919
    44   7 N    3.458 --    48 C    1.278     9 C    0.973    27 H    0.934
                            49 O    0.192
    45   6 C    3.956 --    46 O    1.681    53 N    1.290     9 C    0.914
    46   8 O    2.013 --    45 C    1.681    53 N    0.212
    47   6 C    3.993 --    48 C    0.984    52 H    0.982    50 H    0.974
                            51 H    0.965
    48   6 C    3.950 --    49 O    1.635    44 N    1.278    47 C    0.984
    49   8 O    1.985 --    48 C    1.635    44 N    0.192
    50   1 H    0.997 --    47 C    0.974
    51   1 H    0.996 --    47 C    0.965
    52   1 H    0.994 --    47 C    0.982
    53   7 N    3.465 --    45 C    1.290    54 C    1.005    28 H    0.908
                            46 O    0.212
    54   6 C    3.965 --    53 N    1.005    55 H    0.977    57 H    0.977
                            56 H    0.977
    55   1 H    0.997 --    54 C    0.977
    56   1 H    0.997 --    54 C    0.977
    57   1 H    0.993 --    54 C    0.977
 ---------------------------------------------------------------------------

Topologies differ in total number of bonds
Writing topology from bond orders to xtbtopo.mol

molecular dipole:
                 x           y           z       tot (Debye)
 q only:        0.233       0.937      -0.426
   full:       -0.161       1.075      -0.607       3.164
molecular quadrupole (traceless):
                xx          xy          yy          xz          yz          zz
 q only:      -18.345       5.143       7.189     -11.409       2.770      11.156
  q+dip:      -26.758      -0.688      10.219     -15.583       9.325      16.539
   full:      -27.810      -0.449       8.752     -15.053       6.280      19.058

           -------------------------------------------------
          |               Frequency Printout                |
           -------------------------------------------------
 projected vibrational frequencies (cm⁻¹)
eigval :       -0.00    -0.00    -0.00    -0.00     0.00     0.00
eigval :       10.49    18.31    25.27    25.74    34.76    40.03
eigval :       52.67    54.06    59.93    62.59    63.40    70.58
eigval :       77.39    80.53    84.16    96.93   104.19   109.21
eigval :      119.12   125.65   129.58   138.85   146.94   158.45
eigval :      171.67   176.30   195.32   200.77   233.74   239.01
eigval :      252.35   261.42   290.34   293.92   300.79   324.15
eigval :      346.13   354.15   371.50   377.98   386.47   393.75
eigval :      407.41   415.63   446.49   450.60   476.25   490.77
eigval :      518.58   532.24   562.19   578.51   601.68   612.00
eigval :      614.26   641.35   672.33   690.47   719.71   728.28
eigval :      762.59   771.88   792.09   805.04   809.76   863.15
eigval :      871.28   882.37   893.50   906.99   921.04   923.35
eigval :      929.25   939.27   976.33   992.02   995.65  1001.92
eigval :     1009.95  1017.43  1019.99  1037.70  1073.51  1078.23
eigval :     1089.74  1104.72  1109.06  1117.99  1130.27  1144.05
eigval :     1157.19  1164.26  1195.96  1208.71  1219.37  1220.40
eigval :     1222.44  1241.16  1253.48  1266.13  1280.86  1284.38
eigval :     1285.90  1295.64  1313.30  1320.91  1342.97  1347.59
eigval :     1374.51  1382.97  1393.11  1419.90  1424.06  1428.75
eigval :     1433.86  1455.74  1462.50  1465.35  1475.88  1477.76
eigval :     1484.31  1485.63  1495.56  1500.81  1504.48  1515.65
eigval :     1549.18  1561.22  1577.50  1615.15  1636.35  1677.37
eigval :     1710.08  1759.44  2810.25  2916.75  2958.81  2969.60
eigval :     2971.30  2983.70  2990.29  2990.61  3000.83  3002.77
eigval :     3022.03  3032.64  3032.77  3033.13  3038.70  3054.55
eigval :     3057.81  3059.34  3064.82  3075.30  3079.58  3081.91
eigval :     3088.99  3329.50  3371.12  3407.31  3444.21  3455.63
eigval :     3535.41  3593.26  3664.51
 reduced masses (amu)
   1: 11.39   2: 11.79   3: 12.54   4: 12.57   5: 12.31   6: 12.47   7: 11.20   8: 12.16
   9: 13.09  10: 11.50  11: 11.27  12: 12.08  13:  9.90  14: 12.28  15:  9.30  16: 10.35
  17:  6.97  18: 10.06  19: 11.17  20:  8.84  21: 11.12  22: 10.96  23: 11.97  24: 10.15
  25: 11.24  26:  2.42  27:  8.94  28: 10.27  29: 10.54  30: 11.36  31: 11.70  32: 11.07
  33: 11.57  34: 11.52  35: 11.48  36: 12.09  37:  2.78  38:  2.03  39: 12.02  40:  9.39
  41: 10.03  42: 10.49  43:  9.03  44: 10.57  45:  2.09  46:  8.56  47:  7.34  48:  5.48
  49:  8.41  50:  9.67  51:  4.58  52:  9.50  53: 10.05  54: 10.80  55:  2.90  56:  9.51
  57:  2.48  58:  8.07  59: 10.01  60:  2.18  61: 11.11  62:  8.14  63:  9.71  64:  8.04
  65:  9.85  66: 11.44  67:  6.27  68:  7.55  69:  2.50  70:  5.99  71:  5.31  72:  3.35
  73:  8.37  74: 10.26  75:  3.74  76:  2.78  77:  4.22  78:  5.07  79:  8.55  80:  6.10
  81: 10.90  82:  5.67  83:  6.28  84:  5.29  85:  2.57  86:  6.35  87:  5.91  88:  8.17
  89:  5.46  90:  6.82  91:  8.81  92:  3.86  93:  7.23  94:  7.93  95:  7.31  96:  3.57
  97:  8.45  98:  6.05  99:  1.79 100:  5.29 101:  4.82 102:  4.95 103:  5.78 104:  3.39
 105:  4.59 106:  2.45 107:  4.22 108:  3.90 109:  3.42 110:  3.86 111:  6.52 112:  9.23
 113: 10.90 114:  4.88 115:  3.27 116:  3.33 117:  2.62 118:  3.38 119:  9.80 120:  9.74
 121:  8.62 122:  1.68 123:  1.57 124:  1.65 125:  2.12 126:  2.14 127:  2.48 128:  4.36
 129:  1.85 130:  1.52 131:  1.64 132:  8.69 133:  2.14 134:  2.74 135: 11.52 136: 11.56
 137: 12.09 138: 11.89 139: 13.12 140: 13.20 141:  1.71 142:  1.74 143:  1.81 144:  1.87
 145:  1.92 146:  1.54 147:  1.47 148:  1.98 149:  1.50 150:  1.70 151:  1.80 152:  1.73
 153:  1.85 154:  1.62 155:  1.61 156:  1.70 157:  1.81 158:  1.79 159:  1.75 160:  1.78
 161:  1.86 162:  1.83 163:  1.87 164:  1.88 165:  1.85 166:  1.50 167:  2.14 168:  1.85
 169:  1.94 170:  1.76 171:  1.84
 IR intensities (km·mol⁻¹)
   1:  0.15   2:  0.08   3:  0.05   4:  0.00   5:  0.03   6:  0.05   7:  0.48   8:  0.48
   9:  0.62  10:  0.93  11:  0.78  12:  3.38  13:  3.88  14:  7.37  15:  0.21  16:  2.41
  17:  4.09  18:  0.49  19:  1.26  20:  5.96  21:  3.02  22: 10.04  23:  5.61  24: 16.41
  25: 10.14  26:  0.82  27: 21.66  28: 48.66  29: 21.85  30: 13.11  31: 26.98  32:  2.53
  33:  8.97  34: 26.59  35:  9.85  36:  4.71  37: 47.03  38:  0.31  39:  7.03  40: 14.86
  41:  2.64  42: 10.36  43: 32.61  44: 27.72  45: 14.55  46:  6.40  47: 47.75  48: 44.36
  49: 32.31  50: 14.11  51:159.49  52:  4.25  53: 26.17  54:  3.43  55:575.03  56: 18.59
  57:112.20  58:  5.71  59: 40.68  60:198.15  61:  2.43  62: 63.65  63: 20.55  64: 19.37
  65: 45.18  66:  9.38  67:  6.99  68: 55.52  69: 18.59  70: 52.76  71:113.73  72:  0.68
  73:  2.87  74:  1.94  75:  8.34  76:  0.22  77:  0.12  78: 54.33  79:  2.57  80:  3.42
  81: 20.06  82:  3.88  83: 24.23  84: 22.28  85: 22.17  86:  0.50  87:  0.95  88: 23.12
  89:  7.02  90: 21.03  91:  0.07  92:  0.47  93: 15.38  94: 28.72  95: 23.20  96:  1.51
  97:  0.42  98:  1.66  99:  4.49 100:  3.00 101:  6.67 102:  4.00 103:  8.39 104: 11.06
 105: 32.68 106:  1.05 107: 14.74 108:  6.45 109:  2.40 110:  1.76 111: 22.38 112: 24.83
 113:  6.83 114:  5.03 115: 18.74 116: 26.81 117:  3.01 118:  8.64 119:201.23 120: 19.25
 121:230.36 122:  3.77 123: 10.42 124:  9.30 125:  3.85 126:  0.76 127: 29.86 128: 15.57
 129:  0.80 130:  4.19 131:  3.55 132:228.03 133:177.73 134:204.27 135:  4.12 136: 13.73
 137:572.26 138:151.51 139:316.66 140:568.78 141: 92.32 142: 13.02 143:  3.58 144: 40.33
 145: 31.64 146: 32.34 147: 43.13 148: 15.44 149: 20.06 150: 23.57 151: 10.40 152:  9.69
 153: 47.68 154:  7.56 155: 43.48 156:  2.21 157: 11.04 158: 33.81 159:  5.96 160: 17.99
 161: 50.30 162: 36.93 163: 28.05 164:124.99 165:215.65 166:160.39 167: 51.70 168: 17.55
 169:123.27 170: 41.92 171:  8.36
 Raman intensities (Ä⁴*amu⁻¹)
   1:  0.00   2:  0.00   3:  0.00   4:  0.00   5:  0.00   6:  0.00   7:  0.00   8:  0.00
   9:  0.00  10:  0.00  11:  0.00  12:  0.00  13:  0.00  14:  0.00  15:  0.00  16:  0.00
  17:  0.00  18:  0.00  19:  0.00  20:  0.00  21:  0.00  22:  0.00  23:  0.00  24:  0.00
  25:  0.00  26:  0.00  27:  0.00  28:  0.00  29:  0.00  30:  0.00  31:  0.00  32:  0.00
  33:  0.00  34:  0.00  35:  0.00  36:  0.00  37:  0.00  38:  0.00  39:  0.00  40:  0.00
  41:  0.00  42:  0.00  43:  0.00  44:  0.00  45:  0.00  46:  0.00  47:  0.00  48:  0.00
  49:  0.00  50:  0.00  51:  0.00  52:  0.00  53:  0.00  54:  0.00  55:  0.00  56:  0.00
  57:  0.00  58:  0.00  59:  0.00  60:  0.00  61:  0.00  62:  0.00  63:  0.00  64:  0.00
  65:  0.00  66:  0.00  67:  0.00  68:  0.00  69:  0.00  70:  0.00  71:  0.00  72:  0.00
  73:  0.00  74:  0.00  75:  0.00  76:  0.00  77:  0.00  78:  0.00  79:  0.00  80:  0.00
  81:  0.00  82:  0.00  83:  0.00  84:  0.00  85:  0.00  86:  0.00  87:  0.00  88:  0.00
  89:  0.00  90:  0.00  91:  0.00  92:  0.00  93:  0.00  94:  0.00  95:  0.00  96:  0.00
  97:  0.00  98:  0.00  99:  0.00 100:  0.00 101:  0.00 102:  0.00 103:  0.00 104:  0.00
 105:  0.00 106:  0.00 107:  0.00 108:  0.00 109:  0.00 110:  0.00 111:  0.00 112:  0.00
 113:  0.00 114:  0.00 115:  0.00 116:  0.00 117:  0.00 118:  0.00 119:  0.00 120:  0.00
 121:  0.00 122:  0.00 123:  0.00 124:  0.00 125:  0.00 126:  0.00 127:  0.00 128:  0.00
 129:  0.00 130:  0.00 131:  0.00 132:  0.00 133:  0.00 134:  0.00 135:  0.00 136:  0.00
 137:  0.00 138:  0.00 139:  0.00 140:  0.00 141:  0.00 142:  0.00 143:  0.00 144:  0.00
 145:  0.00 146:  0.00 147:  0.00 148:  0.00 149:  0.00 150:  0.00 151:  0.00 152:  0.00
 153:  0.00 154:  0.00 155:  0.00 156:  0.00 157:  0.00 158:  0.00 159:  0.00 160:  0.00
 161:  0.00 162:  0.00 163:  0.00 164:  0.00 165:  0.00 166:  0.00 167:  0.00 168:  0.00
 169:  0.00 170:  0.00 171:  0.00
 output can be read by thermo (or use thermo option).
 writing <g98.out> molden fake output.
 recommended (thermochemical) frequency scaling factor: 1.0
           -------------------------------------------------
          |             Thermodynamic Functions             |
           -------------------------------------------------

Refinement of some symmetry elements was terminated before convergence was reached.
Some symmetry elements may remain unidentified.
Molecule has no symmetry elements
It seems to be the C1 point group
c1  symmetry found (for desy threshold:  0.10E+00) used in thermo

          ...................................................
          :                      SETUP                      :
          :.................................................:
          :  # frequencies                         165      :
          :  # imaginary freq.                       0      :
          :  linear?                             false      :
          :  only rotor calc.                    false      :
          :  symmetry                               c1      :
          :  rotational number                       1      :
          :  scaling factor                  1.0000000      :
          :  rotor cutoff                   50.0000000 cm⁻¹ :
          :  imag. cutoff                  -20.0000000 cm⁻¹ :
          :.................................................:

    mode    ω/cm⁻¹     T·S(HO)/kcal·mol⁻¹    T·S(FR)/kcal·mol⁻¹   T·S(vib)
   ------------------------------------------------------------------------
       1     10.49    -2.35990 (  0.19%)    -1.51892 ( 99.81%)    -1.52054
       2     18.31    -2.03035 (  1.77%)    -1.35413 ( 98.23%)    -1.36607
       3     25.27    -1.83946 (  6.13%)    -1.25862 ( 93.87%)    -1.29421
       4     25.74    -1.82856 (  6.57%)    -1.25316 ( 93.43%)    -1.29094
       5     34.76    -1.65093 ( 18.94%)    -1.16420 ( 81.06%)    -1.25638
       6     40.03    -1.56762 ( 29.11%)    -1.12244 ( 70.89%)    -1.25203
       7     52.67    -1.40568 ( 55.18%)    -1.04113 ( 44.82%)    -1.24228
       8     54.06    -1.39029 ( 57.74%)    -1.03340 ( 42.26%)    -1.23948
       9     59.93    -1.32958 ( 67.36%)    -1.00286 ( 32.64%)    -1.22295
      10     62.59    -1.30402 ( 71.06%)    -0.98998 ( 28.94%)    -1.21315
      11     63.40    -1.29648 ( 72.11%)    -0.98618 ( 27.89%)    -1.20993
      12     70.58    -1.23346 ( 79.88%)    -0.95440 ( 20.12%)    -1.17732
      13     77.39    -1.17944 ( 85.16%)    -0.92711 ( 14.84%)    -1.14201
      14     80.53    -1.15620 ( 87.06%)    -0.91534 ( 12.94%)    -1.12504
      15     84.16    -1.13044 ( 88.92%)    -0.90229 ( 11.08%)    -1.10516
      16     96.93    -1.04802 ( 93.39%)    -0.86043 (  6.61%)    -1.03562
      17    104.19    -1.00608 ( 94.96%)    -0.83904 (  5.04%)    -0.99767
      18    109.21    -0.97880 ( 95.79%)    -0.82510 (  4.21%)    -0.97233
      19    119.12    -0.92860 ( 96.99%)    -0.79936 (  3.01%)    -0.92471
      20    125.65    -0.89792 ( 97.55%)    -0.78357 (  2.45%)    -0.89512
      21    129.58    -0.88020 ( 97.83%)    -0.77443 (  2.17%)    -0.87791
      22    138.85    -0.84067 ( 98.35%)    -0.75396 (  1.65%)    -0.83923
      23    146.94    -0.80842 ( 98.68%)    -0.73719 (  1.32%)    -0.80748
      24    158.45    -0.76571 ( 99.02%)    -0.71485 (  0.98%)    -0.76521
      25    171.67    -0.72066 ( 99.29%)    -0.69111 (  0.71%)    -0.72045
      26    176.30    -0.70580 ( 99.36%)    -0.68324 (  0.64%)    -0.70566
      27    195.32    -0.64901 ( 99.57%)    -0.65289 (  0.43%)    -0.64902
      28    200.77    -0.63387 ( 99.62%)    -0.64472 (  0.38%)    -0.63391
      29    233.74    -0.55158 ( 99.79%)    -0.59968 (  0.21%)    -0.55168
      30    239.01    -0.53971 ( 99.81%)    -0.59307 (  0.19%)    -0.53981
      31    252.35    -0.51107 ( 99.85%)    -0.57700 (  0.15%)    -0.51117
      32    261.42    -0.49261 ( 99.87%)    -0.56652 (  0.13%)    -0.49271
      33    290.34    -0.43887 ( 99.91%)    -0.53545 (  0.09%)    -0.43895
      34    293.92    -0.43270 ( 99.92%)    -0.53182 (  0.08%)    -0.43278
   ------------------------------------------------------------------------

   temp. (K)  partition function   enthalpy   heat capacity  entropy
                                   cal/mol     cal/K/mol   cal/K/mol   J/K/mol
 298.15  VIB  0.186E+18            20002.810    107.558    132.419
         ROT  0.158E+08              888.752      2.981     35.923
         INT  0.294E+25            20891.563    110.539    168.342
         TR   0.687E+28             1481.254      4.968     43.594
         TOT                       22372.8165   115.5075   211.9357   886.7388

       T/K    H(0)-H(T)+PV         H(T)/Eh          T*S/Eh         G(T)/Eh
   ------------------------------------------------------------------------
    298.15    0.356534E-01    0.503117E+00    0.100697E+00    0.402419E+00
   ------------------------------------------------------------------------

         :::::::::::::::::::::::::::::::::::::::::::::::::::::
         ::                  THERMODYNAMIC                  ::
         :::::::::::::::::::::::::::::::::::::::::::::::::::::
         :: total free energy         -83.034868062785 Eh   ::
         ::.................................................::
         :: total energy              -83.437287289974 Eh   ::
         :: zero point energy           0.467463348503 Eh   ::
         :: G(RRHO) w/o ZPVE           -0.065044121314 Eh   ::
         :: G(RRHO) contrib.            0.402419227189 Eh   ::
         :::::::::::::::::::::::::::::::::::::::::::::::::::::

           -------------------------------------------------
          | TOTAL ENERGY              -83.437287289974 Eh   |
          | TOTAL ENTHALPY            -82.934170588995 Eh   |
          | TOTAL FREE ENERGY         -83.034868062785 Eh   |
          | GRADIENT NORM               0.000161492557 Eh/α |
          | HOMO-LUMO GAP               2.237575894996 eV   |
           -------------------------------------------------

------------------------------------------------------------------------
 * finished run on 2026/08/20 at 18:20:39.703     
------------------------------------------------------------------------
 total:
 * wall-time:     0 d,  0 h,  0 min, 32.995 sec
 *  cpu-time:     0 d,  0 h,  0 min, 29.859 sec
 * ratio c/w:     0.905 speedup
 SCF:
 * wall-time:     0 d,  0 h,  0 min,  0.061 sec
 *  cpu-time:     0 d,  0 h,  0 min,  0.062 sec
 * ratio c/w:     1.025 speedup
 analytical hessian:
 * wall-time:     0 d,  0 h,  0 min, 32.840 sec
 *  cpu-time:     0 d,  0 h,  0 min, 29.719 sec
 * ratio c/w:     0.905 speedup



================ STDERR ================

normal termination of xtb
