57
 energy: -83.439246252036 gnorm: 0.000240871699 xtb: 6.7.1pre (5071a88)
N           -0.11217242207408       -0.62967907320567        0.49190021103048
C            1.24831751145434       -0.43151630493139        0.60121446938486
C            1.74033977444130        0.64221584847324        1.34631444684170
C            3.08642889025179        0.93898641458060        1.33887673454979
C            3.98682362841708        0.17576224729478        0.60379181303803
C            3.50022516724716       -0.91712171147169       -0.10273130950617
C            2.15301103153502       -1.22102477952297       -0.10802650051440
C            5.43218055754655        0.57364525237401        0.51881942802149
C            5.61099589793392        1.71121668773857       -0.49125086144781
C           -0.96923413448006        0.73867579935212       -1.25288385331001
C            0.23644071911608        1.55046408107665       -1.29393169517359
C            0.34338911765585        2.71356742099068       -0.64646513732339
C            1.55045403179399        3.57503845721384       -0.63560223767813
C            1.28324653061651        4.93637891191884       -1.29134597001028
C            2.53990896565525        5.79657058568241       -1.28388347770651
O           -2.02566333255866        1.07520279287141       -0.73184542326752
O           -3.68286768609985       -0.82730939053474        0.36775426948916
H           -0.68643434042925       -0.21265428229459        1.22737249898850
H           -0.40859252930777       -1.55610492885466        0.22340536782721
H            1.04849891133798        1.23439633760082        1.92562082521487
H            3.45102164294355        1.77748529047102        1.91470553438780
H            4.18531349948065       -1.55072323565763       -0.65088047952033
H            1.79033350622039       -2.07087674795337       -0.66951053726644
H            6.05568452690864       -0.26635658592921        0.20753878337330
H            5.79951245160023        0.91913967035170        1.48573295749023
H            5.08533918540246        2.61342806774411       -0.15406894291983
H            4.94035580326894        0.34129261334082       -1.94271534527193
H            6.46160865096202        3.69199865419716       -1.70763557621807
H           -0.93196025129474       -0.17070944227411       -1.87573555756550
H            1.07036226242302        1.15010555219726       -1.85155201312917
H           -0.51633990172329        3.08185445000817       -0.10031822980098
H            1.85123786060550        3.74458273423322        0.40181740853178
H            2.37256141244873        3.08043724716518       -1.15388582441891
H            0.95719299838942        4.77543429759398       -2.32088631252954
H            0.47638293927923        5.44611440517425       -0.75996342021557
H            2.35709103398021        6.74244997405886       -1.78803902983168
H            2.85323680734766        6.00623362554189       -0.26316154033363
H            3.34938271918104        5.28089264172749       -1.79480183658982
H           -3.16451099116623       -0.19965622256259       -0.17048741769780
H           -4.60308984641080       -0.67262923932596        0.14985628102857
O           -2.06381753984349        0.67156463056294        2.10068228771120
H           -2.13336364246263        1.33696219927022        1.40646549376602
H           -2.73488172613092        0.01016957537099        1.87266007192283
N            5.03123038868590        1.32967869241167       -1.76802200379655
C            7.10484430787072        2.05920772997554       -0.67952617310374
O            8.00275061276566        1.35222986606080       -0.27202182186782
C            3.88918898063333        1.59177742354852       -3.86318701999931
C            4.56131249432779        2.21536081284710       -2.66221383824507
O            4.67995983908415        3.42151362489128       -2.51139252539286
H            3.16964678340668        0.83828159979522       -3.55134471461952
H            4.63913361496880        1.11857584708405       -4.49432310285481
H            3.38512535630809        2.36487347835633       -4.43586870776908
N            7.27843664463374        3.21453130167377       -1.33972048257613
C            8.58246235837724        3.72191374668773       -1.68876789842858
H            8.70764656282485        4.73612503129707       -1.30690941717414
H            8.71856062629536        3.73074361781469       -2.77219928853952
H            9.32675173846412        3.06828270584921       -1.23642335902889
