57
 energy: -83.437287289955 gnorm: 0.000161534948 xtb: 6.7.1pre (5071a88)
N           -0.22269695448238       -0.34567068396206        0.65222517462183
C            1.15536717549480       -0.30426047486576        0.68521198824603
C            1.80790472262870        0.71867959477391        1.37638099216771
C            3.17653567957700        0.85752928236375        1.29306517840484
C            3.94006994581164       -0.01469177344718        0.52470846676060
C            3.29221244051325       -1.05029407534084       -0.13694300591880
C            1.92124945253034       -1.20129729276266       -0.05836545725826
C            5.41580963310158        0.21226569556348        0.36155130299502
C            5.66925716164459        1.42376931049336       -0.53936048555133
C           -0.98276718030618        0.87935092343134       -1.20967239124090
C            0.20508392821003        1.72093940158394       -1.20382701848457
C            0.23856142587913        2.93899431054302       -0.65919320348200
C            1.43476894344982        3.81757459526777       -0.63525128166967
C            1.25518999269231        5.03196538538342       -1.55724455093446
C            2.49984716209972        5.90936163449924       -1.55107268216289
O           -2.08571708243012        1.20172834460399       -0.78301771474318
O           -2.96216220697866       -1.27019352503926        0.46203946660619
H           -0.69717103361684        0.17254819705757        1.38053031209029
H           -0.66894992976906       -1.22995043492257        0.44656507528274
H            1.22287383215490        1.40491326582815        1.97041487838601
H            3.66430010750414        1.65740343215823        1.83116135567109
H            3.86863775923095       -1.75659560311411       -0.71931153430418
H            1.43090839180604       -2.00909317834287       -0.58235533604551
H            5.90131744802762       -0.65880202492369       -0.08174061829259
H            5.89053491600645        0.40135501825234        1.32541540514041
H            5.30821138603919        2.34332174924805       -0.06246562950239
H            4.71029622340594        0.33403698009809       -2.06742427108974
H            6.68298743184710        3.41480171439784       -1.60120797448684
H           -0.87588271276285       -0.04947761630981       -1.79403911494927
H            1.09303122287121        1.29526837644919       -1.64784272411123
H           -0.66943978262667        3.34311750824896       -0.22928334933254
H            1.59621172808378        4.17697919843475        0.38422212924450
H            2.31868014717352        3.25931158552548       -0.94670958924652
H            1.06101276034926        4.67845246546321       -2.57211090844022
H            0.38690021448458        5.61071356925023       -1.23400895558083
H            2.38116681370359        6.74236101704491       -2.23988711938606
H            2.67987903533934        6.30982227345645       -0.55571224141232
H            3.37020543440168        5.33086806677760       -1.85140720821942
H           -3.03270998928993       -0.80628662240639        1.30254043734468
H           -2.95473976994787       -0.57241917039532       -0.20487963697926
O           -2.42138298547519        1.27712915556751        1.93033332387775
H           -2.40395318759634        1.43132084231275        0.96928688510266
H           -3.03066804547839        1.91806202911662        2.29941895361902
N            4.93264070589970        1.27508329312623       -1.78345891207398
C            7.17467965521905        1.59305572550583       -0.84213322493686
O            7.99472229546034        0.72836615578066       -0.61491278702438
C            3.67426864459577        1.95073155396674       -3.71614776379010
C            4.51051386949700        2.32086529788347       -2.51411825822478
O            4.79544085542856        3.47294747099382       -2.22564918084973
H            2.91356935956979        1.22120136877930       -3.44935361581304
H            4.31602066178094        1.52157443077343       -4.48352529975546
H            3.20177388644311        2.84380746307109       -4.11473596677033
N            7.45207572115043        2.78984782979829       -1.38253169445603
C            8.77933720902954        3.16393304426096       -1.80467935186546
H            9.08957885421765        4.08408417415651       -1.30717688636268
H            8.81423805494448        3.31506127348536       -2.88540327580668
H            9.45636857167015        2.35652847102843       -1.52991110505356
