      -----------------------------------------------------------      
     |                   =====================                   |     
     |                           x T B                           |     
     |                   =====================                   |     
     |                         S. Grimme                         |     
     |          Mulliken Center for Theoretical Chemistry        |     
     |                    University of Bonn                     |     
      -----------------------------------------------------------      

   * xtb version 6.7.1pre (5071a88) compiled by 'Marcel@Raven' on 2024-07-23

   xtb is free software: you can redistribute it and/or modify it under
   the terms of the GNU Lesser General Public License as published by
   the Free Software Foundation, either version 3 of the License, or
   (at your option) any later version.
   
   xtb is distributed in the hope that it will be useful,
   but WITHOUT ANY WARRANTY; without even the implied warranty of
   MERCHANTABILITY or FITNESS FOR A PARTICULAR PURPOSE.  See the
   GNU Lesser General Public License for more details.
   
   Cite this work as:
   * C. Bannwarth, E. Caldeweyher, S. Ehlert, A. Hansen, P. Pracht,
     J. Seibert, S. Spicher, S. Grimme, WIREs Comput. Mol. Sci., 2020, 11,
     e01493. DOI: 10.1002/wcms.1493
   
   for GFN2-xTB:
   * C. Bannwarth, S. Ehlert and S. Grimme., J. Chem. Theory Comput., 2019,
     15, 1652-1671. DOI: 10.1021/acs.jctc.8b01176
   for GFN1-xTB:
   * S. Grimme, C. Bannwarth, P. Shushkov, J. Chem. Theory Comput., 2017,
     13, 1989-2009. DOI: 10.1021/acs.jctc.7b00118
   for GFN0-xTB:
   * P. Pracht, E. Caldeweyher, S. Ehlert, S. Grimme, ChemRxiv, 2019, preprint.
     DOI: 10.26434/chemrxiv.8326202.v1
   for GFN-FF:
   * S. Spicher and S. Grimme, Angew. Chem. Int. Ed., 2020, 59, 15665-15673.
     DOI: 10.1002/anie.202004239
   
   for ALPB and GBSA implicit solvation:
   * S. Ehlert, M. Stahn, S. Spicher, S. Grimme, J. Chem. Theory Comput.,
     2021, 17, 4250-4261. DOI: 10.1021/acs.jctc.1c00471
   
   for ddCOSMO and CPCM-X implicit solvation:
   * M. Stahn, S. Ehlert, S. Grimme, J. Phys. Chem. A,
     2023, XX, XXXX-XXXX. DOI: 10.1021/acs.jpca.3c04382
   
   for DFT-D4:
   * E. Caldeweyher, C. Bannwarth and S. Grimme, J. Chem. Phys., 2017,
     147, 034112. DOI: 10.1063/1.4993215
   * E. Caldeweyher, S. Ehlert, A. Hansen, H. Neugebauer, S. Spicher,
     C. Bannwarth and S. Grimme, J. Chem. Phys., 2019, 150, 154122.
     DOI: 10.1063/1.5090222
   * E. Caldeweyher, J.-M. Mewes, S. Ehlert and S. Grimme, Phys. Chem. Chem. Phys.
     2020, 22, 8499-8512. DOI: 10.1039/D0CP00502A
   
   for sTDA-xTB:
   * S. Grimme and C. Bannwarth, J. Chem. Phys., 2016, 145, 054103.
     DOI: 10.1063/1.4959605
   
   in the mass-spec context:
   * V. Asgeirsson, C. Bauer and S. Grimme, Chem. Sci., 2017, 8, 4879.
     DOI: 10.1039/c7sc00601b
   * J. Koopman and S. Grimme, ACS Omega 2019, 4, 12, 15120-15133.
     DOI: 10.1021/acsomega.9b02011
   
   for metadynamics refer to:
   * S. Grimme, J. Chem. Theory Comput., 2019, 155, 2847-2862
     DOI: 10.1021/acs.jctc.9b00143
   
   for SPH calculations refer to:
   * S. Spicher and S. Grimme, J. Chem. Theory Comput., 2021, 17, 1701-1714
     DOI: 10.1021/acs.jctc.0c01306
   
   for ONIOM refer to:
   * C. Plett, A. Katbashev, S. Ehlert, S. Grimme, M. Bursch,
     Phys. Chem. Chem. Phys., 2023, 25, 17860-17868. DOI: 10.1039/D3CP02178E
   
   for DIPRO refer to:
   * J. Kohn, N. Gildemeister, S. Grimme, D. Fazzi, A. Hansen,
     J. Chem. Phys., 2023, just accepted.
   
   for PTB refer to:
   * S. Grimme, M. Mueller, A. Hansen, J. Chem. Phys., 2023, 158, 124111.
     DOI: 10.1063/5.0137838
   
   with help from (in alphabetical order)
   P. Atkinson, C. Bannwarth, F. Bohle, G. Brandenburg, E. Caldeweyher
   M. Checinski, S. Dohm, S. Ehlert, S. Ehrlich, I. Gerasimov, C. Hölzer
   A. Katbashev, J. Kohn, J. Koopman, C. Lavigne, S. Lehtola, F. März, M. Müller,
   F. Musil, H. Neugebauer, J. Pisarek, C. Plett, P. Pracht, F. Pultar,
   J. Seibert, P. Shushkov, S. Spicher, M. Stahn, M. Steiner, T. Strunk,
   J. Stückrath, T. Rose, and J. Unsleber
   
 * started run on 2026/08/31 at 13:17:36.508     
   ID    Z sym.   atoms
    1    7 N      1, 17, 63, 72
    2    6 C      2-15, 18-26, 64, 66, 67, 73
    3    8 O      16, 27, 60, 65, 68
    4    1 H      28-59, 61, 62, 69-71, 74-76

           -------------------------------------------------
          |                Calculation Setup                |
           -------------------------------------------------

          program call               : C:\Users\Nayanika\Downloads\xtb-6.7.1pre-windows-x86_64\xtb-6.7.1\bin\xtb.exe D:\PhD_Thesis\LmrR_EVB\charges\fast_lmrr_5QM\xtb_preparation\stage2_five_xtb_protocols\GFN2_normal\TS2_1a_to_PS2_2\TS2_1a_to_PS2_2_PS_xtbopt.xyz --gfn 2 --chrg 0 --uhf 0 --etemp 0
          coordinate file            : D:\PhD_Thesis\LmrR_EVB\charges\fast_lmrr_5QM\xtb_preparation\stage2_five_xtb_protocols\GFN2_normal\TS2_1a_to_PS2_2\TS2_1a_to_PS2_2_PS_xtbopt.xyz
          omp threads                :                     1


molecular fragmentation (1/2 indicates fragments):
111111111111111111111111112111111111111111111111121111111122221111111111
1111
# atoms in fragment 1/2:    70     6
 fragment masses (1/2) :      464.60       36.03
CMA distance (Bohr)    :   9.406
constraining FC (au)   :  0.0500

           -------------------------------------------------
          |                 G F N 2 - x T B                 |
           -------------------------------------------------

        Reference                      10.1021/acs.jctc.8b01176
      * Hamiltonian:
        H0-scaling (s, p, d)           1.850000    2.230000    2.230000
        zeta-weighting                 0.500000
      * Dispersion:
        s8                             2.700000
        a1                             0.520000
        a2                             5.000000
        s9                             5.000000
      * Repulsion:
        kExp                           1.500000    1.000000
        rExp                           1.000000
      * Coulomb:
        alpha                          2.000000
        third order                    shell-resolved
        anisotropic                    true
        a3                             3.000000
        a5                             4.000000
        cn-shift                       1.200000
        cn-exp                         4.000000
        max-rad                        5.000000

q/qsh data taken from xtbrestart
CAMM data taken from xtbrestart

          ...................................................
          :                      SETUP                      :
          :.................................................:
          :  # basis functions                 184          :
          :  # atomic orbitals                 184          :
          :  # shells                          112          :
          :  # electrons                       198          :
          :  max. iterations                   250          :
          :  Hamiltonian                  GFN2-xTB          :
          :  restarted?                       true          :
          :  GBSA solvation                  false          :
          :  PC potential                    false          :
          :  electronic temp.            0.0000000     K    :
          :  accuracy                    1.0000000          :
          :  -> integral cutoff          0.2500000E+02      :
          :  -> integral neglect         0.1000000E-07      :
          :  -> SCF convergence          0.1000000E-05 Eh   :
          :  -> wf. convergence          0.1000000E-03 e    :
          :  Broyden damping             0.4000000          :
          :  net charge                          0          :
          :  unpaired electrons                  0          :
          ...................................................

 iter      E             dE          RMSdq      gap      omega  full diag
   1   -111.7716997 -0.111772E+03  0.256E+00    3.44       0.0  T
   2   -111.8194526 -0.477529E-01  0.153E+00    3.51       1.0  T
   3   -111.8140079  0.544477E-02  0.600E-01    3.49       1.0  T
   4   -111.8241943 -0.101864E-01  0.214E-01    3.43       1.0  T
   5   -111.8267609 -0.256661E-02  0.785E-02    3.41       1.0  T
   6   -111.8269348 -0.173915E-03  0.304E-02    3.41       1.0  T
   7   -111.8269425 -0.767293E-05  0.154E-02    3.41       1.0  T
   8   -111.8269514 -0.891991E-05  0.470E-03    3.41       2.4  T
   9   -111.8269518 -0.377378E-06  0.188E-03    3.41       6.1  T
  10   -111.8269518 -0.511483E-07  0.793E-04    3.41      14.5  T
  11   -111.8269518 -0.171488E-07  0.285E-04    3.41      40.2  T

   *** convergence criteria satisfied after 11 iterations ***

         #    Occupation            Energy/Eh            Energy/eV
      -------------------------------------------------------------
         1        2.0000           -0.7134700             -19.4145
       ...           ...                  ...                  ...
        93        2.0000           -0.4055014             -11.0343
        94        2.0000           -0.4028409             -10.9619
        95        2.0000           -0.3982554             -10.8371
        96        2.0000           -0.3856060             -10.4929
        97        2.0000           -0.3768600             -10.2549
        98        2.0000           -0.3751171             -10.2075
        99        2.0000           -0.3561573              -9.6915 (HOMO)
       100                         -0.2308998              -6.2831 (LUMO)
       101                         -0.2285698              -6.2197
       102                         -0.2257551              -6.1431
       103                         -0.2176601              -5.9228
       104                         -0.2069333              -5.6309
       ...                                ...                  ...
       184                          0.7219075              19.6441
      -------------------------------------------------------------
                  HL-Gap            0.1252575 Eh            3.4084 eV
             Fermi-level            0.0000000 Eh            0.0000 eV

 SCC (total)                   0 d,  0 h,  0 min,  0.300 sec
 SCC setup                      ...        0 min,  0.002 sec (  0.667%)
 Dispersion                     ...        0 min,  0.003 sec (  1.000%)
 classical contributions        ...        0 min,  0.001 sec (  0.333%)
 integral evaluation            ...        0 min,  0.030 sec ( 10.000%)
 iterations                     ...        0 min,  0.156 sec ( 52.000%)
 molecular gradient             ...        0 min,  0.104 sec ( 34.667%)
 printout                       ...        0 min,  0.004 sec (  1.333%)

         :::::::::::::::::::::::::::::::::::::::::::::::::::::
         ::                     SUMMARY                     ::
         :::::::::::::::::::::::::::::::::::::::::::::::::::::
         :: total energy            -110.294917721861 Eh    ::
         :: gradient norm              0.000474105485 Eh/a0 ::
         :: HOMO-LUMO gap              3.408429443476 eV    ::
         ::.................................................::
         :: SCC energy              -111.824307668867 Eh    ::
         :: -> isotropic ES            0.184239364106 Eh    ::
         :: -> anisotropic ES          0.006650643597 Eh    ::
         :: -> anisotropic XC          0.040751108569 Eh    ::
         :: -> dispersion             -0.082189690653 Eh    ::
         :: repulsion energy           1.529389947006 Eh    ::
         :: add. restraining           0.000000000000 Eh    ::
         :: total charge               0.000000000000 e     ::
         :::::::::::::::::::::::::::::::::::::::::::::::::::::

           -------------------------------------------------
          |                Property Printout                |
           -------------------------------------------------

    * Orbital Energies and Occupations

         #    Occupation            Energy/Eh            Energy/eV
      -------------------------------------------------------------
         1        2.0000           -0.7134700             -19.4145
       ...           ...                  ...                  ...
        87        2.0000           -0.4175572             -11.3623
        88        2.0000           -0.4148369             -11.2883
        89        2.0000           -0.4140237             -11.2662
        90        2.0000           -0.4120996             -11.2138
        91        2.0000           -0.4089856             -11.1291
        92        2.0000           -0.4059170             -11.0456
        93        2.0000           -0.4055014             -11.0343
        94        2.0000           -0.4028409             -10.9619
        95        2.0000           -0.3982554             -10.8371
        96        2.0000           -0.3856060             -10.4929
        97        2.0000           -0.3768600             -10.2549
        98        2.0000           -0.3751171             -10.2075
        99        2.0000           -0.3561573              -9.6915 (HOMO)
       100                         -0.2308998              -6.2831 (LUMO)
       101                         -0.2285698              -6.2197
       102                         -0.2257551              -6.1431
       103                         -0.2176601              -5.9228
       104                         -0.2069333              -5.6309
       105                         -0.1931902              -5.2570
       106                         -0.1543655              -4.2005
       107                         -0.1046220              -2.8469
       108                         -0.0672802              -1.8308
       109                          0.0008644               0.0235
       110                          0.0013004               0.0354
       ...                                ...                  ...
       184                          0.7219075              19.6441
      -------------------------------------------------------------
                  HL-Gap            0.1252575 Eh            3.4084 eV
             Fermi-level            0.0000000 Eh            0.0000 eV

     #   Z          covCN         q      C6AA      α(0)
     1   7 N        2.685    -0.261    26.762     7.683
     2   6 C        2.906     0.074    26.339     8.415
     3   6 C        2.923    -0.047    29.155     8.855
     4   6 C        2.925    -0.038    28.952     8.824
     5   6 C        2.970     0.004    27.931     8.669
     6   6 C        2.924    -0.044    29.083     8.844
     7   6 C        2.922    -0.052    29.296     8.876
     8   6 C        3.811    -0.071    21.844     6.653
     9   6 C        3.798     0.019    20.252     6.408
    10   6 C        3.663     0.184    17.907     6.070
    11   6 C        3.808    -0.068    21.800     6.647
    12   6 C        3.855    -0.029    21.047     6.525
    13   6 C        3.805    -0.063    21.716     6.634
    14   6 C        3.801    -0.063    21.705     6.633
    15   6 C        3.752    -0.103    22.528     6.769
    16   8 O        1.654    -0.473    22.316     6.377
    17   7 N        2.785    -0.121    23.633     7.220
    18   6 C        3.069     0.042    26.997     8.520
    19   6 C        3.112    -0.025    28.473     8.741
    20   6 C        3.056    -0.050    29.185     8.860
    21   6 C        2.909    -0.055    29.372     8.887
    22   6 C        2.912    -0.049    29.223     8.864
    23   6 C        3.061     0.040    27.044     8.528
    24   6 C        2.924    -0.039    28.980     8.828
    25   6 C        2.919    -0.045    29.119     8.849
    26   6 C        3.754    -0.113    22.714     6.796
    27   8 O        1.610    -0.597    25.108     6.763
    28   1 H        0.860     0.146     1.430     1.873
    29   1 H        0.805     0.293     0.744     1.355
    30   1 H        0.926     0.043     2.403     2.424
    31   1 H        0.926     0.036     2.496     2.471
    32   1 H        0.925     0.031     2.576     2.510
    33   1 H        0.925     0.025     2.660     2.551
    34   1 H        0.924     0.065     2.143     2.289
    35   1 H        0.924     0.059     2.210     2.325
    36   1 H        0.924     0.063     2.168     2.303
    37   1 H        0.860     0.178     1.224     1.733
    38   1 H        0.860     0.206     1.078     1.626
    39   1 H        0.923     0.025     2.665     2.553
    40   1 H        0.924     0.050     2.321     2.382
    41   1 H        0.924     0.063     2.166     2.302
    42   1 H        0.924     0.040     2.453     2.449
    43   1 H        0.924     0.028     2.611     2.527
    44   1 H        0.924     0.022     2.707     2.573
    45   1 H        0.924     0.060     2.201     2.320
    46   1 H        0.925     0.030     2.584     2.514
    47   1 H        0.925     0.035     2.522     2.483
    48   1 H        0.925     0.031     2.575     2.510
    49   1 H        0.860     0.156     1.362     1.828
    50   1 H        0.805     0.274     0.805     1.409
    51   1 H        0.926     0.019     2.746     2.592
    52   1 H        0.926     0.040     2.444     2.445
    53   1 H        0.926     0.024     2.678     2.559
    54   1 H        0.926     0.024     2.666     2.553
    55   1 H        0.925     0.055     2.260     2.351
    56   1 H        0.924     0.048     2.347     2.396
    57   1 H        0.924     0.042     2.422     2.434
    58   1 H        0.925     0.048     2.344     2.394
    59   1 H        0.805     0.283     0.775     1.383
    60   8 O        1.610    -0.600    25.193     6.774
    61   1 H        0.804     0.314     0.681     1.296
    62   1 H        0.804     0.304     0.708     1.322
    63   7 N        2.692    -0.184    24.983     7.424
    64   6 C        2.752     0.264    22.554     7.777
    65   8 O        0.858    -0.436    22.414     6.347
    66   6 C        3.757    -0.143    23.309     6.883
    67   6 C        2.749     0.277    22.305     7.733
    68   8 O        0.859    -0.454    22.794     6.401
    69   1 H        0.925     0.055     2.259     2.350
    70   1 H        0.925     0.060     2.200     2.319
    71   1 H        0.925     0.079     1.989     2.205
    72   7 N        2.686    -0.176    24.800     7.396
    73   6 C        3.690    -0.043    21.530     6.640
    74   1 H        0.924     0.053     2.286     2.364
    75   1 H        0.924     0.050     2.319     2.381
    76   1 H        0.925     0.082     1.955     2.187

 Mol. C6AA /au·bohr⁶  :      55559.086032
 Mol. C8AA /au·bohr⁸  :    1265600.878646
 Mol. α(0) /au        :        361.953865


Wiberg/Mayer (AO) data.
largest (>0.10) Wiberg bond orders for each atom

 ---------------------------------------------------------------------------
     #   Z sym  total        # sym  WBO       # sym  WBO       # sym  WBO
 ---------------------------------------------------------------------------
     1   7 N    3.160 --     2 C    1.051    10 C    0.995    28 H    0.946
     2   6 C    3.973 --     7 C    1.393     3 C    1.375     1 N    1.051
                             5 C    0.100
     3   6 C    3.991 --     4 C    1.465     2 C    1.375    30 H    0.965
                             6 C    0.105
     4   6 C    3.991 --     3 C    1.465     5 C    1.397    31 H    0.968
                             7 C    0.107
     5   6 C    3.988 --     6 C    1.415     4 C    1.397     8 C    1.010
                             2 C    0.100
     6   6 C    3.990 --     7 C    1.443     5 C    1.415    32 H    0.968
                             3 C    0.105
     7   6 C    3.990 --     6 C    1.443     2 C    1.393    33 H    0.968
                             4 C    0.107
     8   6 C    3.991 --     5 C    1.010     9 C    0.983    34 H    0.970
                            35 H    0.962
     9   6 C    3.964 --     8 C    0.983    63 N    0.975    36 H    0.951
                            64 C    0.915
    10   6 C    3.939 --     1 N    0.995    11 C    0.993    39 H    0.956
                            16 O    0.944
    11   6 C    3.991 --    10 C    0.993    12 C    0.980    40 H    0.969
                            58 H    0.968
    12   6 C    3.991 --    20 C    1.005    13 C    0.984    11 C    0.980
                            41 H    0.954
    13   6 C    3.995 --    14 C    1.008    12 C    0.984    42 H    0.977
                            43 H    0.974
    14   6 C    3.995 --    15 C    1.019    13 C    1.008    44 H    0.976
                            45 H    0.972
    15   6 C    3.996 --    14 C    1.019    47 H    0.988    48 H    0.988
                            46 H    0.987
    16   8 O    1.978 --    10 C    0.944    29 H    0.897
    17   7 N    3.526 --    18 C    1.174    23 C    1.170    49 H    0.946
    18   6 C    3.958 --    21 C    1.343    19 C    1.244    17 N    1.174
    19   6 C    3.983 --    22 C    1.332    18 C    1.244    20 C    1.201
    20   6 C    3.972 --    23 C    1.553    19 C    1.201    12 C    1.005
    21   6 C    3.988 --    24 C    1.487    18 C    1.343    51 H    0.969
                            22 C    0.111
    22   6 C    3.989 --    25 C    1.500    19 C    1.332    52 H    0.963
                            21 C    0.111
    23   6 C    3.950 --    20 C    1.553    17 N    1.170    26 C    1.029
    24   6 C    3.988 --    21 C    1.487    25 C    1.375    53 H    0.972
    25   6 C    3.990 --    22 C    1.500    24 C    1.375    54 H    0.972
    26   6 C    3.995 --    23 C    1.029    55 H    0.977    57 H    0.975
                            56 H    0.969
    27   8 O    1.855 --    59 H    0.918    61 H    0.859
    28   1 H    0.978 --     1 N    0.946
    29   1 H    0.914 --    16 O    0.897
    30   1 H    0.998 --     3 C    0.965
    31   1 H    0.998 --     4 C    0.968
    32   1 H    0.999 --     6 C    0.968
    33   1 H    0.999 --     7 C    0.968
    34   1 H    0.995 --     8 C    0.970
    35   1 H    0.995 --     8 C    0.962
    36   1 H    0.996 --     9 C    0.951
    37   1 H    0.968 --    63 N    0.936
    38   1 H    0.958 --    72 N    0.907
    39   1 H    0.999 --    10 C    0.956
    40   1 H    0.997 --    11 C    0.969
    41   1 H    0.996 --    12 C    0.954
    42   1 H    0.998 --    13 C    0.977
    43   1 H    0.999 --    13 C    0.974
    44   1 H    1.000 --    14 C    0.976
    45   1 H    0.996 --    14 C    0.972
    46   1 H    0.999 --    15 C    0.987
    47   1 H    0.999 --    15 C    0.988
    48   1 H    0.999 --    15 C    0.988
    49   1 H    0.975 --    17 N    0.946
    50   1 H    0.925 --    60 O    0.922
    51   1 H    0.999 --    21 C    0.969
    52   1 H    0.998 --    22 C    0.963
    53   1 H    0.999 --    24 C    0.972
    54   1 H    0.999 --    25 C    0.972
    55   1 H    0.996 --    26 C    0.977
    56   1 H    0.994 --    26 C    0.969
    57   1 H    0.996 --    26 C    0.975
    58   1 H    0.998 --    11 C    0.968
    59   1 H    0.920 --    27 O    0.918
    60   8 O    1.825 --    50 H    0.922    62 H    0.871
    61   1 H    0.901 --    27 O    0.859
    62   1 H    0.907 --    60 O    0.871
    63   7 N    3.447 --    67 C    1.266     9 C    0.975    37 H    0.936
                            68 O    0.191
    64   6 C    3.957 --    65 O    1.678    72 N    1.292     9 C    0.915
    65   8 O    2.010 --    64 C    1.678    72 N    0.212
    66   6 C    3.992 --    67 C    0.984    71 H    0.981    69 H    0.973
                            70 H    0.967
    67   6 C    3.949 --    68 O    1.651    63 N    1.266    66 C    0.984
    68   8 O    1.993 --    67 C    1.651    63 N    0.191
    69   1 H    0.997 --    66 C    0.973
    70   1 H    0.996 --    66 C    0.967
    71   1 H    0.993 --    66 C    0.981
    72   7 N    3.467 --    64 C    1.292    73 C    1.006    38 H    0.907
                            65 O    0.212
    73   6 C    3.965 --    72 N    1.006    74 H    0.977    76 H    0.977
                            75 H    0.976
    74   1 H    0.997 --    73 C    0.977
    75   1 H    0.997 --    73 C    0.976
    76   1 H    0.993 --    73 C    0.977
 ---------------------------------------------------------------------------

Topologies differ in total number of bonds
Writing topology from bond orders to xtbtopo.mol

molecular dipole:
                 x           y           z       tot (Debye)
 q only:       -0.107      -0.405       0.929
   full:       -0.569      -0.810       1.113       3.786
molecular quadrupole (traceless):
                xx          xy          yy          xz          yz          zz
 q only:      -14.317      19.760     -10.232      -5.980      16.233      24.549
  q+dip:      -19.953      23.315     -16.316      -8.877      28.990      36.269
   full:      -21.874      22.798     -14.094      -9.079      25.185      35.968


           -------------------------------------------------
          | TOTAL ENERGY             -110.294917721861 Eh   |
          | GRADIENT NORM               0.000474105485 Eh/α |
          | HOMO-LUMO GAP               3.408429443476 eV   |
           -------------------------------------------------

------------------------------------------------------------------------
 * finished run on 2026/08/31 at 13:17:36.919     
------------------------------------------------------------------------
 total:
 * wall-time:     0 d,  0 h,  0 min,  0.404 sec
 *  cpu-time:     0 d,  0 h,  0 min,  0.359 sec
 * ratio c/w:     0.890 speedup
 SCF:
 * wall-time:     0 d,  0 h,  0 min,  0.301 sec
 *  cpu-time:     0 d,  0 h,  0 min,  0.266 sec
 * ratio c/w:     0.882 speedup



===== STDERR =====

normal termination of xtb
