76
 energy: -110.294917725068 gnorm: 0.000476464032 xtb: 6.7.1pre (5071a88)
N            0.40867686588094        0.16426673057248        1.16109795171897
C            1.75035169014048       -0.08479180430160        0.78437439412476
C            2.78837851730594        0.58641811379588        1.42536464901796
C            4.09990560659783        0.35237683868596        1.06791687890859
C            4.41964031874988       -0.55674999338036        0.06509032860876
C            3.38638088490252       -1.25743339314271       -0.54089623537098
C            2.06940408767446       -1.03364794769365       -0.18129247285423
C            5.84373657031171       -0.72393425711892       -0.38426957715388
C            6.38598668871892        0.59203101880089       -0.94863602799539
C           -0.25935484395497        1.31911775027531        0.60294313427994
C            0.53307502149576        2.60847962668183        0.77720762130803
C           -0.32637146365564        3.85531953069579        0.51172734314163
C            0.56433980193242        5.08969281003613        0.28973196160509
C            0.98941198991571        5.22652844437005       -1.17178778263063
C            2.02220933727234        6.33106992048965       -1.35775304373740
O           -0.50517417337661        1.15595062781629       -0.79731389895230
N           -2.33372315186981        4.48146196479739        3.56430350873136
C           -3.32646358122027        4.05559713614670        2.73271653736362
C           -2.73026097438310        3.76203296207221        1.48288401802893
C           -1.33100717407822        4.04115547577702        1.61001865473474
C           -4.68636980917390        3.89436369191528        2.95810919506222
C           -3.53480370391947        3.28772330937107        0.44540724220245
C           -1.13171831688399        4.47106366418981        2.89537538174913
C           -5.45524881008356        3.42870608796207        1.91295690686942
C           -4.88357268168512        3.12848978127120        0.67408853674776
C            0.09395109928974        4.90334284838447        3.62132500627846
O           -1.74052999899265        2.76481378752049       -2.72640924652639
H           -0.15563166906912       -0.66423702217363        0.99140454376708
H           -1.10609379281218        0.41256879782033       -0.92661952423241
H            2.56220203043207        1.28121856217445        2.21712146777810
H            4.88986258565893        0.88277719984704        1.57888391295031
H            3.61117051549336       -1.98752203651883       -1.30625492548327
H            1.28008322405236       -1.59373080830871       -0.66514205163728
H            5.92064732296879       -1.49221849571919       -1.15580095314762
H            6.48066375834317       -1.02785423665177        0.44849969203047
H            6.55699362934554        1.32103416254618       -0.14717378201540
H            4.74919593072771        0.55919509079070       -2.27995640688955
H            7.86728759096163        2.40857417592614       -1.71078020725597
H           -1.22330209077122        1.40758913596078        1.12675213806247
H            1.38066998534038        2.58524539100303        0.09121365588919
H           -0.88823239421445        3.69452112746584       -0.40998654198538
H            0.01461435420296        5.98622059545732        0.58007249668152
H            1.45570993597646        5.02614557676175        0.91685367337021
H            1.41042229791047        4.28009260577981       -1.51974834362721
H            0.10831959960109        5.45013893603431       -1.77533520048115
H            2.27583796992268        6.44538517683940       -2.40929699612850
H            1.63009848168736        7.27952376347368       -0.99836135936205
H            2.93359943454236        6.10539167825968       -0.80660783537751
H           -2.45346824559544        4.77271596521328        4.51946041480554
H           -2.77963064391785        5.49429728553641       -1.30897086687429
H           -5.12309012447704        4.12590685934248        3.91879037066907
H           -3.11532864731657        3.04355594444390       -0.51876483828443
H           -6.51746887536753        3.29146830385133        2.05128176680817
H           -5.51889096669144        2.76396215685875       -0.11986618039226
H            0.98540316040491        4.66836237475445        3.05139506573189
H            0.07453981991176        5.97986218227961        3.79748904313678
H            0.15464665001178        4.40432456175915        4.58898754711806
H            0.90347958735231        2.64006042458443        1.79954675010734
H           -1.18086715254966        2.85537475253536       -3.49971199691849
O           -2.27898521730037        5.47562025674850       -2.12695148663078
H           -1.21477710121120        2.30300440091608       -2.05249143442573
H           -2.22082824163508        4.54239245870926       -2.38518019629340
N            5.41137704237683        1.18464310080090       -1.84920574854999
C            7.72481168329772        0.38113065321721       -1.68883512484204
O            8.14862207558871       -0.71483118200190       -1.99233853994628
C            4.09331505788997        2.93602733878427       -2.83047080419069
C            5.28811712372182        2.51669511872920       -2.00792661894012
O            6.08968230347318        3.30094970317316       -1.52943847634786
H            3.18939282505652        2.47158947795661       -2.44232660557304
H            4.23065041767221        2.62440990665532       -3.86402179125086
H            3.99294838354512        4.01684093103694       -2.79601498533994
N            8.34137498284600        1.54335264724476       -1.95066866948688
C            9.58764903277816        1.62023016151538       -2.67156461004773
H           10.33631395040771        2.14693793694717       -2.07773146938116
H            9.45534781492258        2.14281970953242       -3.62097930621333
H            9.92569480789511        0.60279246620483       -2.86250962654580
