      -----------------------------------------------------------      
     |                   =====================                   |     
     |                           x T B                           |     
     |                   =====================                   |     
     |                         S. Grimme                         |     
     |          Mulliken Center for Theoretical Chemistry        |     
     |                    University of Bonn                     |     
      -----------------------------------------------------------      

   * xtb version 6.7.1pre (5071a88) compiled by 'Marcel@Raven' on 2024-07-23

   xtb is free software: you can redistribute it and/or modify it under
   the terms of the GNU Lesser General Public License as published by
   the Free Software Foundation, either version 3 of the License, or
   (at your option) any later version.
   
   xtb is distributed in the hope that it will be useful,
   but WITHOUT ANY WARRANTY; without even the implied warranty of
   MERCHANTABILITY or FITNESS FOR A PARTICULAR PURPOSE.  See the
   GNU Lesser General Public License for more details.
   
   Cite this work as:
   * C. Bannwarth, E. Caldeweyher, S. Ehlert, A. Hansen, P. Pracht,
     J. Seibert, S. Spicher, S. Grimme, WIREs Comput. Mol. Sci., 2020, 11,
     e01493. DOI: 10.1002/wcms.1493
   
   for GFN2-xTB:
   * C. Bannwarth, S. Ehlert and S. Grimme., J. Chem. Theory Comput., 2019,
     15, 1652-1671. DOI: 10.1021/acs.jctc.8b01176
   for GFN1-xTB:
   * S. Grimme, C. Bannwarth, P. Shushkov, J. Chem. Theory Comput., 2017,
     13, 1989-2009. DOI: 10.1021/acs.jctc.7b00118
   for GFN0-xTB:
   * P. Pracht, E. Caldeweyher, S. Ehlert, S. Grimme, ChemRxiv, 2019, preprint.
     DOI: 10.26434/chemrxiv.8326202.v1
   for GFN-FF:
   * S. Spicher and S. Grimme, Angew. Chem. Int. Ed., 2020, 59, 15665-15673.
     DOI: 10.1002/anie.202004239
   
   for ALPB and GBSA implicit solvation:
   * S. Ehlert, M. Stahn, S. Spicher, S. Grimme, J. Chem. Theory Comput.,
     2021, 17, 4250-4261. DOI: 10.1021/acs.jctc.1c00471
   
   for ddCOSMO and CPCM-X implicit solvation:
   * M. Stahn, S. Ehlert, S. Grimme, J. Phys. Chem. A,
     2023, XX, XXXX-XXXX. DOI: 10.1021/acs.jpca.3c04382
   
   for DFT-D4:
   * E. Caldeweyher, C. Bannwarth and S. Grimme, J. Chem. Phys., 2017,
     147, 034112. DOI: 10.1063/1.4993215
   * E. Caldeweyher, S. Ehlert, A. Hansen, H. Neugebauer, S. Spicher,
     C. Bannwarth and S. Grimme, J. Chem. Phys., 2019, 150, 154122.
     DOI: 10.1063/1.5090222
   * E. Caldeweyher, J.-M. Mewes, S. Ehlert and S. Grimme, Phys. Chem. Chem. Phys.
     2020, 22, 8499-8512. DOI: 10.1039/D0CP00502A
   
   for sTDA-xTB:
   * S. Grimme and C. Bannwarth, J. Chem. Phys., 2016, 145, 054103.
     DOI: 10.1063/1.4959605
   
   in the mass-spec context:
   * V. Asgeirsson, C. Bauer and S. Grimme, Chem. Sci., 2017, 8, 4879.
     DOI: 10.1039/c7sc00601b
   * J. Koopman and S. Grimme, ACS Omega 2019, 4, 12, 15120-15133.
     DOI: 10.1021/acsomega.9b02011
   
   for metadynamics refer to:
   * S. Grimme, J. Chem. Theory Comput., 2019, 155, 2847-2862
     DOI: 10.1021/acs.jctc.9b00143
   
   for SPH calculations refer to:
   * S. Spicher and S. Grimme, J. Chem. Theory Comput., 2021, 17, 1701-1714
     DOI: 10.1021/acs.jctc.0c01306
   
   for ONIOM refer to:
   * C. Plett, A. Katbashev, S. Ehlert, S. Grimme, M. Bursch,
     Phys. Chem. Chem. Phys., 2023, 25, 17860-17868. DOI: 10.1039/D3CP02178E
   
   for DIPRO refer to:
   * J. Kohn, N. Gildemeister, S. Grimme, D. Fazzi, A. Hansen,
     J. Chem. Phys., 2023, just accepted.
   
   for PTB refer to:
   * S. Grimme, M. Mueller, A. Hansen, J. Chem. Phys., 2023, 158, 124111.
     DOI: 10.1063/5.0137838
   
   with help from (in alphabetical order)
   P. Atkinson, C. Bannwarth, F. Bohle, G. Brandenburg, E. Caldeweyher
   M. Checinski, S. Dohm, S. Ehlert, S. Ehrlich, I. Gerasimov, C. Hölzer
   A. Katbashev, J. Kohn, J. Koopman, C. Lavigne, S. Lehtola, F. März, M. Müller,
   F. Musil, H. Neugebauer, J. Pisarek, C. Plett, P. Pracht, F. Pultar,
   J. Seibert, P. Shushkov, S. Spicher, M. Stahn, M. Steiner, T. Strunk,
   J. Stückrath, T. Rose, and J. Unsleber
   
 * started run on 2026/08/31 at 13:17:35.203     
   ID    Z sym.   atoms
    1    7 N      1, 17, 63, 72
    2    6 C      2-15, 18-26, 64, 66, 67, 73
    3    8 O      16, 27, 60, 65, 68
    4    1 H      28-59, 61, 62, 69-71, 74-76

           -------------------------------------------------
          |                Calculation Setup                |
           -------------------------------------------------

          program call               : C:\Users\Nayanika\Downloads\xtb-6.7.1pre-windows-x86_64\xtb-6.7.1\bin\xtb.exe D:\PhD_Thesis\LmrR_EVB\charges\fast_lmrr_5QM\xtb_preparation\stage2_five_xtb_protocols\GFN2_normal\TS2_1a_to_PS2_2\TS2_1a_to_PS2_2_RS_xtbopt.xyz --gfn 2 --chrg 0 --uhf 0 --etemp 0
          coordinate file            : D:\PhD_Thesis\LmrR_EVB\charges\fast_lmrr_5QM\xtb_preparation\stage2_five_xtb_protocols\GFN2_normal\TS2_1a_to_PS2_2\TS2_1a_to_PS2_2_RS_xtbopt.xyz
          omp threads                :                     1


molecular fragmentation (1/2 indicates fragments):
111111111111111211111111112121111111111111111111121111111222221111111111
1111
# atoms in fragment 1/2:    67     9
 fragment masses (1/2) :      446.59       54.05
CMA distance (Bohr)    :   4.120
constraining FC (au)   :  0.0500

           -------------------------------------------------
          |                 G F N 2 - x T B                 |
           -------------------------------------------------

        Reference                      10.1021/acs.jctc.8b01176
      * Hamiltonian:
        H0-scaling (s, p, d)           1.850000    2.230000    2.230000
        zeta-weighting                 0.500000
      * Dispersion:
        s8                             2.700000
        a1                             0.520000
        a2                             5.000000
        s9                             5.000000
      * Repulsion:
        kExp                           1.500000    1.000000
        rExp                           1.000000
      * Coulomb:
        alpha                          2.000000
        third order                    shell-resolved
        anisotropic                    true
        a3                             3.000000
        a5                             4.000000
        cn-shift                       1.200000
        cn-exp                         4.000000
        max-rad                        5.000000

q/qsh data taken from xtbrestart
CAMM data taken from xtbrestart

          ...................................................
          :                      SETUP                      :
          :.................................................:
          :  # basis functions                 184          :
          :  # atomic orbitals                 184          :
          :  # shells                          112          :
          :  # electrons                       198          :
          :  max. iterations                   250          :
          :  Hamiltonian                  GFN2-xTB          :
          :  restarted?                       true          :
          :  GBSA solvation                  false          :
          :  PC potential                    false          :
          :  electronic temp.            0.0000000     K    :
          :  accuracy                    1.0000000          :
          :  -> integral cutoff          0.2500000E+02      :
          :  -> integral neglect         0.1000000E-07      :
          :  -> SCF convergence          0.1000000E-05 Eh   :
          :  -> wf. convergence          0.1000000E-03 e    :
          :  Broyden damping             0.4000000          :
          :  net charge                          0          :
          :  unpaired electrons                  0          :
          ...................................................

 iter      E             dE          RMSdq      gap      omega  full diag
   1   -111.7940579 -0.111794E+03  0.220E+00    3.06       0.0  T
   2   -111.8301051 -0.360472E-01  0.127E+00    3.27       1.0  T
   3   -111.8222258  0.787934E-02  0.832E-01    3.22       1.0  T
   4   -111.8396141 -0.173884E-01  0.223E-01    3.20       1.0  T
   5   -111.8419809 -0.236673E-02  0.728E-02    3.20       1.0  T
   6   -111.8419915 -0.106739E-04  0.373E-02    3.21       1.0  T
   7   -111.8420479 -0.563401E-04  0.158E-02    3.21       1.0  T
   8   -111.8420499 -0.197227E-05  0.665E-03    3.21       1.7  T
   9   -111.8420520 -0.214433E-05  0.188E-03    3.21       6.1  T
  10   -111.8420521 -0.775318E-07  0.916E-04    3.21      12.5  T
  11   -111.8420521 -0.142999E-07  0.340E-04    3.21      33.7  T

   *** convergence criteria satisfied after 11 iterations ***

         #    Occupation            Energy/Eh            Energy/eV
      -------------------------------------------------------------
         1        2.0000           -0.7017656             -19.0960
       ...           ...                  ...                  ...
        93        2.0000           -0.3998362             -10.8801
        94        2.0000           -0.3961841             -10.7807
        95        2.0000           -0.3928389             -10.6897
        96        2.0000           -0.3787960             -10.3076
        97        2.0000           -0.3769368             -10.2570
        98        2.0000           -0.3599119              -9.7937
        99        2.0000           -0.3458759              -9.4118 (HOMO)
       100                         -0.2278429              -6.1999 (LUMO)
       101                         -0.2212203              -6.0197
       102                         -0.2194480              -5.9715
       103                         -0.2110417              -5.7427
       104                         -0.2012440              -5.4761
       ...                                ...                  ...
       184                          0.7194716              19.5778
      -------------------------------------------------------------
                  HL-Gap            0.1180329 Eh            3.2118 eV
             Fermi-level            0.0000000 Eh            0.0000 eV

 SCC (total)                   0 d,  0 h,  0 min,  0.498 sec
 SCC setup                      ...        0 min,  0.001 sec (  0.201%)
 Dispersion                     ...        0 min,  0.008 sec (  1.606%)
 classical contributions        ...        0 min,  0.000 sec (  0.000%)
 integral evaluation            ...        0 min,  0.038 sec (  7.630%)
 iterations                     ...        0 min,  0.335 sec ( 67.269%)
 molecular gradient             ...        0 min,  0.115 sec ( 23.092%)
 printout                       ...        0 min,  0.001 sec (  0.201%)

         :::::::::::::::::::::::::::::::::::::::::::::::::::::
         ::                     SUMMARY                     ::
         :::::::::::::::::::::::::::::::::::::::::::::::::::::
         :: total energy            -110.266823841759 Eh    ::
         :: gradient norm              0.000849061372 Eh/a0 ::
         :: HOMO-LUMO gap              3.211839154027 eV    ::
         ::.................................................::
         :: SCC energy              -111.839594263025 Eh    ::
         :: -> isotropic ES            0.185916448440 Eh    ::
         :: -> anisotropic ES          0.006082972881 Eh    ::
         :: -> anisotropic XC          0.041211032602 Eh    ::
         :: -> dispersion             -0.082368583432 Eh    ::
         :: repulsion energy           1.572770421266 Eh    ::
         :: add. restraining           0.000000000000 Eh    ::
         :: total charge              -0.000000000000 e     ::
         :::::::::::::::::::::::::::::::::::::::::::::::::::::

           -------------------------------------------------
          |                Property Printout                |
           -------------------------------------------------

    * Orbital Energies and Occupations

         #    Occupation            Energy/Eh            Energy/eV
      -------------------------------------------------------------
         1        2.0000           -0.7017656             -19.0960
       ...           ...                  ...                  ...
        87        2.0000           -0.4223273             -11.4921
        88        2.0000           -0.4207908             -11.4503
        89        2.0000           -0.4181530             -11.3785
        90        2.0000           -0.4128632             -11.2346
        91        2.0000           -0.4103139             -11.1652
        92        2.0000           -0.4017794             -10.9330
        93        2.0000           -0.3998362             -10.8801
        94        2.0000           -0.3961841             -10.7807
        95        2.0000           -0.3928389             -10.6897
        96        2.0000           -0.3787960             -10.3076
        97        2.0000           -0.3769368             -10.2570
        98        2.0000           -0.3599119              -9.7937
        99        2.0000           -0.3458759              -9.4118 (HOMO)
       100                         -0.2278429              -6.1999 (LUMO)
       101                         -0.2212203              -6.0197
       102                         -0.2194480              -5.9715
       103                         -0.2110417              -5.7427
       104                         -0.2012440              -5.4761
       105                         -0.1952927              -5.3142
       106                         -0.1810158              -4.9257
       107                         -0.1559383              -4.2433
       108                         -0.0896062              -2.4383
       109                         -0.0692569              -1.8846
       110                          0.0094762               0.2579
       ...                                ...                  ...
       184                          0.7194716              19.5778
      -------------------------------------------------------------
                  HL-Gap            0.1180329 Eh            3.2118 eV
             Fermi-level            0.0000000 Eh            0.0000 eV

     #   Z          covCN         q      C6AA      α(0)
     1   7 N        2.692    -0.160    24.455     7.345
     2   6 C        2.907     0.065    26.544     8.448
     3   6 C        2.921    -0.055    29.362     8.886
     4   6 C        2.924    -0.040    29.002     8.831
     5   6 C        2.972    -0.002    28.082     8.692
     6   6 C        2.924    -0.043    29.079     8.843
     7   6 C        2.923    -0.062    29.542     8.913
     8   6 C        3.811    -0.070    21.821     6.649
     9   6 C        3.799     0.020    20.237     6.405
    10   6 C        2.828     0.010    27.773     8.636
    11   6 C        2.893    -0.096    30.402     9.040
    12   6 C        3.859    -0.018    20.863     6.496
    13   6 C        3.807    -0.063    21.696     6.631
    14   6 C        3.800    -0.053    21.531     6.607
    15   6 C        3.752    -0.104    22.552     6.772
    16   8 O        1.610    -0.600    25.183     6.773
    17   7 N        2.785    -0.117    23.544     7.207
    18   6 C        3.071     0.042    26.990     8.518
    19   6 C        3.110    -0.026    28.495     8.745
    20   6 C        3.060    -0.055    29.293     8.876
    21   6 C        2.909    -0.054    29.352     8.884
    22   6 C        2.912    -0.040    28.994     8.830
    23   6 C        3.060     0.040    27.041     8.528
    24   6 C        2.925    -0.039    28.966     8.826
    25   6 C        2.920    -0.044    29.086     8.844
    26   6 C        3.754    -0.116    22.768     6.804
    27   8 O        1.610    -0.590    24.959     6.743
    28   1 H        0.860     0.192     1.147     1.678
    29   1 H        0.806     0.272     0.813     1.416
    30   1 H        0.926     0.039     2.456     2.451
    31   1 H        0.926     0.030     2.583     2.513
    32   1 H        0.925     0.026     2.646     2.544
    33   1 H        0.926     0.045     2.379     2.412
    34   1 H        0.924     0.062     2.180     2.309
    35   1 H        0.924     0.055     2.253     2.347
    36   1 H        0.924     0.060     2.199     2.319
    37   1 H        0.860     0.183     1.196     1.713
    38   1 H        0.860     0.206     1.077     1.625
    39   1 H        0.925     0.036     2.501     2.473
    40   1 H        0.926     0.029     2.599     2.521
    41   1 H        0.924     0.033     2.547     2.496
    42   1 H        0.924     0.028     2.621     2.532
    43   1 H        0.924     0.038     2.480     2.463
    44   1 H        0.924     0.031     2.566     2.505
    45   1 H        0.924     0.020     2.732     2.585
    46   1 H        0.925     0.033     2.548     2.496
    47   1 H        0.925     0.033     2.540     2.492
    48   1 H        0.925     0.040     2.443     2.444
    49   1 H        0.860     0.162     1.323     1.802
    50   1 H        0.805     0.290     0.752     1.362
    51   1 H        0.926     0.022     2.705     2.572
    52   1 H        0.926     0.021     2.720     2.579
    53   1 H        0.926     0.025     2.666     2.553
    54   1 H        0.926     0.022     2.698     2.569
    55   1 H        0.925     0.057     2.238     2.339
    56   1 H        0.924     0.060     2.199     2.319
    57   1 H        0.924     0.045     2.389     2.417
    58   1 H        0.805     0.290     0.752     1.362
    59   1 H        0.804     0.303     0.711     1.325
    60   8 O        1.611    -0.578    24.676     6.704
    61   1 H        0.804     0.309     0.695     1.309
    62   1 H        0.805     0.278     0.790     1.396
    63   7 N        2.692    -0.186    25.036     7.431
    64   6 C        2.753     0.264    22.543     7.775
    65   8 O        0.858    -0.436    22.423     6.349
    66   6 C        3.757    -0.149    23.440     6.903
    67   6 C        2.749     0.277    22.317     7.735
    68   8 O        0.859    -0.460    22.920     6.419
    69   1 H        0.925     0.056     2.251     2.346
    70   1 H        0.925     0.069     2.098     2.265
    71   1 H        0.925     0.076     2.020     2.223
    72   7 N        2.687    -0.177    24.832     7.401
    73   6 C        3.690    -0.042    21.518     6.638
    74   1 H        0.924     0.052     2.301     2.372
    75   1 H        0.924     0.049     2.338     2.391
    76   1 H        0.925     0.082     1.962     2.190

 Mol. C6AA /au·bohr⁶  :      56227.195691
 Mol. C8AA /au·bohr⁸  :    1284870.764951
 Mol. α(0) /au        :        366.152524


Wiberg/Mayer (AO) data.
largest (>0.10) Wiberg bond orders for each atom

 ---------------------------------------------------------------------------
     #   Z sym  total        # sym  WBO       # sym  WBO       # sym  WBO
 ---------------------------------------------------------------------------
     1   7 N    3.426 --    10 C    1.132     2 C    1.107    28 H    0.922
                            11 C    0.110
     2   6 C    3.971 --     7 C    1.358     3 C    1.353     1 N    1.107
     3   6 C    3.989 --     4 C    1.467     2 C    1.353    30 H    0.965
                             6 C    0.101
     4   6 C    3.991 --     3 C    1.467     5 C    1.397    31 H    0.969
                             7 C    0.103
     5   6 C    3.986 --     6 C    1.400     4 C    1.397     8 C    1.011
     6   6 C    3.991 --     7 C    1.459     5 C    1.400    32 H    0.967
                             3 C    0.101
     7   6 C    3.987 --     6 C    1.459     2 C    1.358    33 H    0.965
                             4 C    0.103
     8   6 C    3.991 --     5 C    1.011     9 C    0.978    34 H    0.970
                            35 H    0.967
     9   6 C    3.963 --     8 C    0.978    63 N    0.975    36 H    0.952
                            64 C    0.916
    10   6 C    3.968 --    11 C    1.777     1 N    1.132    39 H    0.961
    11   6 C    3.973 --    10 C    1.777    12 C    1.000    40 H    0.957
                             1 N    0.110
    12   6 C    3.995 --    11 C    1.000    20 C    0.986    13 C    0.982
                            41 H    0.956
    13   6 C    3.995 --    14 C    1.007    12 C    0.982    42 H    0.976
                            43 H    0.975
    14   6 C    3.998 --    15 C    1.018    13 C    1.007    45 H    0.978
                            44 H    0.975
    15   6 C    3.995 --    14 C    1.018    47 H    0.988    48 H    0.988
                            46 H    0.987
    16   8 O    1.825 --    29 H    0.923    61 H    0.869
    17   7 N    3.533 --    18 C    1.177    23 C    1.174    49 H    0.944
    18   6 C    3.959 --    21 C    1.343    19 C    1.242    17 N    1.177
    19   6 C    3.983 --    22 C    1.334    18 C    1.242    20 C    1.202
    20   6 C    3.967 --    23 C    1.542    19 C    1.202    12 C    0.986
    21   6 C    3.989 --    24 C    1.488    18 C    1.343    51 H    0.969
                            22 C    0.111
    22   6 C    3.989 --    25 C    1.500    19 C    1.334    52 H    0.967
                            21 C    0.111
    23   6 C    3.952 --    20 C    1.542    17 N    1.174    26 C    1.030
    24   6 C    3.988 --    21 C    1.488    25 C    1.374    53 H    0.972
    25   6 C    3.989 --    22 C    1.500    24 C    1.374    54 H    0.972
    26   6 C    3.994 --    23 C    1.030    55 H    0.977    57 H    0.970
                            56 H    0.969
    27   8 O    1.863 --    58 H    0.911    59 H    0.875
    28   1 H    0.962 --     1 N    0.922
    29   1 H    0.926 --    16 O    0.923
    30   1 H    0.998 --     3 C    0.965
    31   1 H    0.999 --     4 C    0.969
    32   1 H    0.999 --     6 C    0.967
    33   1 H    0.998 --     7 C    0.965
    34   1 H    0.996 --     8 C    0.970
    35   1 H    0.996 --     8 C    0.967
    36   1 H    0.996 --     9 C    0.952
    37   1 H    0.966 --    63 N    0.930
    38   1 H    0.958 --    72 N    0.906
    39   1 H    0.998 --    10 C    0.961
    40   1 H    0.999 --    11 C    0.957
    41   1 H    0.998 --    12 C    0.956
    42   1 H    0.999 --    13 C    0.976
    43   1 H    0.999 --    13 C    0.975
    44   1 H    0.999 --    14 C    0.975
    45   1 H    1.000 --    14 C    0.978
    46   1 H    0.998 --    15 C    0.987
    47   1 H    0.999 --    15 C    0.988
    48   1 H    0.998 --    15 C    0.988
    49   1 H    0.973 --    17 N    0.944
    50   1 H    0.916 --    60 O    0.901
    51   1 H    0.999 --    21 C    0.969
    52   1 H    0.999 --    22 C    0.967
    53   1 H    0.999 --    24 C    0.972
    54   1 H    0.999 --    25 C    0.972
    55   1 H    0.996 --    26 C    0.977
    56   1 H    0.994 --    26 C    0.969
    57   1 H    0.995 --    26 C    0.970
    58   1 H    0.916 --    27 O    0.911
    59   1 H    0.908 --    27 O    0.875
    60   8 O    1.832 --    62 H    0.922    50 H    0.901
    61   1 H    0.905 --    16 O    0.869
    62   1 H    0.923 --    60 O    0.922
    63   7 N    3.448 --    67 C    1.270     9 C    0.975    37 H    0.930
                            68 O    0.190
    64   6 C    3.956 --    65 O    1.679    72 N    1.290     9 C    0.916
    65   8 O    2.009 --    64 C    1.679    72 N    0.211
    66   6 C    3.992 --    67 C    0.986    70 H    0.984    69 H    0.970
                            71 H    0.962
    67   6 C    3.949 --    68 O    1.645    63 N    1.270    66 C    0.986
    68   8 O    1.988 --    67 C    1.645    63 N    0.190
    69   1 H    0.997 --    66 C    0.970
    70   1 H    0.995 --    66 C    0.984
    71   1 H    0.994 --    66 C    0.962
    72   7 N    3.465 --    64 C    1.290    73 C    1.006    38 H    0.906
                            65 O    0.211
    73   6 C    3.966 --    72 N    1.006    74 H    0.977    76 H    0.977
                            75 H    0.977
    74   1 H    0.997 --    73 C    0.977
    75   1 H    0.998 --    73 C    0.977
    76   1 H    0.993 --    73 C    0.977
 ---------------------------------------------------------------------------

Topologies differ in total number of bonds
Writing topology from bond orders to xtbtopo.mol

molecular dipole:
                 x           y           z       tot (Debye)
 q only:       -1.044       0.332      -0.595
   full:       -1.693       0.618      -0.947       5.174
molecular quadrupole (traceless):
                xx          xy          yy          xz          yz          zz
 q only:      -25.017       6.230      -1.076      -1.414      -4.856      26.094
  q+dip:      -34.730       1.888      -2.087      -1.450      -2.198      36.817
   full:      -37.097       2.836       0.154      -2.291      -4.348      36.942


           -------------------------------------------------
          | TOTAL ENERGY             -110.266823841759 Eh   |
          | GRADIENT NORM               0.000849061372 Eh/α |
          | HOMO-LUMO GAP               3.211839154027 eV   |
           -------------------------------------------------

------------------------------------------------------------------------
 * finished run on 2026/08/31 at 13:17:35.868     
------------------------------------------------------------------------
 total:
 * wall-time:     0 d,  0 h,  0 min,  0.661 sec
 *  cpu-time:     0 d,  0 h,  0 min,  0.406 sec
 * ratio c/w:     0.615 speedup
 SCF:
 * wall-time:     0 d,  0 h,  0 min,  0.499 sec
 *  cpu-time:     0 d,  0 h,  0 min,  0.328 sec
 * ratio c/w:     0.658 speedup



===== STDERR =====

normal termination of xtb
