      -----------------------------------------------------------      
     |                   =====================                   |     
     |                           x T B                           |     
     |                   =====================                   |     
     |                         S. Grimme                         |     
     |          Mulliken Center for Theoretical Chemistry        |     
     |                    University of Bonn                     |     
      -----------------------------------------------------------      

   * xtb version 6.7.1pre (5071a88) compiled by 'Marcel@Raven' on 2024-07-23

   xtb is free software: you can redistribute it and/or modify it under
   the terms of the GNU Lesser General Public License as published by
   the Free Software Foundation, either version 3 of the License, or
   (at your option) any later version.
   
   xtb is distributed in the hope that it will be useful,
   but WITHOUT ANY WARRANTY; without even the implied warranty of
   MERCHANTABILITY or FITNESS FOR A PARTICULAR PURPOSE.  See the
   GNU Lesser General Public License for more details.
   
   Cite this work as:
   * C. Bannwarth, E. Caldeweyher, S. Ehlert, A. Hansen, P. Pracht,
     J. Seibert, S. Spicher, S. Grimme, WIREs Comput. Mol. Sci., 2020, 11,
     e01493. DOI: 10.1002/wcms.1493
   
   for GFN2-xTB:
   * C. Bannwarth, S. Ehlert and S. Grimme., J. Chem. Theory Comput., 2019,
     15, 1652-1671. DOI: 10.1021/acs.jctc.8b01176
   for GFN1-xTB:
   * S. Grimme, C. Bannwarth, P. Shushkov, J. Chem. Theory Comput., 2017,
     13, 1989-2009. DOI: 10.1021/acs.jctc.7b00118
   for GFN0-xTB:
   * P. Pracht, E. Caldeweyher, S. Ehlert, S. Grimme, ChemRxiv, 2019, preprint.
     DOI: 10.26434/chemrxiv.8326202.v1
   for GFN-FF:
   * S. Spicher and S. Grimme, Angew. Chem. Int. Ed., 2020, 59, 15665-15673.
     DOI: 10.1002/anie.202004239
   
   for ALPB and GBSA implicit solvation:
   * S. Ehlert, M. Stahn, S. Spicher, S. Grimme, J. Chem. Theory Comput.,
     2021, 17, 4250-4261. DOI: 10.1021/acs.jctc.1c00471
   
   for ddCOSMO and CPCM-X implicit solvation:
   * M. Stahn, S. Ehlert, S. Grimme, J. Phys. Chem. A,
     2023, XX, XXXX-XXXX. DOI: 10.1021/acs.jpca.3c04382
   
   for DFT-D4:
   * E. Caldeweyher, C. Bannwarth and S. Grimme, J. Chem. Phys., 2017,
     147, 034112. DOI: 10.1063/1.4993215
   * E. Caldeweyher, S. Ehlert, A. Hansen, H. Neugebauer, S. Spicher,
     C. Bannwarth and S. Grimme, J. Chem. Phys., 2019, 150, 154122.
     DOI: 10.1063/1.5090222
   * E. Caldeweyher, J.-M. Mewes, S. Ehlert and S. Grimme, Phys. Chem. Chem. Phys.
     2020, 22, 8499-8512. DOI: 10.1039/D0CP00502A
   
   for sTDA-xTB:
   * S. Grimme and C. Bannwarth, J. Chem. Phys., 2016, 145, 054103.
     DOI: 10.1063/1.4959605
   
   in the mass-spec context:
   * V. Asgeirsson, C. Bauer and S. Grimme, Chem. Sci., 2017, 8, 4879.
     DOI: 10.1039/c7sc00601b
   * J. Koopman and S. Grimme, ACS Omega 2019, 4, 12, 15120-15133.
     DOI: 10.1021/acsomega.9b02011
   
   for metadynamics refer to:
   * S. Grimme, J. Chem. Theory Comput., 2019, 155, 2847-2862
     DOI: 10.1021/acs.jctc.9b00143
   
   for SPH calculations refer to:
   * S. Spicher and S. Grimme, J. Chem. Theory Comput., 2021, 17, 1701-1714
     DOI: 10.1021/acs.jctc.0c01306
   
   for ONIOM refer to:
   * C. Plett, A. Katbashev, S. Ehlert, S. Grimme, M. Bursch,
     Phys. Chem. Chem. Phys., 2023, 25, 17860-17868. DOI: 10.1039/D3CP02178E
   
   for DIPRO refer to:
   * J. Kohn, N. Gildemeister, S. Grimme, D. Fazzi, A. Hansen,
     J. Chem. Phys., 2023, just accepted.
   
   for PTB refer to:
   * S. Grimme, M. Mueller, A. Hansen, J. Chem. Phys., 2023, 158, 124111.
     DOI: 10.1063/5.0137838
   
   with help from (in alphabetical order)
   P. Atkinson, C. Bannwarth, F. Bohle, G. Brandenburg, E. Caldeweyher
   M. Checinski, S. Dohm, S. Ehlert, S. Ehrlich, I. Gerasimov, C. Hölzer
   A. Katbashev, J. Kohn, J. Koopman, C. Lavigne, S. Lehtola, F. März, M. Müller,
   F. Musil, H. Neugebauer, J. Pisarek, C. Plett, P. Pracht, F. Pultar,
   J. Seibert, P. Shushkov, S. Spicher, M. Stahn, M. Steiner, T. Strunk,
   J. Stückrath, T. Rose, and J. Unsleber
   
 * started run on 2026/08/20 at 20:43:06.206     
   ID    Z sym.   atoms
    1    7 N      1, 17, 63, 72
    2    6 C      2-15, 18-26, 64, 66, 67, 73
    3    8 O      16, 27, 60, 65, 68
    4    1 H      28-59, 61, 62, 69-71, 74-76

           -------------------------------------------------
          |                Calculation Setup                |
           -------------------------------------------------

          program call               : C:\Users\Nayanika\Downloads\xtb-6.7.1pre-windows-x86_64\xtb-6.7.1\bin\xtb.exe D:\PhD_Thesis\LmrR_EVB\charges\fast_lmrr_5QM\xtb_preparation\stage2_five_xtb_protocols\GFN2_normal\TS2_1a_to_PS2_2\TS2_1a_to_PS2_2_TS_xtbopt.xyz --gfn 2 --chrg 0 --uhf 0 --hess --etemp 0
          coordinate file            : D:\PhD_Thesis\LmrR_EVB\charges\fast_lmrr_5QM\xtb_preparation\stage2_five_xtb_protocols\GFN2_normal\TS2_1a_to_PS2_2\TS2_1a_to_PS2_2_TS_xtbopt.xyz
          omp threads                :                     8


molecular fragmentation (1/2 indicates fragments):
111111111111111211111111112121111111111111111111121111111222221111111111
1111
# atoms in fragment 1/2:    67     9
 fragment masses (1/2) :      446.59       54.05
CMA distance (Bohr)    :   5.134
constraining FC (au)   :  0.0500

           -------------------------------------------------
          |                 G F N 2 - x T B                 |
           -------------------------------------------------

        Reference                      10.1021/acs.jctc.8b01176
      * Hamiltonian:
        H0-scaling (s, p, d)           1.850000    2.230000    2.230000
        zeta-weighting                 0.500000
      * Dispersion:
        s8                             2.700000
        a1                             0.520000
        a2                             5.000000
        s9                             5.000000
      * Repulsion:
        kExp                           1.500000    1.000000
        rExp                           1.000000
      * Coulomb:
        alpha                          2.000000
        third order                    shell-resolved
        anisotropic                    true
        a3                             3.000000
        a5                             4.000000
        cn-shift                       1.200000
        cn-exp                         4.000000
        max-rad                        5.000000

q/qsh data taken from xtbrestart
CAMM data taken from xtbrestart

          ...................................................
          :                      SETUP                      :
          :.................................................:
          :  # basis functions                 184          :
          :  # atomic orbitals                 184          :
          :  # shells                          112          :
          :  # electrons                       198          :
          :  max. iterations                   250          :
          :  Hamiltonian                  GFN2-xTB          :
          :  restarted?                       true          :
          :  GBSA solvation                  false          :
          :  PC potential                    false          :
          :  electronic temp.            0.0000000     K    :
          :  accuracy                    1.0000000          :
          :  -> integral cutoff          0.2500000E+02      :
          :  -> integral neglect         0.1000000E-07      :
          :  -> SCF convergence          0.1000000E-05 Eh   :
          :  -> wf. convergence          0.1000000E-03 e    :
          :  Broyden damping             0.4000000          :
          :  net charge                          0          :
          :  unpaired electrons                  0          :
          ...................................................

 iter      E             dE          RMSdq      gap      omega  full diag
   1   -111.8478044 -0.111848E+03  0.159E-06    2.97       0.0  T
   2   -111.8478044 -0.142109E-12  0.114E-06    2.97   10097.5  T
   3   -111.8478044 -0.426326E-12  0.591E-07    2.97   19422.6  T

   *** convergence criteria satisfied after 3 iterations ***

         #    Occupation            Energy/Eh            Energy/eV
      -------------------------------------------------------------
         1        2.0000           -0.7111810             -19.3522
       ...           ...                  ...                  ...
        93        2.0000           -0.4058670             -11.0442
        94        2.0000           -0.3990033             -10.8574
        95        2.0000           -0.3934518             -10.7064
        96        2.0000           -0.3872923             -10.5388
        97        2.0000           -0.3779635             -10.2849
        98        2.0000           -0.3580226              -9.7423
        99        2.0000           -0.3374854              -9.1834 (HOMO)
       100                         -0.2282802              -6.2118 (LUMO)
       101                         -0.2237167              -6.0876
       102                         -0.2203728              -5.9966
       103                         -0.2130758              -5.7981
       104                         -0.2098756              -5.7110
       ...                                ...                  ...
       184                          0.7172720              19.5180
      -------------------------------------------------------------
                  HL-Gap            0.1092052 Eh            2.9716 eV
             Fermi-level            0.0000000 Eh            0.0000 eV

 SCC (total)                   0 d,  0 h,  0 min,  0.063 sec
 SCC setup                      ...        0 min,  0.000 sec (  0.000%)
 Dispersion                     ...        0 min,  0.002 sec (  3.175%)
 classical contributions        ...        0 min,  0.000 sec (  0.000%)
 integral evaluation            ...        0 min,  0.004 sec (  6.349%)
 iterations                     ...        0 min,  0.041 sec ( 65.080%)
 molecular gradient             ...        0 min,  0.015 sec ( 23.809%)
 printout                       ...        0 min,  0.001 sec (  1.587%)

         :::::::::::::::::::::::::::::::::::::::::::::::::::::
         ::                     SUMMARY                     ::
         :::::::::::::::::::::::::::::::::::::::::::::::::::::
         :: total energy            -110.273305113109 Eh    ::
         :: gradient norm              0.000762130578 Eh/a0 ::
         :: HOMO-LUMO gap              2.971623903125 eV    ::
         ::.................................................::
         :: SCC energy              -111.845727499814 Eh    ::
         :: -> isotropic ES            0.187612297906 Eh    ::
         :: -> anisotropic ES          0.003575223549 Eh    ::
         :: -> anisotropic XC          0.041150176912 Eh    ::
         :: -> dispersion             -0.085386066012 Eh    ::
         :: repulsion energy           1.572422386704 Eh    ::
         :: add. restraining           0.000000000000 Eh    ::
         :: total charge               0.000000000000 e     ::
         :::::::::::::::::::::::::::::::::::::::::::::::::::::

           ------------------------------------------------- 
          |                Numerical Hessian                |
           ------------------------------------------------- 
step length          :   0.00500
SCC accuracy         :   0.30000
Hessian scale factor :   1.00000
frozen atoms in %    :   0.00000    0
RMS gradient         :   0.00076
estimated CPU  time     11.68 min
estimated wall time      1.64 min

writing file <hessian>.

 projected vibrational frequencies (cm⁻¹)
eigval :       -0.00    -0.00    -0.00    -0.00     0.00     0.00
eigval :       -5.66     9.33    11.24    16.38    17.23    27.14
eigval :       28.37    32.18    39.02    43.85    52.19    58.72
eigval :       60.49    64.50    69.81    71.34    86.09    87.34
eigval :       95.03    96.36    99.16   108.02   114.38   117.92
eigval :      124.19   127.20   129.93   130.89   137.00   151.06
eigval :      156.17   167.40   174.10   190.40   202.79   218.54
eigval :      229.61   234.97   243.92   257.78   268.18   272.18
eigval :      275.43   290.61   292.38   296.84   314.97   327.59
eigval :      337.22   354.30   370.22   374.53   395.03   408.44
eigval :      417.51   420.13   440.00   449.37   461.04   476.60
eigval :      482.48   488.60   493.62   508.54   526.74   529.13
eigval :      552.62   555.03   558.21   584.72   596.65   606.00
eigval :      613.15   624.35   655.78   660.73   676.79   683.33
eigval :      696.22   702.40   726.21   734.83   745.68   769.73
eigval :      773.79   787.25   806.41   818.76   863.34   864.50
eigval :      865.51   875.12   891.02   894.59   896.14   916.80
eigval :      918.88   924.23   926.64   929.05   948.36   980.31
eigval :      991.03  1001.26  1003.33  1008.45  1012.65  1022.63
eigval :     1023.70  1034.89  1066.45  1070.43  1081.04  1101.22
eigval :     1106.25  1107.48  1118.17  1122.69  1125.95  1138.86
eigval :     1141.98  1154.96  1161.46  1170.28  1174.89  1191.90
eigval :     1195.06  1199.78  1213.22  1219.34  1220.31  1224.10
eigval :     1239.83  1247.43  1264.89  1267.55  1273.24  1283.88
eigval :     1294.81  1302.52  1308.64  1316.90  1321.21  1328.68
eigval :     1331.62  1352.54  1364.98  1366.49  1376.61  1393.72
eigval :     1396.39  1397.90  1409.11  1416.56  1420.60  1426.06
eigval :     1446.78  1448.82  1450.00  1461.96  1465.15  1473.43
eigval :     1474.72  1480.15  1482.19  1493.85  1495.26  1496.77
eigval :     1503.99  1507.17  1507.31  1545.22  1545.61  1566.05
eigval :     1575.76  1578.37  1594.54  1613.53  1629.37  1692.03
eigval :     1703.64  1760.10  2913.97  2933.63  2965.17  2973.04
eigval :     2977.34  2981.45  2985.60  2989.36  2991.85  2992.41
eigval :     3004.08  3007.46  3020.42  3029.58  3033.59  3036.14
eigval :     3036.22  3037.97  3042.83  3050.57  3058.47  3068.96
eigval :     3072.65  3075.46  3081.82  3083.56  3091.14  3093.49
eigval :     3093.76  3120.40  3246.61  3330.39  3391.39  3445.66
eigval :     3454.32  3486.14  3556.39  3568.05  3650.90  3668.70
           -------------------------------------------------
          |                Property Printout                |
           -------------------------------------------------

    * Orbital Energies and Occupations

         #    Occupation            Energy/Eh            Energy/eV
      -------------------------------------------------------------
         1        2.0000           -0.7111810             -19.3522
       ...           ...                  ...                  ...
        87        2.0000           -0.4202431             -11.4354
        88        2.0000           -0.4154555             -11.3051
        89        2.0000           -0.4140643             -11.2673
        90        2.0000           -0.4126275             -11.2282
        91        2.0000           -0.4112353             -11.1903
        92        2.0000           -0.4091064             -11.1324
        93        2.0000           -0.4058670             -11.0442
        94        2.0000           -0.3990033             -10.8574
        95        2.0000           -0.3934518             -10.7064
        96        2.0000           -0.3872923             -10.5388
        97        2.0000           -0.3779635             -10.2849
        98        2.0000           -0.3580226              -9.7423
        99        2.0000           -0.3374854              -9.1834 (HOMO)
       100                         -0.2282802              -6.2118 (LUMO)
       101                         -0.2237167              -6.0876
       102                         -0.2203728              -5.9966
       103                         -0.2130758              -5.7981
       104                         -0.2098756              -5.7110
       105                         -0.1965538              -5.3485
       106                         -0.1707893              -4.6474
       107                         -0.1543008              -4.1987
       108                         -0.0821135              -2.2344
       109                         -0.0706919              -1.9236
       110                         -0.0076373              -0.2078
       ...                                ...                  ...
       184                          0.7172720              19.5180
      -------------------------------------------------------------
                  HL-Gap            0.1092052 Eh            2.9716 eV
             Fermi-level            0.0000000 Eh            0.0000 eV

     #   Z          covCN         q      C6AA      α(0)
     1   7 N        2.692    -0.152    24.298     7.321
     2   6 C        2.905     0.069    26.453     8.433
     3   6 C        2.921    -0.056    29.387     8.890
     4   6 C        2.925    -0.038    28.957     8.825
     5   6 C        2.976    -0.005    28.150     8.703
     6   6 C        2.924    -0.042    29.039     8.837
     7   6 C        2.926    -0.064    29.585     8.920
     8   6 C        3.810    -0.065    21.743     6.637
     9   6 C        3.802     0.017    20.292     6.413
    10   6 C        2.826     0.011    27.764     8.634
    11   6 C        2.894    -0.088    30.192     9.009
    12   6 C        3.859    -0.019    20.866     6.496
    13   6 C        3.807    -0.064    21.731     6.636
    14   6 C        3.800    -0.055    21.558     6.611
    15   6 C        3.752    -0.103    22.531     6.769
    16   8 O        1.608    -0.616    25.577     6.826
    17   7 N        2.784    -0.121    23.634     7.220
    18   6 C        3.068     0.041    27.009     8.522
    19   6 C        3.112    -0.029    28.573     8.757
    20   6 C        3.058    -0.048    29.133     8.851
    21   6 C        2.908    -0.055    29.354     8.884
    22   6 C        2.911    -0.041    29.031     8.835
    23   6 C        3.062     0.041    27.016     8.523
    24   6 C        2.924    -0.040    29.000     8.831
    25   6 C        2.919    -0.046    29.150     8.854
    26   6 C        3.754    -0.110    22.662     6.788
    27   8 O        1.609    -0.612    25.479     6.813
    28   1 H        0.860     0.187     1.175     1.698
    29   1 H        0.806     0.266     0.834     1.434
    30   1 H        0.926     0.038     2.480     2.462
    31   1 H        0.926     0.026     2.646     2.544
    32   1 H        0.925     0.019     2.747     2.592
    33   1 H        0.926     0.046     2.365     2.405
    34   1 H        0.924     0.051     2.308     2.376
    35   1 H        0.925     0.056     2.249     2.345
    36   1 H        0.924     0.074     2.041     2.234
    37   1 H        0.860     0.176     1.234     1.740
    38   1 H        0.860     0.174     1.248     1.750
    39   1 H        0.925     0.030     2.584     2.514
    40   1 H        0.926     0.034     2.525     2.485
    41   1 H        0.924     0.036     2.498     2.472
    42   1 H        0.924     0.043     2.415     2.430
    43   1 H        0.924     0.031     2.575     2.509
    44   1 H        0.924     0.034     2.527     2.486
    45   1 H        0.924     0.029     2.604     2.524
    46   1 H        0.925     0.032     2.557     2.501
    47   1 H        0.925     0.036     2.502     2.473
    48   1 H        0.925     0.032     2.558     2.501
    49   1 H        0.860     0.158     1.347     1.818
    50   1 H        0.805     0.288     0.759     1.369
    51   1 H        0.926     0.022     2.706     2.572
    52   1 H        0.926     0.027     2.636     2.539
    53   1 H        0.926     0.025     2.663     2.552
    54   1 H        0.926     0.023     2.689     2.564
    55   1 H        0.925     0.059     2.214     2.327
    56   1 H        0.925     0.044     2.399     2.422
    57   1 H        0.924     0.046     2.368     2.407
    58   1 H        0.803     0.318     0.668     1.284
    59   1 H        0.805     0.287     0.761     1.370
    60   8 O        1.610    -0.579    24.682     6.705
    61   1 H        0.803     0.316     0.676     1.292
    62   1 H        0.805     0.278     0.791     1.397
    63   7 N        2.692    -0.182    24.951     7.419
    64   6 C        2.754     0.264    22.554     7.777
    65   8 O        0.858    -0.422    22.117     6.305
    66   6 C        3.756    -0.153    23.519     6.915
    67   6 C        2.749     0.283    22.215     7.718
    68   8 O        0.859    -0.462    22.965     6.425
    69   1 H        0.925     0.097     1.813     2.106
    70   1 H        0.925     0.047     2.358     2.402
    71   1 H        0.925     0.080     1.978     2.200
    72   7 N        2.687    -0.169    24.657     7.375
    73   6 C        3.689    -0.046    21.592     6.650
    74   1 H        0.924     0.054     2.270     2.356
    75   1 H        0.924     0.052     2.298     2.371
    76   1 H        0.925     0.089     1.890     2.150

 Mol. C6AA /au·bohr⁶  :      56215.339226
 Mol. C8AA /au·bohr⁸  :    1284635.555573
 Mol. α(0) /au        :        366.100536


Wiberg/Mayer (AO) data.
largest (>0.10) Wiberg bond orders for each atom

 ---------------------------------------------------------------------------
     #   Z sym  total        # sym  WBO       # sym  WBO       # sym  WBO
 ---------------------------------------------------------------------------
     1   7 N    3.440 --     2 C    1.127    10 C    1.124    28 H    0.924
     2   6 C    3.971 --     3 C    1.346     7 C    1.345     1 N    1.127
     3   6 C    3.989 --     4 C    1.467     2 C    1.346    30 H    0.964
     4   6 C    3.991 --     3 C    1.467     5 C    1.398    31 H    0.969
                             7 C    0.101
     5   6 C    3.984 --     4 C    1.398     6 C    1.394     8 C    1.012
     6   6 C    3.991 --     7 C    1.467     5 C    1.394    32 H    0.969
     7   6 C    3.986 --     6 C    1.467     2 C    1.345    33 H    0.963
                             4 C    0.101
     8   6 C    3.991 --     5 C    1.012    34 H    0.971    35 H    0.969
                             9 C    0.965
     9   6 C    3.961 --    63 N    0.977     8 C    0.965    36 H    0.948
                            64 C    0.928
    10   6 C    3.967 --    11 C    1.794     1 N    1.124    39 H    0.961
    11   6 C    3.976 --    10 C    1.794    12 C    0.999    40 H    0.957
    12   6 C    3.994 --    11 C    0.999    20 C    0.987    13 C    0.982
                            41 H    0.955
    13   6 C    3.994 --    14 C    1.007    12 C    0.982    43 H    0.975
                            42 H    0.973
    14   6 C    3.997 --    15 C    1.018    13 C    1.007    45 H    0.978
                            44 H    0.974
    15   6 C    3.996 --    14 C    1.018    48 H    0.988    47 H    0.988
                            46 H    0.987
    16   8 O    1.814 --    29 H    0.927    61 H    0.843
    17   7 N    3.528 --    18 C    1.177    23 C    1.169    49 H    0.945
    18   6 C    3.959 --    21 C    1.343    19 C    1.237    17 N    1.177
    19   6 C    3.983 --    22 C    1.328    18 C    1.237    20 C    1.199
    20   6 C    3.970 --    23 C    1.552    19 C    1.199    12 C    0.987
    21   6 C    3.989 --    24 C    1.488    18 C    1.343    51 H    0.969
                            22 C    0.111
    22   6 C    3.989 --    25 C    1.501    19 C    1.328    52 H    0.967
                            21 C    0.111
    23   6 C    3.950 --    20 C    1.552    17 N    1.169    26 C    1.030
    24   6 C    3.988 --    21 C    1.488    25 C    1.373    53 H    0.972
    25   6 C    3.989 --    22 C    1.501    24 C    1.373    54 H    0.972
    26   6 C    3.995 --    23 C    1.030    55 H    0.976    56 H    0.974
                            57 H    0.968
    27   8 O    1.864 --    59 H    0.897    58 H    0.850
    28   1 H    0.964 --     1 N    0.924
    29   1 H    0.929 --    16 O    0.927
    30   1 H    0.998 --     3 C    0.964
    31   1 H    0.999 --     4 C    0.969
    32   1 H    0.999 --     6 C    0.969
    33   1 H    0.998 --     7 C    0.963
    34   1 H    0.997 --     8 C    0.971
    35   1 H    0.996 --     8 C    0.969
    36   1 H    0.995 --     9 C    0.948
    37   1 H    0.969 --    63 N    0.937
    38   1 H    0.970 --    72 N    0.942
    39   1 H    0.998 --    10 C    0.961
    40   1 H    0.999 --    11 C    0.957
    41   1 H    0.998 --    12 C    0.955
    42   1 H    0.998 --    13 C    0.973
    43   1 H    0.999 --    13 C    0.975
    44   1 H    0.999 --    14 C    0.974
    45   1 H    0.999 --    14 C    0.978
    46   1 H    0.998 --    15 C    0.987
    47   1 H    0.999 --    15 C    0.988
    48   1 H    0.999 --    15 C    0.988
    49   1 H    0.974 --    17 N    0.945
    50   1 H    0.917 --    60 O    0.899
    51   1 H    0.999 --    21 C    0.969
    52   1 H    0.999 --    22 C    0.967
    53   1 H    0.999 --    24 C    0.972
    54   1 H    0.999 --    25 C    0.972
    55   1 H    0.996 --    26 C    0.976
    56   1 H    0.996 --    26 C    0.974
    57   1 H    0.995 --    26 C    0.968
    58   1 H    0.899 --    27 O    0.850
    59   1 H    0.918 --    27 O    0.897
    60   8 O    1.833 --    62 H    0.921    50 H    0.899
    61   1 H    0.900 --    16 O    0.843
    62   1 H    0.923 --    60 O    0.921
    63   7 N    3.438 --    67 C    1.257     9 C    0.977    37 H    0.937
                            68 O    0.179
    64   6 C    3.953 --    65 O    1.696    72 N    1.262     9 C    0.928
    65   8 O    2.021 --    64 C    1.696    72 N    0.207
    66   6 C    3.990 --    67 C    0.994    70 H    0.983    71 H    0.971
                            69 H    0.950
    67   6 C    3.945 --    68 O    1.637    63 N    1.257    66 C    0.994
    68   8 O    1.999 --    67 C    1.637    63 N    0.179
    69   1 H    0.990 --    66 C    0.950
    70   1 H    0.998 --    66 C    0.983
    71   1 H    0.993 --    66 C    0.971
    72   7 N    3.451 --    64 C    1.262    73 C    1.004    38 H    0.942
                            65 O    0.207
    73   6 C    3.961 --    72 N    1.004    75 H    0.977    74 H    0.977
                            76 H    0.975
    74   1 H    0.997 --    73 C    0.977
    75   1 H    0.997 --    73 C    0.977
    76   1 H    0.992 --    73 C    0.975
 ---------------------------------------------------------------------------

Topologies differ in total number of bonds
Writing topology from bond orders to xtbtopo.mol

molecular dipole:
                 x           y           z       tot (Debye)
 q only:        0.778      -0.214      -0.453
   full:        0.502      -0.287      -0.555       2.037
molecular quadrupole (traceless):
                xx          xy          yy          xz          yz          zz
 q only:       10.007      23.131     -27.078     -20.810      -3.329      17.072
  q+dip:        9.682      22.092     -38.498     -25.276      -1.114      28.816
   full:        7.696      23.696     -35.632     -26.212      -2.411      27.936

           -------------------------------------------------
          |               Frequency Printout                |
           -------------------------------------------------
 projected vibrational frequencies (cm⁻¹)
eigval :       -0.00    -0.00    -0.00    -0.00     0.00     0.00
eigval :       -5.66     9.33    11.24    16.38    17.23    27.14
eigval :       28.37    32.18    39.02    43.85    52.19    58.72
eigval :       60.49    64.50    69.81    71.34    86.09    87.34
eigval :       95.03    96.36    99.16   108.02   114.38   117.92
eigval :      124.19   127.20   129.93   130.89   137.00   151.06
eigval :      156.17   167.40   174.10   190.40   202.79   218.54
eigval :      229.61   234.97   243.92   257.78   268.18   272.18
eigval :      275.43   290.61   292.38   296.84   314.97   327.59
eigval :      337.22   354.30   370.22   374.53   395.03   408.44
eigval :      417.51   420.13   440.00   449.37   461.04   476.60
eigval :      482.48   488.60   493.62   508.54   526.74   529.13
eigval :      552.62   555.03   558.21   584.72   596.65   606.00
eigval :      613.15   624.35   655.78   660.73   676.79   683.33
eigval :      696.22   702.40   726.21   734.83   745.68   769.73
eigval :      773.79   787.25   806.41   818.76   863.34   864.50
eigval :      865.51   875.12   891.02   894.59   896.14   916.80
eigval :      918.88   924.23   926.64   929.05   948.36   980.31
eigval :      991.03  1001.26  1003.33  1008.45  1012.65  1022.63
eigval :     1023.70  1034.89  1066.45  1070.43  1081.04  1101.22
eigval :     1106.25  1107.48  1118.17  1122.69  1125.95  1138.86
eigval :     1141.98  1154.96  1161.46  1170.28  1174.89  1191.90
eigval :     1195.06  1199.78  1213.22  1219.34  1220.31  1224.10
eigval :     1239.83  1247.43  1264.89  1267.55  1273.24  1283.88
eigval :     1294.81  1302.52  1308.64  1316.90  1321.21  1328.68
eigval :     1331.62  1352.54  1364.98  1366.49  1376.61  1393.72
eigval :     1396.39  1397.90  1409.11  1416.56  1420.60  1426.06
eigval :     1446.78  1448.82  1450.00  1461.96  1465.15  1473.43
eigval :     1474.72  1480.15  1482.19  1493.85  1495.26  1496.77
eigval :     1503.99  1507.17  1507.31  1545.22  1545.61  1566.05
eigval :     1575.76  1578.37  1594.54  1613.53  1629.37  1692.03
eigval :     1703.64  1760.10  2913.97  2933.63  2965.17  2973.04
eigval :     2977.34  2981.45  2985.60  2989.36  2991.85  2992.41
eigval :     3004.08  3007.46  3020.42  3029.58  3033.59  3036.14
eigval :     3036.22  3037.97  3042.83  3050.57  3058.47  3068.96
eigval :     3072.65  3075.46  3081.82  3083.56  3091.14  3093.49
eigval :     3093.76  3120.40  3246.61  3330.39  3391.39  3445.66
eigval :     3454.32  3486.14  3556.39  3568.05  3650.90  3668.70
 reduced masses (amu)
   1: 11.97   2: 11.78   3: 11.99   4: 11.90   5: 12.16   6: 11.72   7: 11.14   8: 11.50
   9: 11.38  10: 13.05  11: 12.99  12: 13.42  13: 13.50  14: 11.29  15: 11.53  16: 11.12
  17:  8.29  18: 10.00  19: 11.78  20:  9.39  21: 11.20  22: 10.71  23:  8.13  24:  5.65
  25: 11.93  26: 11.88  27:  5.39  28: 12.99  29: 11.17  30:  9.01  31:  5.13  32:  7.92
  33:  3.58  34:  4.51  35:  8.76  36:  9.97  37: 11.57  38:  9.49  39: 10.63  40:  3.31
  41: 11.37  42: 10.15  43:  6.36  44:  6.01  45: 10.22  46: 10.49  47:  9.29  48: 11.52
  49:  4.80  50: 10.06  51: 10.55  52: 12.15  53:  9.96  54:  1.88  55: 10.37  56: 10.46
  57:  9.95  58: 10.36  59:  9.37  60:  9.25  61:  9.46  62:  9.46  63:  2.55  64: 10.54
  65:  2.16  66:  8.61  67:  6.62  68: 10.91  69:  9.19  70:  4.53  71:  7.96  72:  9.35
  73:  7.41  74:  8.87  75:  5.84  76:  7.62  77: 11.10  78: 10.63  79:  9.75  80: 10.28
  81: 10.79  82: 10.36  83:  8.98  84:  4.60  85: 10.68  86: 11.16  87: 10.97  88:  7.16
  89:  2.25  90:  3.69  91:  8.18  92:  4.58  93:  9.53  94:  5.11  95:  3.69  96:  7.76
  97:  9.57  98:  7.31  99:  4.16 100:  6.85 101:  3.90 102:  2.92 103:  2.98 104:  8.70
 105:  8.35 106:  6.10 107:  6.40 108: 10.01 109:  5.11 110:  5.45 111:  6.92 112:  3.54
 113:  7.33 114:  5.89 115:  7.00 116:  4.35 117:  6.24 118:  7.07 119:  9.40 120:  7.30
 121:  8.55 122:  4.44 123:  7.94 124:  7.89 125:  7.57 126:  5.27 127:  5.95 128:  6.18
 129:  4.97 130:  5.30 131:  3.65 132:  4.74 133:  5.07 134:  2.43 135:  5.24 136:  5.47
 137:  4.64 138:  5.73 139:  4.39 140:  5.61 141:  4.37 142:  3.47 143:  5.55 144:  2.23
 145:  4.43 146:  4.84 147:  4.77 148:  9.90 149:  5.69 150:  6.41 151:  5.37 152:  9.89
 153: 11.04 154:  5.33 155:  3.31 156:  2.59 157:  5.02 158:  9.33 159:  7.95 160:  3.17
 161:  8.69 162:  8.86 163:  3.81 164:  6.33 165: 11.32 166:  1.56 167:  2.13 168:  1.73
 169:  2.19 170:  1.68 171:  2.30 172:  2.97 173:  9.57 174:  1.84 175:  1.53 176:  3.56
 177:  8.26 178:  2.07 179:  2.16 180:  2.20 181: 11.33 182: 11.52 183: 11.65 184: 11.53
 185: 11.64 186: 11.63 187: 13.12 188: 13.26 189:  1.74 190:  1.74 191:  1.90 192:  1.95
 193:  1.93 194:  1.85 195:  1.53 196:  1.45 197:  1.57 198:  1.86 199:  1.57 200:  1.62
 201:  1.79 202:  1.93 203:  1.94 204:  1.78 205:  1.73 206:  1.27 207:  1.49 208:  1.88
 209:  1.81 210:  1.81 211:  1.75 212:  1.80 213:  1.71 214:  1.86 215:  1.85 216:  1.85
 217:  1.89 218:  1.83 219:  1.88 220:  1.91 221:  1.83 222:  1.84 223:  1.84 224:  1.86
 225:  1.81 226:  1.86 227:  1.83 228:  1.84
 IR intensities (km·mol⁻¹)
   1:  0.04   2:  0.01   3:  0.04   4:  0.01   5:  0.01   6:  0.04   7:  0.51   8:  0.56
   9:  0.54  10:  7.16  11:  3.18  12:  4.39  13:  1.10  14:  0.66  15:  0.26  16:  0.87
  17:  2.63  18:  1.74  19:  2.08  20:  0.60  21:  0.57  22:  1.20  23: 24.38  24:  8.42
  25:  4.60  26:  4.70  27: 23.75  28:  1.59  29:  0.64  30:  1.06  31:  3.29  32:  8.86
  33: 37.91  34: 20.85  35:  2.24  36:  2.71  37:  4.75  38:  3.27  39:  1.88  40: 97.89
  41: 26.49  42: 18.53  43:  2.43  44:  0.43  45:  6.10  46:  7.73  47: 59.87  48: 23.96
  49:109.73  50: 18.29  51:  5.54  52:  5.33  53:  3.87  54:118.39  55:  5.32  56:  4.10
  57:  0.84  58:  8.09  59:  1.78  60:  2.59  61:  8.53  62: 16.13  63:107.20  64:  2.23
  65: 20.12  66: 41.12  67: 46.85  68:  0.79  69: 11.85  70: 49.14  71: 43.14  72:  6.58
  73: 29.49  74: 99.73  75:142.00  76: 11.36  77:  4.88  78: 11.08  79: 40.05  80:  0.32
  81:  5.25  82: 11.24  83: 71.97  84: 81.68  85:  1.79  86:  1.17  87: 27.95  88: 12.21
  89:179.77  90: 25.50  91: 21.69  92:  1.55  93: 15.55  94: 12.26  95:  0.16  96:  0.84
  97:  0.42  98:  0.04  99:  1.21 100:  1.64 101:  0.28 102:  4.28 103:  0.01 104:  0.84
 105:  3.42 106:  1.03 107:  3.97 108: 10.63 109:  1.87 110: 14.27 111: 33.64 112:  8.01
 113:  2.99 114: 10.79 115:  8.09 116:  6.72 117:  0.09 118: 37.71 119:  1.23 120:  9.87
 121: 11.21 122:  6.10 123:  7.37 124: 33.96 125:  0.71 126:  2.15 127:  5.77 128:  7.41
 129:  4.65 130:  5.45 131:  3.64 132:  4.38 133:  6.38 134:  8.74 135: 31.72 136: 24.45
 137:  1.16 138: 13.24 139: 48.18 140: 42.59 141: 10.54 142:  3.02 143: 27.92 144:  3.04
 145: 12.24 146:  3.35 147:  8.40 148: 40.72 149:  6.63 150: 19.00 151: 22.10 152: 32.62
 153: 20.15 154:  0.20 155: 48.35 156:  3.41 157:  8.16 158:187.38 159: 13.17 160:  0.41
 161:199.19 162:166.82 163: 39.08 164: 51.85 165: 58.31 166: 12.28 167: 10.62 168:  2.19
 169:  0.18 170:  5.64 171: 20.44 172:  1.12 173: 10.59 174:  1.09 175:  2.23 176: 61.88
 177:234.86 178: 45.45 179:164.19 180:180.02 181:  2.83 182:  0.24 183:  7.24 184:110.23
 185: 19.94 186:111.12 187:603.56 188:479.02 189: 20.92 190:  7.86 191:  3.05 192: 28.97
 193: 59.40 194: 28.79 195:  6.97 196: 45.44 197: 67.52 198: 19.22 199: 29.45 200: 21.42
 201:  1.03 202: 48.68 203: 58.79 204: 45.52 205:  0.17 206: 34.76 207: 13.38 208:  5.41
 209: 59.43 210: 33.00 211:  8.07 212: 13.26 213:  1.73 214: 86.72 215: 13.40 216:115.67
 217: 14.81 218: 16.79 219:582.65 220:455.58 221: 39.85 222:  6.68 223:  7.37 224:  9.65
 225: 90.05 226:107.14 227:  8.00 228:  3.81
 Raman intensities (Ä⁴*amu⁻¹)
   1:  0.00   2:  0.00   3:  0.00   4:  0.00   5:  0.00   6:  0.00   7:  0.00   8:  0.00
   9:  0.00  10:  0.00  11:  0.00  12:  0.00  13:  0.00  14:  0.00  15:  0.00  16:  0.00
  17:  0.00  18:  0.00  19:  0.00  20:  0.00  21:  0.00  22:  0.00  23:  0.00  24:  0.00
  25:  0.00  26:  0.00  27:  0.00  28:  0.00  29:  0.00  30:  0.00  31:  0.00  32:  0.00
  33:  0.00  34:  0.00  35:  0.00  36:  0.00  37:  0.00  38:  0.00  39:  0.00  40:  0.00
  41:  0.00  42:  0.00  43:  0.00  44:  0.00  45:  0.00  46:  0.00  47:  0.00  48:  0.00
  49:  0.00  50:  0.00  51:  0.00  52:  0.00  53:  0.00  54:  0.00  55:  0.00  56:  0.00
  57:  0.00  58:  0.00  59:  0.00  60:  0.00  61:  0.00  62:  0.00  63:  0.00  64:  0.00
  65:  0.00  66:  0.00  67:  0.00  68:  0.00  69:  0.00  70:  0.00  71:  0.00  72:  0.00
  73:  0.00  74:  0.00  75:  0.00  76:  0.00  77:  0.00  78:  0.00  79:  0.00  80:  0.00
  81:  0.00  82:  0.00  83:  0.00  84:  0.00  85:  0.00  86:  0.00  87:  0.00  88:  0.00
  89:  0.00  90:  0.00  91:  0.00  92:  0.00  93:  0.00  94:  0.00  95:  0.00  96:  0.00
  97:  0.00  98:  0.00  99:  0.00 100:  0.00 101:  0.00 102:  0.00 103:  0.00 104:  0.00
 105:  0.00 106:  0.00 107:  0.00 108:  0.00 109:  0.00 110:  0.00 111:  0.00 112:  0.00
 113:  0.00 114:  0.00 115:  0.00 116:  0.00 117:  0.00 118:  0.00 119:  0.00 120:  0.00
 121:  0.00 122:  0.00 123:  0.00 124:  0.00 125:  0.00 126:  0.00 127:  0.00 128:  0.00
 129:  0.00 130:  0.00 131:  0.00 132:  0.00 133:  0.00 134:  0.00 135:  0.00 136:  0.00
 137:  0.00 138:  0.00 139:  0.00 140:  0.00 141:  0.00 142:  0.00 143:  0.00 144:  0.00
 145:  0.00 146:  0.00 147:  0.00 148:  0.00 149:  0.00 150:  0.00 151:  0.00 152:  0.00
 153:  0.00 154:  0.00 155:  0.00 156:  0.00 157:  0.00 158:  0.00 159:  0.00 160:  0.00
 161:  0.00 162:  0.00 163:  0.00 164:  0.00 165:  0.00 166:  0.00 167:  0.00 168:  0.00
 169:  0.00 170:  0.00 171:  0.00 172:  0.00 173:  0.00 174:  0.00 175:  0.00 176:  0.00
 177:  0.00 178:  0.00 179:  0.00 180:  0.00 181:  0.00 182:  0.00 183:  0.00 184:  0.00
 185:  0.00 186:  0.00 187:  0.00 188:  0.00 189:  0.00 190:  0.00 191:  0.00 192:  0.00
 193:  0.00 194:  0.00 195:  0.00 196:  0.00 197:  0.00 198:  0.00 199:  0.00 200:  0.00
 201:  0.00 202:  0.00 203:  0.00 204:  0.00 205:  0.00 206:  0.00 207:  0.00 208:  0.00
 209:  0.00 210:  0.00 211:  0.00 212:  0.00 213:  0.00 214:  0.00 215:  0.00 216:  0.00
 217:  0.00 218:  0.00 219:  0.00 220:  0.00 221:  0.00 222:  0.00 223:  0.00 224:  0.00
 225:  0.00 226:  0.00 227:  0.00 228:  0.00
 output can be read by thermo (or use thermo option).
 writing <g98.out> molden fake output.
 recommended (thermochemical) frequency scaling factor: 1.0
           -------------------------------------------------
          |             Thermodynamic Functions             |
           -------------------------------------------------

Refinement of some symmetry elements was terminated before convergence was reached.
Some symmetry elements may remain unidentified.
Molecule has no symmetry elements
It seems to be the C1 point group
c1  symmetry found (for desy threshold:  0.10E+00) used in thermo
 inverting freq            1   5.66374477768302     

          ...................................................
          :                      SETUP                      :
          :.................................................:
          :  # frequencies                         222      :
          :  # imaginary freq.                       0      :
          :  linear?                             false      :
          :  only rotor calc.                    false      :
          :  symmetry                               c1      :
          :  rotational number                       1      :
          :  scaling factor                  1.0000000      :
          :  rotor cutoff                   50.0000000 cm⁻¹ :
          :  imag. cutoff                  -20.0000000 cm⁻¹ :
          :.................................................:

    mode    ω/cm⁻¹     T·S(HO)/kcal·mol⁻¹    T·S(FR)/kcal·mol⁻¹   T·S(vib)
   ------------------------------------------------------------------------
       1      5.66    -2.72528 (  0.02%)    -1.70164 ( 99.98%)    -1.70181
       2      9.33    -2.42984 (  0.12%)    -1.55395 ( 99.88%)    -1.55501
       3     11.24    -2.31902 (  0.26%)    -1.49854 ( 99.74%)    -1.50063
       4     16.38    -2.09627 (  1.14%)    -1.38714 ( 98.86%)    -1.39521
       5     17.23    -2.06609 (  1.39%)    -1.37204 ( 98.61%)    -1.38170
       6     27.14    -1.79733 (  7.99%)    -1.23755 ( 92.01%)    -1.28226
       7     28.37    -1.77107 (  9.39%)    -1.22440 ( 90.61%)    -1.27574
       8     32.18    -1.69662 ( 14.64%)    -1.18711 ( 85.36%)    -1.26170
       9     39.02    -1.58265 ( 27.06%)    -1.12999 ( 72.94%)    -1.25246
      10     43.85    -1.51379 ( 37.16%)    -1.09545 ( 62.84%)    -1.25090
      11     52.19    -1.41099 ( 54.28%)    -1.04382 ( 45.72%)    -1.24313
      12     58.72    -1.34160 ( 65.54%)    -1.00892 ( 34.46%)    -1.22697
      13     60.49    -1.32414 ( 68.17%)    -1.00013 ( 31.83%)    -1.22101
      14     64.50    -1.28640 ( 73.47%)    -0.98111 ( 26.53%)    -1.20540
      15     69.81    -1.23989 ( 79.17%)    -0.95766 ( 20.83%)    -1.18110
      16     71.34    -1.22718 ( 80.56%)    -0.95124 ( 19.44%)    -1.17354
      17     86.09    -1.11719 ( 89.78%)    -0.89558 ( 10.22%)    -1.09455
      18     87.34    -1.10879 ( 90.30%)    -0.89132 (  9.70%)    -1.08769
      19     95.03    -1.05958 ( 92.88%)    -0.86632 (  7.12%)    -1.04582
      20     96.36    -1.05149 ( 93.24%)    -0.86220 (  6.76%)    -1.03869
      21     99.16    -1.03479 ( 93.93%)    -0.85369 (  6.07%)    -1.02379
      22    108.02    -0.98513 ( 95.61%)    -0.82835 (  4.39%)    -0.97825
      23    114.38    -0.95206 ( 96.48%)    -0.81141 (  3.52%)    -0.94710
      24    117.92    -0.93443 ( 96.87%)    -0.80236 (  3.13%)    -0.93030
      25    124.19    -0.90462 ( 97.44%)    -0.78703 (  2.56%)    -0.90161
      26    127.20    -0.89084 ( 97.67%)    -0.77992 (  2.33%)    -0.88825
      27    129.93    -0.87868 ( 97.85%)    -0.77365 (  2.15%)    -0.87643
      28    130.89    -0.87445 ( 97.92%)    -0.77146 (  2.08%)    -0.87230
      29    137.00    -0.84835 ( 98.26%)    -0.75795 (  1.74%)    -0.84678
      30    151.06    -0.79273 ( 98.81%)    -0.72901 (  1.19%)    -0.79198
      31    156.17    -0.77392 ( 98.96%)    -0.71916 (  1.04%)    -0.77335
      32    167.40    -0.73478 ( 99.21%)    -0.69858 (  0.79%)    -0.73449
      33    174.10    -0.71279 ( 99.32%)    -0.68695 (  0.68%)    -0.71262
      34    190.40    -0.66307 ( 99.53%)    -0.66044 (  0.47%)    -0.66305
      35    202.79    -0.62840 ( 99.63%)    -0.64177 (  0.37%)    -0.62845
      36    218.54    -0.58769 ( 99.73%)    -0.61960 (  0.27%)    -0.58778
      37    229.61    -0.56111 ( 99.78%)    -0.60497 (  0.22%)    -0.56121
      38    234.97    -0.54879 ( 99.80%)    -0.59813 (  0.20%)    -0.54889
      39    243.92    -0.52894 ( 99.82%)    -0.58705 (  0.18%)    -0.52904
      40    257.78    -0.49993 ( 99.86%)    -0.57069 (  0.14%)    -0.50003
      41    268.18    -0.47941 ( 99.88%)    -0.55897 (  0.12%)    -0.47950
      42    272.18    -0.47177 ( 99.89%)    -0.55458 (  0.11%)    -0.47186
      43    275.43    -0.46567 ( 99.89%)    -0.55106 (  0.11%)    -0.46576
      44    290.61    -0.43840 ( 99.91%)    -0.53518 (  0.09%)    -0.43849
      45    292.38    -0.43535 ( 99.91%)    -0.53338 (  0.09%)    -0.43543
      46    296.84    -0.42774 ( 99.92%)    -0.52889 (  0.08%)    -0.42783
   ------------------------------------------------------------------------

   temp. (K)  partition function   enthalpy   heat capacity  entropy
                                   cal/mol     cal/K/mol   cal/K/mol   J/K/mol
 298.15  VIB  0.947E+24            26490.272    143.481    175.658
         ROT  0.437E+08              888.752      2.981     37.942
         INT  0.414E+32            27379.024    146.462    213.600
         TR   0.108E+29             1481.254      4.968     44.499
         TOT                       28860.2783   151.4300   258.0985  1079.8841

       T/K    H(0)-H(T)+PV         H(T)/Eh          T*S/Eh         G(T)/Eh
   ------------------------------------------------------------------------
    298.15    0.459918E-01    0.668663E+00    0.122631E+00    0.546032E+00
   ------------------------------------------------------------------------

         :::::::::::::::::::::::::::::::::::::::::::::::::::::
         ::                  THERMODYNAMIC                  ::
         :::::::::::::::::::::::::::::::::::::::::::::::::::::
         :: total free energy        -109.727272747266 Eh   ::
         ::.................................................::
         :: total energy             -110.273305113109 Eh   ::
         :: zero point energy           0.622671504909 Eh   ::
         :: G(RRHO) w/o ZPVE           -0.076639139066 Eh   ::
         :: G(RRHO) contrib.            0.546032365843 Eh   ::
         :::::::::::::::::::::::::::::::::::::::::::::::::::::
imag cut-off (cm-1) :    5.00
 found            1  significant imaginary frequency
 writing imag mode distorted coords to xtbhess.xyz
 for further optimization.

           -------------------------------------------------
          | TOTAL ENERGY             -110.273305113109 Eh   |
          | TOTAL ENTHALPY           -109.604641827188 Eh   |
          | TOTAL FREE ENERGY        -109.727272747266 Eh   |
          | GRADIENT NORM               0.000762128934 Eh/α |
          | HOMO-LUMO GAP               2.971623978922 eV   |
           -------------------------------------------------

------------------------------------------------------------------------
 * finished run on 2026/08/20 at 20:43:18.293     
------------------------------------------------------------------------
 total:
 * wall-time:     0 d,  0 h,  0 min, 12.085 sec
 *  cpu-time:     0 d,  0 h,  1 min, 24.281 sec
 * ratio c/w:     6.974 speedup
 SCF:
 * wall-time:     0 d,  0 h,  0 min,  0.064 sec
 *  cpu-time:     0 d,  0 h,  0 min,  0.078 sec
 * ratio c/w:     1.221 speedup
 analytical hessian:
 * wall-time:     0 d,  0 h,  0 min, 11.953 sec
 *  cpu-time:     0 d,  0 h,  1 min, 24.141 sec
 * ratio c/w:     7.039 speedup



===== STDERR =====

normal termination of xtb
