76
 energy: -110.273305113097 gnorm: 0.000762277910 xtb: 6.7.1pre (5071a88)
N            0.22741118353516        0.44091230809057       -0.45678594161477
C            1.56406369865675        0.16028357599592       -0.24746712417485
C            2.30120048542147        0.70614031036714        0.80465363383907
C            3.65390304450245        0.45823734319770        0.90904628907251
C            4.30512019835254       -0.37135520465789        0.00528061393584
C            3.54203098306677       -1.01838520488418       -0.95973322374385
C            2.19368749491742       -0.76189279368697       -1.08675086106680
C            5.80286551156312       -0.41688288802152       -0.04835688913095
C            6.25640541258346        0.72927082226617       -0.97299099533099
C           -0.42647511201386        1.63590992850706       -0.21384589165396
C            0.08682453319279        2.81204758722178        0.14842129433599
C           -0.78861702440756        4.00748152332822        0.41957857823385
C            0.00099065817369        5.32520606508502        0.39273270509431
C            0.57492886970189        5.64539524010825       -0.98545086517846
C            1.23819937851767        7.01713176807086       -1.00579611340500
O            0.28759677052467        0.11349132241718       -3.47605809369196
N           -2.01513309401137        3.53033876051364        3.88920710516097
C           -3.19976377228412        3.81574488479830        3.27941364136455
C           -2.92423442379458        4.02660095440467        1.90505224145341
C           -1.51361343430522        3.85525378140349        1.73001341656070
C           -4.48370345895703        3.92103451282230        3.79617148378640
C           -3.97665848210491        4.34170256004264        1.04315999693747
C           -0.99813220316949        3.55484828800335        2.96272258567471
C           -5.50032746471443        4.23934365479320        2.92094740581338
C           -5.24814354230502        4.44519621228770        1.56165427495624
C            0.39098329146944        3.26393726005764        3.40682170281737
O            1.46285875293923        2.49023137264242       -2.82226968746011
H           -0.18613948518874       -0.11462787626340       -1.19536109037830
H           -0.24216154214672        0.29452717388168       -4.25380265855662
H            1.81041021711377        1.32708310427094        1.53534358895120
H            4.22055460458268        0.93012546809150        1.69958508415321
H            4.01444618878392       -1.71850382427280       -1.63557257123044
H            1.61919738044237       -1.23681108400402       -1.86809285128602
H            6.16844077891749       -1.36430425739466       -0.44743479491800
H            6.24835242554203       -0.26437269301774        0.93445965663906
H            5.84983213826192        1.67551262325713       -0.59698197738284
H            5.99600212824594       -0.28638743460621       -2.78462277554026
H            7.49280238888980        2.58222455237876       -2.06728515779295
H           -1.49688518614936        1.55585853444339       -0.36640842650982
H            1.14849117534902        2.94388363506928        0.28566876374250
H           -1.55686306060655        4.05889505413934       -0.36120227095210
H           -0.66449131630919        6.13754395829940        0.69348221785948
H            0.81193932564712        5.28245104405398        1.12256504567143
H            1.31090452854351        4.89088606294147       -1.26891195417300
H           -0.22769585373001        5.62039506414762       -1.72628050121719
H            1.63826207589022        7.23370473662369       -1.99366348261963
H            0.52014542405222        7.79179193633922       -0.74591583901840
H            2.05538711320788        7.05589541902621       -0.28853329257541
H           -1.89211713493396        3.33317817015586        4.86762001622869
H           -2.43999699106579        6.25117851553496        2.29750437575760
H           -4.67626428353792        3.75929721362159        4.84649408651708
H           -3.79726148022900        4.50557939773945       -0.00912558369515
H           -6.51155423945712        4.33043758700623        3.28843363521089
H           -6.07333087464360        4.68961623329263        0.90874688598148
H            1.09918791151062        3.49763290504149        2.62007519402142
H            0.63915194919277        3.85653428833970        4.28758964868329
H            0.49486903536699        2.20920453741956        3.66745739035686
H            2.40618569144467        2.43273056274164       -2.57911963225772
H            0.99907556052321        2.76943949713233       -2.02565618128431
O           -2.66892010411942        7.18461772890314        2.35806424225704
H            0.73941375020435        0.95655361399844       -3.26403269773648
H           -3.61952745519148        7.23431023933092        2.23918234313964
N            5.71381462028520        0.55670418654627       -2.30799638307286
C            7.78442831108930        0.82538496907581       -1.07480902045480
O            8.53960927558759       -0.01384398445351       -0.63661645732004
C            4.01736067509901        0.68480493584489       -4.02104375233524
C            4.60131757101742        1.19477433928095       -2.72984607637234
O            4.12585395805909        2.14435094355487       -2.12584164280164
H            3.12211218020732        0.11109928500340       -3.78389979376051
H            4.71422634989675        0.05616147966587       -4.56795111907985
H            3.71203833521638        1.52584793009626       -4.63877002582182
N            8.18649052530163        1.93431693695008       -1.72817475069289
C            9.57397287017522        2.23666641133219       -1.98010684582594
H            9.85287466750279        3.18333415081170       -1.51433083013051
H            9.76937801057950        2.29451313536840       -3.05253747952116
H           10.16641161039558        1.43257964802649       -1.54671554161280
