76
 energy: -110.266823845235 gnorm: 0.000850778362 xtb: 6.7.1pre (5071a88)
N            0.03530917170670        0.09815186911003        0.10274967657073
C            1.40733166600412       -0.10634544055868        0.15200771736065
C            2.22581449361725        0.58458323591639        1.04652213013896
C            3.59210478020356        0.39518814849166        1.03028083465905
C            4.18258428421359       -0.49862551319100        0.14432671935980
C            3.35509063429517       -1.25224375352361       -0.67986753659514
C            1.98728060269026       -1.06759667910594       -0.67542055647978
C            5.67496320979951       -0.54955663611769       -0.00610105958322
C            6.14049109282349        0.68933615051916       -0.78111338182327
C           -0.58823004659126        1.33089822725887        0.12238932081499
C           -0.02491912656041        2.54193682604421        0.13075780135377
C           -0.85194262527381        3.80057713905271        0.18001228193743
C           -0.03609536508980        5.04536227672505       -0.20385614889027
C            0.49035243908685        4.99916874134869       -1.63718893362624
C            1.18817071722899        6.29892773154863       -2.01956357930047
O           -0.74767248156710       -0.84941904812752       -2.61201007644614
N           -1.84930065142590        4.14655294274664        3.73618462595494
C           -3.05626500966801        4.38262057141511        3.14859012008150
C           -2.86912666080416        4.28681453747479        1.74815406446542
C           -1.48694215290879        3.98542748623053        1.53287427231433
C           -4.29339174182047        4.67428459392644        3.70603568694575
C           -3.95899962155040        4.49191026876136        0.90257384135435
C           -0.89984804249153        3.91342848182801        2.77009538851106
C           -5.35099641536378        4.87286476056770        2.84436966550799
C           -5.18385962663058        4.78218459504104        1.46022777649819
C            0.50656217229330        3.66408728004638        3.18440173995168
O            0.61969641780333        1.61328788536388       -2.84621794413726
H           -0.46630621641880       -0.60649107218159       -0.42342405762620
H           -0.99955011262422       -1.19676476266486       -3.46868430630626
H            1.78098120252612        1.26161143907308        1.75778106318091
H            4.21440873401233        0.95595117681497        1.71301247388588
H            3.78837230481620       -1.99008390323815       -1.34190669423243
H            1.35500464375182       -1.64526616872787       -1.33291082236091
H            5.98775136687549       -1.44064400100414       -0.55271002944280
H            6.17526723854248       -0.55690959354142        0.96290188114407
H            6.02750068174693        1.59153250132117       -0.16631273246568
H            4.81195180477138        0.06643379065841       -2.29440470806744
H            7.46352516360859        2.53079598827735       -1.74167256417048
H           -1.66840519865542        1.25141538168445        0.10739283059487
H            1.04838476048897        2.65941438899078        0.14051660646902
H           -1.67554076999272        3.70339080669516       -0.53868749555942
H           -0.67986540448777        5.92275240591493       -0.09809770899010
H            0.80293238001231        5.16257175024603        0.48478242517149
H            1.19965825011494        4.17589804782794       -1.74315668382746
H           -0.34513486394490        4.82179495198640       -2.32092663651240
H            1.56549168117189        6.24664146667629       -3.03834668379318
H            0.49969599713863        7.13850365985709       -1.95088371112111
H            2.02710374875857        6.48820043224429       -1.35424046373722
H           -1.66026090835280        4.17634510571374        4.72330082111152
H           -0.58682675105434        6.26610090938337        2.41874305060468
H           -4.41903513928638        4.74405711346947        4.77655427466517
H           -3.84653372216550        4.42655652618789       -0.17001903453623
H           -6.32805077189007        5.10286286263526        3.24270998801724
H           -6.03807958857795        4.94481552840723        0.81915503911868
H            1.14661977974898        3.55352300045855        2.31649419273975
H            0.87124087911347        4.49974864536273        3.78228355078225
H            0.57245334217222        2.75755659793109        3.78727286297722
H            0.29160138426675        2.32033725399505       -3.40609833312470
H            0.45608059169110        1.88465300466782       -1.92980427524994
O           -0.34881220376231        6.99272570556015        3.00353838434581
H           -0.21309742561667       -0.05678656906823       -2.78015143381197
H           -0.95245301061123        7.71337644311416        2.81330579312373
N            5.31280750334841        0.87572358971755       -1.96176415890459
C            7.62210408366919        0.57862226158109       -1.19831514712872
O            8.26034513325091       -0.45043807278646       -1.11712285114423
C            3.97808566510564        2.07698039802373       -3.55317813433614
C            5.02998143697643        2.08923034165297       -2.47072860419761
O            5.59583432453658        3.10126097394759       -2.08928235214128
H            4.28522945121329        1.42151614735957       -4.36492304018040
H            3.84478015884369        3.08470199046315       -3.93609876284938
H            3.03325278007973        1.71241769747060       -3.15281691533730
N            8.10126350596412        1.74476643270295       -1.65822357856525
C            9.44349039095324        1.89043841804158       -2.16361479472543
H            9.97031911689544        2.67681005808661       -1.62062297240427
H            9.43291970819998        2.13882055202554       -3.22690356524883
H            9.95835077939098        0.94172171821489       -2.01892643295852
