      -----------------------------------------------------------      
     |                   =====================                   |     
     |                           x T B                           |     
     |                   =====================                   |     
     |                         S. Grimme                         |     
     |          Mulliken Center for Theoretical Chemistry        |     
     |                    University of Bonn                     |     
      -----------------------------------------------------------      

   * xtb version 6.7.1pre (5071a88) compiled by 'Marcel@Raven' on 2024-07-23

   xtb is free software: you can redistribute it and/or modify it under
   the terms of the GNU Lesser General Public License as published by
   the Free Software Foundation, either version 3 of the License, or
   (at your option) any later version.
   
   xtb is distributed in the hope that it will be useful,
   but WITHOUT ANY WARRANTY; without even the implied warranty of
   MERCHANTABILITY or FITNESS FOR A PARTICULAR PURPOSE.  See the
   GNU Lesser General Public License for more details.
   
   Cite this work as:
   * C. Bannwarth, E. Caldeweyher, S. Ehlert, A. Hansen, P. Pracht,
     J. Seibert, S. Spicher, S. Grimme, WIREs Comput. Mol. Sci., 2020, 11,
     e01493. DOI: 10.1002/wcms.1493
   
   for GFN2-xTB:
   * C. Bannwarth, S. Ehlert and S. Grimme., J. Chem. Theory Comput., 2019,
     15, 1652-1671. DOI: 10.1021/acs.jctc.8b01176
   for GFN1-xTB:
   * S. Grimme, C. Bannwarth, P. Shushkov, J. Chem. Theory Comput., 2017,
     13, 1989-2009. DOI: 10.1021/acs.jctc.7b00118
   for GFN0-xTB:
   * P. Pracht, E. Caldeweyher, S. Ehlert, S. Grimme, ChemRxiv, 2019, preprint.
     DOI: 10.26434/chemrxiv.8326202.v1
   for GFN-FF:
   * S. Spicher and S. Grimme, Angew. Chem. Int. Ed., 2020, 59, 15665-15673.
     DOI: 10.1002/anie.202004239
   
   for ALPB and GBSA implicit solvation:
   * S. Ehlert, M. Stahn, S. Spicher, S. Grimme, J. Chem. Theory Comput.,
     2021, 17, 4250-4261. DOI: 10.1021/acs.jctc.1c00471
   
   for ddCOSMO and CPCM-X implicit solvation:
   * M. Stahn, S. Ehlert, S. Grimme, J. Phys. Chem. A,
     2023, XX, XXXX-XXXX. DOI: 10.1021/acs.jpca.3c04382
   
   for DFT-D4:
   * E. Caldeweyher, C. Bannwarth and S. Grimme, J. Chem. Phys., 2017,
     147, 034112. DOI: 10.1063/1.4993215
   * E. Caldeweyher, S. Ehlert, A. Hansen, H. Neugebauer, S. Spicher,
     C. Bannwarth and S. Grimme, J. Chem. Phys., 2019, 150, 154122.
     DOI: 10.1063/1.5090222
   * E. Caldeweyher, J.-M. Mewes, S. Ehlert and S. Grimme, Phys. Chem. Chem. Phys.
     2020, 22, 8499-8512. DOI: 10.1039/D0CP00502A
   
   for sTDA-xTB:
   * S. Grimme and C. Bannwarth, J. Chem. Phys., 2016, 145, 054103.
     DOI: 10.1063/1.4959605
   
   in the mass-spec context:
   * V. Asgeirsson, C. Bauer and S. Grimme, Chem. Sci., 2017, 8, 4879.
     DOI: 10.1039/c7sc00601b
   * J. Koopman and S. Grimme, ACS Omega 2019, 4, 12, 15120-15133.
     DOI: 10.1021/acsomega.9b02011
   
   for metadynamics refer to:
   * S. Grimme, J. Chem. Theory Comput., 2019, 155, 2847-2862
     DOI: 10.1021/acs.jctc.9b00143
   
   for SPH calculations refer to:
   * S. Spicher and S. Grimme, J. Chem. Theory Comput., 2021, 17, 1701-1714
     DOI: 10.1021/acs.jctc.0c01306
   
   for ONIOM refer to:
   * C. Plett, A. Katbashev, S. Ehlert, S. Grimme, M. Bursch,
     Phys. Chem. Chem. Phys., 2023, 25, 17860-17868. DOI: 10.1039/D3CP02178E
   
   for DIPRO refer to:
   * J. Kohn, N. Gildemeister, S. Grimme, D. Fazzi, A. Hansen,
     J. Chem. Phys., 2023, just accepted.
   
   for PTB refer to:
   * S. Grimme, M. Mueller, A. Hansen, J. Chem. Phys., 2023, 158, 124111.
     DOI: 10.1063/5.0137838
   
   with help from (in alphabetical order)
   P. Atkinson, C. Bannwarth, F. Bohle, G. Brandenburg, E. Caldeweyher
   M. Checinski, S. Dohm, S. Ehlert, S. Ehrlich, I. Gerasimov, C. Hölzer
   A. Katbashev, J. Kohn, J. Koopman, C. Lavigne, S. Lehtola, F. März, M. Müller,
   F. Musil, H. Neugebauer, J. Pisarek, C. Plett, P. Pracht, F. Pultar,
   J. Seibert, P. Shushkov, S. Spicher, M. Stahn, M. Steiner, T. Strunk,
   J. Stückrath, T. Rose, and J. Unsleber
   
 * started run on 2026/08/20 at 20:42:37.435     
   ID    Z sym.   atoms
    1    7 N      1, 17, 63, 72
    2    6 C      2-15, 18-26, 64, 66, 67, 73
    3    8 O      16, 27, 60, 65, 68
    4    1 H      28-59, 61, 62, 69-71, 74-76

           -------------------------------------------------
          |                Calculation Setup                |
           -------------------------------------------------

          program call               : C:\Users\Nayanika\Downloads\xtb-6.7.1pre-windows-x86_64\xtb-6.7.1\bin\xtb.exe D:\PhD_Thesis\LmrR_EVB\charges\fast_lmrr_5QM\xtb_preparation\stage2_five_xtb_protocols\GFN2_normal\TS2_1a_to_PS2_2\TS2_1a_to_PS2_2_RS_xtbopt.xyz --gfn 2 --chrg 0 --uhf 0 --hess --etemp 0
          coordinate file            : D:\PhD_Thesis\LmrR_EVB\charges\fast_lmrr_5QM\xtb_preparation\stage2_five_xtb_protocols\GFN2_normal\TS2_1a_to_PS2_2\TS2_1a_to_PS2_2_RS_xtbopt.xyz
          omp threads                :                     8


molecular fragmentation (1/2 indicates fragments):
111111111111111211111111112121111111111111111111121111111222221111111111
1111
# atoms in fragment 1/2:    67     9
 fragment masses (1/2) :      446.59       54.05
CMA distance (Bohr)    :   4.120
constraining FC (au)   :  0.0500

           -------------------------------------------------
          |                 G F N 2 - x T B                 |
           -------------------------------------------------

        Reference                      10.1021/acs.jctc.8b01176
      * Hamiltonian:
        H0-scaling (s, p, d)           1.850000    2.230000    2.230000
        zeta-weighting                 0.500000
      * Dispersion:
        s8                             2.700000
        a1                             0.520000
        a2                             5.000000
        s9                             5.000000
      * Repulsion:
        kExp                           1.500000    1.000000
        rExp                           1.000000
      * Coulomb:
        alpha                          2.000000
        third order                    shell-resolved
        anisotropic                    true
        a3                             3.000000
        a5                             4.000000
        cn-shift                       1.200000
        cn-exp                         4.000000
        max-rad                        5.000000

q/qsh data taken from xtbrestart
CAMM data taken from xtbrestart

          ...................................................
          :                      SETUP                      :
          :.................................................:
          :  # basis functions                 184          :
          :  # atomic orbitals                 184          :
          :  # shells                          112          :
          :  # electrons                       198          :
          :  max. iterations                   250          :
          :  Hamiltonian                  GFN2-xTB          :
          :  restarted?                       true          :
          :  GBSA solvation                  false          :
          :  PC potential                    false          :
          :  electronic temp.            0.0000000     K    :
          :  accuracy                    1.0000000          :
          :  -> integral cutoff          0.2500000E+02      :
          :  -> integral neglect         0.1000000E-07      :
          :  -> SCF convergence          0.1000000E-05 Eh   :
          :  -> wf. convergence          0.1000000E-03 e    :
          :  Broyden damping             0.4000000          :
          :  net charge                          0          :
          :  unpaired electrons                  0          :
          ...................................................

 iter      E             dE          RMSdq      gap      omega  full diag
   1   -111.8420521 -0.111842E+03  0.151E-06    3.21       0.0  T
   2   -111.8420521 -0.284217E-13  0.118E-06    3.21    9693.4  T
   3   -111.8420521 -0.198952E-12  0.478E-07    3.21   24017.9  T

   *** convergence criteria satisfied after 3 iterations ***

         #    Occupation            Energy/Eh            Energy/eV
      -------------------------------------------------------------
         1        2.0000           -0.7017679             -19.0961
       ...           ...                  ...                  ...
        93        2.0000           -0.3998358             -10.8801
        94        2.0000           -0.3961811             -10.7806
        95        2.0000           -0.3928389             -10.6897
        96        2.0000           -0.3787953             -10.3075
        97        2.0000           -0.3769364             -10.2570
        98        2.0000           -0.3599127              -9.7937
        99        2.0000           -0.3458741              -9.4117 (HOMO)
       100                         -0.2278428              -6.1999 (LUMO)
       101                         -0.2212168              -6.0196
       102                         -0.2194457              -5.9714
       103                         -0.2110422              -5.7427
       104                         -0.2012434              -5.4761
       ...                                ...                  ...
       184                          0.7194720              19.5778
      -------------------------------------------------------------
                  HL-Gap            0.1180313 Eh            3.2118 eV
             Fermi-level            0.0000000 Eh            0.0000 eV

 SCC (total)                   0 d,  0 h,  0 min,  0.071 sec
 SCC setup                      ...        0 min,  0.000 sec (  0.000%)
 Dispersion                     ...        0 min,  0.002 sec (  2.817%)
 classical contributions        ...        0 min,  0.000 sec (  0.000%)
 integral evaluation            ...        0 min,  0.004 sec (  5.634%)
 iterations                     ...        0 min,  0.046 sec ( 64.789%)
 molecular gradient             ...        0 min,  0.018 sec ( 25.352%)
 printout                       ...        0 min,  0.001 sec (  1.409%)

         :::::::::::::::::::::::::::::::::::::::::::::::::::::
         ::                     SUMMARY                     ::
         :::::::::::::::::::::::::::::::::::::::::::::::::::::
         :: total energy            -110.266823845245 Eh    ::
         :: gradient norm              0.000850491821 Eh/a0 ::
         :: HOMO-LUMO gap              3.211793854901 eV    ::
         ::.................................................::
         :: SCC energy              -111.839594266511 Eh    ::
         :: -> isotropic ES            0.185917538401 Eh    ::
         :: -> anisotropic ES          0.006082879814 Eh    ::
         :: -> anisotropic XC          0.041210907442 Eh    ::
         :: -> dispersion             -0.082368598887 Eh    ::
         :: repulsion energy           1.572770421266 Eh    ::
         :: add. restraining           0.000000000000 Eh    ::
         :: total charge               0.000000000000 e     ::
         :::::::::::::::::::::::::::::::::::::::::::::::::::::

           ------------------------------------------------- 
          |                Numerical Hessian                |
           ------------------------------------------------- 
step length          :   0.00500
SCC accuracy         :   0.30000
Hessian scale factor :   1.00000
frozen atoms in %    :   0.00000    0
RMS gradient         :   0.00085
estimated CPU  time     11.41 min
estimated wall time      1.70 min

writing file <hessian>.

 projected vibrational frequencies (cm⁻¹)
eigval :       -0.00    -0.00    -0.00     0.00     0.00     0.00
eigval :        4.71     5.14    13.97    14.83    17.46    29.10
eigval :       33.53    36.06    39.13    45.23    47.59    56.46
eigval :       60.19    65.40    68.03    84.23    86.00    88.41
eigval :       90.12    92.55    97.14   104.99   106.12   113.35
eigval :      117.94   125.05   126.90   144.41   148.40   148.94
eigval :      154.13   162.37   168.46   173.03   180.27   186.09
eigval :      206.71   218.87   228.39   233.25   239.06   242.61
eigval :      247.72   253.57   273.10   292.00   294.22   296.74
eigval :      316.76   335.82   338.24   361.26   363.73   381.07
eigval :      394.61   409.11   412.77   420.83   450.01   453.58
eigval :      460.35   478.09   486.48   489.40   498.26   527.79
eigval :      533.67   553.09   578.55   581.32   590.74   599.44
eigval :      606.50   614.19   622.78   649.80   656.92   671.99
eigval :      693.77   700.95   706.05   728.15   735.71   769.51
eigval :      776.67   796.34   805.74   818.49   863.20   864.89
eigval :      866.00   873.57   877.52   894.84   896.11   917.59
eigval :      918.80   925.70   931.12   934.08   947.61   977.51
eigval :      992.68   995.02  1005.91  1009.52  1012.74  1020.47
eigval :     1034.52  1038.43  1067.61  1078.71  1079.91  1105.02
eigval :     1105.68  1117.87  1118.03  1125.58  1131.30  1139.74
eigval :     1142.42  1159.36  1163.23  1170.38  1175.01  1195.15
eigval :     1198.07  1212.30  1219.20  1222.62  1223.81  1226.81
eigval :     1243.63  1255.18  1266.10  1267.34  1283.19  1285.04
eigval :     1288.08  1300.63  1308.94  1317.90  1322.86  1328.12
eigval :     1332.23  1341.76  1363.43  1366.86  1375.77  1391.28
eigval :     1392.89  1396.69  1410.71  1418.94  1421.15  1435.56
eigval :     1442.15  1449.78  1459.18  1463.18  1468.30  1473.07
eigval :     1477.65  1477.89  1485.31  1493.34  1495.84  1496.84
eigval :     1501.94  1503.31  1505.02  1525.76  1540.66  1556.54
eigval :     1574.87  1581.75  1594.13  1610.50  1629.24  1686.81
eigval :     1714.33  1759.05  2903.60  2908.43  2947.78  2960.93
eigval :     2968.84  2980.40  2985.49  2988.56  2990.70  2993.23
eigval :     3002.21  3007.01  3021.41  3030.79  3030.97  3031.40
eigval :     3034.36  3042.87  3049.56  3058.93  3063.01  3067.99
eigval :     3073.06  3075.01  3079.69  3080.60  3084.10  3091.80
eigval :     3092.13  3111.88  3314.35  3397.08  3407.01  3442.01
eigval :     3448.41  3489.46  3573.97  3642.78  3653.03  3666.96
           -------------------------------------------------
          |                Property Printout                |
           -------------------------------------------------

    * Orbital Energies and Occupations

         #    Occupation            Energy/Eh            Energy/eV
      -------------------------------------------------------------
         1        2.0000           -0.7017679             -19.0961
       ...           ...                  ...                  ...
        87        2.0000           -0.4223270             -11.4921
        88        2.0000           -0.4207913             -11.4503
        89        2.0000           -0.4181504             -11.3785
        90        2.0000           -0.4128629             -11.2346
        91        2.0000           -0.4103140             -11.1652
        92        2.0000           -0.4017778             -10.9329
        93        2.0000           -0.3998358             -10.8801
        94        2.0000           -0.3961811             -10.7806
        95        2.0000           -0.3928389             -10.6897
        96        2.0000           -0.3787953             -10.3075
        97        2.0000           -0.3769364             -10.2570
        98        2.0000           -0.3599127              -9.7937
        99        2.0000           -0.3458741              -9.4117 (HOMO)
       100                         -0.2278428              -6.1999 (LUMO)
       101                         -0.2212168              -6.0196
       102                         -0.2194457              -5.9714
       103                         -0.2110422              -5.7427
       104                         -0.2012434              -5.4761
       105                         -0.1952926              -5.3142
       106                         -0.1810144              -4.9257
       107                         -0.1559395              -4.2433
       108                         -0.0896028              -2.4382
       109                         -0.0692564              -1.8846
       110                          0.0094777               0.2579
       ...                                ...                  ...
       184                          0.7194720              19.5778
      -------------------------------------------------------------
                  HL-Gap            0.1180313 Eh            3.2118 eV
             Fermi-level            0.0000000 Eh            0.0000 eV

     #   Z          covCN         q      C6AA      α(0)
     1   7 N        2.692    -0.160    24.456     7.345
     2   6 C        2.907     0.065    26.544     8.448
     3   6 C        2.921    -0.055    29.362     8.886
     4   6 C        2.924    -0.040    29.002     8.831
     5   6 C        2.972    -0.002    28.082     8.692
     6   6 C        2.924    -0.043    29.079     8.843
     7   6 C        2.923    -0.062    29.543     8.913
     8   6 C        3.811    -0.070    21.821     6.649
     9   6 C        3.799     0.020    20.237     6.405
    10   6 C        2.828     0.010    27.773     8.636
    11   6 C        2.893    -0.096    30.402     9.040
    12   6 C        3.859    -0.018    20.863     6.496
    13   6 C        3.807    -0.063    21.696     6.631
    14   6 C        3.800    -0.053    21.531     6.607
    15   6 C        3.752    -0.104    22.552     6.772
    16   8 O        1.610    -0.600    25.183     6.773
    17   7 N        2.785    -0.117    23.544     7.207
    18   6 C        3.071     0.042    26.990     8.518
    19   6 C        3.110    -0.026    28.495     8.745
    20   6 C        3.060    -0.055    29.293     8.876
    21   6 C        2.909    -0.054    29.352     8.884
    22   6 C        2.912    -0.040    28.994     8.830
    23   6 C        3.060     0.040    27.041     8.528
    24   6 C        2.925    -0.039    28.966     8.826
    25   6 C        2.920    -0.044    29.087     8.844
    26   6 C        3.754    -0.116    22.768     6.804
    27   8 O        1.610    -0.590    24.958     6.743
    28   1 H        0.860     0.192     1.147     1.678
    29   1 H        0.806     0.272     0.813     1.416
    30   1 H        0.926     0.039     2.456     2.451
    31   1 H        0.926     0.030     2.583     2.513
    32   1 H        0.925     0.026     2.646     2.544
    33   1 H        0.926     0.045     2.379     2.412
    34   1 H        0.924     0.062     2.180     2.309
    35   1 H        0.924     0.055     2.253     2.347
    36   1 H        0.924     0.060     2.199     2.319
    37   1 H        0.860     0.183     1.196     1.713
    38   1 H        0.860     0.206     1.077     1.625
    39   1 H        0.925     0.036     2.501     2.473
    40   1 H        0.926     0.029     2.599     2.521
    41   1 H        0.924     0.033     2.547     2.496
    42   1 H        0.924     0.028     2.621     2.532
    43   1 H        0.924     0.038     2.480     2.463
    44   1 H        0.924     0.031     2.566     2.505
    45   1 H        0.924     0.020     2.732     2.585
    46   1 H        0.925     0.033     2.548     2.496
    47   1 H        0.925     0.033     2.540     2.492
    48   1 H        0.925     0.040     2.443     2.444
    49   1 H        0.860     0.162     1.323     1.802
    50   1 H        0.805     0.290     0.752     1.362
    51   1 H        0.926     0.022     2.705     2.572
    52   1 H        0.926     0.021     2.720     2.579
    53   1 H        0.926     0.025     2.666     2.553
    54   1 H        0.926     0.022     2.698     2.569
    55   1 H        0.925     0.057     2.238     2.339
    56   1 H        0.924     0.060     2.199     2.319
    57   1 H        0.924     0.045     2.389     2.417
    58   1 H        0.805     0.290     0.752     1.362
    59   1 H        0.804     0.303     0.711     1.325
    60   8 O        1.611    -0.578    24.676     6.704
    61   1 H        0.804     0.309     0.695     1.309
    62   1 H        0.805     0.278     0.791     1.397
    63   7 N        2.692    -0.186    25.036     7.431
    64   6 C        2.753     0.264    22.543     7.775
    65   8 O        0.858    -0.436    22.423     6.349
    66   6 C        3.757    -0.149    23.440     6.903
    67   6 C        2.749     0.277    22.317     7.735
    68   8 O        0.859    -0.460    22.920     6.419
    69   1 H        0.925     0.056     2.251     2.346
    70   1 H        0.925     0.069     2.099     2.265
    71   1 H        0.925     0.076     2.020     2.223
    72   7 N        2.687    -0.177    24.832     7.401
    73   6 C        3.690    -0.042    21.518     6.638
    74   1 H        0.924     0.052     2.301     2.372
    75   1 H        0.924     0.049     2.338     2.391
    76   1 H        0.925     0.082     1.962     2.190

 Mol. C6AA /au·bohr⁶  :      56227.191034
 Mol. C8AA /au·bohr⁸  :    1284870.585341
 Mol. α(0) /au        :        366.152524


Wiberg/Mayer (AO) data.
largest (>0.10) Wiberg bond orders for each atom

 ---------------------------------------------------------------------------
     #   Z sym  total        # sym  WBO       # sym  WBO       # sym  WBO
 ---------------------------------------------------------------------------
     1   7 N    3.426 --    10 C    1.133     2 C    1.107    28 H    0.922
                            11 C    0.110
     2   6 C    3.971 --     7 C    1.358     3 C    1.353     1 N    1.107
     3   6 C    3.989 --     4 C    1.467     2 C    1.353    30 H    0.965
                             6 C    0.101
     4   6 C    3.991 --     3 C    1.467     5 C    1.397    31 H    0.969
                             7 C    0.103
     5   6 C    3.986 --     6 C    1.400     4 C    1.397     8 C    1.011
     6   6 C    3.991 --     7 C    1.459     5 C    1.400    32 H    0.967
                             3 C    0.101
     7   6 C    3.987 --     6 C    1.459     2 C    1.358    33 H    0.965
                             4 C    0.103
     8   6 C    3.991 --     5 C    1.011     9 C    0.978    34 H    0.970
                            35 H    0.967
     9   6 C    3.963 --     8 C    0.978    63 N    0.975    36 H    0.952
                            64 C    0.916
    10   6 C    3.968 --    11 C    1.777     1 N    1.133    39 H    0.961
    11   6 C    3.973 --    10 C    1.777    12 C    1.000    40 H    0.957
                             1 N    0.110
    12   6 C    3.995 --    11 C    1.000    20 C    0.986    13 C    0.982
                            41 H    0.956
    13   6 C    3.995 --    14 C    1.007    12 C    0.982    42 H    0.976
                            43 H    0.975
    14   6 C    3.998 --    15 C    1.018    13 C    1.007    45 H    0.978
                            44 H    0.975
    15   6 C    3.995 --    14 C    1.018    47 H    0.988    48 H    0.988
                            46 H    0.987
    16   8 O    1.825 --    29 H    0.923    61 H    0.869
    17   7 N    3.533 --    18 C    1.177    23 C    1.174    49 H    0.944
    18   6 C    3.959 --    21 C    1.343    19 C    1.242    17 N    1.177
    19   6 C    3.983 --    22 C    1.334    18 C    1.242    20 C    1.202
    20   6 C    3.967 --    23 C    1.542    19 C    1.202    12 C    0.986
    21   6 C    3.989 --    24 C    1.488    18 C    1.343    51 H    0.969
                            22 C    0.111
    22   6 C    3.989 --    25 C    1.500    19 C    1.334    52 H    0.967
                            21 C    0.111
    23   6 C    3.952 --    20 C    1.542    17 N    1.174    26 C    1.030
    24   6 C    3.988 --    21 C    1.488    25 C    1.374    53 H    0.972
    25   6 C    3.989 --    22 C    1.500    24 C    1.374    54 H    0.972
    26   6 C    3.994 --    23 C    1.030    55 H    0.977    57 H    0.970
                            56 H    0.969
    27   8 O    1.863 --    58 H    0.911    59 H    0.875
    28   1 H    0.962 --     1 N    0.922
    29   1 H    0.926 --    16 O    0.923
    30   1 H    0.998 --     3 C    0.965
    31   1 H    0.999 --     4 C    0.969
    32   1 H    0.999 --     6 C    0.967
    33   1 H    0.998 --     7 C    0.965
    34   1 H    0.996 --     8 C    0.970
    35   1 H    0.996 --     8 C    0.967
    36   1 H    0.996 --     9 C    0.952
    37   1 H    0.966 --    63 N    0.930
    38   1 H    0.958 --    72 N    0.906
    39   1 H    0.998 --    10 C    0.961
    40   1 H    0.999 --    11 C    0.957
    41   1 H    0.998 --    12 C    0.956
    42   1 H    0.999 --    13 C    0.976
    43   1 H    0.999 --    13 C    0.975
    44   1 H    0.999 --    14 C    0.975
    45   1 H    1.000 --    14 C    0.978
    46   1 H    0.998 --    15 C    0.987
    47   1 H    0.999 --    15 C    0.988
    48   1 H    0.998 --    15 C    0.988
    49   1 H    0.973 --    17 N    0.944
    50   1 H    0.916 --    60 O    0.901
    51   1 H    0.999 --    21 C    0.969
    52   1 H    0.999 --    22 C    0.967
    53   1 H    0.999 --    24 C    0.972
    54   1 H    0.999 --    25 C    0.972
    55   1 H    0.996 --    26 C    0.977
    56   1 H    0.994 --    26 C    0.969
    57   1 H    0.995 --    26 C    0.970
    58   1 H    0.916 --    27 O    0.911
    59   1 H    0.908 --    27 O    0.875
    60   8 O    1.832 --    62 H    0.922    50 H    0.901
    61   1 H    0.905 --    16 O    0.869
    62   1 H    0.923 --    60 O    0.922
    63   7 N    3.448 --    67 C    1.270     9 C    0.975    37 H    0.930
                            68 O    0.190
    64   6 C    3.956 --    65 O    1.679    72 N    1.290     9 C    0.916
    65   8 O    2.009 --    64 C    1.679    72 N    0.211
    66   6 C    3.992 --    67 C    0.986    70 H    0.984    69 H    0.970
                            71 H    0.962
    67   6 C    3.949 --    68 O    1.645    63 N    1.270    66 C    0.986
    68   8 O    1.988 --    67 C    1.645    63 N    0.190
    69   1 H    0.997 --    66 C    0.970
    70   1 H    0.995 --    66 C    0.984
    71   1 H    0.994 --    66 C    0.962
    72   7 N    3.465 --    64 C    1.290    73 C    1.006    38 H    0.906
                            65 O    0.211
    73   6 C    3.966 --    72 N    1.006    74 H    0.977    76 H    0.977
                            75 H    0.977
    74   1 H    0.997 --    73 C    0.977
    75   1 H    0.998 --    73 C    0.977
    76   1 H    0.993 --    73 C    0.977
 ---------------------------------------------------------------------------

Topologies differ in total number of bonds
Writing topology from bond orders to xtbtopo.mol

molecular dipole:
                 x           y           z       tot (Debye)
 q only:       -1.044       0.332      -0.595
   full:       -1.693       0.618      -0.947       5.174
molecular quadrupole (traceless):
                xx          xy          yy          xz          yz          zz
 q only:      -25.016       6.230      -1.077      -1.414      -4.856      26.093
  q+dip:      -34.730       1.888      -2.086      -1.450      -2.197      36.817
   full:      -37.096       2.836       0.154      -2.290      -4.348      36.942

           -------------------------------------------------
          |               Frequency Printout                |
           -------------------------------------------------
 projected vibrational frequencies (cm⁻¹)
eigval :       -0.00    -0.00    -0.00     0.00     0.00     0.00
eigval :        4.71     5.14    13.97    14.83    17.46    29.10
eigval :       33.53    36.06    39.13    45.23    47.59    56.46
eigval :       60.19    65.40    68.03    84.23    86.00    88.41
eigval :       90.12    92.55    97.14   104.99   106.12   113.35
eigval :      117.94   125.05   126.90   144.41   148.40   148.94
eigval :      154.13   162.37   168.46   173.03   180.27   186.09
eigval :      206.71   218.87   228.39   233.25   239.06   242.61
eigval :      247.72   253.57   273.10   292.00   294.22   296.74
eigval :      316.76   335.82   338.24   361.26   363.73   381.07
eigval :      394.61   409.11   412.77   420.83   450.01   453.58
eigval :      460.35   478.09   486.48   489.40   498.26   527.79
eigval :      533.67   553.09   578.55   581.32   590.74   599.44
eigval :      606.50   614.19   622.78   649.80   656.92   671.99
eigval :      693.77   700.95   706.05   728.15   735.71   769.51
eigval :      776.67   796.34   805.74   818.49   863.20   864.89
eigval :      866.00   873.57   877.52   894.84   896.11   917.59
eigval :      918.80   925.70   931.12   934.08   947.61   977.51
eigval :      992.68   995.02  1005.91  1009.52  1012.74  1020.47
eigval :     1034.52  1038.43  1067.61  1078.71  1079.91  1105.02
eigval :     1105.68  1117.87  1118.03  1125.58  1131.30  1139.74
eigval :     1142.42  1159.36  1163.23  1170.38  1175.01  1195.15
eigval :     1198.07  1212.30  1219.20  1222.62  1223.81  1226.81
eigval :     1243.63  1255.18  1266.10  1267.34  1283.19  1285.04
eigval :     1288.08  1300.63  1308.94  1317.90  1322.86  1328.12
eigval :     1332.23  1341.76  1363.43  1366.86  1375.77  1391.28
eigval :     1392.89  1396.69  1410.71  1418.94  1421.15  1435.56
eigval :     1442.15  1449.78  1459.18  1463.18  1468.30  1473.07
eigval :     1477.65  1477.89  1485.31  1493.34  1495.84  1496.84
eigval :     1501.94  1503.31  1505.02  1525.76  1540.66  1556.54
eigval :     1574.87  1581.75  1594.13  1610.50  1629.24  1686.81
eigval :     1714.33  1759.05  2903.60  2908.43  2947.78  2960.93
eigval :     2968.84  2980.40  2985.49  2988.56  2990.70  2993.23
eigval :     3002.21  3007.01  3021.41  3030.79  3030.97  3031.40
eigval :     3034.36  3042.87  3049.56  3058.93  3063.01  3067.99
eigval :     3073.06  3075.01  3079.69  3080.60  3084.10  3091.80
eigval :     3092.13  3111.88  3314.35  3397.08  3407.01  3442.01
eigval :     3448.41  3489.46  3573.97  3642.78  3653.03  3666.96
 reduced masses (amu)
   1: 11.78   2: 12.08   3: 12.07   4: 11.80   5: 12.06   6: 12.09   7: 11.28   8: 11.93
   9: 13.24  10: 10.83  11: 11.60  12: 12.88  13: 12.38  14: 12.62  15: 11.88  16: 12.39
  17: 12.24  18: 13.34  19: 12.55  20: 10.90  21:  9.98  22:  9.70  23:  7.17  24: 10.87
  25:  7.56  26:  7.82  27: 10.56  28:  9.05  29:  6.91  30:  7.62  31: 10.66  32:  8.68
  33:  3.87  34:  7.77  35:  8.70  36:  6.37  37:  8.16  38:  8.91  39: 10.65  40:  6.13
  41:  2.08  42: 11.23  43:  5.58  44:  9.17  45:  7.90  46:  4.76  47: 10.06  48:  3.52
  49:  6.48  50:  9.38  51: 10.08  52: 10.03  53: 12.05  54: 10.06  55: 10.73  56:  9.75
  57: 10.12  58:  4.09  59:  8.60  60: 10.00  61:  9.68  62:  9.26  63:  9.44  64:  9.71
  65:  6.89  66:  6.32  67:  4.93  68:  9.62  69:  7.54  70: 10.49  71:  9.78  72:  9.39
  73: 10.05  74:  7.34  75:  3.59  76:  8.29  77:  8.57  78: 10.50  79:  9.35  80:  8.50
  81: 10.12  82:  9.19  83: 10.66  84:  9.17  85:  7.19  86: 11.11  87:  9.41  88: 10.94
  89:  7.37  90:  3.70  91:  9.53  92:  4.13  93:  8.62  94:  5.24  95:  3.50  96: 10.57
  97:  9.39  98:  5.71  99:  7.59 100:  3.86 101:  3.86 102:  2.76 103:  2.98 104:  9.07
 105:  3.98 106:  8.85 107:  6.50 108: 10.84 109:  5.16 110:  5.65 111:  5.43 112:  3.69
 113:  6.71 114:  5.75 115:  8.24 116:  4.33 117:  6.22 118:  7.08 119:  9.41 120:  3.85
 121:  8.47 122:  7.94 123:  7.85 124:  7.63 125:  7.30 126:  4.53 127:  6.39 128:  5.99
 129:  5.90 130:  5.34 131:  3.64 132:  3.39 133:  4.08 134:  5.41 135:  5.24 136:  4.45
 137:  5.64 138:  5.46 139:  4.80 140:  4.50 141:  4.62 142:  3.19 143:  3.49 144:  3.53
 145:  4.37 146:  4.65 147:  5.08 148:  9.78 149:  5.71 150:  5.68 151:  6.67 152: 10.04
 153:  5.15 154: 11.23 155:  3.26 156:  9.24 157:  2.63 158:  4.78 159:  8.28 160:  3.32
 161:  9.85 162:  8.54 163:  8.57 164: 11.36 165:  1.66 166:  1.57 167:  1.58 168:  1.74
 169:  1.65 170:  2.14 171:  2.51 172:  2.00 173:  3.25 174:  9.17 175:  9.91 176:  1.53
 177:  1.67 178:  2.18 179:  2.15 180:  2.10 181: 11.45 182: 11.53 183: 11.61 184: 11.52
 185: 11.64 186: 11.55 187: 13.12 188: 13.19 189:  1.74 190:  1.74 191:  1.83 192:  1.79
 193:  1.92 194:  1.68 195:  1.63 196:  1.47 197:  1.88 198:  1.99 199:  1.49 200:  1.55
 201:  1.80 202:  1.71 203:  1.71 204:  1.84 205:  1.76 206:  1.45 207:  1.79 208:  1.81
 209:  1.76 210:  1.77 211:  1.78 212:  1.81 213:  1.85 214:  1.82 215:  1.72 216:  1.91
 217:  1.85 218:  1.84 219:  1.89 220:  1.83 221:  1.87 222:  1.86 223:  1.85 224:  1.86
 225:  1.83 226:  1.83 227:  1.86 228:  1.84
 IR intensities (km·mol⁻¹)
   1:  0.12   2:  0.12   3:  0.02   4:  0.05   5:  0.02   6:  0.11   7:  0.42   8:  0.11
   9:  2.78  10:  3.19  11:  0.49  12:  0.89  13:  2.30  14:  1.40  15:  1.07  16:  2.30
  17:  0.30  18:  6.33  19:  3.78  20:  0.27  21:  0.48  22: 12.00  23: 10.86  24: 11.62
  25:  7.24  26:  4.47  27: 31.90  28: 26.64  29: 33.60  30: 40.62  31: 17.89  32:  1.06
  33:  0.52  34:  3.03  35:  2.94  36:  2.78  37: 17.02  38:  5.54  39:  1.73  40: 26.44
  41:115.96  42:  3.79  43: 45.15  44:  9.54  45: 29.90  46: 11.80  47:  1.66  48:164.39
  49: 36.66  50: 12.73  51:  5.33  52:  5.89  53:  3.15  54: 11.15  55:  5.56  56:  0.87
  57:  8.01  58:224.97  59: 41.91  60:  5.33  61:  5.63  62:  0.34  63: 19.18  64:  1.16
  65: 22.92  66: 39.60  67:156.79  68:  4.94  69: 34.52  70:  4.10  71: 13.28  72:  1.30
  73: 17.32  74: 23.11  75:179.44  76: 11.66  77: 57.72  78: 19.96  79: 60.18  80: 47.16
  81:  3.53  82: 46.03  83:  2.30  84: 48.05  85: 26.99  86:  6.82  87: 25.54  88: 13.96
  89:  8.22  90: 26.95  91: 12.49  92:  1.74  93: 17.76  94: 12.68  95:  0.05  96:  0.43
  97:  0.79  98:  3.43  99:  2.56 100:  0.49 101:  0.31 102:  1.85 103:  0.00 104:  1.18
 105:  0.41 106:  0.61 107:  2.93 108: 13.84 109:  1.47 110:  4.34 111: 22.93 112:  2.62
 113:  6.31 114:  5.53 115: 22.60 116:  5.94 117:  0.08 118: 26.36 119:  0.91 120:  0.58
 121: 10.91 122: 18.98 123: 14.36 124:  2.14 125: 23.77 126:  1.12 127:  5.68 128:  8.22
 129:  5.01 130:  5.74 131:  2.81 132:  3.64 133:  7.57 134:  5.32 135:  8.46 136:  8.88
 137: 29.66 138:  8.74 139: 11.73 140: 32.23 141:  2.87 142:  0.72 143:  6.18 144: 16.14
 145:  9.82 146:  2.54 147:  1.50 148: 38.72 149:  2.98 150: 11.86 151: 29.36 152: 42.20
 153:  0.62 154: 19.86 155: 20.87 156:201.54 157:  3.86 158:  7.58 159: 17.06 160:  6.77
 161:193.77 162:238.20 163: 74.89 164: 54.83 165:  7.95 166:  9.73 167: 10.03 168:  7.18
 169:  5.02 170:  0.12 171: 26.54 172:  6.15 173: 10.47 174:  7.46 175:238.91 176:  2.42
 177:  8.08 178:141.56 179: 69.56 180:127.65 181:  3.74 182:  0.22 183:  8.97 184: 88.00
 185: 17.77 186:230.52 187:325.03 188:586.78 189: 23.13 190: 15.38 191: 33.00 192: 42.78
 193: 31.34 194: 52.87 195: 30.12 196: 47.15 197: 29.08 198: 15.96 199: 18.55 200: 17.87
 201:  2.14 202:  5.12 203: 51.98 204: 20.32 205: 41.25 206: 23.25 207: 26.38 208: 42.12
 209: 11.81 210: 16.77 211:  3.70 212: 32.01 213: 82.74 214: 44.70 215: 27.82 216: 80.50
 217: 17.56 218: 18.61 219:135.47 220: 24.55 221:289.17 222:265.22 223: 42.26 224: 12.61
 225: 88.45 226: 15.97 227: 13.59 228:  5.95
 Raman intensities (Ä⁴*amu⁻¹)
   1:  0.00   2:  0.00   3:  0.00   4:  0.00   5:  0.00   6:  0.00   7:  0.00   8:  0.00
   9:  0.00  10:  0.00  11:  0.00  12:  0.00  13:  0.00  14:  0.00  15:  0.00  16:  0.00
  17:  0.00  18:  0.00  19:  0.00  20:  0.00  21:  0.00  22:  0.00  23:  0.00  24:  0.00
  25:  0.00  26:  0.00  27:  0.00  28:  0.00  29:  0.00  30:  0.00  31:  0.00  32:  0.00
  33:  0.00  34:  0.00  35:  0.00  36:  0.00  37:  0.00  38:  0.00  39:  0.00  40:  0.00
  41:  0.00  42:  0.00  43:  0.00  44:  0.00  45:  0.00  46:  0.00  47:  0.00  48:  0.00
  49:  0.00  50:  0.00  51:  0.00  52:  0.00  53:  0.00  54:  0.00  55:  0.00  56:  0.00
  57:  0.00  58:  0.00  59:  0.00  60:  0.00  61:  0.00  62:  0.00  63:  0.00  64:  0.00
  65:  0.00  66:  0.00  67:  0.00  68:  0.00  69:  0.00  70:  0.00  71:  0.00  72:  0.00
  73:  0.00  74:  0.00  75:  0.00  76:  0.00  77:  0.00  78:  0.00  79:  0.00  80:  0.00
  81:  0.00  82:  0.00  83:  0.00  84:  0.00  85:  0.00  86:  0.00  87:  0.00  88:  0.00
  89:  0.00  90:  0.00  91:  0.00  92:  0.00  93:  0.00  94:  0.00  95:  0.00  96:  0.00
  97:  0.00  98:  0.00  99:  0.00 100:  0.00 101:  0.00 102:  0.00 103:  0.00 104:  0.00
 105:  0.00 106:  0.00 107:  0.00 108:  0.00 109:  0.00 110:  0.00 111:  0.00 112:  0.00
 113:  0.00 114:  0.00 115:  0.00 116:  0.00 117:  0.00 118:  0.00 119:  0.00 120:  0.00
 121:  0.00 122:  0.00 123:  0.00 124:  0.00 125:  0.00 126:  0.00 127:  0.00 128:  0.00
 129:  0.00 130:  0.00 131:  0.00 132:  0.00 133:  0.00 134:  0.00 135:  0.00 136:  0.00
 137:  0.00 138:  0.00 139:  0.00 140:  0.00 141:  0.00 142:  0.00 143:  0.00 144:  0.00
 145:  0.00 146:  0.00 147:  0.00 148:  0.00 149:  0.00 150:  0.00 151:  0.00 152:  0.00
 153:  0.00 154:  0.00 155:  0.00 156:  0.00 157:  0.00 158:  0.00 159:  0.00 160:  0.00
 161:  0.00 162:  0.00 163:  0.00 164:  0.00 165:  0.00 166:  0.00 167:  0.00 168:  0.00
 169:  0.00 170:  0.00 171:  0.00 172:  0.00 173:  0.00 174:  0.00 175:  0.00 176:  0.00
 177:  0.00 178:  0.00 179:  0.00 180:  0.00 181:  0.00 182:  0.00 183:  0.00 184:  0.00
 185:  0.00 186:  0.00 187:  0.00 188:  0.00 189:  0.00 190:  0.00 191:  0.00 192:  0.00
 193:  0.00 194:  0.00 195:  0.00 196:  0.00 197:  0.00 198:  0.00 199:  0.00 200:  0.00
 201:  0.00 202:  0.00 203:  0.00 204:  0.00 205:  0.00 206:  0.00 207:  0.00 208:  0.00
 209:  0.00 210:  0.00 211:  0.00 212:  0.00 213:  0.00 214:  0.00 215:  0.00 216:  0.00
 217:  0.00 218:  0.00 219:  0.00 220:  0.00 221:  0.00 222:  0.00 223:  0.00 224:  0.00
 225:  0.00 226:  0.00 227:  0.00 228:  0.00
 output can be read by thermo (or use thermo option).
 writing <g98.out> molden fake output.
 recommended (thermochemical) frequency scaling factor: 1.0
           -------------------------------------------------
          |             Thermodynamic Functions             |
           -------------------------------------------------

Refinement of some symmetry elements was terminated before convergence was reached.
Some symmetry elements may remain unidentified.
Molecule has no symmetry elements
It seems to be the C1 point group
c1  symmetry found (for desy threshold:  0.10E+00) used in thermo

          ...................................................
          :                      SETUP                      :
          :.................................................:
          :  # frequencies                         222      :
          :  # imaginary freq.                       0      :
          :  linear?                             false      :
          :  only rotor calc.                    false      :
          :  symmetry                               c1      :
          :  rotational number                       1      :
          :  scaling factor                  1.0000000      :
          :  rotor cutoff                   50.0000000 cm⁻¹ :
          :  imag. cutoff                  -20.0000000 cm⁻¹ :
          :.................................................:

    mode    ω/cm⁻¹     T·S(HO)/kcal·mol⁻¹    T·S(FR)/kcal·mol⁻¹   T·S(vib)
   ------------------------------------------------------------------------
       1      4.71    -2.83503 (  0.01%)    -1.75650 ( 99.99%)    -1.75658
       2      5.14    -2.78236 (  0.01%)    -1.73017 ( 99.99%)    -1.73029
       3     13.97    -2.19050 (  0.61%)    -1.43427 ( 99.39%)    -1.43885
       4     14.83    -2.15513 (  0.77%)    -1.41658 ( 99.23%)    -1.42225
       5     17.46    -2.05833 (  1.47%)    -1.36816 ( 98.53%)    -1.37828
       6     29.10    -1.75597 ( 10.30%)    -1.21684 ( 89.70%)    -1.27236
       7     33.53    -1.67231 ( 16.82%)    -1.17493 ( 83.18%)    -1.25857
       8     36.06    -1.62926 ( 21.29%)    -1.15335 ( 78.71%)    -1.25469
       9     39.13    -1.58094 ( 27.29%)    -1.12913 ( 72.71%)    -1.25241
      10     45.23    -1.49548 ( 40.10%)    -1.08625 ( 59.90%)    -1.25036
      11     47.59    -1.46547 ( 45.07%)    -1.07119 ( 54.93%)    -1.24889
      12     56.46    -1.36475 ( 61.91%)    -1.02057 ( 38.09%)    -1.23365
      13     60.19    -1.32706 ( 67.74%)    -1.00160 ( 32.26%)    -1.22207
      14     65.40    -1.27824 ( 74.54%)    -0.97700 ( 25.46%)    -1.20153
      15     68.03    -1.25509 ( 77.41%)    -0.96533 ( 22.59%)    -1.18963
      16     84.23    -1.12996 ( 88.95%)    -0.90206 ( 11.05%)    -1.10478
      17     86.00    -1.11779 ( 89.75%)    -0.89589 ( 10.25%)    -1.09503
      18     88.41    -1.10166 ( 90.72%)    -0.88770 (  9.28%)    -1.08180
      19     90.12    -1.09045 ( 91.35%)    -0.88201 (  8.65%)    -1.07241
      20     92.55    -1.07495 ( 92.15%)    -0.87414 (  7.85%)    -1.05919
      21     97.14    -1.04677 ( 93.44%)    -0.85980 (  6.56%)    -1.03451
      22    104.99    -1.00165 ( 95.11%)    -0.83679 (  4.89%)    -0.99358
      23    106.12    -0.99540 ( 95.30%)    -0.83360 (  4.70%)    -0.98781
      24    113.35    -0.95728 ( 96.35%)    -0.81409 (  3.65%)    -0.95206
      25    117.94    -0.93437 ( 96.87%)    -0.80233 (  3.13%)    -0.93024
      26    125.05    -0.90065 ( 97.51%)    -0.78498 (  2.49%)    -0.89776
      27    126.90    -0.89221 ( 97.65%)    -0.78063 (  2.35%)    -0.88959
      28    144.41    -0.81829 ( 98.58%)    -0.74234 (  1.42%)    -0.81721
      29    148.40    -0.80281 ( 98.73%)    -0.73427 (  1.27%)    -0.80194
      30    148.94    -0.80075 ( 98.75%)    -0.73319 (  1.25%)    -0.79990
      31    154.13    -0.78133 ( 98.90%)    -0.72304 (  1.10%)    -0.78069
      32    162.37    -0.75192 ( 99.11%)    -0.70761 (  0.89%)    -0.75152
      33    168.46    -0.73125 ( 99.23%)    -0.69672 (  0.77%)    -0.73099
      34    173.03    -0.71626 ( 99.31%)    -0.68879 (  0.69%)    -0.71607
      35    180.27    -0.69338 ( 99.41%)    -0.67664 (  0.59%)    -0.69328
      36    186.09    -0.67574 ( 99.48%)    -0.66723 (  0.52%)    -0.67569
      37    206.71    -0.61794 ( 99.66%)    -0.63610 (  0.34%)    -0.61800
      38    218.87    -0.58688 ( 99.73%)    -0.61916 (  0.27%)    -0.58696
      39    228.39    -0.56398 ( 99.77%)    -0.60655 (  0.23%)    -0.56408
      40    233.25    -0.55270 ( 99.79%)    -0.60031 (  0.21%)    -0.55280
      41    239.06    -0.53962 ( 99.81%)    -0.59302 (  0.19%)    -0.53972
      42    242.61    -0.53181 ( 99.82%)    -0.58866 (  0.18%)    -0.53191
      43    247.72    -0.52078 ( 99.83%)    -0.58247 (  0.17%)    -0.52088
      44    253.57    -0.50853 ( 99.85%)    -0.57556 (  0.15%)    -0.50863
      45    273.10    -0.47004 ( 99.89%)    -0.55358 (  0.11%)    -0.47013
      46    292.00    -0.43600 ( 99.91%)    -0.53376 (  0.09%)    -0.43608
      47    294.22    -0.43218 ( 99.92%)    -0.53151 (  0.08%)    -0.43226
      48    296.74    -0.42791 ( 99.92%)    -0.52899 (  0.08%)    -0.42799
   ------------------------------------------------------------------------

   temp. (K)  partition function   enthalpy   heat capacity  entropy
                                   cal/mol     cal/K/mol   cal/K/mol   J/K/mol
 298.15  VIB  0.439E+25            27058.952    145.141    180.431
         ROT  0.442E+08              888.752      2.981     37.964
         INT  0.194E+33            27947.705    148.122    218.395
         TR   0.108E+29             1481.254      4.968     44.499
         TOT                       29428.9584   153.0902   262.8941  1099.9489

       T/K    H(0)-H(T)+PV         H(T)/Eh          T*S/Eh         G(T)/Eh
   ------------------------------------------------------------------------
    298.15    0.468980E-01    0.668106E+00    0.124909E+00    0.543196E+00
   ------------------------------------------------------------------------

         :::::::::::::::::::::::::::::::::::::::::::::::::::::
         ::                  THERMODYNAMIC                  ::
         :::::::::::::::::::::::::::::::::::::::::::::::::::::
         :: total free energy        -109.723627693435 Eh   ::
         ::.................................................::
         :: total energy             -110.266823845244 Eh   ::
         :: zero point energy           0.621207590389 Eh   ::
         :: G(RRHO) w/o ZPVE           -0.078011438580 Eh   ::
         :: G(RRHO) contrib.            0.543196151810 Eh   ::
         :::::::::::::::::::::::::::::::::::::::::::::::::::::

           -------------------------------------------------
          | TOTAL ENERGY             -110.266823845244 Eh   |
          | TOTAL ENTHALPY           -109.598718224385 Eh   |
          | TOTAL FREE ENERGY        -109.723627693435 Eh   |
          | GRADIENT NORM               0.000850482565 Eh/α |
          | HOMO-LUMO GAP               3.211793798040 eV   |
           -------------------------------------------------

------------------------------------------------------------------------
 * finished run on 2026/08/20 at 20:42:49.743     
------------------------------------------------------------------------
 total:
 * wall-time:     0 d,  0 h,  0 min, 12.307 sec
 *  cpu-time:     0 d,  0 h,  1 min, 23.312 sec
 * ratio c/w:     6.770 speedup
 SCF:
 * wall-time:     0 d,  0 h,  0 min,  0.072 sec
 *  cpu-time:     0 d,  0 h,  0 min,  0.188 sec
 * ratio c/w:     2.604 speedup
 analytical hessian:
 * wall-time:     0 d,  0 h,  0 min, 12.163 sec
 *  cpu-time:     0 d,  0 h,  1 min, 23.016 sec
 * ratio c/w:     6.825 speedup



===== STDERR =====

normal termination of xtb
