      -----------------------------------------------------------      
     |                   =====================                   |     
     |                           x T B                           |     
     |                   =====================                   |     
     |                         S. Grimme                         |     
     |          Mulliken Center for Theoretical Chemistry        |     
     |                    University of Bonn                     |     
      -----------------------------------------------------------      

   * xtb version 6.7.1pre (5071a88) compiled by 'Marcel@Raven' on 2024-07-23

   xtb is free software: you can redistribute it and/or modify it under
   the terms of the GNU Lesser General Public License as published by
   the Free Software Foundation, either version 3 of the License, or
   (at your option) any later version.
   
   xtb is distributed in the hope that it will be useful,
   but WITHOUT ANY WARRANTY; without even the implied warranty of
   MERCHANTABILITY or FITNESS FOR A PARTICULAR PURPOSE.  See the
   GNU Lesser General Public License for more details.
   
   Cite this work as:
   * C. Bannwarth, E. Caldeweyher, S. Ehlert, A. Hansen, P. Pracht,
     J. Seibert, S. Spicher, S. Grimme, WIREs Comput. Mol. Sci., 2020, 11,
     e01493. DOI: 10.1002/wcms.1493
   
   for GFN2-xTB:
   * C. Bannwarth, S. Ehlert and S. Grimme., J. Chem. Theory Comput., 2019,
     15, 1652-1671. DOI: 10.1021/acs.jctc.8b01176
   for GFN1-xTB:
   * S. Grimme, C. Bannwarth, P. Shushkov, J. Chem. Theory Comput., 2017,
     13, 1989-2009. DOI: 10.1021/acs.jctc.7b00118
   for GFN0-xTB:
   * P. Pracht, E. Caldeweyher, S. Ehlert, S. Grimme, ChemRxiv, 2019, preprint.
     DOI: 10.26434/chemrxiv.8326202.v1
   for GFN-FF:
   * S. Spicher and S. Grimme, Angew. Chem. Int. Ed., 2020, 59, 15665-15673.
     DOI: 10.1002/anie.202004239
   
   for ALPB and GBSA implicit solvation:
   * S. Ehlert, M. Stahn, S. Spicher, S. Grimme, J. Chem. Theory Comput.,
     2021, 17, 4250-4261. DOI: 10.1021/acs.jctc.1c00471
   
   for ddCOSMO and CPCM-X implicit solvation:
   * M. Stahn, S. Ehlert, S. Grimme, J. Phys. Chem. A,
     2023, XX, XXXX-XXXX. DOI: 10.1021/acs.jpca.3c04382
   
   for DFT-D4:
   * E. Caldeweyher, C. Bannwarth and S. Grimme, J. Chem. Phys., 2017,
     147, 034112. DOI: 10.1063/1.4993215
   * E. Caldeweyher, S. Ehlert, A. Hansen, H. Neugebauer, S. Spicher,
     C. Bannwarth and S. Grimme, J. Chem. Phys., 2019, 150, 154122.
     DOI: 10.1063/1.5090222
   * E. Caldeweyher, J.-M. Mewes, S. Ehlert and S. Grimme, Phys. Chem. Chem. Phys.
     2020, 22, 8499-8512. DOI: 10.1039/D0CP00502A
   
   for sTDA-xTB:
   * S. Grimme and C. Bannwarth, J. Chem. Phys., 2016, 145, 054103.
     DOI: 10.1063/1.4959605
   
   in the mass-spec context:
   * V. Asgeirsson, C. Bauer and S. Grimme, Chem. Sci., 2017, 8, 4879.
     DOI: 10.1039/c7sc00601b
   * J. Koopman and S. Grimme, ACS Omega 2019, 4, 12, 15120-15133.
     DOI: 10.1021/acsomega.9b02011
   
   for metadynamics refer to:
   * S. Grimme, J. Chem. Theory Comput., 2019, 155, 2847-2862
     DOI: 10.1021/acs.jctc.9b00143
   
   for SPH calculations refer to:
   * S. Spicher and S. Grimme, J. Chem. Theory Comput., 2021, 17, 1701-1714
     DOI: 10.1021/acs.jctc.0c01306
   
   for ONIOM refer to:
   * C. Plett, A. Katbashev, S. Ehlert, S. Grimme, M. Bursch,
     Phys. Chem. Chem. Phys., 2023, 25, 17860-17868. DOI: 10.1039/D3CP02178E
   
   for DIPRO refer to:
   * J. Kohn, N. Gildemeister, S. Grimme, D. Fazzi, A. Hansen,
     J. Chem. Phys., 2023, just accepted.
   
   for PTB refer to:
   * S. Grimme, M. Mueller, A. Hansen, J. Chem. Phys., 2023, 158, 124111.
     DOI: 10.1063/5.0137838
   
   with help from (in alphabetical order)
   P. Atkinson, C. Bannwarth, F. Bohle, G. Brandenburg, E. Caldeweyher
   M. Checinski, S. Dohm, S. Ehlert, S. Ehrlich, I. Gerasimov, C. Hölzer
   A. Katbashev, J. Kohn, J. Koopman, C. Lavigne, S. Lehtola, F. März, M. Müller,
   F. Musil, H. Neugebauer, J. Pisarek, C. Plett, P. Pracht, F. Pultar,
   J. Seibert, P. Shushkov, S. Spicher, M. Stahn, M. Steiner, T. Strunk,
   J. Stückrath, T. Rose, and J. Unsleber
   
 * started run on 2026/08/20 at 20:43:38.831     
   ID    Z sym.   atoms
    1    7 N      1, 17, 63, 72
    2    6 C      2-15, 18-26, 64, 66, 67, 73
    3    8 O      16, 27, 60, 65, 68
    4    1 H      28-59, 61, 62, 69-71, 74-76

           -------------------------------------------------
          |                Calculation Setup                |
           -------------------------------------------------

          program call               : C:\Users\Nayanika\Downloads\xtb-6.7.1pre-windows-x86_64\xtb-6.7.1\bin\xtb.exe D:\PhD_Thesis\LmrR_EVB\charges\fast_lmrr_5QM\xtb_preparation\stage2_five_xtb_protocols\GFN2_normal\TS2_1a_to_PS2_2\TS2_1a_to_PS2_2_PS_xtbopt.xyz --gfn 2 --chrg 0 --uhf 0 --hess --etemp 0
          coordinate file            : D:\PhD_Thesis\LmrR_EVB\charges\fast_lmrr_5QM\xtb_preparation\stage2_five_xtb_protocols\GFN2_normal\TS2_1a_to_PS2_2\TS2_1a_to_PS2_2_PS_xtbopt.xyz
          omp threads                :                     8


molecular fragmentation (1/2 indicates fragments):
111111111111111111111111112111111111111111111111121111111122221111111111
1111
# atoms in fragment 1/2:    70     6
 fragment masses (1/2) :      464.60       36.03
CMA distance (Bohr)    :   9.406
constraining FC (au)   :  0.0500

           -------------------------------------------------
          |                 G F N 2 - x T B                 |
           -------------------------------------------------

        Reference                      10.1021/acs.jctc.8b01176
      * Hamiltonian:
        H0-scaling (s, p, d)           1.850000    2.230000    2.230000
        zeta-weighting                 0.500000
      * Dispersion:
        s8                             2.700000
        a1                             0.520000
        a2                             5.000000
        s9                             5.000000
      * Repulsion:
        kExp                           1.500000    1.000000
        rExp                           1.000000
      * Coulomb:
        alpha                          2.000000
        third order                    shell-resolved
        anisotropic                    true
        a3                             3.000000
        a5                             4.000000
        cn-shift                       1.200000
        cn-exp                         4.000000
        max-rad                        5.000000

q/qsh data taken from xtbrestart
CAMM data taken from xtbrestart

          ...................................................
          :                      SETUP                      :
          :.................................................:
          :  # basis functions                 184          :
          :  # atomic orbitals                 184          :
          :  # shells                          112          :
          :  # electrons                       198          :
          :  max. iterations                   250          :
          :  Hamiltonian                  GFN2-xTB          :
          :  restarted?                       true          :
          :  GBSA solvation                  false          :
          :  PC potential                    false          :
          :  electronic temp.            0.0000000     K    :
          :  accuracy                    1.0000000          :
          :  -> integral cutoff          0.2500000E+02      :
          :  -> integral neglect         0.1000000E-07      :
          :  -> SCF convergence          0.1000000E-05 Eh   :
          :  -> wf. convergence          0.1000000E-03 e    :
          :  Broyden damping             0.4000000          :
          :  net charge                          0          :
          :  unpaired electrons                  0          :
          ...................................................

 iter      E             dE          RMSdq      gap      omega  full diag
   1   -111.8269518 -0.111827E+03  0.167E-06    3.41       0.0  T
   2   -111.8269518  0.213163E-12  0.111E-06    3.41   10305.3  T
   3   -111.8269518 -0.270006E-12  0.689E-07    3.41   16640.6  T

   *** convergence criteria satisfied after 3 iterations ***

         #    Occupation            Energy/Eh            Energy/eV
      -------------------------------------------------------------
         1        2.0000           -0.7134718             -19.4146
       ...           ...                  ...                  ...
        93        2.0000           -0.4055007             -11.0342
        94        2.0000           -0.4028404             -10.9618
        95        2.0000           -0.3982561             -10.8371
        96        2.0000           -0.3856061             -10.4929
        97        2.0000           -0.3768596             -10.2549
        98        2.0000           -0.3751156             -10.2074
        99        2.0000           -0.3561570              -9.6915 (HOMO)
       100                         -0.2308988              -6.2831 (LUMO)
       101                         -0.2285680              -6.2197
       102                         -0.2257539              -6.1431
       103                         -0.2176607              -5.9228
       104                         -0.2069337              -5.6310
       ...                                ...                  ...
       184                          0.7219083              19.6441
      -------------------------------------------------------------
                  HL-Gap            0.1252582 Eh            3.4084 eV
             Fermi-level            0.0000000 Eh            0.0000 eV

 SCC (total)                   0 d,  0 h,  0 min,  0.078 sec
 SCC setup                      ...        0 min,  0.000 sec (  0.000%)
 Dispersion                     ...        0 min,  0.000 sec (  0.000%)
 classical contributions        ...        0 min,  0.000 sec (  0.000%)
 integral evaluation            ...        0 min,  0.013 sec ( 16.667%)
 iterations                     ...        0 min,  0.046 sec ( 58.974%)
 molecular gradient             ...        0 min,  0.018 sec ( 23.077%)
 printout                       ...        0 min,  0.001 sec (  1.282%)

         :::::::::::::::::::::::::::::::::::::::::::::::::::::
         ::                     SUMMARY                     ::
         :::::::::::::::::::::::::::::::::::::::::::::::::::::
         :: total energy            -110.294917725168 Eh    ::
         :: gradient norm              0.000475806507 Eh/a0 ::
         :: HOMO-LUMO gap              3.408448633097 eV    ::
         ::.................................................::
         :: SCC energy              -111.824307672174 Eh    ::
         :: -> isotropic ES            0.184237711948 Eh    ::
         :: -> anisotropic ES          0.006650336611 Eh    ::
         :: -> anisotropic XC          0.040750994018 Eh    ::
         :: -> dispersion             -0.082189737761 Eh    ::
         :: repulsion energy           1.529389947006 Eh    ::
         :: add. restraining           0.000000000000 Eh    ::
         :: total charge               0.000000000000 e     ::
         :::::::::::::::::::::::::::::::::::::::::::::::::::::

           ------------------------------------------------- 
          |                Numerical Hessian                |
           ------------------------------------------------- 
step length          :   0.00500
SCC accuracy         :   0.30000
Hessian scale factor :   1.00000
frozen atoms in %    :   0.00000    0
RMS gradient         :   0.00048
estimated CPU  time     11.35 min
estimated wall time      1.61 min

writing file <hessian>.

 projected vibrational frequencies (cm⁻¹)
eigval :       -0.00    -0.00    -0.00     0.00     0.00     0.00
eigval :        4.29     9.48    12.25    19.59    22.04    28.14
eigval :       32.29    38.40    39.46    45.70    51.06    52.99
eigval :       62.46    64.21    69.70    72.19    73.79    87.79
eigval :       91.55    98.05   106.07   122.35   125.10   126.13
eigval :      141.76   144.16   150.95   164.99   168.71   174.62
eigval :      186.99   190.35   196.93   222.86   233.94   237.42
eigval :      240.07   252.22   270.22   287.20   289.28   291.72
eigval :      304.21   313.27   322.01   349.21   361.18   379.48
eigval :      385.76   398.39   411.23   415.35   423.29   444.41
eigval :      446.76   454.56   464.21   471.11   481.94   489.17
eigval :      494.57   525.76   531.71   542.30   553.34   580.31
eigval :      594.51   601.68   613.54   625.18   628.27   640.76
eigval :      646.34   656.85   688.10   696.97   704.38   725.00
eigval :      751.72   763.35   774.49   788.17   812.79   816.37
eigval :      859.92   864.36   869.71   870.52   871.97   879.93
eigval :      893.95   902.67   912.21   921.32   924.38   927.07
eigval :      934.69   952.88   977.88   991.47   991.80   998.05
eigval :     1005.76  1006.08  1023.38  1028.53  1034.83  1037.45
eigval :     1068.79  1081.84  1085.59  1096.35  1104.87  1109.58
eigval :     1117.49  1121.27  1125.84  1131.07  1140.07  1142.35
eigval :     1163.15  1164.37  1169.90  1177.53  1195.38  1201.91
eigval :     1211.57  1214.72  1217.56  1225.83  1230.67  1238.13
eigval :     1255.16  1259.66  1267.29  1274.31  1278.56  1282.92
eigval :     1289.88  1297.21  1309.84  1316.83  1319.55  1325.41
eigval :     1330.23  1344.30  1344.92  1367.14  1370.11  1373.48
eigval :     1390.68  1393.26  1399.87  1412.29  1416.25  1420.35
eigval :     1432.95  1435.78  1449.99  1456.66  1458.48  1462.54
eigval :     1466.22  1474.83  1475.26  1478.81  1484.69  1492.60
eigval :     1495.18  1495.89  1497.62  1507.15  1508.88  1539.05
eigval :     1565.97  1578.86  1580.64  1597.46  1609.85  1630.67
eigval :     1717.65  1759.95  2874.21  2916.52  2963.36  2970.25
eigval :     2971.50  2983.28  2985.37  2990.31  2990.81  2991.24
eigval :     2994.45  2998.52  3000.32  3002.60  3022.21  3023.13
eigval :     3024.04  3027.63  3031.61  3032.14  3039.65  3056.28
eigval :     3067.08  3069.68  3071.25  3076.66  3082.90  3084.30
eigval :     3088.88  3098.57  3114.83  3320.87  3345.96  3403.86
eigval :     3447.04  3458.94  3483.88  3533.59  3651.49  3656.93
           -------------------------------------------------
          |                Property Printout                |
           -------------------------------------------------

    * Orbital Energies and Occupations

         #    Occupation            Energy/Eh            Energy/eV
      -------------------------------------------------------------
         1        2.0000           -0.7134718             -19.4146
       ...           ...                  ...                  ...
        87        2.0000           -0.4175564             -11.3623
        88        2.0000           -0.4148369             -11.2883
        89        2.0000           -0.4140230             -11.2661
        90        2.0000           -0.4120986             -11.2138
        91        2.0000           -0.4089848             -11.1290
        92        2.0000           -0.4059179             -11.0456
        93        2.0000           -0.4055007             -11.0342
        94        2.0000           -0.4028404             -10.9618
        95        2.0000           -0.3982561             -10.8371
        96        2.0000           -0.3856061             -10.4929
        97        2.0000           -0.3768596             -10.2549
        98        2.0000           -0.3751156             -10.2074
        99        2.0000           -0.3561570              -9.6915 (HOMO)
       100                         -0.2308988              -6.2831 (LUMO)
       101                         -0.2285680              -6.2197
       102                         -0.2257539              -6.1431
       103                         -0.2176607              -5.9228
       104                         -0.2069337              -5.6310
       105                         -0.1931883              -5.2569
       106                         -0.1543655              -4.2005
       107                         -0.1046206              -2.8469
       108                         -0.0672788              -1.8307
       109                          0.0008647               0.0235
       110                          0.0012999               0.0354
       ...                                ...                  ...
       184                          0.7219083              19.6441
      -------------------------------------------------------------
                  HL-Gap            0.1252582 Eh            3.4084 eV
             Fermi-level            0.0000000 Eh            0.0000 eV

     #   Z          covCN         q      C6AA      α(0)
     1   7 N        2.685    -0.261    26.762     7.683
     2   6 C        2.906     0.074    26.339     8.415
     3   6 C        2.923    -0.047    29.155     8.855
     4   6 C        2.925    -0.038    28.952     8.824
     5   6 C        2.970     0.004    27.930     8.669
     6   6 C        2.924    -0.044    29.083     8.844
     7   6 C        2.922    -0.052    29.296     8.876
     8   6 C        3.811    -0.071    21.844     6.653
     9   6 C        3.798     0.019    20.252     6.408
    10   6 C        3.663     0.184    17.907     6.070
    11   6 C        3.808    -0.068    21.800     6.647
    12   6 C        3.855    -0.029    21.046     6.525
    13   6 C        3.805    -0.063    21.716     6.634
    14   6 C        3.801    -0.063    21.705     6.633
    15   6 C        3.752    -0.103    22.528     6.769
    16   8 O        1.654    -0.473    22.316     6.377
    17   7 N        2.785    -0.121    23.633     7.220
    18   6 C        3.069     0.042    26.997     8.520
    19   6 C        3.112    -0.025    28.473     8.741
    20   6 C        3.056    -0.050    29.185     8.860
    21   6 C        2.909    -0.055    29.372     8.887
    22   6 C        2.912    -0.049    29.223     8.864
    23   6 C        3.061     0.040    27.044     8.528
    24   6 C        2.924    -0.039    28.980     8.828
    25   6 C        2.919    -0.045    29.119     8.849
    26   6 C        3.754    -0.113    22.714     6.796
    27   8 O        1.610    -0.597    25.108     6.763
    28   1 H        0.860     0.146     1.430     1.873
    29   1 H        0.805     0.293     0.744     1.355
    30   1 H        0.926     0.043     2.403     2.424
    31   1 H        0.926     0.036     2.496     2.471
    32   1 H        0.925     0.031     2.576     2.510
    33   1 H        0.925     0.025     2.660     2.551
    34   1 H        0.924     0.065     2.143     2.289
    35   1 H        0.924     0.059     2.210     2.325
    36   1 H        0.924     0.063     2.168     2.303
    37   1 H        0.860     0.178     1.224     1.733
    38   1 H        0.860     0.206     1.078     1.626
    39   1 H        0.923     0.025     2.665     2.553
    40   1 H        0.924     0.050     2.321     2.382
    41   1 H        0.924     0.063     2.166     2.302
    42   1 H        0.924     0.040     2.453     2.449
    43   1 H        0.924     0.028     2.611     2.527
    44   1 H        0.924     0.022     2.707     2.573
    45   1 H        0.924     0.060     2.201     2.320
    46   1 H        0.925     0.030     2.584     2.514
    47   1 H        0.925     0.035     2.522     2.483
    48   1 H        0.925     0.031     2.575     2.510
    49   1 H        0.860     0.156     1.362     1.828
    50   1 H        0.805     0.274     0.805     1.409
    51   1 H        0.926     0.019     2.746     2.592
    52   1 H        0.926     0.040     2.444     2.445
    53   1 H        0.926     0.024     2.678     2.559
    54   1 H        0.926     0.024     2.666     2.553
    55   1 H        0.925     0.055     2.260     2.351
    56   1 H        0.924     0.048     2.347     2.396
    57   1 H        0.924     0.042     2.422     2.434
    58   1 H        0.925     0.048     2.343     2.394
    59   1 H        0.805     0.283     0.775     1.383
    60   8 O        1.610    -0.600    25.193     6.774
    61   1 H        0.804     0.314     0.681     1.296
    62   1 H        0.804     0.304     0.708     1.322
    63   7 N        2.692    -0.184    24.983     7.423
    64   6 C        2.752     0.264    22.554     7.777
    65   8 O        0.858    -0.436    22.414     6.347
    66   6 C        3.757    -0.143    23.309     6.883
    67   6 C        2.749     0.277    22.305     7.733
    68   8 O        0.859    -0.454    22.794     6.401
    69   1 H        0.925     0.055     2.259     2.350
    70   1 H        0.925     0.060     2.200     2.319
    71   1 H        0.925     0.079     1.989     2.205
    72   7 N        2.686    -0.176    24.800     7.396
    73   6 C        3.690    -0.043    21.530     6.640
    74   1 H        0.924     0.053     2.286     2.364
    75   1 H        0.924     0.050     2.319     2.382
    76   1 H        0.925     0.082     1.955     2.187

 Mol. C6AA /au·bohr⁶  :      55559.078546
 Mol. C8AA /au·bohr⁸  :    1265600.728206
 Mol. α(0) /au        :        361.953853


Wiberg/Mayer (AO) data.
largest (>0.10) Wiberg bond orders for each atom

 ---------------------------------------------------------------------------
     #   Z sym  total        # sym  WBO       # sym  WBO       # sym  WBO
 ---------------------------------------------------------------------------
     1   7 N    3.160 --     2 C    1.051    10 C    0.995    28 H    0.946
     2   6 C    3.973 --     7 C    1.393     3 C    1.375     1 N    1.051
                             5 C    0.100
     3   6 C    3.991 --     4 C    1.465     2 C    1.375    30 H    0.965
                             6 C    0.105
     4   6 C    3.991 --     3 C    1.465     5 C    1.397    31 H    0.968
                             7 C    0.107
     5   6 C    3.988 --     6 C    1.415     4 C    1.397     8 C    1.010
                             2 C    0.100
     6   6 C    3.990 --     7 C    1.443     5 C    1.415    32 H    0.968
                             3 C    0.105
     7   6 C    3.990 --     6 C    1.443     2 C    1.393    33 H    0.968
                             4 C    0.107
     8   6 C    3.991 --     5 C    1.010     9 C    0.983    34 H    0.970
                            35 H    0.962
     9   6 C    3.964 --     8 C    0.983    63 N    0.975    36 H    0.951
                            64 C    0.915
    10   6 C    3.939 --     1 N    0.995    11 C    0.993    39 H    0.956
                            16 O    0.944
    11   6 C    3.991 --    10 C    0.993    12 C    0.980    40 H    0.969
                            58 H    0.968
    12   6 C    3.991 --    20 C    1.005    13 C    0.984    11 C    0.980
                            41 H    0.954
    13   6 C    3.995 --    14 C    1.008    12 C    0.984    42 H    0.977
                            43 H    0.974
    14   6 C    3.995 --    15 C    1.019    13 C    1.008    44 H    0.976
                            45 H    0.972
    15   6 C    3.996 --    14 C    1.019    47 H    0.988    48 H    0.988
                            46 H    0.987
    16   8 O    1.978 --    10 C    0.944    29 H    0.897
    17   7 N    3.526 --    18 C    1.174    23 C    1.170    49 H    0.946
    18   6 C    3.958 --    21 C    1.343    19 C    1.244    17 N    1.174
    19   6 C    3.983 --    22 C    1.332    18 C    1.244    20 C    1.201
    20   6 C    3.972 --    23 C    1.553    19 C    1.201    12 C    1.005
    21   6 C    3.988 --    24 C    1.487    18 C    1.343    51 H    0.969
                            22 C    0.111
    22   6 C    3.989 --    25 C    1.500    19 C    1.332    52 H    0.963
                            21 C    0.111
    23   6 C    3.950 --    20 C    1.553    17 N    1.170    26 C    1.029
    24   6 C    3.988 --    21 C    1.487    25 C    1.375    53 H    0.972
    25   6 C    3.990 --    22 C    1.500    24 C    1.375    54 H    0.972
    26   6 C    3.995 --    23 C    1.029    55 H    0.977    57 H    0.975
                            56 H    0.969
    27   8 O    1.855 --    59 H    0.918    61 H    0.859
    28   1 H    0.978 --     1 N    0.946
    29   1 H    0.914 --    16 O    0.897
    30   1 H    0.998 --     3 C    0.965
    31   1 H    0.998 --     4 C    0.968
    32   1 H    0.999 --     6 C    0.968
    33   1 H    0.999 --     7 C    0.968
    34   1 H    0.995 --     8 C    0.970
    35   1 H    0.995 --     8 C    0.962
    36   1 H    0.996 --     9 C    0.951
    37   1 H    0.968 --    63 N    0.936
    38   1 H    0.958 --    72 N    0.907
    39   1 H    0.999 --    10 C    0.956
    40   1 H    0.997 --    11 C    0.969
    41   1 H    0.996 --    12 C    0.954
    42   1 H    0.998 --    13 C    0.977
    43   1 H    0.999 --    13 C    0.974
    44   1 H    1.000 --    14 C    0.976
    45   1 H    0.996 --    14 C    0.972
    46   1 H    0.999 --    15 C    0.987
    47   1 H    0.999 --    15 C    0.988
    48   1 H    0.999 --    15 C    0.988
    49   1 H    0.975 --    17 N    0.946
    50   1 H    0.925 --    60 O    0.922
    51   1 H    0.999 --    21 C    0.969
    52   1 H    0.998 --    22 C    0.963
    53   1 H    0.999 --    24 C    0.972
    54   1 H    0.999 --    25 C    0.972
    55   1 H    0.996 --    26 C    0.977
    56   1 H    0.994 --    26 C    0.969
    57   1 H    0.996 --    26 C    0.975
    58   1 H    0.998 --    11 C    0.968
    59   1 H    0.920 --    27 O    0.918
    60   8 O    1.825 --    50 H    0.922    62 H    0.871
    61   1 H    0.901 --    27 O    0.859
    62   1 H    0.907 --    60 O    0.871
    63   7 N    3.447 --    67 C    1.266     9 C    0.975    37 H    0.936
                            68 O    0.191
    64   6 C    3.957 --    65 O    1.678    72 N    1.292     9 C    0.915
    65   8 O    2.010 --    64 C    1.678    72 N    0.212
    66   6 C    3.992 --    67 C    0.984    71 H    0.981    69 H    0.973
                            70 H    0.967
    67   6 C    3.949 --    68 O    1.651    63 N    1.266    66 C    0.984
    68   8 O    1.993 --    67 C    1.651    63 N    0.191
    69   1 H    0.997 --    66 C    0.973
    70   1 H    0.996 --    66 C    0.967
    71   1 H    0.993 --    66 C    0.981
    72   7 N    3.467 --    64 C    1.292    73 C    1.006    38 H    0.907
                            65 O    0.212
    73   6 C    3.965 --    72 N    1.006    74 H    0.977    76 H    0.977
                            75 H    0.976
    74   1 H    0.997 --    73 C    0.977
    75   1 H    0.997 --    73 C    0.976
    76   1 H    0.993 --    73 C    0.977
 ---------------------------------------------------------------------------

Topologies differ in total number of bonds
Writing topology from bond orders to xtbtopo.mol

molecular dipole:
                 x           y           z       tot (Debye)
 q only:       -0.107      -0.405       0.929
   full:       -0.569      -0.810       1.113       3.786
molecular quadrupole (traceless):
                xx          xy          yy          xz          yz          zz
 q only:      -14.315      19.761     -10.233      -5.979      16.233      24.548
  q+dip:      -19.953      23.316     -16.317      -8.876      28.991      36.270
   full:      -21.874      22.798     -14.094      -9.078      25.186      35.968

           -------------------------------------------------
          |               Frequency Printout                |
           -------------------------------------------------
 projected vibrational frequencies (cm⁻¹)
eigval :       -0.00    -0.00    -0.00     0.00     0.00     0.00
eigval :        4.29     9.48    12.25    19.59    22.04    28.14
eigval :       32.29    38.40    39.46    45.70    51.06    52.99
eigval :       62.46    64.21    69.70    72.19    73.79    87.79
eigval :       91.55    98.05   106.07   122.35   125.10   126.13
eigval :      141.76   144.16   150.95   164.99   168.71   174.62
eigval :      186.99   190.35   196.93   222.86   233.94   237.42
eigval :      240.07   252.22   270.22   287.20   289.28   291.72
eigval :      304.21   313.27   322.01   349.21   361.18   379.48
eigval :      385.76   398.39   411.23   415.35   423.29   444.41
eigval :      446.76   454.56   464.21   471.11   481.94   489.17
eigval :      494.57   525.76   531.71   542.30   553.34   580.31
eigval :      594.51   601.68   613.54   625.18   628.27   640.76
eigval :      646.34   656.85   688.10   696.97   704.38   725.00
eigval :      751.72   763.35   774.49   788.17   812.79   816.37
eigval :      859.92   864.36   869.71   870.52   871.97   879.93
eigval :      893.95   902.67   912.21   921.32   924.38   927.07
eigval :      934.69   952.88   977.88   991.47   991.80   998.05
eigval :     1005.76  1006.08  1023.38  1028.53  1034.83  1037.45
eigval :     1068.79  1081.84  1085.59  1096.35  1104.87  1109.58
eigval :     1117.49  1121.27  1125.84  1131.07  1140.07  1142.35
eigval :     1163.15  1164.37  1169.90  1177.53  1195.38  1201.91
eigval :     1211.57  1214.72  1217.56  1225.83  1230.67  1238.13
eigval :     1255.16  1259.66  1267.29  1274.31  1278.56  1282.92
eigval :     1289.88  1297.21  1309.84  1316.83  1319.55  1325.41
eigval :     1330.23  1344.30  1344.92  1367.14  1370.11  1373.48
eigval :     1390.68  1393.26  1399.87  1412.29  1416.25  1420.35
eigval :     1432.95  1435.78  1449.99  1456.66  1458.48  1462.54
eigval :     1466.22  1474.83  1475.26  1478.81  1484.69  1492.60
eigval :     1495.18  1495.89  1497.62  1507.15  1508.88  1539.05
eigval :     1565.97  1578.86  1580.64  1597.46  1609.85  1630.67
eigval :     1717.65  1759.95  2874.21  2916.52  2963.36  2970.25
eigval :     2971.50  2983.28  2985.37  2990.31  2990.81  2991.24
eigval :     2994.45  2998.52  3000.32  3002.60  3022.21  3023.13
eigval :     3024.04  3027.63  3031.61  3032.14  3039.65  3056.28
eigval :     3067.08  3069.68  3071.25  3076.66  3082.90  3084.30
eigval :     3088.88  3098.57  3114.83  3320.87  3345.96  3403.86
eigval :     3447.04  3458.94  3483.88  3533.59  3651.49  3656.93
 reduced masses (amu)
   1: 11.90   2: 11.89   3: 11.60   4: 12.11   5: 12.05   6: 12.08   7: 11.31   8: 11.29
   9:  9.55  10: 11.81  11: 11.63  12: 11.86  13: 11.41  14: 11.45  15: 12.03  16: 10.12
  17: 12.15  18: 10.87  19: 12.65  20: 12.57  21: 11.22  22: 11.51  23:  9.70  24:  9.20
  25:  4.80  26:  9.94  27:  6.17  28: 10.23  29:  6.02  30:  6.15  31: 10.73  32: 11.14
  33: 10.92  34: 11.29  35:  9.86  36:  4.73  37: 11.40  38:  8.73  39:  4.60  40: 10.87
  41:  3.53  42: 12.30  43: 10.49  44:  9.45  45:  8.85  46:  8.38  47:  4.57  48: 11.89
  49:  8.62  50:  9.80  51: 11.96  52: 10.18  53:  9.26  54:  6.94  55:  8.35  56:  7.68
  57:  9.66  58:  9.31  59:  9.34  60:  8.40  61:  4.97  62:  3.67  63:  9.35  64:  9.13
  65:  6.79  66: 11.00  67: 10.55  68:  4.62  69: 10.23  70:  7.12  71:  7.52  72:  8.21
  73: 10.98  74: 10.69  75: 10.89  76:  7.81  77:  5.02  78: 10.34  79:  8.66  80: 10.74
  81:  6.16  82: 10.52  83: 11.54  84: 11.01  85:  9.62  86: 10.56  87:  3.52  88:  2.54
  89:  5.84  90:  6.51  91:  9.33  92: 11.03  93:  6.30  94:  3.50  95:  7.13  96:  9.24
  97:  4.06  98:  3.80  99:  2.87 100:  9.09 101:  2.91 102:  4.08 103:  8.89 104:  6.68
 105: 10.66 106:  5.78 107:  5.26 108:  7.67 109:  8.88 110:  6.15 111:  6.38 112:  9.01
 113:  4.39 114:  8.46 115:  6.28 116:  7.03 117:  9.23 118:  6.88 119:  3.75 120:  8.47
 121:  7.87 122:  7.71 123:  7.39 124:  7.02 125:  5.79 126:  4.84 127:  4.28 128:  5.74
 129:  4.89 130:  2.69 131:  2.53 132:  4.97 133:  5.36 134:  5.87 135:  4.60 136:  5.99
 137:  4.52 138:  4.35 139:  4.38 140:  4.02 141:  3.32 142:  7.13 143:  4.31 144:  5.58
 145:  2.44 146:  4.78 147:  6.45 148:  9.64 149:  4.89 150:  5.04 151:  6.62 152:  6.82
 153:  6.29 154:  9.21 155:  6.69 156:  3.56 157:  6.95 158:  2.63 159:  5.04 160:  7.72
 161:  3.27 162:  9.85 163:  7.97 164:  8.52 165: 11.13 166:  1.71 167:  1.97 168:  1.57
 169:  1.60 170:  2.08 171:  1.78 172:  1.77 173:  2.55 174:  2.04 175:  1.84 176: 10.45
 177:  9.60 178:  1.58 179:  1.56 180:  2.10 181:  2.11 182: 11.43 183: 11.48 184: 11.67
 185: 11.54 186: 11.65 187: 13.15 188: 13.19 189:  1.72 190:  1.75 191:  1.81 192:  1.78
 193:  1.92 194:  1.92 195:  1.89 196:  1.47 197:  1.67 198:  1.76 199:  1.69 200:  1.56
 201:  1.70 202:  1.53 203:  1.78 204:  1.88 205:  1.83 206:  1.50 207:  1.84 208:  1.73
 209:  1.48 210:  1.78 211:  1.75 212:  1.78 213:  1.87 214:  1.79 215:  1.81 216:  1.70
 217:  1.87 218:  1.88 219:  1.85 220:  1.88 221:  1.81 222:  1.86 223:  1.87 224:  1.85
 225:  1.86 226:  1.87 227:  1.84 228:  1.83
 IR intensities (km·mol⁻¹)
   1:  0.04   2:  0.10   3:  0.04   4:  0.05   5:  0.02   6:  0.02   7:  0.54   8:  0.72
   9:  0.66  10:  0.73  11:  0.08  12:  0.39  13:  2.62  14:  0.12  15:  0.92  16:  0.08
  17:  3.86  18:  0.25  19:  3.44  20:  1.11  21:  5.84  22:  1.59  23:  9.14  24:  2.94
  25:  1.31  26: 10.57  27:  1.95  28:  1.31  29:  0.89  30:  2.82  31:  0.13  32:  3.76
  33:  5.72  34:  3.52  35: 29.09  36: 66.54  37:  3.81  38: 33.34  39: 72.28  40: 42.85
  41:  0.20  42:  7.11  43:  2.78  44:  9.08  45: 12.09  46: 51.22  47:146.83  48:  2.80
  49:  3.37  50:  1.10  51: 10.82  52:  3.61  53:  5.28  54: 12.19  55: 25.82  56: 24.23
  57: 23.51  58:  0.88  59:  6.86  60: 35.33  61: 92.75  62:101.54  63: 11.90  64:  8.97
  65: 96.78  66:  0.50  67:  1.51  68: 84.14  69:  9.68  70: 81.70  71: 15.37  72:  3.98
  73:  7.15  74: 22.80  75: 10.13  76: 65.34  77:204.94  78: 10.43  79: 57.54  80:  8.01
  81: 37.20  82:  6.23  83:  0.67  84:  1.94  85:  4.10  86: 39.97  87: 29.15  88: 21.35
  89: 18.70  90: 72.69  91: 15.36  92:  0.33  93:  1.68  94:  0.80  95: 11.81  96: 14.65
  97:  6.00  98:  1.08  99:  0.28 100:  0.58 101:  0.67 102:  0.42 103:  0.86 104: 17.29
 105: 18.39 106:  5.72 107:  6.13 108: 11.94 109: 46.85 110: 15.32 111: 15.34 112: 39.14
 113:  6.77 114: 29.11 115:  0.51 116: 24.26 117:  6.89 118: 60.98 119:  0.35 120:  1.83
 121:  4.81 122: 33.43 123: 10.11 124: 18.45 125:  1.82 126:  1.79 127:  5.71 128:  0.88
 129: 10.99 130:  5.83 131: 14.17 132:  2.32 133:  7.37 134: 34.86 135:  8.55 136: 17.41
 137:  9.92 138: 79.51 139: 46.58 140: 27.72 141:  0.74 142: 28.53 143:  4.94 144: 51.70
 145:  0.39 146:  2.00 147: 29.86 148: 41.99 149:  1.67 150:  1.62 151:  4.40 152: 22.24
 153: 33.46 154: 13.93 155:  1.40 156: 19.13 157: 16.96 158:  2.61 159: 10.52 160: 13.18
 161:  3.10 162:244.76 163: 35.92 164:202.82 165: 58.36 166:  4.59 167:  3.18 168:  9.88
 169: 14.39 170:  0.47 171:  3.43 172:  1.45 173: 27.89 174:  1.91 175:  0.82 176: 10.29
 177: 85.49 178:  2.12 179:  1.85 180:135.30 181:160.08 182:  5.33 183:  0.43 184:  6.23
 185: 16.45 186: 19.71 187:299.42 188:577.58 189: 52.96 190: 12.91 191: 24.08 192: 37.47
 193: 28.35 194: 17.42 195: 15.30 196: 49.93 197: 21.87 198: 44.91 199: 35.81 200: 12.23
 201:  0.30 202: 46.11 203:  4.09 204: 20.46 205: 63.84 206:  7.99 207: 56.16 208:  5.68
 209: 41.33 210: 25.41 211:  3.32 212: 17.31 213: 55.25 214: 35.16 215: 20.83 216:  8.54
 217: 90.76 218: 27.28 219: 24.48 220:129.73 221:  5.30 222:463.07 223:204.32 224: 14.17
 225:  8.27 226: 12.60 227:  6.17 228: 15.25
 Raman intensities (Ä⁴*amu⁻¹)
   1:  0.00   2:  0.00   3:  0.00   4:  0.00   5:  0.00   6:  0.00   7:  0.00   8:  0.00
   9:  0.00  10:  0.00  11:  0.00  12:  0.00  13:  0.00  14:  0.00  15:  0.00  16:  0.00
  17:  0.00  18:  0.00  19:  0.00  20:  0.00  21:  0.00  22:  0.00  23:  0.00  24:  0.00
  25:  0.00  26:  0.00  27:  0.00  28:  0.00  29:  0.00  30:  0.00  31:  0.00  32:  0.00
  33:  0.00  34:  0.00  35:  0.00  36:  0.00  37:  0.00  38:  0.00  39:  0.00  40:  0.00
  41:  0.00  42:  0.00  43:  0.00  44:  0.00  45:  0.00  46:  0.00  47:  0.00  48:  0.00
  49:  0.00  50:  0.00  51:  0.00  52:  0.00  53:  0.00  54:  0.00  55:  0.00  56:  0.00
  57:  0.00  58:  0.00  59:  0.00  60:  0.00  61:  0.00  62:  0.00  63:  0.00  64:  0.00
  65:  0.00  66:  0.00  67:  0.00  68:  0.00  69:  0.00  70:  0.00  71:  0.00  72:  0.00
  73:  0.00  74:  0.00  75:  0.00  76:  0.00  77:  0.00  78:  0.00  79:  0.00  80:  0.00
  81:  0.00  82:  0.00  83:  0.00  84:  0.00  85:  0.00  86:  0.00  87:  0.00  88:  0.00
  89:  0.00  90:  0.00  91:  0.00  92:  0.00  93:  0.00  94:  0.00  95:  0.00  96:  0.00
  97:  0.00  98:  0.00  99:  0.00 100:  0.00 101:  0.00 102:  0.00 103:  0.00 104:  0.00
 105:  0.00 106:  0.00 107:  0.00 108:  0.00 109:  0.00 110:  0.00 111:  0.00 112:  0.00
 113:  0.00 114:  0.00 115:  0.00 116:  0.00 117:  0.00 118:  0.00 119:  0.00 120:  0.00
 121:  0.00 122:  0.00 123:  0.00 124:  0.00 125:  0.00 126:  0.00 127:  0.00 128:  0.00
 129:  0.00 130:  0.00 131:  0.00 132:  0.00 133:  0.00 134:  0.00 135:  0.00 136:  0.00
 137:  0.00 138:  0.00 139:  0.00 140:  0.00 141:  0.00 142:  0.00 143:  0.00 144:  0.00
 145:  0.00 146:  0.00 147:  0.00 148:  0.00 149:  0.00 150:  0.00 151:  0.00 152:  0.00
 153:  0.00 154:  0.00 155:  0.00 156:  0.00 157:  0.00 158:  0.00 159:  0.00 160:  0.00
 161:  0.00 162:  0.00 163:  0.00 164:  0.00 165:  0.00 166:  0.00 167:  0.00 168:  0.00
 169:  0.00 170:  0.00 171:  0.00 172:  0.00 173:  0.00 174:  0.00 175:  0.00 176:  0.00
 177:  0.00 178:  0.00 179:  0.00 180:  0.00 181:  0.00 182:  0.00 183:  0.00 184:  0.00
 185:  0.00 186:  0.00 187:  0.00 188:  0.00 189:  0.00 190:  0.00 191:  0.00 192:  0.00
 193:  0.00 194:  0.00 195:  0.00 196:  0.00 197:  0.00 198:  0.00 199:  0.00 200:  0.00
 201:  0.00 202:  0.00 203:  0.00 204:  0.00 205:  0.00 206:  0.00 207:  0.00 208:  0.00
 209:  0.00 210:  0.00 211:  0.00 212:  0.00 213:  0.00 214:  0.00 215:  0.00 216:  0.00
 217:  0.00 218:  0.00 219:  0.00 220:  0.00 221:  0.00 222:  0.00 223:  0.00 224:  0.00
 225:  0.00 226:  0.00 227:  0.00 228:  0.00
 output can be read by thermo (or use thermo option).
 writing <g98.out> molden fake output.
 recommended (thermochemical) frequency scaling factor: 1.0
           -------------------------------------------------
          |             Thermodynamic Functions             |
           -------------------------------------------------

Refinement of some symmetry elements was terminated before convergence was reached.
Some symmetry elements may remain unidentified.
Molecule has no symmetry elements
It seems to be the C1 point group
c1  symmetry found (for desy threshold:  0.10E+00) used in thermo

          ...................................................
          :                      SETUP                      :
          :.................................................:
          :  # frequencies                         222      :
          :  # imaginary freq.                       0      :
          :  linear?                             false      :
          :  only rotor calc.                    false      :
          :  symmetry                               c1      :
          :  rotational number                       1      :
          :  scaling factor                  1.0000000      :
          :  rotor cutoff                   50.0000000 cm⁻¹ :
          :  imag. cutoff                  -20.0000000 cm⁻¹ :
          :.................................................:

    mode    ω/cm⁻¹     T·S(HO)/kcal·mol⁻¹    T·S(FR)/kcal·mol⁻¹   T·S(vib)
   ------------------------------------------------------------------------
       1      4.29    -2.88958 (  0.01%)    -1.78376 ( 99.99%)    -1.78382
       2      9.48    -2.42039 (  0.13%)    -1.54922 ( 99.87%)    -1.55034
       3     12.25    -2.26834 (  0.36%)    -1.47319 ( 99.64%)    -1.47605
       4     19.59    -1.99021 (  2.30%)    -1.33408 ( 97.70%)    -1.34919
       5     22.04    -1.92038 (  3.64%)    -1.29914 ( 96.36%)    -1.32176
       6     28.14    -1.77585 (  9.12%)    -1.22679 ( 90.88%)    -1.27687
       7     32.29    -1.69459 ( 14.81%)    -1.18609 ( 85.19%)    -1.26141
       8     38.40    -1.59210 ( 25.81%)    -1.13473 ( 74.19%)    -1.25278
       9     39.46    -1.57608 ( 27.94%)    -1.12670 ( 72.06%)    -1.25226
      10     45.70    -1.48936 ( 41.10%)    -1.08318 ( 58.90%)    -1.25013
      11     51.06    -1.42389 ( 52.10%)    -1.05030 ( 47.90%)    -1.24496
      12     52.99    -1.40203 ( 55.79%)    -1.03931 ( 44.21%)    -1.24167
      13     62.46    -1.30526 ( 70.89%)    -0.99062 ( 29.11%)    -1.21367
      14     64.21    -1.28907 ( 73.11%)    -0.98246 ( 26.89%)    -1.20663
      15     69.70    -1.24080 ( 79.07%)    -0.95812 ( 20.93%)    -1.18163
      16     72.19    -1.22028 ( 81.29%)    -0.94776 ( 18.71%)    -1.16929
      17     73.79    -1.20735 ( 82.59%)    -0.94123 ( 17.41%)    -1.16103
      18     87.79    -1.10576 ( 90.48%)    -0.88978 (  9.52%)    -1.08520
      19     91.55    -1.08129 ( 91.83%)    -0.87736 (  8.17%)    -1.06463
      20     98.05    -1.04137 ( 93.67%)    -0.85705 (  6.33%)    -1.02969
      21    106.07    -0.99570 ( 95.29%)    -0.83375 (  4.71%)    -0.98808
      22    122.35    -0.91323 ( 97.29%)    -0.79146 (  2.71%)    -0.90992
      23    125.10    -0.90041 ( 97.51%)    -0.78486 (  2.49%)    -0.89753
      24    126.13    -0.89569 ( 97.59%)    -0.78242 (  2.41%)    -0.89296
      25    141.76    -0.82885 ( 98.48%)    -0.74783 (  1.52%)    -0.82762
      26    144.16    -0.81928 ( 98.57%)    -0.74285 (  1.43%)    -0.81819
      27    150.95    -0.79316 ( 98.81%)    -0.72923 (  1.19%)    -0.79240
      28    164.99    -0.74294 ( 99.16%)    -0.70288 (  0.84%)    -0.74260
      29    168.71    -0.73041 ( 99.23%)    -0.69627 (  0.77%)    -0.73015
      30    174.62    -0.71114 ( 99.33%)    -0.68607 (  0.67%)    -0.71097
      31    186.99    -0.67306 ( 99.49%)    -0.66579 (  0.51%)    -0.67302
      32    190.35    -0.66320 ( 99.53%)    -0.66051 (  0.47%)    -0.66318
      33    196.93    -0.64447 ( 99.59%)    -0.65045 (  0.41%)    -0.64450
      34    222.86    -0.57714 ( 99.75%)    -0.61381 (  0.25%)    -0.57723
      35    233.94    -0.55113 ( 99.79%)    -0.59943 (  0.21%)    -0.55123
      36    237.42    -0.54327 ( 99.80%)    -0.59506 (  0.20%)    -0.54337
      37    240.07    -0.53738 ( 99.81%)    -0.59177 (  0.19%)    -0.53748
      38    252.22    -0.51133 ( 99.85%)    -0.57715 (  0.15%)    -0.51143
      39    270.22    -0.47549 ( 99.88%)    -0.55673 (  0.12%)    -0.47559
      40    287.20    -0.44437 ( 99.91%)    -0.53867 (  0.09%)    -0.44446
      41    289.28    -0.44071 ( 99.91%)    -0.53653 (  0.09%)    -0.44080
      42    291.72    -0.43649 ( 99.91%)    -0.53405 (  0.09%)    -0.43657
   ------------------------------------------------------------------------

   temp. (K)  partition function   enthalpy   heat capacity  entropy
                                   cal/mol     cal/K/mol   cal/K/mol   J/K/mol
 298.15  VIB  0.499E+23            25202.441    138.602    166.325
         ROT  0.418E+08              888.752      2.981     37.852
         INT  0.209E+31            26091.194    141.582    204.177
         TR   0.108E+29             1481.254      4.968     44.499
         TOT                       27572.4477   146.5506   248.6762  1040.4613

       T/K    H(0)-H(T)+PV         H(T)/Eh          T*S/Eh         G(T)/Eh
   ------------------------------------------------------------------------
    298.15    0.439395E-01    0.671409E+00    0.118154E+00    0.553255E+00
   ------------------------------------------------------------------------

         :::::::::::::::::::::::::::::::::::::::::::::::::::::
         ::                  THERMODYNAMIC                  ::
         :::::::::::::::::::::::::::::::::::::::::::::::::::::
         :: total free energy        -109.741662603419 Eh   ::
         ::.................................................::
         :: total energy             -110.294917725168 Eh   ::
         :: zero point energy           0.627469729830 Eh   ::
         :: G(RRHO) w/o ZPVE           -0.074214608081 Eh   ::
         :: G(RRHO) contrib.            0.553255121749 Eh   ::
         :::::::::::::::::::::::::::::::::::::::::::::::::::::

           -------------------------------------------------
          | TOTAL ENERGY             -110.294917725168 Eh   |
          | TOTAL ENTHALPY           -109.623508503000 Eh   |
          | TOTAL FREE ENERGY        -109.741662603419 Eh   |
          | GRADIENT NORM               0.000475799311 Eh/α |
          | HOMO-LUMO GAP               3.408448611494 eV   |
           -------------------------------------------------

------------------------------------------------------------------------
 * finished run on 2026/08/20 at 20:43:50.974     
------------------------------------------------------------------------
 total:
 * wall-time:     0 d,  0 h,  0 min, 12.141 sec
 *  cpu-time:     0 d,  0 h,  1 min, 23.391 sec
 * ratio c/w:     6.869 speedup
 SCF:
 * wall-time:     0 d,  0 h,  0 min,  0.078 sec
 *  cpu-time:     0 d,  0 h,  0 min,  0.188 sec
 * ratio c/w:     2.404 speedup
 analytical hessian:
 * wall-time:     0 d,  0 h,  0 min, 12.007 sec
 *  cpu-time:     0 d,  0 h,  1 min, 23.156 sec
 * ratio c/w:     6.926 speedup



===== STDERR =====

normal termination of xtb
