76
 xtb: 6.7.1pre (5071a88)
N            0.21301324385199        0.45782727406063       -0.49503478380326
C            1.54764540502458        0.16924852346253       -0.27296726900470
C            2.27789250529487        0.70667705393624        0.78841140424282
C            3.62862315674640        0.45248769976076        0.90333147981001
C            4.28416161798267       -0.37543355644177        0.00112595118409
C            3.52673064690373       -1.01439769049093       -0.97374814010856
C            2.18062141971244       -0.75139755934552       -1.11143854143349
C            5.78216716349425       -0.42767895559828       -0.03949288773748
C            6.24934933725218        0.71953719962813       -0.95610586587543
C           -0.43847236209607        1.65098383931494       -0.24306298921052
C            0.07641298553845        2.82376641909442        0.12795811909802
C           -0.79725381739058        4.01789587716305        0.41007184255146
C           -0.01143041728457        5.33749457890180        0.36897358326008
C            0.53533584480608        5.65912420401171       -1.02012528117220
C            1.19916873876885        7.03039895184422       -1.05182410187355
O            0.29431049411033        0.13781207950012       -3.51745679375657
N           -1.96694975198327        3.55129378653441        3.90103308554812
C           -3.16776562713417        3.80974945724798        3.30316678901978
C           -2.91339625570292        4.01332773484684        1.92345818819701
C           -1.50196426325084        3.86473267853537        1.73178479242267
C           -4.44689666990396        3.89744068085370        3.83542274980944
C           -3.98238365263699        4.30279551657885        1.07233658456751
C           -0.96572192295024        3.58335836755187        2.96046879670113
C           -5.48022748744577        4.19063724580850        2.97050206013103
C           -5.24900708098594        4.38897445158399        1.60620376519013
C            0.43376637874342        3.32180258880134        3.39140846792666
O            1.48017393769116        2.50246419532910       -2.83876771158031
H           -0.18910091232326       -0.10847048929182       -1.20734100251246
H           -0.23882548068401        0.30256588947585       -4.26486885638527
H            1.80245339095934        1.32668367476329        1.53030297363683
H            4.21182334020988        0.92657868797015        1.70005112280177
H            4.01081875458646       -1.71705601982590       -1.63939464032524
H            1.61676114015615       -1.23197373465542       -1.87733984804845
H            6.16217930217402       -1.36755421408718       -0.44489480257788
H            6.24005054728256       -0.26911886637836        0.93830753474846
H            5.84793961561870        1.67281503098767       -0.59230226779299
H            5.99774081132484       -0.28708452166036       -2.78151003480710
H            7.49593257453472        2.57834820055392       -2.05827662276119
H           -1.50031198657848        1.56104489088928       -0.37562723585182
H            1.14553768420647        2.94643446261584        0.28032503137484
H           -1.56281551688981        4.06087921437822       -0.36056898272131
H           -0.66694598327899        6.14061746625851        0.69036516777834
H            0.81246374949249        5.28651223035280        1.11111699255126
H            1.29759040521585        4.89475165264771       -1.28348430400614
H           -0.24341624440906        5.62481539887127       -1.73171849857436
H            1.62117010271920        7.23793637410499       -2.00927574334635
H            0.51054102447876        7.79563115199753       -0.75463196195979
H            2.04836943706252        7.05921533514445       -0.30671136707780
H           -1.87450820641463        3.34202833045914        4.87085469607644
H           -2.44600236843407        6.24924547047306        2.29085292487072
H           -4.66086531467120        3.75417766385365        4.85899849332438
H           -3.80366903257638        4.49253754322598       -0.00176501811689
H           -6.50479760940266        4.31224857864292        3.30632092482373
H           -6.07719430775189        4.66758639988058        0.92409533273986
H            1.10689733129065        3.50524650843786        2.60869939321633
H            0.65531097220687        3.88554038255340        4.27387601376956
H            0.51062042180690        2.22968094321929        3.67661399631108
H            2.41005951027641        2.43491269360607       -2.58163882538705
H            1.00201467301757        2.77066780673011       -2.02999114110343
O           -2.68390238857935        7.17973540161216        2.32323841681524
H            0.74229557547273        0.96153427652306       -3.27257806352715
H           -3.62343320905018        7.23499272116751        2.23274196009520
N            5.71901245854905        0.55352128645624       -2.29590156134222
C            7.77869863931743        0.80963587184704       -1.04315923101302
O            8.52434745391066       -0.03604219041990       -0.59288776068634
C            4.03871507659588        0.69481672085269       -4.02531102666240
C            4.61260686571729        1.19768405479041       -2.72672285251452
O            4.13661659506004        2.14726836652960       -2.12330792665594
H            3.12714278952328        0.11452444003868       -3.78817759734846
H            4.72126338295694        0.05904362709616       -4.56810707172233
H            3.72062209735806        1.52974202849698       -4.63982540915825
N            8.19185182490806        1.91647559884224       -1.68837291982892
C            9.58255788561379        2.21499493452238       -1.92955772239564
H            9.85519076160599        3.17647288944802       -1.49850496316849
H            9.77488478594202        2.28846428531174       -3.03735176778338
H           10.16677053322425        1.42537252440606       -1.53083971530128
