57
 energy: -83.442466518551 gnorm: 0.000174447726 xtb: 6.7.1pre (5071a88)
N           -0.08284777350632        0.36503869862761        0.28712027021565
C            1.26203730288837        0.01166795993238        0.26447040592830
C            2.16222674780260        0.47926583075367        1.22184997149692
C            3.50226367388069        0.17012019954645        1.12128211064080
C            3.97860893453001       -0.59626958396814        0.06376867215331
C            3.06215430742792       -1.13379146539216       -0.83223665987103
C            1.71413724371031       -0.85636332580048       -0.72599414419933
C            5.45419790181801       -0.69274561453839       -0.18990184612504
C            5.93556597973346        0.66382977056238       -0.72003266703013
C           -0.45909886466951        1.57843869700584        0.18597876833419
C            0.38026859320831        2.72671068174210       -0.04461587961610
C           -0.09015801850926        3.96294085751302       -0.22608731173982
C            0.77802392128012        5.12408679117971       -0.56517677008772
C            0.70413655768439        5.42954815901434       -2.06880969038702
C            1.61986420348688        6.58657010576458       -2.44486361572799
O            0.66235148376176        1.51281781346817       -2.90677900452817
O           -1.19916131394988       -0.50266433780516       -3.22091066550187
H           -1.13354680245169       -0.93766730167310       -0.27955508762703
H            0.05573431618429        0.75364360881193       -2.98777661824727
H            1.80004758306801        1.09929478642461        2.02977536255357
H            4.19475913989012        0.56117730267452        1.85277224944383
H            3.41021440927541       -1.76902759878319       -1.63521282058087
H            1.01410416032499       -1.25209836695123       -1.44355934346701
H            5.68350010129967       -1.46228007069681       -0.92831759007750
H            6.00768750584635       -0.92298408936171        0.72103864482622
H            5.87706156050429        1.42327500568677        0.07053693366865
H            4.55577457895994        0.41375528601708       -2.30096699305162
H            7.27304014292667        2.63244253904344       -1.33294007402067
H           -1.53188058399155        1.74900922468068        0.22569745767841
H            1.44297647403903        2.54205172944504       -0.11885046248677
H           -1.15577627510041        4.15203878308939       -0.17632605964400
H            0.45749873816375        6.00741917149450       -0.00783019559556
H            1.81448581621105        4.90224666025490       -0.30530098707296
H            1.00075763746650        4.53475850391354       -2.61932356887778
H           -0.32603689553225        5.66929742780362       -2.34225374644300
H            1.56966871706702        6.77921376395106       -3.51404674275226
H            1.32953127127245        7.49334789046480       -1.91876553264782
H            2.65014007369520        6.35518391722924       -2.18430080494980
H           -1.45647007978791       -0.89345661536834       -2.36010654852510
H           -0.97230483316677       -1.23979266742142       -3.79012202008222
O           -1.74805262671045       -1.52932819809570       -0.76989968243358
H            0.18278845314218        2.25258411886265       -3.28371713491011
H           -2.60978647381606       -1.42700484403984       -0.36339111038883
N            5.07344580723972        1.11762271390489       -1.79868768850145
C            7.39581471846817        0.60707498786984       -1.21316035377270
O            8.00796810412330       -0.42922459273621       -1.36830065346825
C            3.74069122277102        2.67098750260704       -3.05181186860116
C            4.79841247266649        2.41976438697239       -2.00971450773702
O            5.38739477690406        3.30730432442455       -1.41131047696640
H            4.05941854854373        2.25901836978618       -4.00697679578295
H            3.58746880796231        3.74096823535929       -3.15892884597015
H            2.80307858170732        2.19334615310971       -2.76990718343365
N            7.88857077386398        1.83334930172564       -1.44849433426425
C            9.21464852157601        2.05532565632091       -1.96817012173310
H            9.78349201566882        2.69965393823358       -1.29571906628598
H            9.17173152754907        2.52126265727397       -2.95480235331545
H            9.70737713178575        1.08724515998390       -2.04633521851303
