57
 energy: -83.437252744817 gnorm: 0.000100738333 xtb: 6.7.1pre (5071a88)
N           -0.21472997738809       -0.33938201652491        0.64471671584749
C            1.16221611865521       -0.29850849928237        0.69548823935302
C            1.80744118426776        0.72503913064524        1.39272308103075
C            3.17640481652281        0.86687692479301        1.31981293729628
C            3.94769388031725       -0.00393230274763        0.55775632366363
C            3.30758568592172       -1.04350103380518       -0.10534081827390
C            1.93640233847199       -1.19687706268719       -0.03807843078588
C            5.42197486129079        0.23285804733469        0.39588929984020
C            5.66293125682024        1.42976431611185       -0.52807056010539
C           -0.93360858777636        0.89126102667728       -1.24175393912961
C            0.24588480071821        1.74299502388438       -1.20008518240069
C            0.25531361754756        2.95794340517706       -0.64726050014818
C            1.44278182289851        3.84689823383575       -0.59418899304855
C            1.26775192770978        5.06753724180506       -1.50896206664784
C            2.51685846508207        5.93844127841723       -1.49797414894419
O           -2.05086894528184        1.20111886453846       -0.84510748935446
O           -2.92510341476813       -1.30838523230722        0.34764792554318
H           -0.70117026180534        0.17778420187979        1.36540013781756
H           -0.65975330471555       -1.22140323321537        0.42635240990191
H            1.21650489986198        1.41097850324647        1.98129516616453
H            3.65813794229777        1.66888095359535        1.86021248616599
H            3.89039454873667       -1.75045676184834       -0.68059205405518
H            1.45191726103071       -2.00679437852968       -0.56423199996022
H            5.91745848046227       -0.64138514044479       -0.02968706475780
H            5.89216342464251        0.44592548127994        1.35687385793758
H            5.29113029956566        2.35381176976574       -0.06844730767991
H            4.72485098967627        0.30147644681958       -2.04120241386868
H            6.64949554142469        3.41238845677705       -1.62818014523714
H           -0.80043428772443       -0.03616688690809       -1.82328892473526
H            1.14831806817004        1.32945265320403       -1.62587072056697
H           -0.66546189975338        3.35089069521099       -0.23443686984249
H            1.58427457774023        4.19855575816512        0.43095196641524
H            2.33650153570033        3.29948255758678       -0.89670375466221
H            1.07306734799113        4.72084350051477       -2.52605175367564
H            0.40183629827457        5.64812771039997       -1.18272927902938
H            2.39934649358763        6.78033938178517       -2.17608128902177
H            2.70424753447771        6.32561687374684       -0.49870011595899
H            3.38161732166524        5.35800760034952       -1.81053692551120
H           -3.02061549023947       -0.83617892233236        1.18161648688477
H           -2.92057527240249       -0.61782910948115       -0.32620786366063
O           -2.50730468767489        1.21830225896475        1.85197433208409
H           -2.44303418948983        1.39132622537107        0.89622949941183
H           -3.16189013265394        1.82759081976190        2.19639297714300
N            4.92827135325403        1.25028783002186       -1.76921582862290
C            7.16547445993229        1.61103999219985       -0.83671915710620
O            7.99667303340044        0.76102681784555       -0.59545218325166
C            3.65812505071272        1.87780557016777       -3.71079706538115
C            4.48596786034673        2.27846834437619       -2.51280669935003
O            4.74913721761284        3.43919018154917       -2.23858749052272
H            2.93232146401272        1.11345483172481       -3.44447504629878
H            4.31392791358244        1.48237375673511       -4.48453295425666
H            3.14488306894316        2.75146815562615       -4.10206702167725
N            7.42649022983078        2.80030384420051       -1.40179855416324
C            8.74729601870405        3.18178445266350       -1.83740830072955
H            9.04760103663605        4.11665162327815       -1.36178911388952
H            8.77634302526226        3.30913555067990       -2.92141055529893
H            9.43553537801430        2.38929428740175       -1.54750326090401
