      -----------------------------------------------------------      
     |                   =====================                   |     
     |                           x T B                           |     
     |                   =====================                   |     
     |                         S. Grimme                         |     
     |          Mulliken Center for Theoretical Chemistry        |     
     |                    University of Bonn                     |     
      -----------------------------------------------------------      

   * xtb version 6.7.1pre (5071a88) compiled by 'Marcel@Raven' on 2024-07-23

   xtb is free software: you can redistribute it and/or modify it under
   the terms of the GNU Lesser General Public License as published by
   the Free Software Foundation, either version 3 of the License, or
   (at your option) any later version.
   
   xtb is distributed in the hope that it will be useful,
   but WITHOUT ANY WARRANTY; without even the implied warranty of
   MERCHANTABILITY or FITNESS FOR A PARTICULAR PURPOSE.  See the
   GNU Lesser General Public License for more details.
   
   Cite this work as:
   * C. Bannwarth, E. Caldeweyher, S. Ehlert, A. Hansen, P. Pracht,
     J. Seibert, S. Spicher, S. Grimme, WIREs Comput. Mol. Sci., 2020, 11,
     e01493. DOI: 10.1002/wcms.1493
   
   for GFN2-xTB:
   * C. Bannwarth, S. Ehlert and S. Grimme., J. Chem. Theory Comput., 2019,
     15, 1652-1671. DOI: 10.1021/acs.jctc.8b01176
   for GFN1-xTB:
   * S. Grimme, C. Bannwarth, P. Shushkov, J. Chem. Theory Comput., 2017,
     13, 1989-2009. DOI: 10.1021/acs.jctc.7b00118
   for GFN0-xTB:
   * P. Pracht, E. Caldeweyher, S. Ehlert, S. Grimme, ChemRxiv, 2019, preprint.
     DOI: 10.26434/chemrxiv.8326202.v1
   for GFN-FF:
   * S. Spicher and S. Grimme, Angew. Chem. Int. Ed., 2020, 59, 15665-15673.
     DOI: 10.1002/anie.202004239
   
   for ALPB and GBSA implicit solvation:
   * S. Ehlert, M. Stahn, S. Spicher, S. Grimme, J. Chem. Theory Comput.,
     2021, 17, 4250-4261. DOI: 10.1021/acs.jctc.1c00471
   
   for ddCOSMO and CPCM-X implicit solvation:
   * M. Stahn, S. Ehlert, S. Grimme, J. Phys. Chem. A,
     2023, XX, XXXX-XXXX. DOI: 10.1021/acs.jpca.3c04382
   
   for DFT-D4:
   * E. Caldeweyher, C. Bannwarth and S. Grimme, J. Chem. Phys., 2017,
     147, 034112. DOI: 10.1063/1.4993215
   * E. Caldeweyher, S. Ehlert, A. Hansen, H. Neugebauer, S. Spicher,
     C. Bannwarth and S. Grimme, J. Chem. Phys., 2019, 150, 154122.
     DOI: 10.1063/1.5090222
   * E. Caldeweyher, J.-M. Mewes, S. Ehlert and S. Grimme, Phys. Chem. Chem. Phys.
     2020, 22, 8499-8512. DOI: 10.1039/D0CP00502A
   
   for sTDA-xTB:
   * S. Grimme and C. Bannwarth, J. Chem. Phys., 2016, 145, 054103.
     DOI: 10.1063/1.4959605
   
   in the mass-spec context:
   * V. Asgeirsson, C. Bauer and S. Grimme, Chem. Sci., 2017, 8, 4879.
     DOI: 10.1039/c7sc00601b
   * J. Koopman and S. Grimme, ACS Omega 2019, 4, 12, 15120-15133.
     DOI: 10.1021/acsomega.9b02011
   
   for metadynamics refer to:
   * S. Grimme, J. Chem. Theory Comput., 2019, 155, 2847-2862
     DOI: 10.1021/acs.jctc.9b00143
   
   for SPH calculations refer to:
   * S. Spicher and S. Grimme, J. Chem. Theory Comput., 2021, 17, 1701-1714
     DOI: 10.1021/acs.jctc.0c01306
   
   for ONIOM refer to:
   * C. Plett, A. Katbashev, S. Ehlert, S. Grimme, M. Bursch,
     Phys. Chem. Chem. Phys., 2023, 25, 17860-17868. DOI: 10.1039/D3CP02178E
   
   for DIPRO refer to:
   * J. Kohn, N. Gildemeister, S. Grimme, D. Fazzi, A. Hansen,
     J. Chem. Phys., 2023, just accepted.
   
   for PTB refer to:
   * S. Grimme, M. Mueller, A. Hansen, J. Chem. Phys., 2023, 158, 124111.
     DOI: 10.1063/5.0137838
   
   with help from (in alphabetical order)
   P. Atkinson, C. Bannwarth, F. Bohle, G. Brandenburg, E. Caldeweyher
   M. Checinski, S. Dohm, S. Ehlert, S. Ehrlich, I. Gerasimov, C. Hölzer
   A. Katbashev, J. Kohn, J. Koopman, C. Lavigne, S. Lehtola, F. März, M. Müller,
   F. Musil, H. Neugebauer, J. Pisarek, C. Plett, P. Pracht, F. Pultar,
   J. Seibert, P. Shushkov, S. Spicher, M. Stahn, M. Steiner, T. Strunk,
   J. Stückrath, T. Rose, and J. Unsleber
   
 * started run on 2026/08/31 at 13:17:22.187     
   ID    Z sym.   atoms
    1    7 N      1, 17, 63, 72
    2    6 C      2-15, 18-26, 64, 66, 67, 73
    3    8 O      16, 27, 60, 65, 68
    4    1 H      28-59, 61, 62, 69-71, 74-76

           -------------------------------------------------
          |                Calculation Setup                |
           -------------------------------------------------

          program call               : C:\Users\Nayanika\Downloads\xtb-6.7.1pre-windows-x86_64\xtb-6.7.1\bin\xtb.exe D:\PhD_Thesis\LmrR_EVB\charges\fast_lmrr_5QM\xtb_preparation\RS2_1_to_TS2_1a\RS2_1_to_TS2_1a_RS.xyz --gfn 2 --opt normal --chrg 0 --uhf 0 --etemp 0
          coordinate file            : D:\PhD_Thesis\LmrR_EVB\charges\fast_lmrr_5QM\xtb_preparation\RS2_1_to_TS2_1a\RS2_1_to_TS2_1a_RS.xyz
          omp threads                :                     1


molecular fragmentation (1/2 indicates fragments):
111111111111111222222222222121111111111111111111222222222222221111111111
1111
# atoms in fragment 1/2:    49    27
 fragment masses (1/2) :      316.42      184.21
CMA distance (Bohr)    :  12.741
constraining FC (au)   :  0.0500

           -------------------------------------------------
          |                 G F N 2 - x T B                 |
           -------------------------------------------------

        Reference                      10.1021/acs.jctc.8b01176
      * Hamiltonian:
        H0-scaling (s, p, d)           1.850000    2.230000    2.230000
        zeta-weighting                 0.500000
      * Dispersion:
        s8                             2.700000
        a1                             0.520000
        a2                             5.000000
        s9                             5.000000
      * Repulsion:
        kExp                           1.500000    1.000000
        rExp                           1.000000
      * Coulomb:
        alpha                          2.000000
        third order                    shell-resolved
        anisotropic                    true
        a3                             3.000000
        a5                             4.000000
        cn-shift                       1.200000
        cn-exp                         4.000000
        max-rad                        5.000000


          ...................................................
          :                      SETUP                      :
          :.................................................:
          :  # basis functions                 184          :
          :  # atomic orbitals                 184          :
          :  # shells                          112          :
          :  # electrons                       198          :
          :  max. iterations                   250          :
          :  Hamiltonian                  GFN2-xTB          :
          :  restarted?                      false          :
          :  GBSA solvation                  false          :
          :  PC potential                    false          :
          :  electronic temp.            0.0000000     K    :
          :  accuracy                    1.0000000          :
          :  -> integral cutoff          0.2500000E+02      :
          :  -> integral neglect         0.1000000E-07      :
          :  -> SCF convergence          0.1000000E-05 Eh   :
          :  -> wf. convergence          0.1000000E-03 e    :
          :  Broyden damping             0.4000000          :
          :  net charge                          0          :
          :  unpaired electrons                  0          :
          ...................................................

 iter      E             dE          RMSdq      gap      omega  full diag
   1   -111.2112585 -0.111211E+03  0.427E+00    2.73       0.0  T
   2   -110.7072127  0.504046E+00  0.354E+00    0.00       1.0  T
   3   -111.3805272 -0.673314E+00  0.256E+00    2.74       1.0  T
   4   -111.4867673 -0.106240E+00  0.154E+00    1.80       1.0  T
   5   -111.4982161 -0.114488E-01  0.105E+00    1.48       1.0  T
   6   -110.7746370  0.723579E+00  0.264E+00    0.07       1.0  T
   7   -111.5078914 -0.733254E+00  0.950E-01    1.45       1.0  T
   8   -111.5094203 -0.152894E-02  0.894E-01    1.23       1.0  T
   9   -111.5131886 -0.376829E-02  0.835E-01    0.73       1.0  T
  10   -111.5160616 -0.287298E-02  0.779E-01    0.30       1.0  T
  11   -110.7776322  0.738429E+00  0.267E+00    0.07       1.0  T
  12   -111.5168766 -0.739244E+00  0.761E-01    0.16       1.0  T
  13   -111.5178253 -0.948740E-03  0.745E-01    0.04       1.0  T
  14   -110.7845962  0.733229E+00  0.263E+00    0.07       1.0  T
  15   -111.5169917 -0.732395E+00  0.759E-01    0.14       1.0  T
  16   -111.5177104 -0.718765E-03  0.747E-01    0.05       1.0  T
  17   -110.7905382  0.727172E+00  0.262E+00    0.02       1.0  T
  18   -111.5174001 -0.726862E+00  0.751E-01    0.08       1.0  T
  19   -111.5173203  0.798102E-04  0.753E-01    0.09       1.0  T
  20   -111.5217774 -0.445715E-02  0.721E-01    0.01       1.0  T
  21   -110.7925518  0.729226E+00  0.261E+00    0.01       1.0  T
  22   -111.5155272 -0.722975E+00  0.787E-01    0.37       1.0  T
  23   -111.5161868 -0.659573E-03  0.774E-01    0.27       1.0  T
  24   -111.5175337 -0.134692E-02  0.749E-01    0.07       1.0  T
  25   -111.5184003 -0.866569E-03  0.740E-01    0.02       1.0  T
  26   -111.5199099 -0.150965E-02  0.731E-01    0.01       1.0  T
  27   -111.5182368  0.167311E-02  0.742E-01    0.03       1.0  T
  28   -111.5189564 -0.719572E-03  0.737E-01    0.02       1.0  T
  29   -111.5408399 -0.218835E-01  0.605E-01    0.00       1.0  T
  30   -111.5174799  0.233599E-01  0.750E-01    0.07       1.0  T
  31   -111.5183498 -0.869874E-03  0.741E-01    0.03       1.0  T
  32   -110.7849329  0.733417E+00  0.263E+00    0.07       1.0  T
  33   -111.5055366 -0.720604E+00  0.964E-01    1.51       1.0  T
  34   -111.5113445 -0.580795E-02  0.864E-01    1.00       1.0  T
  35   -111.5124908 -0.114626E-02  0.843E-01    0.83       1.0  T
  36   -111.5135882 -0.109741E-02  0.823E-01    0.67       1.0  T
  37   -111.5157841 -0.219590E-02  0.782E-01    0.33       1.0  T
  38   -110.7809760  0.734808E+00  0.266E+00    0.07       1.0  T
  39   -111.4750387 -0.694063E+00  0.139E+00    2.00       1.0  T
  40   -111.5042466 -0.292079E-01  0.981E-01    1.53       1.0  T
  41   -111.5128158 -0.856920E-02  0.837E-01    0.77       1.0  T
  42   -111.5166188 -0.380304E-02  0.767E-01    0.19       1.0  T
  43   -110.7806139  0.736005E+00  0.266E+00    0.07       1.0  T
  44   -111.4714050 -0.690791E+00  0.143E+00    2.05       1.0  T
  45   -111.5095629 -0.381579E-01  0.895E-01    1.23       1.0  T
  46   -111.5152016 -0.563868E-02  0.793E-01    0.41       1.0  T
  47   -110.7807105  0.734491E+00  0.266E+00    0.07       1.0  T
  48   -111.4702223 -0.689512E+00  0.144E+00    2.06       1.0  T
  49   -111.5064705 -0.362482E-01  0.947E-01    1.49       1.0  T
  50   -111.5144087 -0.793821E-02  0.808E-01    0.53       1.0  T
  51   -110.7802870  0.734122E+00  0.267E+00    0.07       1.0  T
  52   -111.4658007 -0.685514E+00  0.149E+00    2.12       1.0  T
  53   -111.5033747 -0.375741E-01  0.996E-01    1.55       1.0  T
  54   -111.5148571 -0.114824E-01  0.800E-01    0.46       1.0  T
  55   -110.7777259  0.737131E+00  0.268E+00    0.07       1.0  T
  56   -111.4593006 -0.681575E+00  0.156E+00    2.20       1.0  T
  57   -111.5014033 -0.421027E-01  0.103E+00    1.58       1.0  T
  58   -111.5157060 -0.143026E-01  0.784E-01    0.33       1.0  T
  59   -110.7737109  0.741995E+00  0.271E+00    0.06       1.0  T
  60   -111.4510967 -0.677386E+00  0.165E+00    2.30       1.0  T
  61   -111.4996592 -0.485625E-01  0.105E+00    1.61       1.0  T
  62   -111.5162891 -0.166298E-01  0.772E-01    0.24       1.0  T
  63   -110.7698447  0.746444E+00  0.273E+00    0.06       1.0  T
  64   -111.4418515 -0.672007E+00  0.174E+00    2.40       1.0  T
  65   -111.4979675 -0.561160E-01  0.108E+00    1.64       1.0  T
  66   -111.5165910 -0.186235E-01  0.767E-01    0.19       1.0  T
  67   -110.7662844  0.750307E+00  0.275E+00    0.06       1.0  T
  68   -111.4323752 -0.666091E+00  0.183E+00    2.45       1.0  T
  69   -111.4963824 -0.640072E-01  0.110E+00    1.67       1.0  T
  70   -111.5168524 -0.204700E-01  0.762E-01    0.15       1.0  T
  71   -110.7624770  0.754375E+00  0.278E+00    0.06       1.0  T
  72   -111.4230260 -0.660549E+00  0.192E+00    2.42       1.0  T
  73   -111.4947100 -0.716841E-01  0.112E+00    1.70       1.0  T
  74   -111.5170783 -0.223682E-01  0.758E-01    0.11       1.0  T
  75   -110.7584987  0.758580E+00  0.280E+00    0.06       1.0  T
  76   -111.4136628 -0.655164E+00  0.200E+00    2.39       1.0  T
  77   -111.4928390 -0.791762E-01  0.115E+00    1.73       1.0  T
  78   -111.5172000 -0.243610E-01  0.755E-01    0.09       1.0  T
  79   -110.7549067  0.762293E+00  0.282E+00    0.05       1.0  T
  80   -111.4046993 -0.649793E+00  0.208E+00    2.35       1.0  T
  81   -111.4911163 -0.864170E-01  0.117E+00    1.75       1.0  T
  82   -111.5172596 -0.261433E-01  0.755E-01    0.08       1.0  T
  83   -110.7517243  0.765535E+00  0.284E+00    0.05       1.0  T
  84   -111.3969130 -0.645189E+00  0.215E+00    2.32       1.0  T
  85   -111.4898233 -0.929103E-01  0.119E+00    1.77       1.0  T
  86   -111.5173235 -0.275001E-01  0.754E-01    0.07       1.0  T
  87   -110.7486927  0.768631E+00  0.286E+00    0.05       1.0  T
  88   -111.3908858 -0.642193E+00  0.220E+00    2.30       1.0  T
  89   -111.4889630 -0.980771E-01  0.120E+00    1.79       1.0  T
  90   -111.5173303 -0.283673E-01  0.754E-01    0.07       1.0  T
  91   -110.7359074  0.781423E+00  0.289E+00    0.00       1.0  T
  92   -111.3780730 -0.642166E+00  0.230E+00    2.26       1.0  T
  93   -111.4824877 -0.104415E+00  0.129E+00    1.88       1.0  T
  94   -111.5137993 -0.313116E-01  0.818E-01    0.59       1.0  T
  95   -110.7603822  0.753417E+00  0.280E+00    0.06       1.0  T
  96   -111.4046719 -0.644290E+00  0.208E+00    2.36       1.0  T
  97   -111.5007759 -0.961040E-01  0.103E+00    1.59       1.0  T
  98   -110.7857137  0.715062E+00  0.264E+00    0.07       1.0  T
  99   -111.4062661 -0.620552E+00  0.208E+00    2.37       1.0  T
 100   -111.5096972 -0.103431E+00  0.891E-01    1.18       1.0  T
 101   -110.7798596  0.729838E+00  0.267E+00    0.07       1.0  T
 102   -111.4113115 -0.631452E+00  0.203E+00    2.39       1.0  T
 103   -111.5078156 -0.965041E-01  0.923E-01    1.44       1.0  T
 104   -110.7815150  0.726301E+00  0.266E+00    0.07       1.0  T
 105   -111.4225979 -0.641083E+00  0.193E+00    2.43       1.0  T
 106   -111.5097505 -0.871526E-01  0.890E-01    1.18       1.0  T
 107   -110.7788106  0.730940E+00  0.268E+00    0.07       1.0  T
 108   -111.4302557 -0.651445E+00  0.186E+00    2.45       1.0  T
 109   -111.5092975 -0.790418E-01  0.899E-01    1.25       1.0  T
 110   -110.7795425  0.729755E+00  0.268E+00    0.07       1.0  T
 111   -111.4384755 -0.658933E+00  0.178E+00    2.43       1.0  T
 112   -111.5097300 -0.712545E-01  0.892E-01    1.20       1.0  T
 113   -110.7797152  0.730015E+00  0.267E+00    0.07       1.0  T
 114   -111.4451542 -0.665439E+00  0.171E+00    2.37       1.0  T
 115   -111.5094911 -0.643368E-01  0.896E-01    1.24       1.0  T
 116   -110.7813857  0.728105E+00  0.266E+00    0.07       1.0  T
 117   -111.4514753 -0.670090E+00  0.165E+00    2.30       1.0  T
 118   -111.5095083 -0.580330E-01  0.896E-01    1.24       1.0  T
 119   -110.7829538  0.726554E+00  0.265E+00    0.07       1.0  T
 120   -111.4569365 -0.673983E+00  0.159E+00    2.23       1.0  T
 121   -111.5092602 -0.523237E-01  0.901E-01    1.28       1.0  T
 122   -110.7852340  0.724026E+00  0.264E+00    0.07       1.0  T
 123   -111.4619883 -0.676754E+00  0.153E+00    2.17       1.0  T
 124   -111.5090705 -0.470822E-01  0.904E-01    1.31       1.0  T
 125   -111.5181165 -0.904598E-02  0.745E-01    0.03       1.0  T
 126   -107.8811270  0.363699E+01  0.523E+00    0.06       1.0  T
 127   -107.8857380 -0.461099E-02  0.522E+00    0.06       1.0  T
 128   -107.8907566 -0.501855E-02  0.521E+00    0.05       1.0  T
 129   -107.8909795 -0.222882E-03  0.521E+00    0.05       1.0  T
 130   -107.8878978  0.308168E-02  0.522E+00    0.06       1.0  T
 131   -107.8379439  0.499539E-01  0.533E+00    0.07       1.0  T
 132   -107.8342502  0.369373E-02  0.534E+00    0.07       1.0  T
 133   -107.8253302  0.891995E-02  0.536E+00    0.07       1.0  T
 134   -107.8230391  0.229113E-02  0.537E+00    0.07       1.0  T
 135   -107.8229681  0.710243E-04  0.536E+00    0.07       1.0  T
 136   -110.7468512 -0.292388E+01  0.287E+00    0.04       1.0  T
 137   -111.4868018 -0.739951E+00  0.123E+00    1.81       1.0  T
 138   -111.5082458 -0.214440E-01  0.912E-01    1.45       1.0  T
 139   -110.7681997  0.740046E+00  0.274E+00    0.06       1.0  T
 140   -111.4720490 -0.703849E+00  0.141E+00    2.03       1.0  T
 141   -111.5113104 -0.392614E-01  0.860E-01    1.09       1.0  T
 142   -110.7788569  0.732453E+00  0.267E+00    0.06       1.0  T
 143   -111.4679606 -0.689104E+00  0.146E+00    2.09       1.0  T
 144   -111.5088905 -0.409299E-01  0.903E-01    1.42       1.0  T
 145   -111.5166027 -0.771222E-02  0.764E-01    0.28       1.0  T
 146   -110.7619353  0.754667E+00  0.278E+00    0.05       1.0  T
 147   -111.4560332 -0.694098E+00  0.159E+00    2.24       1.0  T
 148   -111.5043415 -0.483083E-01  0.978E-01    1.53       1.0  T
 149   -111.5163296 -0.119881E-01  0.770E-01    0.31       1.0  T
 150   -110.7562065  0.760123E+00  0.281E+00    0.05       1.0  T
 151   -111.4478973 -0.691691E+00  0.168E+00    2.33       1.0  T
 152   -111.5040868 -0.561896E-01  0.982E-01    1.53       1.0  T
 153   -110.7828495  0.721237E+00  0.265E+00    0.07       1.0  T
 154   -111.4538451 -0.670996E+00  0.162E+00    2.27       1.0  T
 155   -111.5066387 -0.527936E-01  0.940E-01    1.48       1.0  T
 156   -110.7833975  0.723241E+00  0.265E+00    0.07       1.0  T
 157   -111.4548828 -0.671485E+00  0.161E+00    2.26       1.0  T
 158   -111.5067200 -0.518372E-01  0.939E-01    1.48       1.0  T
 159   -111.5195300 -0.128100E-01  0.726E-01    0.02       1.0  T
 160   -110.7473758  0.772154E+00  0.287E+00    0.05       1.0  T
 161   -111.4440267 -0.696651E+00  0.171E+00    2.38       1.0  T
 162   -111.4998215 -0.557948E-01  0.105E+00    1.61       1.0  T
 163   -111.5174681 -0.176465E-01  0.749E-01    0.12       1.0  T
 164   -110.7463592  0.771109E+00  0.288E+00    0.05       1.0  T
 165   -111.4390764 -0.692717E+00  0.176E+00    2.42       1.0  T
 166   -111.4985793 -0.595029E-01  0.107E+00    1.63       1.0  T
 167   -110.7809160  0.717663E+00  0.267E+00    0.07       1.0  T
 168   -111.4503281 -0.669412E+00  0.166E+00    2.31       1.0  T
 169   -111.5015530 -0.512249E-01  0.102E+00    1.58       1.0  T
 170   -110.7839585  0.717594E+00  0.265E+00    0.07       1.0  T
 171   -111.4504363 -0.666478E+00  0.165E+00    2.31       1.0  T
 172   -111.5019410 -0.515047E-01  0.102E+00    1.57       1.0  T
 173   -111.5178967 -0.159557E-01  0.742E-01    0.06       1.0  T
 174   -110.7448557  0.773041E+00  0.289E+00    0.05       1.0  T
 175   -111.4425483 -0.697693E+00  0.173E+00    2.39       1.0  T
 176   -111.4975700 -0.550217E-01  0.109E+00    1.65       1.0  T
 177   -110.7822690  0.715301E+00  0.266E+00    0.07       1.0  T
 178   -111.4510602 -0.668791E+00  0.165E+00    2.30       1.0  T
 179   -111.5003393 -0.492792E-01  0.104E+00    1.61       1.0  T
 180   -110.7855619  0.714777E+00  0.265E+00    0.05       1.0  T
 181   -111.4520393 -0.666477E+00  0.164E+00    2.29       1.0  T
 182   -111.5002653 -0.482260E-01  0.104E+00    1.61       1.0  T
 183   -111.5171420 -0.168767E-01  0.758E-01    0.15       1.0  T
 184   -110.7483259  0.768816E+00  0.287E+00    0.05       1.0  T
 185   -111.4529306 -0.704605E+00  0.162E+00    2.28       1.0  T
 186   -111.4992613 -0.463307E-01  0.106E+00    1.63       1.0  T
 187   -110.7811580  0.718103E+00  0.267E+00    0.07       1.0  T
 188   -111.4548652 -0.673707E+00  0.161E+00    2.26       1.0  T
 189   -111.5025833 -0.477180E-01  0.101E+00    1.57       1.0  T
 190   -110.7831745  0.719409E+00  0.266E+00    0.07       1.0  T
 191   -111.4580698 -0.674895E+00  0.158E+00    2.22       1.0  T
 192   -111.5025250 -0.444552E-01  0.101E+00    1.57       1.0  T
 193   -111.5176104 -0.150853E-01  0.753E-01    0.07       1.0  T
 194   -110.7517911  0.765819E+00  0.286E+00    0.05       1.0  T
 195   -111.4663986 -0.714607E+00  0.148E+00    2.11       1.0  T
 196   -111.5056213 -0.392228E-01  0.966E-01    1.51       1.0  T
 197   -110.7760221  0.729599E+00  0.271E+00    0.07       1.0  T
 198   -111.4671300 -0.691108E+00  0.147E+00    2.10       1.0  T
 199   -111.5093349 -0.422048E-01  0.905E-01    1.24       1.0  T
 200   -110.7755588  0.733776E+00  0.272E+00    0.07       1.0  T
 201   -111.4751579 -0.699599E+00  0.138E+00    2.00       1.0  T
 202   -111.5104037 -0.352458E-01  0.887E-01    1.08       1.0  T
 203   -110.7787763  0.731627E+00  0.270E+00    0.07       1.0  T
 204   -111.4801142 -0.701338E+00  0.132E+00    1.93       1.0  T
 205   -111.5111666 -0.310524E-01  0.874E-01    0.97       1.0  T
 206   -110.7835222  0.727644E+00  0.267E+00    0.07       1.0  T
 207   -111.4836293 -0.700107E+00  0.128E+00    1.88       1.0  T
 208   -111.5117119 -0.280826E-01  0.866E-01    0.88       1.0  T
 209   -111.5175447 -0.583276E-02  0.761E-01    0.06       1.0  T
 210   -110.7773786  0.740166E+00  0.271E+00    0.07       1.0  T
 211   -111.4852786 -0.707900E+00  0.125E+00    1.85       1.0  T
 212   -111.5153424 -0.300638E-01  0.801E-01    0.34       1.0  T
 213   -110.7832864  0.732056E+00  0.268E+00    0.07       1.0  T
 214   -111.4895941 -0.706308E+00  0.120E+00    1.79       1.0  T
 215   -111.5164913 -0.268972E-01  0.780E-01    0.16       1.0  T
 216   -110.7850909  0.731400E+00  0.267E+00    0.08       1.0  T
 217   -111.4937157 -0.708625E+00  0.114E+00    1.72       1.0  T
 218   -111.5161557 -0.224400E-01  0.786E-01    0.21       1.0  T
 219   -111.5163708 -0.215120E-03  0.783E-01    0.19       1.0  T
 220   -111.5137641  0.260669E-02  0.832E-01    0.61       1.0  T
 221   -111.5138687 -0.104619E-03  0.830E-01    0.60       1.0  T
 222   -110.7778425  0.736026E+00  0.271E+00    0.07       1.0  T
 223   -111.4836107 -0.705768E+00  0.128E+00    1.88       1.0  T
 224   -111.5100911 -0.264804E-01  0.897E-01    1.14       1.0  T
 225   -111.5175258 -0.743479E-02  0.762E-01    0.07       1.0  T
 226   -110.7728450  0.744681E+00  0.274E+00    0.07       1.0  T
 227   -111.4857460 -0.712901E+00  0.125E+00    1.85       1.0  T
 228   -111.5113196 -0.255737E-01  0.876E-01    0.97       1.0  T
 229   -110.7843723  0.726947E+00  0.267E+00    0.07       1.0  T
 230   -111.4764049 -0.692033E+00  0.137E+00    1.99       1.0  T
 231   -111.5070865 -0.306817E-01  0.948E-01    1.48       1.0  T
 232   -111.5149610 -0.787449E-02  0.809E-01    0.46       1.0  T
 233   -110.7796630  0.735298E+00  0.269E+00    0.07       1.0  T
 234   -111.4788940 -0.699231E+00  0.134E+00    1.95       1.0  T
 235   -111.5089572 -0.300632E-01  0.916E-01    1.30       1.0  T
 236   -111.5168815 -0.792428E-02  0.772E-01    0.17       1.0  T
 237   -110.7739545  0.742927E+00  0.273E+00    0.07       1.0  T
 238   -111.4830739 -0.709119E+00  0.129E+00    1.89       1.0  T
 239   -111.5111774 -0.281036E-01  0.878E-01    1.00       1.0  T
 240   -110.7841566  0.727021E+00  0.267E+00    0.07       1.0  T
 241   -111.4749966 -0.690840E+00  0.139E+00    2.00       1.0  T
 242   -111.5073288 -0.323322E-01  0.944E-01    1.48       1.0  T
 243   -111.5156736 -0.834479E-02  0.796E-01    0.36       1.0  T
 244   -110.7770890  0.738585E+00  0.271E+00    0.07       1.0  T
 245   -111.4802519 -0.703163E+00  0.132E+00    1.93       1.0  T
 246   -111.5101168 -0.298649E-01  0.897E-01    1.15       1.0  T
 247   -111.5859206 -0.758039E-01  0.436E-02    0.00       1.0  T
 248   -110.7823337  0.803587E+00  0.269E+00    0.07       1.0  T
 249   -111.4935872 -0.711254E+00  0.115E+00    1.73       1.0  T
 250   -111.5155249 -0.219377E-01  0.801E-01    0.33       1.0  T

   *** convergence criteria cannot be satisfied within 250 iterations ***

         #    Occupation            Energy/Eh            Energy/eV
      -------------------------------------------------------------
         1        2.0000           -0.7148933             -19.4532
       ...           ...                  ...                  ...
        93        2.0000           -0.3954990             -10.7621
        94        2.0000           -0.3795309             -10.3276
        95        2.0000           -0.3751785             -10.2091
        96        2.0000           -0.3673377              -9.9958
        97        2.0000           -0.3429468              -9.3321
        98        2.0000           -0.3097791              -8.4295
        99        2.0000           -0.3067905              -8.3482 (HOMO)
       100                         -0.2948045              -8.0220 (LUMO)
       101                         -0.2373603              -6.4589
       102                         -0.2327165              -6.3325
       103                         -0.2272856              -6.1848
       104                         -0.2204116              -5.9977
       ...                                ...                  ...
       184                          0.7110629              19.3490
      -------------------------------------------------------------
                  HL-Gap            0.0119860 Eh            0.3262 eV
             Fermi-level            0.0000000 Eh            0.0000 eV

 SCC (total)                   0 d,  0 h,  0 min,  4.021 sec
 SCC setup                      ...        0 min,  0.001 sec (  0.025%)
 Dispersion                     ...        0 min,  0.003 sec (  0.075%)
 classical contributions        ...        0 min,  0.001 sec (  0.025%)
 integral evaluation            ...        0 min,  0.041 sec (  1.020%)
 iterations                     ...        0 min,  3.865 sec ( 96.120%)
 molecular gradient             ...        0 min,  0.107 sec (  2.661%)
 printout                       ...        0 min,  0.003 sec (  0.075%)

########################################################################
[ERROR] Program stopped due to fatal error
-3- Single point calculation terminated
-2- xtb_calculator_singlepoint: Electronic structure method terminated
-1- scf: Self consistent charge iterator did not converge
########################################################################


===== STDERR =====

abnormal termination of xtb
