      -----------------------------------------------------------      
     |                   =====================                   |     
     |                           x T B                           |     
     |                   =====================                   |     
     |                         S. Grimme                         |     
     |          Mulliken Center for Theoretical Chemistry        |     
     |                    University of Bonn                     |     
      -----------------------------------------------------------      

   * xtb version 6.7.1pre (5071a88) compiled by 'Marcel@Raven' on 2024-07-23

   xtb is free software: you can redistribute it and/or modify it under
   the terms of the GNU Lesser General Public License as published by
   the Free Software Foundation, either version 3 of the License, or
   (at your option) any later version.
   
   xtb is distributed in the hope that it will be useful,
   but WITHOUT ANY WARRANTY; without even the implied warranty of
   MERCHANTABILITY or FITNESS FOR A PARTICULAR PURPOSE.  See the
   GNU Lesser General Public License for more details.
   
   Cite this work as:
   * C. Bannwarth, E. Caldeweyher, S. Ehlert, A. Hansen, P. Pracht,
     J. Seibert, S. Spicher, S. Grimme, WIREs Comput. Mol. Sci., 2020, 11,
     e01493. DOI: 10.1002/wcms.1493
   
   for GFN2-xTB:
   * C. Bannwarth, S. Ehlert and S. Grimme., J. Chem. Theory Comput., 2019,
     15, 1652-1671. DOI: 10.1021/acs.jctc.8b01176
   for GFN1-xTB:
   * S. Grimme, C. Bannwarth, P. Shushkov, J. Chem. Theory Comput., 2017,
     13, 1989-2009. DOI: 10.1021/acs.jctc.7b00118
   for GFN0-xTB:
   * P. Pracht, E. Caldeweyher, S. Ehlert, S. Grimme, ChemRxiv, 2019, preprint.
     DOI: 10.26434/chemrxiv.8326202.v1
   for GFN-FF:
   * S. Spicher and S. Grimme, Angew. Chem. Int. Ed., 2020, 59, 15665-15673.
     DOI: 10.1002/anie.202004239
   
   for ALPB and GBSA implicit solvation:
   * S. Ehlert, M. Stahn, S. Spicher, S. Grimme, J. Chem. Theory Comput.,
     2021, 17, 4250-4261. DOI: 10.1021/acs.jctc.1c00471
   
   for ddCOSMO and CPCM-X implicit solvation:
   * M. Stahn, S. Ehlert, S. Grimme, J. Phys. Chem. A,
     2023, XX, XXXX-XXXX. DOI: 10.1021/acs.jpca.3c04382
   
   for DFT-D4:
   * E. Caldeweyher, C. Bannwarth and S. Grimme, J. Chem. Phys., 2017,
     147, 034112. DOI: 10.1063/1.4993215
   * E. Caldeweyher, S. Ehlert, A. Hansen, H. Neugebauer, S. Spicher,
     C. Bannwarth and S. Grimme, J. Chem. Phys., 2019, 150, 154122.
     DOI: 10.1063/1.5090222
   * E. Caldeweyher, J.-M. Mewes, S. Ehlert and S. Grimme, Phys. Chem. Chem. Phys.
     2020, 22, 8499-8512. DOI: 10.1039/D0CP00502A
   
   for sTDA-xTB:
   * S. Grimme and C. Bannwarth, J. Chem. Phys., 2016, 145, 054103.
     DOI: 10.1063/1.4959605
   
   in the mass-spec context:
   * V. Asgeirsson, C. Bauer and S. Grimme, Chem. Sci., 2017, 8, 4879.
     DOI: 10.1039/c7sc00601b
   * J. Koopman and S. Grimme, ACS Omega 2019, 4, 12, 15120-15133.
     DOI: 10.1021/acsomega.9b02011
   
   for metadynamics refer to:
   * S. Grimme, J. Chem. Theory Comput., 2019, 155, 2847-2862
     DOI: 10.1021/acs.jctc.9b00143
   
   for SPH calculations refer to:
   * S. Spicher and S. Grimme, J. Chem. Theory Comput., 2021, 17, 1701-1714
     DOI: 10.1021/acs.jctc.0c01306
   
   for ONIOM refer to:
   * C. Plett, A. Katbashev, S. Ehlert, S. Grimme, M. Bursch,
     Phys. Chem. Chem. Phys., 2023, 25, 17860-17868. DOI: 10.1039/D3CP02178E
   
   for DIPRO refer to:
   * J. Kohn, N. Gildemeister, S. Grimme, D. Fazzi, A. Hansen,
     J. Chem. Phys., 2023, just accepted.
   
   for PTB refer to:
   * S. Grimme, M. Mueller, A. Hansen, J. Chem. Phys., 2023, 158, 124111.
     DOI: 10.1063/5.0137838
   
   with help from (in alphabetical order)
   P. Atkinson, C. Bannwarth, F. Bohle, G. Brandenburg, E. Caldeweyher
   M. Checinski, S. Dohm, S. Ehlert, S. Ehrlich, I. Gerasimov, C. Hölzer
   A. Katbashev, J. Kohn, J. Koopman, C. Lavigne, S. Lehtola, F. März, M. Müller,
   F. Musil, H. Neugebauer, J. Pisarek, C. Plett, P. Pracht, F. Pultar,
   J. Seibert, P. Shushkov, S. Spicher, M. Stahn, M. Steiner, T. Strunk,
   J. Stückrath, T. Rose, and J. Unsleber
   
 * started run on 2026/08/31 at 13:17:26.306     
   ID    Z sym.   atoms
    1    7 N      1, 17, 63, 72
    2    6 C      2-15, 18-26, 64, 66, 67, 73
    3    8 O      16, 27, 60, 65, 68
    4    1 H      28-59, 61, 62, 69-71, 74-76

           -------------------------------------------------
          |                Calculation Setup                |
           -------------------------------------------------

          program call               : C:\Users\Nayanika\Downloads\xtb-6.7.1pre-windows-x86_64\xtb-6.7.1\bin\xtb.exe D:\PhD_Thesis\LmrR_EVB\charges\fast_lmrr_5QM\xtb_preparation\RS2_1_to_TS2_1a\RS2_1_to_TS2_1a_TS.xyz --gfn 2 --opt normal --chrg 0 --uhf 0 --etemp 0
          coordinate file            : D:\PhD_Thesis\LmrR_EVB\charges\fast_lmrr_5QM\xtb_preparation\RS2_1_to_TS2_1a\RS2_1_to_TS2_1a_TS.xyz
          omp threads                :                     1


molecular fragmentation (1/2 indicates fragments):
111111111111111222222222222121111111111111111111222222222222221111111111
1111
# atoms in fragment 1/2:    49    27
 fragment masses (1/2) :      316.42      184.21
CMA distance (Bohr)    :  11.887
constraining FC (au)   :  0.0500

           -------------------------------------------------
          |                 G F N 2 - x T B                 |
           -------------------------------------------------

        Reference                      10.1021/acs.jctc.8b01176
      * Hamiltonian:
        H0-scaling (s, p, d)           1.850000    2.230000    2.230000
        zeta-weighting                 0.500000
      * Dispersion:
        s8                             2.700000
        a1                             0.520000
        a2                             5.000000
        s9                             5.000000
      * Repulsion:
        kExp                           1.500000    1.000000
        rExp                           1.000000
      * Coulomb:
        alpha                          2.000000
        third order                    shell-resolved
        anisotropic                    true
        a3                             3.000000
        a5                             4.000000
        cn-shift                       1.200000
        cn-exp                         4.000000
        max-rad                        5.000000


          ...................................................
          :                      SETUP                      :
          :.................................................:
          :  # basis functions                 184          :
          :  # atomic orbitals                 184          :
          :  # shells                          112          :
          :  # electrons                       198          :
          :  max. iterations                   250          :
          :  Hamiltonian                  GFN2-xTB          :
          :  restarted?                      false          :
          :  GBSA solvation                  false          :
          :  PC potential                    false          :
          :  electronic temp.            0.0000000     K    :
          :  accuracy                    1.0000000          :
          :  -> integral cutoff          0.2500000E+02      :
          :  -> integral neglect         0.1000000E-07      :
          :  -> SCF convergence          0.1000000E-05 Eh   :
          :  -> wf. convergence          0.1000000E-03 e    :
          :  Broyden damping             0.4000000          :
          :  net charge                          0          :
          :  unpaired electrons                  0          :
          ...................................................

 iter      E             dE          RMSdq      gap      omega  full diag
   1   -111.1429399 -0.111143E+03  0.418E+00    2.04       0.0  T
   2   -110.6164024  0.526537E+00  0.340E+00    0.00       1.0  T
   3   -111.3089387 -0.692536E+00  0.233E+00    1.95       1.0  T
   4   -111.4004363 -0.914976E-01  0.141E+00    1.89       1.0  T
   5   -111.4003410  0.953005E-04  0.922E-01    1.99       1.0  T
   6   -111.4266012 -0.262602E-01  0.715E-01    0.45       1.0  T
   7   -107.7045593  0.372204E+01  0.503E+00    0.46       1.0  T
   8   -107.7163032 -0.117439E-01  0.499E+00    0.11       1.0  T
   9   -110.6780278 -0.296172E+01  0.249E+00    0.05       1.0  T
  10   -111.4215611 -0.743533E+00  0.746E-01    1.50       1.0  T
  11   -111.4205622  0.998864E-03  0.759E-01    1.71       1.0  T
  12   -111.4216195 -0.105733E-02  0.737E-01    1.61       1.0  T
  13   -111.4227305 -0.111097E-02  0.714E-01    1.48       1.0  T
  14   -111.4240414 -0.131088E-02  0.684E-01    1.29       1.0  T
  15   -111.4262622 -0.222080E-02  0.635E-01    0.92       1.0  T
  16   -111.4286536 -0.239143E-02  0.580E-01    0.44       1.0  T
  17   -110.6698941  0.758759E+00  0.273E+00    0.00       1.0  T
  18   -111.4500153 -0.780121E+00  0.425E-01    0.00       1.0  T
  19   -111.4260485  0.239668E-01  0.640E-01    0.96       1.0  T
  20   -110.6601311  0.765917E+00  0.261E+00    0.01       1.0  T
  21   -110.6684932 -0.836209E-02  0.280E+00    0.00       1.0  T
  22   -111.4280132 -0.759520E+00  0.595E-01    0.57       1.0  T
  23   -110.6686556  0.759358E+00  0.260E+00    0.00       1.0  T
  24   -111.4241144 -0.755459E+00  0.686E-01    1.31       1.0  T
  25   -111.4268171 -0.270277E-02  0.627E-01    0.82       1.0  T
  26   -111.4274887 -0.671516E-03  0.611E-01    0.68       1.0  T
  27   -111.4276782 -0.189525E-03  0.607E-01    0.64       1.0  T
  28   -111.4285323 -0.854163E-03  0.588E-01    0.45       1.0  T
  29   -110.6754684  0.753064E+00  0.253E+00    0.03       1.0  T
  30   -111.4289158 -0.753447E+00  0.585E-01    0.36       1.0  T
  31   -111.4230931  0.582272E-02  0.713E-01    1.45       1.0  T
  32   -111.4254159 -0.232286E-02  0.664E-01    1.03       1.0  T
  33   -111.4285723 -0.315636E-02  0.594E-01    0.39       1.0  T
  34   -110.6714223  0.757150E+00  0.255E+00    0.04       1.0  T
  35   -111.4140858 -0.742664E+00  0.877E-01    1.90       1.0  T
  36   -111.4189118 -0.482604E-02  0.795E-01    1.89       1.0  T
  37   -111.4263076 -0.739575E-02  0.651E-01    0.81       1.0  T
  38   -110.6811882  0.745119E+00  0.249E+00    0.05       1.0  T
  39   -111.4063401 -0.725152E+00  0.100E+00    1.91       1.0  T
  40   -111.4229440 -0.166039E-01  0.726E-01    1.39       1.0  T
  41   -111.4256789 -0.273490E-02  0.670E-01    0.88       1.0  T
  42   -110.6858996  0.739779E+00  0.246E+00    0.06       1.0  T
  43   -111.3972736 -0.711374E+00  0.113E+00    1.93       1.0  T
  44   -111.4192935 -0.220199E-01  0.799E-01    1.89       1.0  T
  45   -111.4238006 -0.450713E-02  0.713E-01    1.20       1.0  T
  46   -110.6848257  0.738975E+00  0.246E+00    0.06       1.0  T
  47   -111.3767299 -0.691904E+00  0.139E+00    1.89       1.0  T
  48   -111.4166308 -0.399009E-01  0.849E-01    1.89       1.0  T
  49   -111.4240265 -0.739567E-02  0.712E-01    1.11       1.0  T
  50   -110.6859616  0.738065E+00  0.246E+00    0.07       1.0  T
  51   -111.3673756 -0.681414E+00  0.149E+00    1.76       1.0  T
  52   -111.4153915 -0.480160E-01  0.872E-01    1.90       1.0  T
  53   -111.4263029 -0.109114E-01  0.668E-01    0.63       1.0  T
  54   -110.6796152  0.746688E+00  0.249E+00    0.07       1.0  T
  55   -111.3611752 -0.681560E+00  0.156E+00    1.66       1.0  T
  56   -111.4150972 -0.539220E-01  0.878E-01    1.90       1.0  T
  57   -111.4268402 -0.117429E-01  0.659E-01    0.49       1.0  T
  58   -107.7253056  0.370153E+01  0.499E+00    0.11       1.0  T
  59   -111.4050208 -0.367972E+01  0.101E+00    1.91       1.0  T
  60   -111.4226757 -0.176548E-01  0.720E-01    1.56       1.0  T
  61   -111.4281079 -0.543219E-02  0.606E-01    0.49       1.0  T
  62   -111.4319006 -0.379273E-02  0.549E-01    0.01       1.0  T
  63   -110.6779767  0.753924E+00  0.251E+00    0.04       1.0  T
  64   -111.4100875 -0.732111E+00  0.943E-01    1.91       1.0  T
  65   -111.4240754 -0.139879E-01  0.698E-01    1.25       1.0  T
  66   -111.4282750 -0.419961E-02  0.609E-01    0.39       1.0  T
  67   -110.6796314  0.748644E+00  0.250E+00    0.05       1.0  T
  68   -111.3940727 -0.714441E+00  0.117E+00    1.93       1.0  T
  69   -111.4218369 -0.277642E-01  0.746E-01    1.61       1.0  T
  70   -111.4288185 -0.698159E-02  0.601E-01    0.22       1.0  T
  71   -110.6769048  0.751914E+00  0.251E+00    0.05       1.0  T
  72   -111.3821645 -0.705260E+00  0.132E+00    1.94       1.0  T
  73   -111.4199580 -0.377935E-01  0.785E-01    1.89       1.0  T
  74   -111.1920179  0.227940E+00  0.146E+00    0.00       1.0  T
  75   -111.3890372 -0.197019E+00  0.124E+00    1.94       1.0  T
  76   -111.4201532 -0.311160E-01  0.783E-01    1.86       1.0  T
  77   -111.4287734 -0.862026E-02  0.608E-01    0.19       1.0  T
  78   -110.6753460  0.753427E+00  0.252E+00    0.03       1.0  T
  79   -111.3782994 -0.702953E+00  0.137E+00    1.91       1.0  T
  80   -111.4204470 -0.421476E-01  0.781E-01    1.77       1.0  T
  81   -110.6837099  0.736737E+00  0.247E+00    0.07       1.0  T
  82   -111.3674791 -0.683769E+00  0.149E+00    1.76       1.0  T
  83   -111.4194353 -0.519562E-01  0.803E-01    1.89       1.0  T
  84   -110.6842585  0.735177E+00  0.247E+00    0.07       1.0  T
  85   -111.3605726 -0.676314E+00  0.157E+00    1.66       1.0  T
  86   -111.4182624 -0.576898E-01  0.826E-01    1.89       1.0  T
  87   -110.6863905  0.731872E+00  0.245E+00    0.07       1.0  T
  88   -111.3562494 -0.669859E+00  0.161E+00    1.61       1.0  T
  89   -111.4180951 -0.618457E-01  0.830E-01    1.89       1.0  T
  90   -110.6872153  0.730880E+00  0.245E+00    0.08       1.0  T
  91   -111.3542857 -0.667070E+00  0.163E+00    1.58       1.0  T
  92   -111.4183183 -0.640327E-01  0.828E-01    1.89       1.0  T
  93   -110.6878712  0.730447E+00  0.244E+00    0.08       1.0  T
  94   -111.3540377 -0.666167E+00  0.164E+00    1.58       1.0  T
  95   -111.4187219 -0.646842E-01  0.822E-01    1.89       1.0  T
  96   -110.6882612  0.730461E+00  0.244E+00    0.08       1.0  T
  97   -111.3549320 -0.666671E+00  0.163E+00    1.60       1.0  T
  98   -111.4191003 -0.641683E-01  0.816E-01    1.86       1.0  T
  99   -110.6886878  0.730413E+00  0.244E+00    0.08       1.0  T
 100   -111.3563428 -0.667655E+00  0.161E+00    1.62       1.0  T
 101   -111.4193811 -0.630383E-01  0.811E-01    1.81       1.0  T
 102   -110.6892077  0.730173E+00  0.243E+00    0.08       1.0  T
 103   -111.3578700 -0.668662E+00  0.160E+00    1.64       1.0  T
 104   -111.4195524 -0.616824E-01  0.809E-01    1.77       1.0  T
 105   -110.6898626  0.729690E+00  0.243E+00    0.08       1.0  T
 106   -111.3592727 -0.669410E+00  0.159E+00    1.66       1.0  T
 107   -111.4196343 -0.603616E-01  0.808E-01    1.76       1.0  T
 108   -110.6906286  0.729006E+00  0.242E+00    0.08       1.0  T
 109   -111.3604611 -0.669832E+00  0.157E+00    1.68       1.0  T
 110   -111.4196515 -0.591904E-01  0.807E-01    1.75       1.0  T
 111   -110.6914765  0.728175E+00  0.242E+00    0.08       1.0  T
 112   -111.3614218 -0.669945E+00  0.156E+00    1.69       1.0  T
 113   -111.4196253 -0.582035E-01  0.808E-01    1.75       1.0  T
 114   -110.6923806  0.727245E+00  0.241E+00    0.08       1.0  T
 115   -111.3621798 -0.669799E+00  0.156E+00    1.71       1.0  T
 116   -111.4195691 -0.573893E-01  0.809E-01    1.76       1.0  T
 117   -110.6934065  0.726163E+00  0.241E+00    0.05       1.0  T
 118   -111.3627375 -0.669331E+00  0.155E+00    1.71       1.0  T
 119   -111.4194807 -0.567433E-01  0.811E-01    1.78       1.0  T
 120   -111.4293837 -0.990302E-02  0.621E-01    0.01       1.0  T
 121   -107.7246053  0.370478E+01  0.500E+00    0.13       1.0  T
 122   -111.3104313 -0.358583E+01  0.203E+00    0.95       1.0  T
 123   -111.3894790 -0.790477E-01  0.123E+00    1.94       1.0  T
 124   -111.4002759 -0.107969E-01  0.109E+00    1.93       1.0  T
 125   -111.4096452 -0.936931E-02  0.951E-01    1.91       1.0  T
 126   -111.4170297 -0.738442E-02  0.832E-01    1.89       1.0  T
 127   -111.4246379 -0.760828E-02  0.691E-01    1.10       1.0  T
 128   -110.6811016  0.743536E+00  0.249E+00    0.05       1.0  T
 129   -111.4135706 -0.732469E+00  0.892E-01    1.90       1.0  T
 130   -111.4261470 -0.125764E-01  0.663E-01    0.77       1.0  T
 131   -110.6811236  0.745023E+00  0.249E+00    0.06       1.0  T
 132   -111.4079416 -0.726818E+00  0.982E-01    1.91       1.0  T
 133   -111.4246999 -0.167584E-01  0.696E-01    1.02       1.0  T
 134   -110.6855300  0.739170E+00  0.246E+00    0.06       1.0  T
 135   -111.3964311 -0.710901E+00  0.115E+00    1.93       1.0  T
 136   -111.4234100 -0.269789E-01  0.724E-01    1.24       1.0  T
 137   -110.6871513  0.736259E+00  0.245E+00    0.07       1.0  T
 138   -111.3908105 -0.703659E+00  0.122E+00    1.94       1.0  T
 139   -111.4228967 -0.320861E-01  0.736E-01    1.31       1.0  T
 140   -110.6883471  0.734550E+00  0.244E+00    0.07       1.0  T
 141   -111.3862865 -0.697939E+00  0.128E+00    1.94       1.0  T
 142   -111.4223912 -0.361047E-01  0.748E-01    1.38       1.0  T
 143   -110.6897258  0.732665E+00  0.243E+00    0.07       1.0  T
 144   -111.3818290 -0.692103E+00  0.133E+00    1.94       1.0  T
 145   -111.4219308 -0.401018E-01  0.758E-01    1.45       1.0  T
 146   -110.6909900  0.730941E+00  0.242E+00    0.04       1.0  T
 147   -111.3782071 -0.687217E+00  0.138E+00    1.92       1.0  T
 148   -111.4215754 -0.433683E-01  0.766E-01    1.50       1.0  T
 149   -110.6937846  0.727791E+00  0.242E+00    0.01       1.0  T
 150   -111.3754236 -0.681639E+00  0.141E+00    1.89       1.0  T
 151   -111.4213346 -0.459111E-01  0.771E-01    1.53       1.0  T
 152   -111.4298737 -0.853905E-02  0.608E-01    0.01       1.0  T
 153   -107.7285994  0.370127E+01  0.498E+00    0.00       1.0  T
 154   -108.7017639 -0.973164E+00  0.474E+00    0.79       1.0  T
 155   -108.6426463  0.591175E-01  0.494E+00    0.52       1.0  T
 156   -108.6369500  0.569632E-02  0.496E+00    0.49       1.0  T
 157   -108.6318392  0.511079E-02  0.497E+00    0.46       1.0  T
 158   -108.6889444 -0.571052E-01  0.479E+00    0.63       1.0  T
 159   -108.6796577  0.928671E-02  0.483E+00    0.58       1.0  T
 160   -102.6012558  0.607840E+01  0.814E+00    0.76       1.0  T
 161   -102.5957326  0.552321E-02  0.814E+00    0.76       1.0  T
 162   -102.6081376 -0.124050E-01  0.812E+00    0.77       1.0  T
 163   -102.6078438  0.293716E-03  0.812E+00    0.77       1.0  T
 164   -102.5864218  0.214220E-01  0.812E+00    0.75       1.0  T
 165   -102.5193361  0.670857E-01  0.808E+00    0.85       1.0  T
 166   -102.5242025 -0.486638E-02  0.801E+00    0.78       1.0  T
 167   -102.5856740 -0.614715E-01  0.793E+00    0.79       1.0  T
 168   -102.8969193 -0.311245E+00  0.741E+00    0.79       1.0  T
 169   -102.8716209  0.252984E-01  0.746E+00    0.78       1.0  T
 170   -102.8685690  0.305189E-02  0.748E+00    0.79       1.0  T
 171   -102.8457983  0.227706E-01  0.757E+00    0.79       1.0  T
 172   -102.6650134  0.180785E+00  0.792E+00    0.77       1.0  T
 173   -102.6822551 -0.172418E-01  0.788E+00    0.78       1.0  T
 174   -102.7099221 -0.276670E-01  0.765E+00    0.81       1.0  T
 175   -102.4921467  0.217775E+00  0.809E+00    0.76       1.0  T
 176   -102.1614005  0.330746E+00  0.840E+00    0.65       1.0  T
 177    -99.0603717  0.310103E+01  0.916E+00    0.46       1.0  T
 178    -98.2021801  0.858192E+00  0.949E+00    0.39       1.0  T
 179    -98.1747805  0.273995E-01  0.950E+00    0.38       1.0  T
 180    -97.8137383  0.361042E+00  0.988E+00    0.37       1.0  T
 181    -97.9221415 -0.108403E+00  0.977E+00    0.38       1.0  T
 182    -97.9434977 -0.213562E-01  0.975E+00    0.40       1.0  T
 183    -97.8670623  0.764355E-01  0.985E+00    0.38       1.0  T
 184    -97.6693184  0.197744E+00  0.104E+01    0.44       1.0  T
 185    -97.7071221 -0.378037E-01  0.104E+01    0.45       1.0  T
 186    -97.7160885 -0.896640E-02  0.107E+01    0.41       1.0  T
 187    -97.6789171  0.371714E-01  0.108E+01    0.40       1.0  T
 188    -97.3442621  0.334655E+00  0.113E+01    0.31       1.0  T
 189    -97.3538962 -0.963415E-02  0.114E+01    0.29       1.0  T
 190    -97.6548516 -0.300955E+00  0.112E+01    0.30       1.0  T
 191    -97.8270810 -0.172229E+00  0.113E+01    0.12       1.0  T
 192    -97.8441065 -0.170256E-01  0.113E+01    0.05       1.0  T
 193   -101.5463092 -0.370220E+01  0.110E+01    0.21       1.0  T
 194   -101.5689063 -0.225971E-01  0.110E+01    0.30       1.0  T
 195   -101.5870571 -0.181508E-01  0.109E+01    0.39       1.0  T
 196   -101.6317552 -0.446981E-01  0.109E+01    0.40       1.0  T
 197   -101.6685001 -0.367448E-01  0.108E+01    0.41       1.0  T
 198   -101.6684040  0.960667E-04  0.108E+01    0.40       1.0  T
 199   -101.6675593  0.844700E-03  0.108E+01    0.40       1.0  T
 200   -101.6017282  0.658311E-01  0.110E+01    0.40       1.0  T
 201   -101.3535939  0.248134E+00  0.117E+01    0.25       1.0  T
 202   -101.3348064  0.187875E-01  0.117E+01    0.21       1.0  T
 203   -101.4029888 -0.681824E-01  0.116E+01    0.24       1.0  T
 204   -101.0783774  0.324611E+00  0.120E+01    0.08       1.0  T
 205   -101.0850771 -0.669970E-02  0.120E+01    0.10       1.0  T
 206   -103.2570469 -0.217197E+01  0.125E+01    0.15       1.0  T
 207    -96.6067733  0.665027E+01  0.133E+01    0.13       1.0  T
 208    -96.5761748  0.305985E-01  0.133E+01    0.14       1.0  T
 209    -96.5908982 -0.147234E-01  0.133E+01    0.14       1.0  T
 210    -97.9355306 -0.134463E+01  0.132E+01    0.01       1.0  T
 211    -99.0855325 -0.115000E+01  0.129E+01    0.07       1.0  T
 212   -100.5558916 -0.147036E+01  0.126E+01    0.08       1.0  T
 213   -100.1034656  0.452426E+00  0.127E+01    0.08       1.0  T
 214   -103.6170400 -0.351357E+01  0.123E+01    0.16       1.0  T
 215   -101.4234954  0.219354E+01  0.123E+01    0.02       1.0  T
 216   -103.4354732 -0.201198E+01  0.124E+01    0.04       1.0  T
 217   -101.8351096  0.160036E+01  0.128E+01    0.08       1.0  T
 218    -99.6993321  0.213578E+01  0.132E+01    0.13       1.0  T
 219   -101.9820595 -0.228273E+01  0.129E+01    0.09       1.0  T
 220    -99.5028279  0.247923E+01  0.133E+01    0.17       1.0  T
 221    -99.6815097 -0.178682E+00  0.132E+01    0.17       1.0  T
 222    -99.7268168 -0.453071E-01  0.132E+01    0.16       1.0  T
 223   -102.9462745 -0.321946E+01  0.128E+01    0.13       1.0  T
 224   -102.5990014  0.347273E+00  0.130E+01    0.11       1.0  T
 225   -103.6938306 -0.109483E+01  0.126E+01    0.34       1.0  T
 226   -103.7432930 -0.494624E-01  0.126E+01    0.33       1.0  T
 227   -103.7325727  0.107203E-01  0.126E+01    0.33       1.0  T
 228   -103.6890632  0.435095E-01  0.127E+01    0.32       1.0  T
 229   -103.7193155 -0.302523E-01  0.126E+01    0.28       1.0  T
 230   -103.7271335 -0.781803E-02  0.126E+01    0.29       1.0  T
 231   -103.8161523 -0.890188E-01  0.126E+01    0.33       1.0  T
 232   -103.8919494 -0.757971E-01  0.124E+01    0.33       1.0  T
 233   -103.9786510 -0.867017E-01  0.122E+01    0.29       1.0  T
 234   -104.1268472 -0.148196E+00  0.116E+01    0.24       1.0  T
 235   -104.1236623  0.318494E-02  0.115E+01    0.23       1.0  T
 236   -104.0768173  0.468450E-01  0.115E+01    0.19       1.0  T
 237   -104.0145425  0.622748E-01  0.116E+01    0.18       1.0  T
 238   -103.9009652  0.113577E+00  0.117E+01    0.11       1.0  T
 239   -103.9570945 -0.561293E-01  0.115E+01    0.11       1.0  T
 240   -103.9678716 -0.107772E-01  0.114E+01    0.10       1.0  T
 241   -104.0635811 -0.957095E-01  0.111E+01    0.14       1.0  T
 242   -100.6447017  0.341888E+01  0.115E+01    0.09       1.0  T
 243   -100.6682716 -0.235699E-01  0.116E+01    0.08       1.0  T
 244   -100.6769186 -0.864707E-02  0.116E+01    0.10       1.0  T
 245   -100.6485959  0.283227E-01  0.115E+01    0.13       1.0  T
 246   -100.5869702  0.616257E-01  0.115E+01    0.06       1.0  T
 247   -100.5813044  0.566586E-02  0.115E+01    0.03       1.0  T
 248   -100.6271539 -0.458495E-01  0.114E+01    0.17       1.0  T
 249   -100.6592673 -0.321134E-01  0.114E+01    0.15       1.0  T
 250   -100.6225762  0.366910E-01  0.114E+01    0.19       1.0  T

   *** convergence criteria cannot be satisfied within 250 iterations ***

         #    Occupation            Energy/Eh            Energy/eV
      -------------------------------------------------------------
         1        2.0000           -2.5698874             -69.9302
       ...           ...                  ...                  ...
        93        2.0000           -0.1818167              -4.9475
        94        2.0000           -0.1688223              -4.5939
        95        2.0000           -0.1618311              -4.4036
        96        2.0000           -0.1526152              -4.1529
        97        2.0000           -0.1383707              -3.7653
        98        2.0000           -0.1324081              -3.6030
        99        2.0000           -0.1320456              -3.5931 (HOMO)
       100                         -0.1250448              -3.4026 (LUMO)
       101                         -0.1132274              -3.0811
       102                         -0.1069976              -2.9116
       103                         -0.0571892              -1.5562
       104                         -0.0489831              -1.3329
       ...                                ...                  ...
       184                          1.3620888              37.0643
      -------------------------------------------------------------
                  HL-Gap            0.0070008 Eh            0.1905 eV
             Fermi-level            0.0000000 Eh            0.0000 eV

 SCC (total)                   0 d,  0 h,  0 min,  4.491 sec
 SCC setup                      ...        0 min,  0.003 sec (  0.067%)
 Dispersion                     ...        0 min,  0.004 sec (  0.089%)
 classical contributions        ...        0 min,  0.000 sec (  0.000%)
 integral evaluation            ...        0 min,  0.036 sec (  0.802%)
 iterations                     ...        0 min,  4.331 sec ( 96.437%)
 molecular gradient             ...        0 min,  0.116 sec (  2.583%)
 printout                       ...        0 min,  0.001 sec (  0.022%)

########################################################################
[ERROR] Program stopped due to fatal error
-3- Single point calculation terminated
-2- xtb_calculator_singlepoint: Electronic structure method terminated
-1- scf: Self consistent charge iterator did not converge
########################################################################


===== STDERR =====

abnormal termination of xtb
