76
 energy: -110.267252105755 gnorm: 0.000640823363 xtb: 6.7.1pre (5071a88)
N            0.59561544004608        0.86796099474463        0.45497203816773
C            1.94443465121172        0.62408734612512        0.36935534767314
C            2.92352571628874        1.57971575481074        0.65792510920713
C            4.26262680385548        1.25771393849321        0.58397560778623
C            4.68325706201125       -0.01918178483118        0.23189361940980
C            3.71062158561682       -0.97938018771405       -0.02304850411455
C            2.36851786598439       -0.67047347351954        0.04871201747113
C            6.14433536858957       -0.33248062280707        0.08336273557330
C            6.69662353461095        0.25868096614582       -1.21679894047432
C           -0.09473180299674        2.05783714196679        0.38542620429074
C            0.30526306250526        3.24465811290309       -0.06852785122052
C           -0.62616756370365        4.43178686655287       -0.10086830774211
C            0.13158581930697        5.76713481887790       -0.20928795416755
C            0.80371611269954        5.96955104242072       -1.56548319611667
C            1.50586793129935        7.31986773418925       -1.64473403319902
O           -1.81837970768671       -0.80576765482719        0.41173321911250
N           -2.30699270480833        4.40615508520243        3.19843696654064
C           -3.41252446649609        4.45084726096022        2.40446436015507
C           -2.96426578665957        4.46821291875587        1.05786764446512
C           -1.53582613971896        4.43893536506526        1.09473295170891
C           -4.76272449096649        4.45939473549305        2.72727241205891
C           -3.90909838049047        4.49397899645295        0.02853807120008
C           -1.17619336323398        4.40192482237529        2.41836598686496
C           -5.67068670835302        4.48422978222795        1.68885674183864
C           -5.24769919215760        4.50085100396243        0.35683470576194
C            0.16279281108790        4.35460432703514        3.05993567532490
O           -3.68582553951018        1.30639108107154        0.73475831038249
H           -0.00308373597650        0.04950474461211        0.47375157948036
H           -2.22332800338090       -1.38580099701944       -0.23425103546908
H            2.63112890328549        2.56683648872355        0.97558914819690
H            5.00062370349565        2.01277106824527        0.81552115475904
H            4.00781374051709       -1.99097164279601       -0.26747534394340
H            1.62522044411625       -1.43240389231172       -0.13948249128958
H            6.31262629882739       -1.41090441075840        0.07000604613601
H            6.71772141198324        0.08187277944671        0.91400245034988
H            6.69639249550880        1.35540255790294       -1.17560626995656
H            5.23690360240070       -0.91595609450207       -2.17522067978254
H            8.18670357883995        1.15564086044839       -2.97039423430730
H           -1.11271345244832        1.94907028798572        0.73618380156386
H            1.28892159103392        3.38823655649647       -0.48300342640399
H           -1.25982160641517        4.34988808585682       -0.99528825723326
H           -0.58455103142056        6.58093660491375       -0.05892355346942
H            0.88013245138134        5.83015725127321        0.58263900444100
H            1.53252911429582        5.17768360410001       -1.74380178956103
H            0.04942379125851        5.90571392359715       -2.35364890448081
H            1.98454772044419        7.44554437251436       -2.61298247374348
H            0.79401909192218        8.13142321526186       -1.50672136480290
H            2.26851169156225        7.39937256494666       -0.87291444400873
H           -2.30193180556077        4.44061769368640        4.20337409557145
H           -1.15898499070088        6.85274769547007        2.25393672740667
H           -5.08786696344117        4.45106235367722        3.75710258397424
H           -3.59648524992606        4.51371667137306       -1.00552807404142
H           -6.72835900708383        4.49384703340542        1.90504836453203
H           -5.98982421763442        4.52227938432315       -0.42731445085060
H            0.92255399990158        4.12742920119397        2.31930867725414
H            0.39167760615247        5.31209615457589        3.52862158366288
H            0.18601964611111        3.58410237117133        3.82959794161174
H           -4.22071469021020        1.40512282873264        1.52456360353632
H           -3.54982479947962        2.19469055641002        0.38470757887160
O           -1.04319593381503        7.46940814804106        2.98321878961866
H           -2.45194477900660       -0.08648591680716        0.55757411210348
H           -1.19091547916882        8.35063176786134        2.63565340640575
N            5.84929984149921       -0.13059024818138       -2.33176322771298
C            8.14625869175418       -0.21265873496105       -1.46887693707791
O            8.66922687731921       -1.10841019420483       -0.83813429219780
C            4.64899110428713        0.11052296496603       -4.39406366269564
C            5.72312176518699        0.60274595145501       -3.45182836909716
O            6.42798191831247        1.57183721854455       -3.68249527581200
H            4.84774080998305       -0.91911099228522       -4.68300486733401
H            4.63266821909327        0.73676509951145       -5.28108084276327
H            3.67940295867358        0.15586329945680       -3.90232710773158
N            8.74155802073352        0.48111600473321       -2.45072069204471
C           10.07690719513786        0.18983833645218       -2.90949103650075
H           10.69719142825367        1.08612714301442       -2.85996351104988
H           10.06339258264113       -0.17620095892752       -3.93827449293705
H           10.49366553175925       -0.57736513359271       -2.25849047946698
