      -----------------------------------------------------------      
     |                   =====================                   |     
     |                           x T B                           |     
     |                   =====================                   |     
     |                         S. Grimme                         |     
     |          Mulliken Center for Theoretical Chemistry        |     
     |                    University of Bonn                     |     
      -----------------------------------------------------------      

   * xtb version 6.7.1pre (5071a88) compiled by 'Marcel@Raven' on 2024-07-23

   xtb is free software: you can redistribute it and/or modify it under
   the terms of the GNU Lesser General Public License as published by
   the Free Software Foundation, either version 3 of the License, or
   (at your option) any later version.
   
   xtb is distributed in the hope that it will be useful,
   but WITHOUT ANY WARRANTY; without even the implied warranty of
   MERCHANTABILITY or FITNESS FOR A PARTICULAR PURPOSE.  See the
   GNU Lesser General Public License for more details.
   
   Cite this work as:
   * C. Bannwarth, E. Caldeweyher, S. Ehlert, A. Hansen, P. Pracht,
     J. Seibert, S. Spicher, S. Grimme, WIREs Comput. Mol. Sci., 2020, 11,
     e01493. DOI: 10.1002/wcms.1493
   
   for GFN2-xTB:
   * C. Bannwarth, S. Ehlert and S. Grimme., J. Chem. Theory Comput., 2019,
     15, 1652-1671. DOI: 10.1021/acs.jctc.8b01176
   for GFN1-xTB:
   * S. Grimme, C. Bannwarth, P. Shushkov, J. Chem. Theory Comput., 2017,
     13, 1989-2009. DOI: 10.1021/acs.jctc.7b00118
   for GFN0-xTB:
   * P. Pracht, E. Caldeweyher, S. Ehlert, S. Grimme, ChemRxiv, 2019, preprint.
     DOI: 10.26434/chemrxiv.8326202.v1
   for GFN-FF:
   * S. Spicher and S. Grimme, Angew. Chem. Int. Ed., 2020, 59, 15665-15673.
     DOI: 10.1002/anie.202004239
   
   for ALPB and GBSA implicit solvation:
   * S. Ehlert, M. Stahn, S. Spicher, S. Grimme, J. Chem. Theory Comput.,
     2021, 17, 4250-4261. DOI: 10.1021/acs.jctc.1c00471
   
   for ddCOSMO and CPCM-X implicit solvation:
   * M. Stahn, S. Ehlert, S. Grimme, J. Phys. Chem. A,
     2023, XX, XXXX-XXXX. DOI: 10.1021/acs.jpca.3c04382
   
   for DFT-D4:
   * E. Caldeweyher, C. Bannwarth and S. Grimme, J. Chem. Phys., 2017,
     147, 034112. DOI: 10.1063/1.4993215
   * E. Caldeweyher, S. Ehlert, A. Hansen, H. Neugebauer, S. Spicher,
     C. Bannwarth and S. Grimme, J. Chem. Phys., 2019, 150, 154122.
     DOI: 10.1063/1.5090222
   * E. Caldeweyher, J.-M. Mewes, S. Ehlert and S. Grimme, Phys. Chem. Chem. Phys.
     2020, 22, 8499-8512. DOI: 10.1039/D0CP00502A
   
   for sTDA-xTB:
   * S. Grimme and C. Bannwarth, J. Chem. Phys., 2016, 145, 054103.
     DOI: 10.1063/1.4959605
   
   in the mass-spec context:
   * V. Asgeirsson, C. Bauer and S. Grimme, Chem. Sci., 2017, 8, 4879.
     DOI: 10.1039/c7sc00601b
   * J. Koopman and S. Grimme, ACS Omega 2019, 4, 12, 15120-15133.
     DOI: 10.1021/acsomega.9b02011
   
   for metadynamics refer to:
   * S. Grimme, J. Chem. Theory Comput., 2019, 155, 2847-2862
     DOI: 10.1021/acs.jctc.9b00143
   
   for SPH calculations refer to:
   * S. Spicher and S. Grimme, J. Chem. Theory Comput., 2021, 17, 1701-1714
     DOI: 10.1021/acs.jctc.0c01306
   
   for ONIOM refer to:
   * C. Plett, A. Katbashev, S. Ehlert, S. Grimme, M. Bursch,
     Phys. Chem. Chem. Phys., 2023, 25, 17860-17868. DOI: 10.1039/D3CP02178E
   
   for DIPRO refer to:
   * J. Kohn, N. Gildemeister, S. Grimme, D. Fazzi, A. Hansen,
     J. Chem. Phys., 2023, just accepted.
   
   for PTB refer to:
   * S. Grimme, M. Mueller, A. Hansen, J. Chem. Phys., 2023, 158, 124111.
     DOI: 10.1063/5.0137838
   
   with help from (in alphabetical order)
   P. Atkinson, C. Bannwarth, F. Bohle, G. Brandenburg, E. Caldeweyher
   M. Checinski, S. Dohm, S. Ehlert, S. Ehrlich, I. Gerasimov, C. Hölzer
   A. Katbashev, J. Kohn, J. Koopman, C. Lavigne, S. Lehtola, F. März, M. Müller,
   F. Musil, H. Neugebauer, J. Pisarek, C. Plett, P. Pracht, F. Pultar,
   J. Seibert, P. Shushkov, S. Spicher, M. Stahn, M. Steiner, T. Strunk,
   J. Stückrath, T. Rose, and J. Unsleber
   
 * started run on 2026/08/31 at 13:17:08.071     
   ID    Z sym.   atoms
    1    7 N      1, 17, 63, 72
    2    6 C      2-15, 18-26, 64, 66, 67, 73
    3    8 O      16, 27, 60, 65, 68
    4    1 H      28-59, 61, 62, 69-71, 74-76

           -------------------------------------------------
          |                Calculation Setup                |
           -------------------------------------------------

          program call               : C:\Users\Nayanika\Downloads\xtb-6.7.1pre-windows-x86_64\xtb-6.7.1\bin\xtb.exe D:\PhD_Thesis\LmrR_EVB\charges\fast_lmrr_5QM\xtb_preparation\stage2_five_xtb_protocols\GFN2_etemp500\TS2_1a_to_PS2_2\TS2_1a_to_PS2_2_PS_xtbopt.xyz --gfn 2 --chrg 0 --uhf 0 --etemp 500
          coordinate file            : D:\PhD_Thesis\LmrR_EVB\charges\fast_lmrr_5QM\xtb_preparation\stage2_five_xtb_protocols\GFN2_etemp500\TS2_1a_to_PS2_2\TS2_1a_to_PS2_2_PS_xtbopt.xyz
          omp threads                :                     1


molecular fragmentation (1/2 indicates fragments):
111111111111111111111111112111111111111111111111121111111122221111111111
1111
# atoms in fragment 1/2:    70     6
 fragment masses (1/2) :      464.60       36.03
CMA distance (Bohr)    :   9.656
constraining FC (au)   :  0.0500

           -------------------------------------------------
          |                 G F N 2 - x T B                 |
           -------------------------------------------------

        Reference                      10.1021/acs.jctc.8b01176
      * Hamiltonian:
        H0-scaling (s, p, d)           1.850000    2.230000    2.230000
        zeta-weighting                 0.500000
      * Dispersion:
        s8                             2.700000
        a1                             0.520000
        a2                             5.000000
        s9                             5.000000
      * Repulsion:
        kExp                           1.500000    1.000000
        rExp                           1.000000
      * Coulomb:
        alpha                          2.000000
        third order                    shell-resolved
        anisotropic                    true
        a3                             3.000000
        a5                             4.000000
        cn-shift                       1.200000
        cn-exp                         4.000000
        max-rad                        5.000000

q/qsh data taken from xtbrestart
CAMM data taken from xtbrestart

          ...................................................
          :                      SETUP                      :
          :.................................................:
          :  # basis functions                 184          :
          :  # atomic orbitals                 184          :
          :  # shells                          112          :
          :  # electrons                       198          :
          :  max. iterations                   250          :
          :  Hamiltonian                  GFN2-xTB          :
          :  restarted?                       true          :
          :  GBSA solvation                  false          :
          :  PC potential                    false          :
          :  electronic temp.          500.0000000     K    :
          :  accuracy                    1.0000000          :
          :  -> integral cutoff          0.2500000E+02      :
          :  -> integral neglect         0.1000000E-07      :
          :  -> SCF convergence          0.1000000E-05 Eh   :
          :  -> wf. convergence          0.1000000E-03 e    :
          :  Broyden damping             0.4000000          :
          :  net charge                          0          :
          :  unpaired electrons                  0          :
          ...................................................

 iter      E             dE          RMSdq      gap      omega  full diag
   1   -111.7704860 -0.111770E+03  0.262E+00    3.42       0.0  T
   2   -111.8188881 -0.484021E-01  0.157E+00    3.49       1.0  T
   3   -111.8126147  0.627337E-02  0.611E-01    3.47       1.0  T
   4   -111.8239273 -0.113126E-01  0.213E-01    3.40       1.0  T
   5   -111.8265032 -0.257590E-02  0.790E-02    3.39       1.0  T
   6   -111.8266785 -0.175336E-03  0.316E-02    3.39       1.0  T
   7   -111.8266887 -0.102072E-04  0.160E-02    3.38       1.0  T
   8   -111.8266982 -0.942180E-05  0.479E-03    3.38       2.4  T
   9   -111.8266985 -0.368156E-06  0.193E-03    3.38       5.9  T
  10   -111.8266986 -0.623540E-07  0.822E-04    3.38      14.0  T
  11   -111.8266986 -0.176011E-07  0.301E-04    3.38      38.1  T

   *** convergence criteria satisfied after 11 iterations ***

         #    Occupation            Energy/Eh            Energy/eV
      -------------------------------------------------------------
         1        2.0000           -0.7127790             -19.3957
       ...           ...                  ...                  ...
        93        2.0000           -0.4052043             -11.0262
        94        2.0000           -0.4032955             -10.9742
        95        2.0000           -0.3983866             -10.8407
        96        2.0000           -0.3856522             -10.4941
        97        2.0000           -0.3769535             -10.2574
        98        2.0000           -0.3749999             -10.2043
        99        2.0000           -0.3554045              -9.6710 (HOMO)
       100                         -0.2310419              -6.2870 (LUMO)
       101                         -0.2289781              -6.2308
       102                         -0.2254304              -6.1343
       103                         -0.2177441              -5.9251
       104                         -0.2070350              -5.6337
       ...                                ...                  ...
       184                          0.7221916              19.6518
      -------------------------------------------------------------
                  HL-Gap            0.1243626 Eh            3.3841 eV
             Fermi-level           -0.2932232 Eh           -7.9790 eV

 SCC (total)                   0 d,  0 h,  0 min,  0.465 sec
 SCC setup                      ...        0 min,  0.002 sec (  0.430%)
 Dispersion                     ...        0 min,  0.002 sec (  0.430%)
 classical contributions        ...        0 min,  0.000 sec (  0.000%)
 integral evaluation            ...        0 min,  0.033 sec (  7.097%)
 iterations                     ...        0 min,  0.324 sec ( 69.677%)
 molecular gradient             ...        0 min,  0.103 sec ( 22.151%)
 printout                       ...        0 min,  0.001 sec (  0.215%)

         :::::::::::::::::::::::::::::::::::::::::::::::::::::
         ::                     SUMMARY                     ::
         :::::::::::::::::::::::::::::::::::::::::::::::::::::
         :: total energy            -110.294632565482 Eh    ::
         :: gradient norm              0.000255715693 Eh/a0 ::
         :: HOMO-LUMO gap              3.384079705810 eV    ::
         ::.................................................::
         :: SCC energy              -111.824068966526 Eh    ::
         :: -> isotropic ES            0.184465613620 Eh    ::
         :: -> anisotropic ES          0.006951245803 Eh    ::
         :: -> anisotropic XC          0.040831835319 Eh    ::
         :: -> dispersion             -0.082184120731 Eh    ::
         :: repulsion energy           1.529436401044 Eh    ::
         :: add. restraining           0.000000000000 Eh    ::
         :: total charge              -0.000000000000 e     ::
         :::::::::::::::::::::::::::::::::::::::::::::::::::::

           -------------------------------------------------
          |                Property Printout                |
           -------------------------------------------------

    * Orbital Energies and Occupations

         #    Occupation            Energy/Eh            Energy/eV
      -------------------------------------------------------------
         1        2.0000           -0.7127790             -19.3957
       ...           ...                  ...                  ...
        87        2.0000           -0.4169417             -11.3456
        88        2.0000           -0.4149354             -11.2910
        89        2.0000           -0.4133782             -11.2486
        90        2.0000           -0.4112989             -11.1920
        91        2.0000           -0.4085883             -11.1183
        92        2.0000           -0.4057829             -11.0419
        93        2.0000           -0.4052043             -11.0262
        94        2.0000           -0.4032955             -10.9742
        95        2.0000           -0.3983866             -10.8407
        96        2.0000           -0.3856522             -10.4941
        97        2.0000           -0.3769535             -10.2574
        98        2.0000           -0.3749999             -10.2043
        99        2.0000           -0.3554045              -9.6710 (HOMO)
       100                         -0.2310419              -6.2870 (LUMO)
       101                         -0.2289781              -6.2308
       102                         -0.2254304              -6.1343
       103                         -0.2177441              -5.9251
       104                         -0.2070350              -5.6337
       105                         -0.1928344              -5.2473
       106                         -0.1539053              -4.1880
       107                         -0.1047402              -2.8501
       108                         -0.0669602              -1.8221
       109                          0.0007923               0.0216
       110                          0.0022363               0.0609
       ...                                ...                  ...
       184                          0.7221916              19.6518
      -------------------------------------------------------------
                  HL-Gap            0.1243626 Eh            3.3841 eV
             Fermi-level           -0.2932232 Eh           -7.9790 eV

     #   Z          covCN         q      C6AA      α(0)
     1   7 N        2.685    -0.263    26.825     7.692
     2   6 C        2.907     0.074    26.340     8.415
     3   6 C        2.923    -0.046    29.131     8.851
     4   6 C        2.925    -0.038    28.950     8.824
     5   6 C        2.970     0.004    27.920     8.667
     6   6 C        2.924    -0.043    29.080     8.843
     7   6 C        2.921    -0.051    29.273     8.873
     8   6 C        3.811    -0.071    21.842     6.652
     9   6 C        3.797     0.019    20.252     6.408
    10   6 C        3.663     0.184    17.909     6.070
    11   6 C        3.808    -0.067    21.785     6.644
    12   6 C        3.855    -0.028    21.043     6.524
    13   6 C        3.805    -0.064    21.734     6.637
    14   6 C        3.801    -0.062    21.687     6.630
    15   6 C        3.752    -0.103    22.531     6.769
    16   8 O        1.654    -0.473    22.314     6.377
    17   7 N        2.784    -0.120    23.612     7.217
    18   6 C        3.070     0.041    27.002     8.520
    19   6 C        3.112    -0.025    28.473     8.742
    20   6 C        3.057    -0.050    29.188     8.860
    21   6 C        2.909    -0.055    29.367     8.886
    22   6 C        2.912    -0.049    29.222     8.864
    23   6 C        3.061     0.040    27.044     8.528
    24   6 C        2.924    -0.040    28.982     8.829
    25   6 C        2.919    -0.045    29.116     8.849
    26   6 C        3.754    -0.111    22.688     6.792
    27   8 O        1.610    -0.597    25.113     6.764
    28   1 H        0.860     0.146     1.432     1.875
    29   1 H        0.805     0.292     0.744     1.355
    30   1 H        0.926     0.043     2.411     2.428
    31   1 H        0.926     0.037     2.495     2.470
    32   1 H        0.925     0.031     2.575     2.510
    33   1 H        0.925     0.026     2.640     2.541
    34   1 H        0.924     0.065     2.146     2.291
    35   1 H        0.924     0.060     2.202     2.321
    36   1 H        0.924     0.063     2.168     2.303
    37   1 H        0.860     0.178     1.224     1.733
    38   1 H        0.860     0.206     1.076     1.625
    39   1 H        0.923     0.025     2.657     2.549
    40   1 H        0.924     0.049     2.334     2.389
    41   1 H        0.924     0.063     2.165     2.301
    42   1 H        0.924     0.040     2.452     2.449
    43   1 H        0.924     0.030     2.582     2.513
    44   1 H        0.924     0.021     2.717     2.578
    45   1 H        0.924     0.059     2.216     2.328
    46   1 H        0.925     0.030     2.589     2.516
    47   1 H        0.925     0.035     2.514     2.480
    48   1 H        0.925     0.030     2.580     2.512
    49   1 H        0.860     0.156     1.364     1.829
    50   1 H        0.805     0.274     0.806     1.410
    51   1 H        0.926     0.019     2.746     2.592
    52   1 H        0.926     0.040     2.449     2.447
    53   1 H        0.926     0.024     2.678     2.559
    54   1 H        0.926     0.024     2.668     2.554
    55   1 H        0.925     0.052     2.290     2.367
    56   1 H        0.924     0.052     2.301     2.372
    57   1 H        0.925     0.040     2.444     2.445
    58   1 H        0.925     0.047     2.358     2.401
    59   1 H        0.805     0.283     0.776     1.383
    60   8 O        1.610    -0.601    25.200     6.775
    61   1 H        0.804     0.314     0.681     1.296
    62   1 H        0.804     0.304     0.709     1.323
    63   7 N        2.692    -0.183    24.973     7.422
    64   6 C        2.753     0.263    22.557     7.777
    65   8 O        0.858    -0.436    22.417     6.348
    66   6 C        3.757    -0.143    23.311     6.884
    67   6 C        2.749     0.277    22.306     7.733
    68   8 O        0.859    -0.455    22.810     6.403
    69   1 H        0.925     0.055     2.261     2.352
    70   1 H        0.925     0.060     2.194     2.316
    71   1 H        0.925     0.079     1.985     2.203
    72   7 N        2.686    -0.176    24.805     7.397
    73   6 C        3.690    -0.043    21.530     6.640
    74   1 H        0.924     0.053     2.286     2.364
    75   1 H        0.924     0.050     2.320     2.382
    76   1 H        0.925     0.082     1.955     2.187

 Mol. C6AA /au·bohr⁶  :      55559.636768
 Mol. C8AA /au·bohr⁸  :    1265584.756137
 Mol. α(0) /au        :        361.954913


Wiberg/Mayer (AO) data.
largest (>0.10) Wiberg bond orders for each atom

 ---------------------------------------------------------------------------
     #   Z sym  total        # sym  WBO       # sym  WBO       # sym  WBO
 ---------------------------------------------------------------------------
     1   7 N    3.150 --     2 C    1.045    10 C    0.995    28 H    0.946
     2   6 C    3.974 --     7 C    1.396     3 C    1.378     1 N    1.045
                             5 C    0.101
     3   6 C    3.991 --     4 C    1.465     2 C    1.378    30 H    0.966
                             6 C    0.106
     4   6 C    3.991 --     3 C    1.465     5 C    1.397    31 H    0.968
                             7 C    0.107
     5   6 C    3.987 --     6 C    1.416     4 C    1.397     8 C    1.010
                             2 C    0.101
     6   6 C    3.990 --     7 C    1.442     5 C    1.416    32 H    0.968
                             3 C    0.106
     7   6 C    3.990 --     6 C    1.442     2 C    1.396    33 H    0.968
                             4 C    0.107
     8   6 C    3.991 --     5 C    1.010     9 C    0.984    34 H    0.970
                            35 H    0.961
     9   6 C    3.964 --     8 C    0.984    63 N    0.975    36 H    0.951
                            64 C    0.915
    10   6 C    3.939 --     1 N    0.995    11 C    0.993    39 H    0.956
                            16 O    0.944
    11   6 C    3.991 --    10 C    0.993    12 C    0.980    40 H    0.969
                            58 H    0.967
    12   6 C    3.991 --    20 C    1.005    13 C    0.985    11 C    0.980
                            41 H    0.954
    13   6 C    3.995 --    14 C    1.008    12 C    0.985    42 H    0.977
                            43 H    0.975
    14   6 C    3.995 --    15 C    1.019    13 C    1.008    44 H    0.976
                            45 H    0.972
    15   6 C    3.996 --    14 C    1.019    47 H    0.988    48 H    0.987
                            46 H    0.987
    16   8 O    1.978 --    10 C    0.944    29 H    0.897
    17   7 N    3.528 --    18 C    1.174    23 C    1.172    49 H    0.945
    18   6 C    3.958 --    21 C    1.343    19 C    1.243    17 N    1.174
    19   6 C    3.983 --    22 C    1.331    18 C    1.243    20 C    1.203
    20   6 C    3.971 --    23 C    1.551    19 C    1.203    12 C    1.005
    21   6 C    3.988 --    24 C    1.487    18 C    1.343    51 H    0.969
                            22 C    0.111
    22   6 C    3.989 --    25 C    1.501    19 C    1.331    52 H    0.963
                            21 C    0.111
    23   6 C    3.950 --    20 C    1.551    17 N    1.172    26 C    1.029
    24   6 C    3.988 --    21 C    1.487    25 C    1.374    53 H    0.972
    25   6 C    3.990 --    22 C    1.501    24 C    1.374    54 H    0.972
    26   6 C    3.995 --    23 C    1.029    57 H    0.980    55 H    0.975
                            56 H    0.967
    27   8 O    1.855 --    59 H    0.918    61 H    0.859
    28   1 H    0.978 --     1 N    0.946
    29   1 H    0.914 --    16 O    0.897
    30   1 H    0.998 --     3 C    0.966
    31   1 H    0.998 --     4 C    0.968
    32   1 H    0.999 --     6 C    0.968
    33   1 H    0.999 --     7 C    0.968
    34   1 H    0.995 --     8 C    0.970
    35   1 H    0.995 --     8 C    0.961
    36   1 H    0.996 --     9 C    0.951
    37   1 H    0.968 --    63 N    0.937
    38   1 H    0.958 --    72 N    0.907
    39   1 H    0.999 --    10 C    0.956
    40   1 H    0.997 --    11 C    0.969
    41   1 H    0.996 --    12 C    0.954
    42   1 H    0.998 --    13 C    0.977
    43   1 H    0.999 --    13 C    0.975
    44   1 H    1.000 --    14 C    0.976
    45   1 H    0.996 --    14 C    0.972
    46   1 H    0.999 --    15 C    0.987
    47   1 H    0.999 --    15 C    0.988
    48   1 H    0.999 --    15 C    0.987
    49   1 H    0.975 --    17 N    0.945
    50   1 H    0.925 --    60 O    0.922
    51   1 H    0.999 --    21 C    0.969
    52   1 H    0.998 --    22 C    0.963
    53   1 H    0.999 --    24 C    0.972
    54   1 H    0.999 --    25 C    0.972
    55   1 H    0.996 --    26 C    0.975
    56   1 H    0.993 --    26 C    0.967
    57   1 H    0.997 --    26 C    0.980
    58   1 H    0.998 --    11 C    0.967
    59   1 H    0.920 --    27 O    0.918
    60   8 O    1.824 --    50 H    0.922    62 H    0.871
    61   1 H    0.901 --    27 O    0.859
    62   1 H    0.908 --    60 O    0.871
    63   7 N    3.448 --    67 C    1.266     9 C    0.975    37 H    0.937
                            68 O    0.191
    64   6 C    3.957 --    65 O    1.678    72 N    1.293     9 C    0.915
    65   8 O    2.010 --    64 C    1.678    72 N    0.212
    66   6 C    3.992 --    67 C    0.984    71 H    0.981    69 H    0.973
                            70 H    0.966
    67   6 C    3.949 --    68 O    1.650    63 N    1.266    66 C    0.984
    68   8 O    1.993 --    67 C    1.650    63 N    0.191
    69   1 H    0.997 --    66 C    0.973
    70   1 H    0.996 --    66 C    0.966
    71   1 H    0.993 --    66 C    0.981
    72   7 N    3.467 --    64 C    1.293    73 C    1.006    38 H    0.907
                            65 O    0.212
    73   6 C    3.965 --    72 N    1.006    74 H    0.977    76 H    0.977
                            75 H    0.976
    74   1 H    0.997 --    73 C    0.977
    75   1 H    0.997 --    73 C    0.976
    76   1 H    0.993 --    73 C    0.977
 ---------------------------------------------------------------------------

Topologies differ in total number of bonds
Writing topology from bond orders to xtbtopo.mol

molecular dipole:
                 x           y           z       tot (Debye)
 q only:        0.000      -0.348       0.850
   full:       -0.417      -0.736       1.000       3.330
molecular quadrupole (traceless):
                xx          xy          yy          xz          yz          zz
 q only:      -16.013      20.755      -7.385      -5.558      15.533      23.397
  q+dip:      -22.615      24.797     -12.595      -8.855      28.345      35.210
   full:      -24.500      24.125     -10.358      -8.990      24.364      34.858


           -------------------------------------------------
          | TOTAL ENERGY             -110.294632565482 Eh   |
          | GRADIENT NORM               0.000255715693 Eh/α |
          | HOMO-LUMO GAP               3.384079705810 eV   |
           -------------------------------------------------

------------------------------------------------------------------------
 * finished run on 2026/08/31 at 13:17:08.640     
------------------------------------------------------------------------
 total:
 * wall-time:     0 d,  0 h,  0 min,  0.566 sec
 *  cpu-time:     0 d,  0 h,  0 min,  0.391 sec
 * ratio c/w:     0.690 speedup
 SCF:
 * wall-time:     0 d,  0 h,  0 min,  0.466 sec
 *  cpu-time:     0 d,  0 h,  0 min,  0.297 sec
 * ratio c/w:     0.637 speedup



===== STDERR =====

normal termination of xtb
