      -----------------------------------------------------------      
     |                   =====================                   |     
     |                           x T B                           |     
     |                   =====================                   |     
     |                         S. Grimme                         |     
     |          Mulliken Center for Theoretical Chemistry        |     
     |                    University of Bonn                     |     
      -----------------------------------------------------------      

   * xtb version 6.7.1pre (5071a88) compiled by 'Marcel@Raven' on 2024-07-23

   xtb is free software: you can redistribute it and/or modify it under
   the terms of the GNU Lesser General Public License as published by
   the Free Software Foundation, either version 3 of the License, or
   (at your option) any later version.
   
   xtb is distributed in the hope that it will be useful,
   but WITHOUT ANY WARRANTY; without even the implied warranty of
   MERCHANTABILITY or FITNESS FOR A PARTICULAR PURPOSE.  See the
   GNU Lesser General Public License for more details.
   
   Cite this work as:
   * C. Bannwarth, E. Caldeweyher, S. Ehlert, A. Hansen, P. Pracht,
     J. Seibert, S. Spicher, S. Grimme, WIREs Comput. Mol. Sci., 2020, 11,
     e01493. DOI: 10.1002/wcms.1493
   
   for GFN2-xTB:
   * C. Bannwarth, S. Ehlert and S. Grimme., J. Chem. Theory Comput., 2019,
     15, 1652-1671. DOI: 10.1021/acs.jctc.8b01176
   for GFN1-xTB:
   * S. Grimme, C. Bannwarth, P. Shushkov, J. Chem. Theory Comput., 2017,
     13, 1989-2009. DOI: 10.1021/acs.jctc.7b00118
   for GFN0-xTB:
   * P. Pracht, E. Caldeweyher, S. Ehlert, S. Grimme, ChemRxiv, 2019, preprint.
     DOI: 10.26434/chemrxiv.8326202.v1
   for GFN-FF:
   * S. Spicher and S. Grimme, Angew. Chem. Int. Ed., 2020, 59, 15665-15673.
     DOI: 10.1002/anie.202004239
   
   for ALPB and GBSA implicit solvation:
   * S. Ehlert, M. Stahn, S. Spicher, S. Grimme, J. Chem. Theory Comput.,
     2021, 17, 4250-4261. DOI: 10.1021/acs.jctc.1c00471
   
   for ddCOSMO and CPCM-X implicit solvation:
   * M. Stahn, S. Ehlert, S. Grimme, J. Phys. Chem. A,
     2023, XX, XXXX-XXXX. DOI: 10.1021/acs.jpca.3c04382
   
   for DFT-D4:
   * E. Caldeweyher, C. Bannwarth and S. Grimme, J. Chem. Phys., 2017,
     147, 034112. DOI: 10.1063/1.4993215
   * E. Caldeweyher, S. Ehlert, A. Hansen, H. Neugebauer, S. Spicher,
     C. Bannwarth and S. Grimme, J. Chem. Phys., 2019, 150, 154122.
     DOI: 10.1063/1.5090222
   * E. Caldeweyher, J.-M. Mewes, S. Ehlert and S. Grimme, Phys. Chem. Chem. Phys.
     2020, 22, 8499-8512. DOI: 10.1039/D0CP00502A
   
   for sTDA-xTB:
   * S. Grimme and C. Bannwarth, J. Chem. Phys., 2016, 145, 054103.
     DOI: 10.1063/1.4959605
   
   in the mass-spec context:
   * V. Asgeirsson, C. Bauer and S. Grimme, Chem. Sci., 2017, 8, 4879.
     DOI: 10.1039/c7sc00601b
   * J. Koopman and S. Grimme, ACS Omega 2019, 4, 12, 15120-15133.
     DOI: 10.1021/acsomega.9b02011
   
   for metadynamics refer to:
   * S. Grimme, J. Chem. Theory Comput., 2019, 155, 2847-2862
     DOI: 10.1021/acs.jctc.9b00143
   
   for SPH calculations refer to:
   * S. Spicher and S. Grimme, J. Chem. Theory Comput., 2021, 17, 1701-1714
     DOI: 10.1021/acs.jctc.0c01306
   
   for ONIOM refer to:
   * C. Plett, A. Katbashev, S. Ehlert, S. Grimme, M. Bursch,
     Phys. Chem. Chem. Phys., 2023, 25, 17860-17868. DOI: 10.1039/D3CP02178E
   
   for DIPRO refer to:
   * J. Kohn, N. Gildemeister, S. Grimme, D. Fazzi, A. Hansen,
     J. Chem. Phys., 2023, just accepted.
   
   for PTB refer to:
   * S. Grimme, M. Mueller, A. Hansen, J. Chem. Phys., 2023, 158, 124111.
     DOI: 10.1063/5.0137838
   
   with help from (in alphabetical order)
   P. Atkinson, C. Bannwarth, F. Bohle, G. Brandenburg, E. Caldeweyher
   M. Checinski, S. Dohm, S. Ehlert, S. Ehrlich, I. Gerasimov, C. Hölzer
   A. Katbashev, J. Kohn, J. Koopman, C. Lavigne, S. Lehtola, F. März, M. Müller,
   F. Musil, H. Neugebauer, J. Pisarek, C. Plett, P. Pracht, F. Pultar,
   J. Seibert, P. Shushkov, S. Spicher, M. Stahn, M. Steiner, T. Strunk,
   J. Stückrath, T. Rose, and J. Unsleber
   
 * started run on 2026/08/20 at 20:39:40.965     
   ID    Z sym.   atoms
    1    7 N      1, 17, 63, 72
    2    6 C      2-15, 18-26, 64, 66, 67, 73
    3    8 O      16, 27, 60, 65, 68
    4    1 H      28-59, 61, 62, 69-71, 74-76

           -------------------------------------------------
          |                Calculation Setup                |
           -------------------------------------------------

          program call               : C:\Users\Nayanika\Downloads\xtb-6.7.1pre-windows-x86_64\xtb-6.7.1\bin\xtb.exe D:\PhD_Thesis\LmrR_EVB\charges\fast_lmrr_5QM\xtb_preparation\stage2_five_xtb_protocols\GFN2_etemp500\TS2_1a_to_PS2_2\TS2_1a_to_PS2_2_TS_xtbopt.xyz --gfn 2 --chrg 0 --uhf 0 --hess --etemp 500
          coordinate file            : D:\PhD_Thesis\LmrR_EVB\charges\fast_lmrr_5QM\xtb_preparation\stage2_five_xtb_protocols\GFN2_etemp500\TS2_1a_to_PS2_2\TS2_1a_to_PS2_2_TS_xtbopt.xyz
          omp threads                :                     8


molecular fragmentation (1/2 indicates fragments):
111111111111111211111111112121111111111111111111121111111222221111111111
1111
# atoms in fragment 1/2:    67     9
 fragment masses (1/2) :      446.59       54.05
CMA distance (Bohr)    :   5.131
constraining FC (au)   :  0.0500

           -------------------------------------------------
          |                 G F N 2 - x T B                 |
           -------------------------------------------------

        Reference                      10.1021/acs.jctc.8b01176
      * Hamiltonian:
        H0-scaling (s, p, d)           1.850000    2.230000    2.230000
        zeta-weighting                 0.500000
      * Dispersion:
        s8                             2.700000
        a1                             0.520000
        a2                             5.000000
        s9                             5.000000
      * Repulsion:
        kExp                           1.500000    1.000000
        rExp                           1.000000
      * Coulomb:
        alpha                          2.000000
        third order                    shell-resolved
        anisotropic                    true
        a3                             3.000000
        a5                             4.000000
        cn-shift                       1.200000
        cn-exp                         4.000000
        max-rad                        5.000000

q/qsh data taken from xtbrestart
CAMM data taken from xtbrestart

          ...................................................
          :                      SETUP                      :
          :.................................................:
          :  # basis functions                 184          :
          :  # atomic orbitals                 184          :
          :  # shells                          112          :
          :  # electrons                       198          :
          :  max. iterations                   250          :
          :  Hamiltonian                  GFN2-xTB          :
          :  restarted?                       true          :
          :  GBSA solvation                  false          :
          :  PC potential                    false          :
          :  electronic temp.          500.0000000     K    :
          :  accuracy                    1.0000000          :
          :  -> integral cutoff          0.2500000E+02      :
          :  -> integral neglect         0.1000000E-07      :
          :  -> SCF convergence          0.1000000E-05 Eh   :
          :  -> wf. convergence          0.1000000E-03 e    :
          :  Broyden damping             0.4000000          :
          :  net charge                          0          :
          :  unpaired electrons                  0          :
          ...................................................

 iter      E             dE          RMSdq      gap      omega  full diag
   1   -111.8480995 -0.111848E+03  0.114E-06    2.97       0.0  T
   2   -111.8480995  0.170530E-12  0.798E-07    2.97   14381.2  T
   3   -111.8480995 -0.383693E-12  0.455E-07    2.97   25193.5  T

   *** convergence criteria satisfied after 3 iterations ***

         #    Occupation            Energy/Eh            Energy/eV
      -------------------------------------------------------------
         1        2.0000           -0.7111199             -19.3506
       ...           ...                  ...                  ...
        93        2.0000           -0.4053042             -11.0289
        94        2.0000           -0.3988348             -10.8528
        95        2.0000           -0.3930867             -10.6964
        96        2.0000           -0.3869007             -10.5281
        97        2.0000           -0.3775307             -10.2731
        98        2.0000           -0.3574856              -9.7277
        99        2.0000           -0.3369816              -9.1697 (HOMO)
       100                         -0.2279205              -6.2020 (LUMO)
       101                         -0.2235930              -6.0843
       102                         -0.2201055              -5.9894
       103                         -0.2126791              -5.7873
       104                         -0.2094688              -5.6999
       ...                                ...                  ...
       184                          0.7175377              19.5252
      -------------------------------------------------------------
                  HL-Gap            0.1090611 Eh            2.9677 eV
             Fermi-level           -0.2824510 Eh           -7.6859 eV

 SCC (total)                   0 d,  0 h,  0 min,  0.075 sec
 SCC setup                      ...        0 min,  0.001 sec (  1.333%)
 Dispersion                     ...        0 min,  0.003 sec (  4.000%)
 classical contributions        ...        0 min,  0.000 sec (  0.000%)
 integral evaluation            ...        0 min,  0.005 sec (  6.667%)
 iterations                     ...        0 min,  0.050 sec ( 66.667%)
 molecular gradient             ...        0 min,  0.015 sec ( 20.000%)
 printout                       ...        0 min,  0.001 sec (  1.334%)

         :::::::::::::::::::::::::::::::::::::::::::::::::::::
         ::                     SUMMARY                     ::
         :::::::::::::::::::::::::::::::::::::::::::::::::::::
         :: total energy            -110.273356692175 Eh    ::
         :: gradient norm              0.000130223770 Eh/a0 ::
         :: HOMO-LUMO gap              2.967703164069 eV    ::
         ::.................................................::
         :: SCC energy              -111.846043769912 Eh    ::
         :: -> isotropic ES            0.187650121679 Eh    ::
         :: -> anisotropic ES          0.003551363273 Eh    ::
         :: -> anisotropic XC          0.041137628312 Eh    ::
         :: -> dispersion             -0.085326771433 Eh    ::
         :: repulsion energy           1.572687077736 Eh    ::
         :: add. restraining           0.000000000000 Eh    ::
         :: total charge              -0.000000000000 e     ::
         :::::::::::::::::::::::::::::::::::::::::::::::::::::

           ------------------------------------------------- 
          |                Numerical Hessian                |
           ------------------------------------------------- 
step length          :   0.00500
SCC accuracy         :   0.30000
Hessian scale factor :   1.00000
frozen atoms in %    :   0.00000    0
RMS gradient         :   0.00013
estimated CPU  time     11.18 min
estimated wall time      1.66 min

writing file <hessian>.

 projected vibrational frequencies (cm⁻¹)
eigval :       -0.00    -0.00     0.00     0.00     0.00     0.00
eigval :       -5.93     9.17    10.83    14.06    16.41    26.16
eigval :       28.40    31.95    38.25    43.61    51.78    57.91
eigval :       58.42    64.19    70.12    71.70    78.95    85.40
eigval :       93.06    95.69    96.33   107.86   112.94   115.02
eigval :      122.27   126.28   128.19   129.61   136.52   151.89
eigval :      155.35   168.04   172.86   183.58   202.37   218.15
eigval :      229.68   234.59   243.97   257.52   265.65   269.48
eigval :      272.61   290.59   292.11   296.63   315.96   328.93
eigval :      336.79   354.69   369.55   374.42   394.68   408.42
eigval :      417.10   420.88   437.87   449.16   459.52   475.39
eigval :      482.96   488.61   493.16   507.84   526.16   529.56
eigval :      552.28   555.03   555.74   583.59   596.61   605.67
eigval :      613.07   624.58   655.73   659.20   675.95   682.05
eigval :      695.76   702.28   726.26   734.25   742.48   769.61
eigval :      773.74   786.37   806.75   818.45   863.23   864.46
eigval :      865.46   875.22   890.57   894.36   896.01   916.60
eigval :      918.76   923.97   926.24   928.75   948.76   979.98
eigval :      990.72  1000.41  1003.27  1008.88  1012.62  1022.73
eigval :     1023.51  1034.96  1066.53  1070.95  1081.08  1101.75
eigval :     1106.26  1107.56  1118.12  1123.17  1126.00  1138.92
eigval :     1142.03  1155.35  1161.65  1170.14  1174.90  1191.56
eigval :     1195.03  1199.91  1212.95  1219.05  1220.35  1224.14
eigval :     1239.53  1247.06  1264.94  1267.71  1273.26  1283.54
eigval :     1294.66  1302.87  1308.20  1317.11  1321.22  1329.17
eigval :     1331.14  1352.84  1365.01  1366.66  1376.01  1393.56
eigval :     1396.15  1398.58  1409.06  1416.38  1419.87  1425.87
eigval :     1446.91  1449.07  1450.26  1461.95  1465.28  1473.58
eigval :     1474.74  1479.51  1482.13  1494.06  1495.23  1496.50
eigval :     1503.93  1507.23  1507.71  1542.58  1545.61  1565.72
eigval :     1575.77  1578.17  1594.61  1613.74  1629.57  1691.95
eigval :     1705.49  1759.91  2914.29  2931.82  2965.49  2973.58
eigval :     2979.06  2981.81  2986.28  2989.51  2991.88  2993.57
eigval :     3003.27  3007.95  3019.98  3029.73  3033.43  3035.74
eigval :     3036.41  3037.97  3044.83  3053.69  3057.67  3069.23
eigval :     3072.57  3075.12  3083.12  3083.59  3090.86  3092.48
eigval :     3093.45  3119.56  3251.54  3332.17  3392.72  3444.10
eigval :     3454.11  3485.90  3556.79  3560.34  3656.33  3671.11
           -------------------------------------------------
          |                Property Printout                |
           -------------------------------------------------

    * Orbital Energies and Occupations

         #    Occupation            Energy/Eh            Energy/eV
      -------------------------------------------------------------
         1        2.0000           -0.7111199             -19.3506
       ...           ...                  ...                  ...
        87        2.0000           -0.4195748             -11.4172
        88        2.0000           -0.4150094             -11.2930
        89        2.0000           -0.4138320             -11.2609
        90        2.0000           -0.4121579             -11.2154
        91        2.0000           -0.4109301             -11.1820
        92        2.0000           -0.4086785             -11.1207
        93        2.0000           -0.4053042             -11.0289
        94        2.0000           -0.3988348             -10.8528
        95        2.0000           -0.3930867             -10.6964
        96        2.0000           -0.3869007             -10.5281
        97        2.0000           -0.3775307             -10.2731
        98        2.0000           -0.3574856              -9.7277
        99        2.0000           -0.3369816              -9.1697 (HOMO)
       100                         -0.2279205              -6.2020 (LUMO)
       101                         -0.2235929              -6.0843
       102                         -0.2201055              -5.9894
       103                         -0.2126791              -5.7873
       104                         -0.2094688              -5.6999
       105                         -0.1962087              -5.3391
       106                         -0.1702924              -4.6339
       107                         -0.1536366              -4.1807
       108                         -0.0814249              -2.2157
       109                         -0.0704382              -1.9167
       110                         -0.0077481              -0.2108
       ...                                ...                  ...
       184                          0.7175377              19.5252
      -------------------------------------------------------------
                  HL-Gap            0.1090611 Eh            2.9677 eV
             Fermi-level           -0.2824510 Eh           -7.6859 eV

     #   Z          covCN         q      C6AA      α(0)
     1   7 N        2.692    -0.152    24.287     7.319
     2   6 C        2.905     0.069    26.453     8.433
     3   6 C        2.921    -0.056    29.388     8.890
     4   6 C        2.925    -0.038    28.951     8.824
     5   6 C        2.975    -0.005    28.152     8.703
     6   6 C        2.924    -0.042    29.041     8.838
     7   6 C        2.926    -0.064    29.588     8.920
     8   6 C        3.810    -0.065    21.743     6.637
     9   6 C        3.802     0.017    20.293     6.414
    10   6 C        2.826     0.011    27.769     8.635
    11   6 C        2.894    -0.087    30.184     9.008
    12   6 C        3.859    -0.019    20.867     6.496
    13   6 C        3.807    -0.065    21.744     6.638
    14   6 C        3.800    -0.055    21.555     6.610
    15   6 C        3.752    -0.103    22.531     6.769
    16   8 O        1.609    -0.616    25.568     6.825
    17   7 N        2.784    -0.120    23.616     7.218
    18   6 C        3.068     0.041    27.005     8.521
    19   6 C        3.112    -0.030    28.591     8.759
    20   6 C        3.058    -0.047    29.116     8.849
    21   6 C        2.908    -0.055    29.365     8.886
    22   6 C        2.911    -0.042    29.041     8.837
    23   6 C        3.062     0.042    26.993     8.520
    24   6 C        2.924    -0.040    29.006     8.832
    25   6 C        2.919    -0.046    29.140     8.852
    26   6 C        3.754    -0.110    22.664     6.788
    27   8 O        1.609    -0.612    25.482     6.813
    28   1 H        0.860     0.187     1.176     1.699
    29   1 H        0.806     0.266     0.834     1.434
    30   1 H        0.926     0.038     2.480     2.463
    31   1 H        0.926     0.026     2.644     2.543
    32   1 H        0.925     0.019     2.754     2.595
    33   1 H        0.926     0.046     2.369     2.407
    34   1 H        0.924     0.050     2.316     2.380
    35   1 H        0.925     0.057     2.240     2.340
    36   1 H        0.924     0.075     2.034     2.230
    37   1 H        0.860     0.176     1.237     1.742
    38   1 H        0.860     0.174     1.250     1.751
    39   1 H        0.925     0.030     2.584     2.514
    40   1 H        0.926     0.034     2.527     2.486
    41   1 H        0.924     0.036     2.498     2.472
    42   1 H        0.924     0.045     2.389     2.417
    43   1 H        0.924     0.031     2.568     2.506
    44   1 H        0.924     0.034     2.531     2.488
    45   1 H        0.924     0.028     2.610     2.526
    46   1 H        0.925     0.032     2.561     2.503
    47   1 H        0.925     0.036     2.499     2.472
    48   1 H        0.925     0.032     2.559     2.502
    49   1 H        0.860     0.158     1.348     1.818
    50   1 H        0.805     0.288     0.757     1.366
    51   1 H        0.926     0.021     2.711     2.575
    52   1 H        0.926     0.027     2.635     2.538
    53   1 H        0.926     0.024     2.667     2.554
    54   1 H        0.926     0.023     2.686     2.563
    55   1 H        0.925     0.059     2.213     2.326
    56   1 H        0.924     0.045     2.389     2.417
    57   1 H        0.924     0.046     2.375     2.410
    58   1 H        0.803     0.318     0.669     1.285
    59   1 H        0.805     0.287     0.761     1.370
    60   8 O        1.611    -0.580    24.707     6.709
    61   1 H        0.803     0.316     0.676     1.292
    62   1 H        0.805     0.277     0.795     1.400
    63   7 N        2.691    -0.183    24.971     7.422
    64   6 C        2.754     0.263    22.556     7.777
    65   8 O        0.858    -0.422    22.117     6.305
    66   6 C        3.757    -0.153    23.522     6.915
    67   6 C        2.749     0.283    22.214     7.718
    68   8 O        0.859    -0.461    22.936     6.421
    69   1 H        0.925     0.095     1.829     2.115
    70   1 H        0.925     0.048     2.351     2.398
    71   1 H        0.925     0.081     1.970     2.195
    72   7 N        2.687    -0.169    24.661     7.375
    73   6 C        3.689    -0.046    21.592     6.650
    74   1 H        0.924     0.054     2.272     2.357
    75   1 H        0.924     0.052     2.299     2.371
    76   1 H        0.925     0.089     1.889     2.149

 Mol. C6AA /au·bohr⁶  :      56214.165117
 Mol. C8AA /au·bohr⁸  :    1284616.922454
 Mol. α(0) /au        :        366.096537


Wiberg/Mayer (AO) data.
largest (>0.10) Wiberg bond orders for each atom

 ---------------------------------------------------------------------------
     #   Z sym  total        # sym  WBO       # sym  WBO       # sym  WBO
 ---------------------------------------------------------------------------
     1   7 N    3.441 --     2 C    1.128    10 C    1.124    28 H    0.924
     2   6 C    3.971 --     3 C    1.345     7 C    1.345     1 N    1.128
     3   6 C    3.989 --     4 C    1.467     2 C    1.345    30 H    0.964
     4   6 C    3.991 --     3 C    1.467     5 C    1.398    31 H    0.969
                             7 C    0.101
     5   6 C    3.971 --     4 C    1.398     6 C    1.394     8 C    1.012
     6   6 C    3.991 --     7 C    1.467     5 C    1.394    32 H    0.969
     7   6 C    3.986 --     6 C    1.467     2 C    1.345    33 H    0.963
                             4 C    0.101
     8   6 C    3.991 --     5 C    1.012    34 H    0.972    35 H    0.968
                             9 C    0.965
     9   6 C    3.961 --    63 N    0.977     8 C    0.965    36 H    0.948
                            64 C    0.928
    10   6 C    3.967 --    11 C    1.794     1 N    1.124    39 H    0.961
    11   6 C    3.963 --    10 C    1.794    12 C    0.999    40 H    0.957
    12   6 C    3.994 --    11 C    0.999    20 C    0.987    13 C    0.982
                            41 H    0.955
    13   6 C    3.994 --    14 C    1.007    12 C    0.982    43 H    0.975
                            42 H    0.973
    14   6 C    3.997 --    15 C    1.018    13 C    1.007    45 H    0.978
                            44 H    0.974
    15   6 C    3.996 --    14 C    1.018    48 H    0.988    47 H    0.988
                            46 H    0.988
    16   8 O    1.814 --    29 H    0.927    61 H    0.844
    17   7 N    3.529 --    18 C    1.178    23 C    1.169    49 H    0.945
    18   6 C    3.959 --    21 C    1.343    19 C    1.236    17 N    1.178
    19   6 C    3.983 --    22 C    1.328    18 C    1.236    20 C    1.199
    20   6 C    3.970 --    23 C    1.552    19 C    1.199    12 C    0.987
    21   6 C    3.989 --    24 C    1.487    18 C    1.343    51 H    0.969
                            22 C    0.111
    22   6 C    3.989 --    25 C    1.501    19 C    1.328    52 H    0.967
                            21 C    0.111
    23   6 C    3.950 --    20 C    1.552    17 N    1.169    26 C    1.030
    24   6 C    3.988 --    21 C    1.487    25 C    1.373    53 H    0.972
    25   6 C    3.989 --    22 C    1.501    24 C    1.373    54 H    0.972
    26   6 C    3.995 --    23 C    1.030    55 H    0.977    56 H    0.974
                            57 H    0.969
    27   8 O    1.863 --    59 H    0.897    58 H    0.850
    28   1 H    0.964 --     1 N    0.924
    29   1 H    0.929 --    16 O    0.927
    30   1 H    0.998 --     3 C    0.964
    31   1 H    0.999 --     4 C    0.969
    32   1 H    0.999 --     6 C    0.969
    33   1 H    0.998 --     7 C    0.963
    34   1 H    0.997 --     8 C    0.972
    35   1 H    0.996 --     8 C    0.968
    36   1 H    0.994 --     9 C    0.948
    37   1 H    0.969 --    63 N    0.938
    38   1 H    0.970 --    72 N    0.942
    39   1 H    0.998 --    10 C    0.961
    40   1 H    0.999 --    11 C    0.957
    41   1 H    0.998 --    12 C    0.955
    42   1 H    0.997 --    13 C    0.973
    43   1 H    0.999 --    13 C    0.975
    44   1 H    0.999 --    14 C    0.974
    45   1 H    0.999 --    14 C    0.978
    46   1 H    0.998 --    15 C    0.988
    47   1 H    0.999 --    15 C    0.988
    48   1 H    0.999 --    15 C    0.988
    49   1 H    0.974 --    17 N    0.945
    50   1 H    0.917 --    60 O    0.896
    51   1 H    0.999 --    21 C    0.969
    52   1 H    0.999 --    22 C    0.967
    53   1 H    0.999 --    24 C    0.972
    54   1 H    0.999 --    25 C    0.972
    55   1 H    0.996 --    26 C    0.977
    56   1 H    0.996 --    26 C    0.974
    57   1 H    0.995 --    26 C    0.969
    58   1 H    0.899 --    27 O    0.850
    59   1 H    0.918 --    27 O    0.897
    60   8 O    1.832 --    62 H    0.922    50 H    0.896
    61   1 H    0.900 --    16 O    0.844
    62   1 H    0.923 --    60 O    0.922
    63   7 N    3.437 --    67 C    1.256     9 C    0.977    37 H    0.938
                            68 O    0.179
    64   6 C    3.953 --    65 O    1.696    72 N    1.262     9 C    0.928
    65   8 O    2.021 --    64 C    1.696    72 N    0.207
    66   6 C    3.990 --    67 C    0.994    70 H    0.982    71 H    0.972
                            69 H    0.951
    67   6 C    3.945 --    68 O    1.640    63 N    1.256    66 C    0.994
    68   8 O    2.001 --    67 C    1.640    63 N    0.179
    69   1 H    0.991 --    66 C    0.951
    70   1 H    0.998 --    66 C    0.982
    71   1 H    0.993 --    66 C    0.972
    72   7 N    3.451 --    64 C    1.262    73 C    1.004    38 H    0.942
                            65 O    0.207
    73   6 C    3.961 --    72 N    1.004    75 H    0.977    74 H    0.977
                            76 H    0.975
    74   1 H    0.997 --    73 C    0.977
    75   1 H    0.997 --    73 C    0.977
    76   1 H    0.992 --    73 C    0.975
 ---------------------------------------------------------------------------

Topologies differ in total number of bonds
Writing topology from bond orders to xtbtopo.mol

molecular dipole:
                 x           y           z       tot (Debye)
 q only:        0.758      -0.179      -0.442
   full:        0.465      -0.232      -0.536       1.896
molecular quadrupole (traceless):
                xx          xy          yy          xz          yz          zz
 q only:       10.897      21.466     -26.893     -22.502      -2.042      15.996
  q+dip:       10.662      19.971     -38.068     -27.610       0.432      27.405
   full:        8.702      21.546     -35.152     -28.627      -0.744      26.450

           -------------------------------------------------
          |               Frequency Printout                |
           -------------------------------------------------
 projected vibrational frequencies (cm⁻¹)
eigval :       -0.00    -0.00     0.00     0.00     0.00     0.00
eigval :       -5.93     9.17    10.83    14.06    16.41    26.16
eigval :       28.40    31.95    38.25    43.61    51.78    57.91
eigval :       58.42    64.19    70.12    71.70    78.95    85.40
eigval :       93.06    95.69    96.33   107.86   112.94   115.02
eigval :      122.27   126.28   128.19   129.61   136.52   151.89
eigval :      155.35   168.04   172.86   183.58   202.37   218.15
eigval :      229.68   234.59   243.97   257.52   265.65   269.48
eigval :      272.61   290.59   292.11   296.63   315.96   328.93
eigval :      336.79   354.69   369.55   374.42   394.68   408.42
eigval :      417.10   420.88   437.87   449.16   459.52   475.39
eigval :      482.96   488.61   493.16   507.84   526.16   529.56
eigval :      552.28   555.03   555.74   583.59   596.61   605.67
eigval :      613.07   624.58   655.73   659.20   675.95   682.05
eigval :      695.76   702.28   726.26   734.25   742.48   769.61
eigval :      773.74   786.37   806.75   818.45   863.23   864.46
eigval :      865.46   875.22   890.57   894.36   896.01   916.60
eigval :      918.76   923.97   926.24   928.75   948.76   979.98
eigval :      990.72  1000.41  1003.27  1008.88  1012.62  1022.73
eigval :     1023.51  1034.96  1066.53  1070.95  1081.08  1101.75
eigval :     1106.26  1107.56  1118.12  1123.17  1126.00  1138.92
eigval :     1142.03  1155.35  1161.65  1170.14  1174.90  1191.56
eigval :     1195.03  1199.91  1212.95  1219.05  1220.35  1224.14
eigval :     1239.53  1247.06  1264.94  1267.71  1273.26  1283.54
eigval :     1294.66  1302.87  1308.20  1317.11  1321.22  1329.17
eigval :     1331.14  1352.84  1365.01  1366.66  1376.01  1393.56
eigval :     1396.15  1398.58  1409.06  1416.38  1419.87  1425.87
eigval :     1446.91  1449.07  1450.26  1461.95  1465.28  1473.58
eigval :     1474.74  1479.51  1482.13  1494.06  1495.23  1496.50
eigval :     1503.93  1507.23  1507.71  1542.58  1545.61  1565.72
eigval :     1575.77  1578.17  1594.61  1613.74  1629.57  1691.95
eigval :     1705.49  1759.91  2914.29  2931.82  2965.49  2973.58
eigval :     2979.06  2981.81  2986.28  2989.51  2991.88  2993.57
eigval :     3003.27  3007.95  3019.98  3029.73  3033.43  3035.74
eigval :     3036.41  3037.97  3044.83  3053.69  3057.67  3069.23
eigval :     3072.57  3075.12  3083.12  3083.59  3090.86  3092.48
eigval :     3093.45  3119.56  3251.54  3332.17  3392.72  3444.10
eigval :     3454.11  3485.90  3556.79  3560.34  3656.33  3671.11
 reduced masses (amu)
   1: 12.00   2: 11.74   3: 12.13   4: 11.79   5: 11.86   6: 11.98   7: 11.14   8: 11.51
   9: 11.94  10: 12.03  11: 13.35  12: 13.28  13: 13.14  14: 11.62  15: 11.41  16: 11.09
  17:  7.61  18: 10.34  19: 10.55  20: 10.51  21: 10.79  22: 11.17  23:  2.77  24:  6.30
  25:  9.77  26: 11.33  27: 12.33  28: 12.90  29:  6.29  30: 10.51  31:  8.04  32:  8.55
  33:  4.59  34:  4.53  35:  8.88  36:  9.98  37: 11.61  38:  9.39  39:  9.67  40:  4.23
  41: 11.61  42: 10.12  43:  5.85  44:  6.34  45: 10.24  46: 10.68  47:  5.22  48: 10.44
  49:  9.80  50: 10.14  51: 10.50  52: 12.15  53:  9.95  54:  1.90  55: 10.29  56: 10.50
  57: 10.06  58: 10.31  59:  9.34  60:  9.24  61:  9.34  62:  9.47  63:  2.64  64: 10.50
  65:  2.13  66:  8.61  67:  6.72  68: 10.88  69:  9.20  70:  4.50  71:  8.05  72:  9.36
  73:  7.11  74:  7.65  75:  7.26  76:  7.56  77: 11.11  78: 10.69  79:  9.77  80: 10.28
  81: 10.77  82: 10.34  83:  8.48  84:  5.06  85: 10.73  86: 11.17  87: 10.90  88:  6.88
  89:  2.57  90:  3.69  91:  7.94  92:  4.83  93:  9.57  94:  5.13  95:  3.63  96:  7.67
  97:  9.72  98:  7.31  99:  4.11 100:  6.91 101:  3.89 102:  2.92 103:  2.98 104:  8.76
 105:  8.64 106:  5.73 107:  6.38 108: 10.09 109:  5.11 110:  5.49 111:  6.76 112:  3.47
 113:  7.34 114:  6.28 115:  6.76 116:  4.36 117:  6.24 118:  7.12 119:  9.40 120:  6.96
 121:  8.56 122:  4.60 123:  7.95 124:  8.02 125:  7.55 126:  5.33 127:  5.87 128:  6.20
 129:  4.93 130:  5.37 131:  3.60 132:  4.71 133:  5.13 134:  2.36 135:  5.31 136:  5.22
 137:  4.80 138:  5.80 139:  4.41 140:  5.64 141:  4.38 142:  3.45 143:  5.55 144:  2.24
 145:  4.40 146:  4.88 147:  4.79 148:  9.92 149:  5.71 150:  6.53 151:  5.16 152:  9.88
 153: 11.08 154:  5.29 155:  3.29 156:  2.59 157:  4.97 158:  9.39 159:  7.98 160:  3.17
 161:  8.69 162:  8.88 163:  3.48 164:  6.69 165: 11.34 166:  1.56 167:  2.07 168:  1.73
 169:  2.18 170:  1.67 171:  2.30 172:  3.60 173:  8.94 174:  1.85 175:  1.53 176:  1.71
 177: 10.12 178:  2.17 179:  2.06 180:  2.19 181: 11.34 182: 11.51 183: 11.65 184: 11.53
 185: 11.64 186: 11.61 187: 13.13 188: 13.26 189:  1.74 190:  1.74 191:  1.89 192:  1.95
 193:  1.93 194:  1.85 195:  1.54 196:  1.44 197:  1.86 198:  1.56 199:  1.56 200:  1.63
 201:  1.78 202:  1.94 203:  1.93 204:  1.79 205:  1.73 206:  1.28 207:  1.52 208:  1.86
 209:  1.81 210:  1.81 211:  1.75 212:  1.80 213:  1.76 214:  1.81 215:  1.85 216:  1.83
 217:  1.91 218:  1.83 219:  1.88 220:  1.91 221:  1.83 222:  1.84 223:  1.84 224:  1.86
 225:  1.81 226:  1.85 227:  1.84 228:  1.84
 IR intensities (km·mol⁻¹)
   1:  0.01   2:  0.03   3:  0.00   4:  0.05   5:  0.01   6:  0.03   7:  0.49   8:  0.80
   9:  1.25  10:  3.83  11:  7.54  12:  4.62  13:  2.58  14:  0.98  15:  0.42  16:  1.03
  17:  3.59  18:  2.39  19:  2.63  20:  0.51  21:  0.34  22:  2.89  23: 47.28  24:  0.29
  25: 13.60  26:  6.35  27:  3.67  28:  2.18  29:  0.73  30:  0.81  31:  6.98  32:  7.55
  33: 57.99  34:  7.59  35:  2.30  36:  4.65  37:  4.61  38:  1.93  39:  9.38  40: 94.42
  41: 26.31  42: 15.55  43:  2.03  44:  0.18  45:  7.43  46:  7.95  47:131.64  48: 28.71
  49: 10.79  50: 13.40  51:  6.93  52:  6.14  53:  4.01  54:117.91  55:  6.69  56:  4.31
  57:  1.35  58:  7.78  59:  1.83  60:  2.58  61: 13.72  62: 14.19  63:105.34  64:  2.39
  65: 21.89  66: 36.72  67: 47.38  68:  1.17  69: 12.25  70: 49.57  71: 41.78  72:  7.34
  73: 49.26  74:166.51  75: 54.76  76: 12.64  77:  4.77  78:  9.26  79: 41.63  80:  0.38
  81:  6.00  82:  8.95  83: 80.37  84: 72.93  85:  1.59  86:  1.14  87: 28.40  88: 20.90
  89:171.41  90: 24.95  91: 21.39  92:  1.92  93: 15.70  94: 12.07  95:  0.15  96:  0.88
  97:  0.38  98:  0.04  99:  1.25 100:  1.79 101:  0.29 102:  4.12 103:  0.01 104:  0.89
 105:  3.70 106:  0.89 107:  4.07 108: 10.85 109:  1.84 110:  9.79 111: 37.32 112:  8.14
 113:  2.96 114: 12.16 115:  7.41 116:  6.39 117:  0.10 118: 38.64 119:  1.27 120:  9.54
 121: 10.63 122:  6.37 123:  7.57 124: 33.47 125:  0.44 126:  2.26 127:  5.44 128:  7.87
 129:  4.42 130:  5.73 131:  3.48 132:  4.06 133:  6.72 134:  9.05 135: 34.03 136: 21.84
 137:  1.92 138: 13.99 139: 52.97 140: 37.75 141:  9.83 142:  2.53 143: 28.54 144:  3.35
 145: 11.67 146:  3.70 147:  8.43 148: 41.73 149:  6.69 150: 20.42 151: 20.07 152: 31.58
 153: 20.47 154:  0.35 155: 43.20 156:  3.23 157:  7.32 158:188.28 159: 12.96 160:  0.48
 161:201.79 162:169.38 163: 36.22 164: 54.05 165: 58.22 166: 12.18 167: 10.64 168:  2.24
 169:  0.14 170:  5.53 171: 20.58 172:  1.97 173: 10.11 174:  1.27 175:  2.25 176:  2.99
 177:298.89 178:111.43 179: 80.26 180:179.93 181:  2.82 182:  0.26 183:  7.06 184:111.98
 185: 20.50 186:129.51 187:587.96 188:476.97 189: 21.11 190:  7.61 191:  5.29 192: 28.84
 193: 57.86 194: 28.41 195:  9.55 196: 46.33 197: 22.99 198: 56.12 199: 29.74 200: 20.37
 201:  0.81 202: 49.39 203: 58.10 204: 42.91 205:  2.66 206: 35.43 207: 14.46 208:  3.02
 209: 61.78 210: 32.88 211:  8.19 212: 13.23 213: 18.50 214: 70.56 215: 13.74 216: 69.04
 217: 61.57 218: 17.01 219:579.13 220:449.66 221: 39.29 222:  6.52 223:  7.33 224:  9.53
 225: 90.77 226:134.23 227:  8.18 228:  3.84
 Raman intensities (Ä⁴*amu⁻¹)
   1:  0.00   2:  0.00   3:  0.00   4:  0.00   5:  0.00   6:  0.00   7:  0.00   8:  0.00
   9:  0.00  10:  0.00  11:  0.00  12:  0.00  13:  0.00  14:  0.00  15:  0.00  16:  0.00
  17:  0.00  18:  0.00  19:  0.00  20:  0.00  21:  0.00  22:  0.00  23:  0.00  24:  0.00
  25:  0.00  26:  0.00  27:  0.00  28:  0.00  29:  0.00  30:  0.00  31:  0.00  32:  0.00
  33:  0.00  34:  0.00  35:  0.00  36:  0.00  37:  0.00  38:  0.00  39:  0.00  40:  0.00
  41:  0.00  42:  0.00  43:  0.00  44:  0.00  45:  0.00  46:  0.00  47:  0.00  48:  0.00
  49:  0.00  50:  0.00  51:  0.00  52:  0.00  53:  0.00  54:  0.00  55:  0.00  56:  0.00
  57:  0.00  58:  0.00  59:  0.00  60:  0.00  61:  0.00  62:  0.00  63:  0.00  64:  0.00
  65:  0.00  66:  0.00  67:  0.00  68:  0.00  69:  0.00  70:  0.00  71:  0.00  72:  0.00
  73:  0.00  74:  0.00  75:  0.00  76:  0.00  77:  0.00  78:  0.00  79:  0.00  80:  0.00
  81:  0.00  82:  0.00  83:  0.00  84:  0.00  85:  0.00  86:  0.00  87:  0.00  88:  0.00
  89:  0.00  90:  0.00  91:  0.00  92:  0.00  93:  0.00  94:  0.00  95:  0.00  96:  0.00
  97:  0.00  98:  0.00  99:  0.00 100:  0.00 101:  0.00 102:  0.00 103:  0.00 104:  0.00
 105:  0.00 106:  0.00 107:  0.00 108:  0.00 109:  0.00 110:  0.00 111:  0.00 112:  0.00
 113:  0.00 114:  0.00 115:  0.00 116:  0.00 117:  0.00 118:  0.00 119:  0.00 120:  0.00
 121:  0.00 122:  0.00 123:  0.00 124:  0.00 125:  0.00 126:  0.00 127:  0.00 128:  0.00
 129:  0.00 130:  0.00 131:  0.00 132:  0.00 133:  0.00 134:  0.00 135:  0.00 136:  0.00
 137:  0.00 138:  0.00 139:  0.00 140:  0.00 141:  0.00 142:  0.00 143:  0.00 144:  0.00
 145:  0.00 146:  0.00 147:  0.00 148:  0.00 149:  0.00 150:  0.00 151:  0.00 152:  0.00
 153:  0.00 154:  0.00 155:  0.00 156:  0.00 157:  0.00 158:  0.00 159:  0.00 160:  0.00
 161:  0.00 162:  0.00 163:  0.00 164:  0.00 165:  0.00 166:  0.00 167:  0.00 168:  0.00
 169:  0.00 170:  0.00 171:  0.00 172:  0.00 173:  0.00 174:  0.00 175:  0.00 176:  0.00
 177:  0.00 178:  0.00 179:  0.00 180:  0.00 181:  0.00 182:  0.00 183:  0.00 184:  0.00
 185:  0.00 186:  0.00 187:  0.00 188:  0.00 189:  0.00 190:  0.00 191:  0.00 192:  0.00
 193:  0.00 194:  0.00 195:  0.00 196:  0.00 197:  0.00 198:  0.00 199:  0.00 200:  0.00
 201:  0.00 202:  0.00 203:  0.00 204:  0.00 205:  0.00 206:  0.00 207:  0.00 208:  0.00
 209:  0.00 210:  0.00 211:  0.00 212:  0.00 213:  0.00 214:  0.00 215:  0.00 216:  0.00
 217:  0.00 218:  0.00 219:  0.00 220:  0.00 221:  0.00 222:  0.00 223:  0.00 224:  0.00
 225:  0.00 226:  0.00 227:  0.00 228:  0.00
 output can be read by thermo (or use thermo option).
 writing <g98.out> molden fake output.
 recommended (thermochemical) frequency scaling factor: 1.0
           -------------------------------------------------
          |             Thermodynamic Functions             |
           -------------------------------------------------

Refinement of some symmetry elements was terminated before convergence was reached.
Some symmetry elements may remain unidentified.
Molecule has no symmetry elements
It seems to be the C1 point group
c1  symmetry found (for desy threshold:  0.10E+00) used in thermo
 inverting freq            1   5.93177842957200     

          ...................................................
          :                      SETUP                      :
          :.................................................:
          :  # frequencies                         222      :
          :  # imaginary freq.                       0      :
          :  linear?                             false      :
          :  only rotor calc.                    false      :
          :  symmetry                               c1      :
          :  rotational number                       1      :
          :  scaling factor                  1.0000000      :
          :  rotor cutoff                   50.0000000 cm⁻¹ :
          :  imag. cutoff                  -20.0000000 cm⁻¹ :
          :.................................................:

    mode    ω/cm⁻¹     T·S(HO)/kcal·mol⁻¹    T·S(FR)/kcal·mol⁻¹   T·S(vib)
   ------------------------------------------------------------------------
       1      5.93    -2.69789 (  0.02%)    -1.68795 ( 99.98%)    -1.68815
       2      9.17    -2.43978 (  0.11%)    -1.55892 ( 99.89%)    -1.55991
       3     10.83    -2.34106 (  0.22%)    -1.50956 ( 99.78%)    -1.51139
       4     14.06    -2.18667 (  0.62%)    -1.43235 ( 99.38%)    -1.43704
       5     16.41    -2.09499 (  1.15%)    -1.38650 ( 98.85%)    -1.39463
       6     26.16    -1.81895 (  6.98%)    -1.24838 ( 93.02%)    -1.28818
       7     28.40    -1.77043 (  9.43%)    -1.22408 ( 90.57%)    -1.27559
       8     31.95    -1.70072 ( 14.30%)    -1.18916 ( 85.70%)    -1.26230
       9     38.25    -1.59439 ( 25.52%)    -1.13588 ( 74.48%)    -1.25287
      10     43.61    -1.51696 ( 36.66%)    -1.09704 ( 63.34%)    -1.25098
      11     51.78    -1.41564 ( 53.50%)    -1.04616 ( 46.50%)    -1.24383
      12     57.91    -1.34977 ( 64.28%)    -1.01303 ( 35.72%)    -1.22948
      13     58.42    -1.34459 ( 65.08%)    -1.01042 ( 34.92%)    -1.22791
      14     64.19    -1.28922 ( 73.09%)    -0.98254 ( 26.91%)    -1.20670
      15     70.12    -1.23729 ( 79.46%)    -0.95635 ( 20.54%)    -1.17959
      16     71.70    -1.22426 ( 80.87%)    -0.94977 ( 19.13%)    -1.17176
      17     78.95    -1.16779 ( 86.14%)    -0.92122 ( 13.86%)    -1.13362
      18     85.40    -1.12190 ( 89.48%)    -0.89797 ( 10.52%)    -1.09835
      19     93.06    -1.07174 ( 92.31%)    -0.87250 (  7.69%)    -1.05642
      20     95.69    -1.05552 ( 93.06%)    -0.86425 (  6.94%)    -1.04225
      21     96.33    -1.05166 ( 93.23%)    -0.86229 (  6.77%)    -1.03884
      22    107.86    -0.98599 ( 95.59%)    -0.82878 (  4.41%)    -0.97905
      23    112.94    -0.95939 ( 96.30%)    -0.81517 (  3.70%)    -0.95405
      24    115.02    -0.94881 ( 96.55%)    -0.80974 (  3.45%)    -0.94401
      25    122.27    -0.91358 ( 97.28%)    -0.79164 (  2.72%)    -0.91026
      26    126.28    -0.89504 ( 97.60%)    -0.78209 (  2.40%)    -0.89233
      27    128.19    -0.88643 ( 97.74%)    -0.77765 (  2.26%)    -0.88397
      28    129.61    -0.88008 ( 97.83%)    -0.77437 (  2.17%)    -0.87779
      29    136.52    -0.85033 ( 98.23%)    -0.75898 (  1.77%)    -0.84871
      30    151.89    -0.78962 ( 98.84%)    -0.72738 (  1.16%)    -0.78889
      31    155.35    -0.77686 ( 98.94%)    -0.72070 (  1.06%)    -0.77627
      32    168.04    -0.73264 ( 99.22%)    -0.69745 (  0.78%)    -0.73237
      33    172.86    -0.71680 ( 99.30%)    -0.68907 (  0.70%)    -0.71661
      34    183.58    -0.68326 ( 99.45%)    -0.67124 (  0.55%)    -0.68319
      35    202.37    -0.62953 ( 99.63%)    -0.64238 (  0.37%)    -0.62958
      36    218.15    -0.58865 ( 99.72%)    -0.62013 (  0.28%)    -0.58874
      37    229.68    -0.56094 ( 99.78%)    -0.60487 (  0.22%)    -0.56104
      38    234.59    -0.54966 ( 99.79%)    -0.59862 (  0.21%)    -0.54976
      39    243.97    -0.52884 ( 99.82%)    -0.58700 (  0.18%)    -0.52894
      40    257.52    -0.50044 ( 99.86%)    -0.57098 (  0.14%)    -0.50054
      41    265.65    -0.48429 ( 99.87%)    -0.56177 (  0.13%)    -0.48439
      42    269.48    -0.47691 ( 99.88%)    -0.55754 (  0.12%)    -0.47701
      43    272.61    -0.47096 ( 99.89%)    -0.55411 (  0.11%)    -0.47105
      44    290.59    -0.43843 ( 99.91%)    -0.53519 (  0.09%)    -0.43852
      45    292.11    -0.43581 ( 99.91%)    -0.53365 (  0.09%)    -0.43589
      46    296.63    -0.42810 ( 99.92%)    -0.52910 (  0.08%)    -0.42818
   ------------------------------------------------------------------------

   temp. (K)  partition function   enthalpy   heat capacity  entropy
                                   cal/mol     cal/K/mol   cal/K/mol   J/K/mol
 298.15  VIB  0.165E+25            26553.994    143.410    176.495
         ROT  0.438E+08              888.752      2.981     37.946
         INT  0.722E+32            27442.746    146.391    214.441
         TR   0.108E+29             1481.254      4.968     44.499
         TOT                       28924.0000   151.3595   258.9400  1083.4048

       T/K    H(0)-H(T)+PV         H(T)/Eh          T*S/Eh         G(T)/Eh
   ------------------------------------------------------------------------
    298.15    0.460933E-01    0.668627E+00    0.123031E+00    0.545596E+00
   ------------------------------------------------------------------------

         :::::::::::::::::::::::::::::::::::::::::::::::::::::
         ::                  THERMODYNAMIC                  ::
         :::::::::::::::::::::::::::::::::::::::::::::::::::::
         :: total free energy        -109.727760264966 Eh   ::
         ::.................................................::
         :: total energy             -110.273356692175 Eh   ::
         :: zero point energy           0.622533827666 Eh   ::
         :: G(RRHO) w/o ZPVE           -0.076937400456 Eh   ::
         :: G(RRHO) contrib.            0.545596427209 Eh   ::
         :::::::::::::::::::::::::::::::::::::::::::::::::::::
imag cut-off (cm-1) :    5.00
 found            1  significant imaginary frequency
 writing imag mode distorted coords to xtbhess.xyz
 for further optimization.

           -------------------------------------------------
          | TOTAL ENERGY             -110.273356692175 Eh   |
          | TOTAL ENTHALPY           -109.604729536557 Eh   |
          | TOTAL FREE ENERGY        -109.727760264966 Eh   |
          | GRADIENT NORM               0.000130212364 Eh/α |
          | HOMO-LUMO GAP               2.967703233169 eV   |
           -------------------------------------------------

------------------------------------------------------------------------
 * finished run on 2026/08/20 at 20:39:53.316     
------------------------------------------------------------------------
 total:
 * wall-time:     0 d,  0 h,  0 min, 12.349 sec
 *  cpu-time:     0 d,  0 h,  1 min, 22.688 sec
 * ratio c/w:     6.696 speedup
 SCF:
 * wall-time:     0 d,  0 h,  0 min,  0.075 sec
 *  cpu-time:     0 d,  0 h,  0 min,  0.219 sec
 * ratio c/w:     2.917 speedup
 analytical hessian:
 * wall-time:     0 d,  0 h,  0 min, 12.197 sec
 *  cpu-time:     0 d,  0 h,  1 min, 22.406 sec
 * ratio c/w:     6.756 speedup



===== STDERR =====

normal termination of xtb
