76
 energy: -110.294632569181 gnorm: 0.000254439793 xtb: 6.7.1pre (5071a88)
N            0.41389637386262        0.11354315298601        1.12589135057223
C            1.76415486937492       -0.09371328177842        0.74799548410796
C            2.77889887296964        0.57105110631096        1.43103991227498
C            4.09990922575108        0.37750560936824        1.08457619285830
C            4.45109301759358       -0.48256363035399        0.04937446119979
C            3.44019449366718       -1.17233582480898       -0.60487190287414
C            2.11382743249599       -0.99013605127894       -0.25573191517642
C            5.88665065658455       -0.61878287663131       -0.37340259481123
C            6.43967909237067        0.72319070462665       -0.85863136778667
C           -0.29006120977291        1.24128091647054        0.55700066874966
C            0.49227020864651        2.54392351283952        0.66742812346438
C           -0.39129701257183        3.77545139487453        0.40934375097956
C            0.47247486027012        5.00980848410854        0.10285691035261
C            0.84502619031651        5.08866027087577       -1.37694644895683
C            1.84196674111312        6.20811325141572       -1.64883990103656
O           -0.57941413316773        1.03477382451745       -0.82937658317981
N           -2.22108736380434        4.51717020123536        3.54422303938136
C           -3.25129038194918        4.01684854921571        2.80428307284345
C           -2.72768481056099        3.66978964253526        1.53566280443769
C           -1.33300124719103        3.99266124957619        1.55619200962192
C           -4.58846389924702        3.83164767565069        3.12645926773566
C           -3.58302650325701        3.12147785692194        0.57814156588476
C           -1.06497527166751        4.50132646965339        2.80008423117066
C           -5.40838244320507        3.29007507078763        2.15963179417891
C           -4.90907920402429        2.94018117935258        0.90253932521821
C            0.19328537492708        5.02271559179040        3.40196723189826
O           -1.98880043879207        2.56768883642313       -2.69764689152904
H           -0.12377125606373       -0.73391983149697        0.96322335560437
H           -1.17036848850877        0.27735536171401       -0.91642339440815
H            2.52484657929028        1.22627921651371        2.24820157361925
H            4.87231095016809        0.89856028131297        1.63080164896328
H            3.69028444165704       -1.86328296103295       -1.39824982593366
H            1.34243917811893       -1.54199973812527       -0.77619950982045
H            5.98676599298223       -1.34838652438809       -1.17910789814993
H            6.50393911520209       -0.96160108376459        0.45915504528624
H            6.56477275703449        1.42161953991332       -0.02232727615101
H            4.87034037577157        0.72678271134379       -2.26920528683295
H            7.94632211146309        2.57788279564190       -1.47127537587273
H           -1.23803157566484        1.33154326659855        1.10901361189609
H            1.31088204253627        2.51169807570396       -0.05273909008866
H           -1.00130602308910        3.58082718089072       -0.47441562723500
H           -0.08374759667966        5.90980499922678        0.36887254024150
H            1.38224714643822        4.98754749524072        0.70525260411058
H            1.27666306002500        4.13751428928182       -1.69774052196789
H           -0.06170944015290        5.26414663348850       -1.95790693120805
H            2.07250356716253        6.26654068926149       -2.71037791574820
H            1.42920669566488        7.16495521176271       -1.33825227644658
H            2.76878861269218        6.04146560060580       -1.10239634012245
H           -2.29029265847666        4.85748465363481        4.48818700341629
H           -2.96583704965449        5.30562345004276       -1.25184680250063
H           -4.96989928725471        4.10356841277676        4.10002749419568
H           -3.21943262392624        2.84066943105429       -0.39873695103295
H           -6.45494764680289        3.13236965551359        2.37429961691944
H           -5.58350928092365        2.51919405281629        0.17123198509270
H            1.06090562824469        4.52120290735650        2.98491763191057
H            0.29779370786203        6.09139046790639        3.21044094141965
H            0.18655111246895        4.87007220316337        4.48034788815123
H            0.90769604741446        2.60340964703607        1.67093907172961
H           -1.49911240224450        2.64246316635918       -3.51833248385796
O           -2.51645042311954        5.28041963825569       -2.09872541710762
H           -1.39828903179059        2.13771032050583       -2.05673156077213
H           -2.46331374517830        4.34387216478833       -2.34583985514065
N            5.50296021263564        1.34117555840526       -1.78191823103141
C            7.81442762962491        0.55076353482338       -1.54132581967467
O            8.25805011704894       -0.52942123640857       -1.87214596535481
C            4.24225636303131        3.11866571613432       -2.79136875330101
C            5.38654823110337        2.67693274341463       -1.91120787359005
O            6.15747140579585        3.44843473529139       -1.36583245722222
H            3.32073765877902        2.62752110173833       -2.48731766902587
H            4.45377765439231        2.85644807287963       -3.82622571151891
H            4.12381676091522        4.19545810825945       -2.71666489003608
N            8.43799151831324        1.72494428046807       -1.71999959667686
C            9.71652320157308        1.83585064346888       -2.37738217033808
H           10.43401028532699        2.33807027226464       -1.72662529160571
H            9.62690987925647        2.39867639983489       -3.30860781560101
H           10.06751499911098        0.82834380171594       -2.59570301887329
