      -----------------------------------------------------------      
     |                   =====================                   |     
     |                           x T B                           |     
     |                   =====================                   |     
     |                         S. Grimme                         |     
     |          Mulliken Center for Theoretical Chemistry        |     
     |                    University of Bonn                     |     
      -----------------------------------------------------------      

   * xtb version 6.7.1pre (5071a88) compiled by 'Marcel@Raven' on 2024-07-23

   xtb is free software: you can redistribute it and/or modify it under
   the terms of the GNU Lesser General Public License as published by
   the Free Software Foundation, either version 3 of the License, or
   (at your option) any later version.
   
   xtb is distributed in the hope that it will be useful,
   but WITHOUT ANY WARRANTY; without even the implied warranty of
   MERCHANTABILITY or FITNESS FOR A PARTICULAR PURPOSE.  See the
   GNU Lesser General Public License for more details.
   
   Cite this work as:
   * C. Bannwarth, E. Caldeweyher, S. Ehlert, A. Hansen, P. Pracht,
     J. Seibert, S. Spicher, S. Grimme, WIREs Comput. Mol. Sci., 2020, 11,
     e01493. DOI: 10.1002/wcms.1493
   
   for GFN2-xTB:
   * C. Bannwarth, S. Ehlert and S. Grimme., J. Chem. Theory Comput., 2019,
     15, 1652-1671. DOI: 10.1021/acs.jctc.8b01176
   for GFN1-xTB:
   * S. Grimme, C. Bannwarth, P. Shushkov, J. Chem. Theory Comput., 2017,
     13, 1989-2009. DOI: 10.1021/acs.jctc.7b00118
   for GFN0-xTB:
   * P. Pracht, E. Caldeweyher, S. Ehlert, S. Grimme, ChemRxiv, 2019, preprint.
     DOI: 10.26434/chemrxiv.8326202.v1
   for GFN-FF:
   * S. Spicher and S. Grimme, Angew. Chem. Int. Ed., 2020, 59, 15665-15673.
     DOI: 10.1002/anie.202004239
   
   for ALPB and GBSA implicit solvation:
   * S. Ehlert, M. Stahn, S. Spicher, S. Grimme, J. Chem. Theory Comput.,
     2021, 17, 4250-4261. DOI: 10.1021/acs.jctc.1c00471
   
   for ddCOSMO and CPCM-X implicit solvation:
   * M. Stahn, S. Ehlert, S. Grimme, J. Phys. Chem. A,
     2023, XX, XXXX-XXXX. DOI: 10.1021/acs.jpca.3c04382
   
   for DFT-D4:
   * E. Caldeweyher, C. Bannwarth and S. Grimme, J. Chem. Phys., 2017,
     147, 034112. DOI: 10.1063/1.4993215
   * E. Caldeweyher, S. Ehlert, A. Hansen, H. Neugebauer, S. Spicher,
     C. Bannwarth and S. Grimme, J. Chem. Phys., 2019, 150, 154122.
     DOI: 10.1063/1.5090222
   * E. Caldeweyher, J.-M. Mewes, S. Ehlert and S. Grimme, Phys. Chem. Chem. Phys.
     2020, 22, 8499-8512. DOI: 10.1039/D0CP00502A
   
   for sTDA-xTB:
   * S. Grimme and C. Bannwarth, J. Chem. Phys., 2016, 145, 054103.
     DOI: 10.1063/1.4959605
   
   in the mass-spec context:
   * V. Asgeirsson, C. Bauer and S. Grimme, Chem. Sci., 2017, 8, 4879.
     DOI: 10.1039/c7sc00601b
   * J. Koopman and S. Grimme, ACS Omega 2019, 4, 12, 15120-15133.
     DOI: 10.1021/acsomega.9b02011
   
   for metadynamics refer to:
   * S. Grimme, J. Chem. Theory Comput., 2019, 155, 2847-2862
     DOI: 10.1021/acs.jctc.9b00143
   
   for SPH calculations refer to:
   * S. Spicher and S. Grimme, J. Chem. Theory Comput., 2021, 17, 1701-1714
     DOI: 10.1021/acs.jctc.0c01306
   
   for ONIOM refer to:
   * C. Plett, A. Katbashev, S. Ehlert, S. Grimme, M. Bursch,
     Phys. Chem. Chem. Phys., 2023, 25, 17860-17868. DOI: 10.1039/D3CP02178E
   
   for DIPRO refer to:
   * J. Kohn, N. Gildemeister, S. Grimme, D. Fazzi, A. Hansen,
     J. Chem. Phys., 2023, just accepted.
   
   for PTB refer to:
   * S. Grimme, M. Mueller, A. Hansen, J. Chem. Phys., 2023, 158, 124111.
     DOI: 10.1063/5.0137838
   
   with help from (in alphabetical order)
   P. Atkinson, C. Bannwarth, F. Bohle, G. Brandenburg, E. Caldeweyher
   M. Checinski, S. Dohm, S. Ehlert, S. Ehrlich, I. Gerasimov, C. Hölzer
   A. Katbashev, J. Kohn, J. Koopman, C. Lavigne, S. Lehtola, F. März, M. Müller,
   F. Musil, H. Neugebauer, J. Pisarek, C. Plett, P. Pracht, F. Pultar,
   J. Seibert, P. Shushkov, S. Spicher, M. Stahn, M. Steiner, T. Strunk,
   J. Stückrath, T. Rose, and J. Unsleber
   
 * started run on 2026/08/20 at 20:40:15.366     
   ID    Z sym.   atoms
    1    7 N      1, 17, 63, 72
    2    6 C      2-15, 18-26, 64, 66, 67, 73
    3    8 O      16, 27, 60, 65, 68
    4    1 H      28-59, 61, 62, 69-71, 74-76

           -------------------------------------------------
          |                Calculation Setup                |
           -------------------------------------------------

          program call               : C:\Users\Nayanika\Downloads\xtb-6.7.1pre-windows-x86_64\xtb-6.7.1\bin\xtb.exe D:\PhD_Thesis\LmrR_EVB\charges\fast_lmrr_5QM\xtb_preparation\stage2_five_xtb_protocols\GFN2_etemp500\TS2_1a_to_PS2_2\TS2_1a_to_PS2_2_PS_xtbopt.xyz --gfn 2 --chrg 0 --uhf 0 --hess --etemp 500
          coordinate file            : D:\PhD_Thesis\LmrR_EVB\charges\fast_lmrr_5QM\xtb_preparation\stage2_five_xtb_protocols\GFN2_etemp500\TS2_1a_to_PS2_2\TS2_1a_to_PS2_2_PS_xtbopt.xyz
          omp threads                :                     8


molecular fragmentation (1/2 indicates fragments):
111111111111111111111111112111111111111111111111121111111122221111111111
1111
# atoms in fragment 1/2:    70     6
 fragment masses (1/2) :      464.60       36.03
CMA distance (Bohr)    :   9.656
constraining FC (au)   :  0.0500

           -------------------------------------------------
          |                 G F N 2 - x T B                 |
           -------------------------------------------------

        Reference                      10.1021/acs.jctc.8b01176
      * Hamiltonian:
        H0-scaling (s, p, d)           1.850000    2.230000    2.230000
        zeta-weighting                 0.500000
      * Dispersion:
        s8                             2.700000
        a1                             0.520000
        a2                             5.000000
        s9                             5.000000
      * Repulsion:
        kExp                           1.500000    1.000000
        rExp                           1.000000
      * Coulomb:
        alpha                          2.000000
        third order                    shell-resolved
        anisotropic                    true
        a3                             3.000000
        a5                             4.000000
        cn-shift                       1.200000
        cn-exp                         4.000000
        max-rad                        5.000000

q/qsh data taken from xtbrestart
CAMM data taken from xtbrestart

          ...................................................
          :                      SETUP                      :
          :.................................................:
          :  # basis functions                 184          :
          :  # atomic orbitals                 184          :
          :  # shells                          112          :
          :  # electrons                       198          :
          :  max. iterations                   250          :
          :  Hamiltonian                  GFN2-xTB          :
          :  restarted?                       true          :
          :  GBSA solvation                  false          :
          :  PC potential                    false          :
          :  electronic temp.          500.0000000     K    :
          :  accuracy                    1.0000000          :
          :  -> integral cutoff          0.2500000E+02      :
          :  -> integral neglect         0.1000000E-07      :
          :  -> SCF convergence          0.1000000E-05 Eh   :
          :  -> wf. convergence          0.1000000E-03 e    :
          :  Broyden damping             0.4000000          :
          :  net charge                          0          :
          :  unpaired electrons                  0          :
          ...................................................

 iter      E             dE          RMSdq      gap      omega  full diag
   1   -111.8266986 -0.111827E+03  0.891E-07    3.38       0.0  T
   2   -111.8266986 -0.198952E-12  0.598E-07    3.38   19165.9  T
   3   -111.8266986  0.568434E-13  0.350E-07    3.38   32819.5  T

   *** convergence criteria satisfied after 3 iterations ***

         #    Occupation            Energy/Eh            Energy/eV
      -------------------------------------------------------------
         1        2.0000           -0.7127807             -19.3958
       ...           ...                  ...                  ...
        93        2.0000           -0.4052035             -11.0261
        94        2.0000           -0.4032950             -10.9742
        95        2.0000           -0.3983874             -10.8407
        96        2.0000           -0.3856524             -10.4941
        97        2.0000           -0.3769532             -10.2574
        98        2.0000           -0.3749982             -10.2042
        99        2.0000           -0.3554044              -9.6710 (HOMO)
       100                         -0.2310409              -6.2869 (LUMO)
       101                         -0.2289764              -6.2308
       102                         -0.2254291              -6.1342
       103                         -0.2177445              -5.9251
       104                         -0.2070353              -5.6337
       ...                                ...                  ...
       184                          0.7221926              19.6519
      -------------------------------------------------------------
                  HL-Gap            0.1243635 Eh            3.3841 eV
             Fermi-level           -0.2932226 Eh           -7.9790 eV

 SCC (total)                   0 d,  0 h,  0 min,  0.066 sec
 SCC setup                      ...        0 min,  0.000 sec (  0.000%)
 Dispersion                     ...        0 min,  0.001 sec (  1.515%)
 classical contributions        ...        0 min,  0.001 sec (  1.515%)
 integral evaluation            ...        0 min,  0.004 sec (  6.061%)
 iterations                     ...        0 min,  0.044 sec ( 66.667%)
 molecular gradient             ...        0 min,  0.016 sec ( 24.242%)
 printout                       ...        0 min,  0.000 sec (  0.000%)

         :::::::::::::::::::::::::::::::::::::::::::::::::::::
         ::                     SUMMARY                     ::
         :::::::::::::::::::::::::::::::::::::::::::::::::::::
         :: total energy            -110.294632569195 Eh    ::
         :: gradient norm              0.000254333654 Eh/a0 ::
         :: HOMO-LUMO gap              3.384102953535 eV    ::
         ::.................................................::
         :: SCC energy              -111.824068970240 Eh    ::
         :: -> isotropic ES            0.184464223451 Eh    ::
         :: -> anisotropic ES          0.006950928966 Eh    ::
         :: -> anisotropic XC          0.040831736391 Eh    ::
         :: -> dispersion             -0.082184161034 Eh    ::
         :: repulsion energy           1.529436401044 Eh    ::
         :: add. restraining           0.000000000000 Eh    ::
         :: total charge               0.000000000000 e     ::
         :::::::::::::::::::::::::::::::::::::::::::::::::::::

           ------------------------------------------------- 
          |                Numerical Hessian                |
           ------------------------------------------------- 
step length          :   0.00500
SCC accuracy         :   0.30000
Hessian scale factor :   1.00000
frozen atoms in %    :   0.00000    0
RMS gradient         :   0.00025
estimated CPU  time     11.22 min
estimated wall time      1.75 min

writing file <hessian>.

 projected vibrational frequencies (cm⁻¹)
eigval :       -0.00    -0.00    -0.00     0.00     0.00     0.00
eigval :        3.75     9.46    19.11    21.85    25.81    27.64
eigval :       35.69    38.67    41.33    48.09    51.66    55.96
eigval :       62.02    63.78    68.05    69.76    72.17    84.92
eigval :       87.86    98.39   110.36   122.47   124.22   125.58
eigval :      141.32   143.30   151.55   165.02   166.61   172.08
eigval :      186.98   189.31   194.73   222.66   237.34   237.55
eigval :      239.94   251.54   270.49   287.47   289.52   291.53
eigval :      304.07   311.17   322.00   347.58   361.77   379.86
eigval :      385.41   398.45   411.08   415.23   420.56   443.28
eigval :      444.40   452.74   462.35   470.43   481.23   489.00
eigval :      495.95   528.16   531.13   543.53   552.78   579.91
eigval :      594.30   601.91   613.24   625.23   631.58   639.34
eigval :      645.78   656.59   688.70   696.29   704.07   725.06
eigval :      751.66   763.06   774.38   787.59   812.43   816.37
eigval :      859.67   864.79   869.92   870.62   872.07   879.94
eigval :      893.50   902.54   912.51   921.42   924.41   927.28
eigval :      933.46   953.06   978.02   991.36   994.27   997.13
eigval :     1005.15  1006.54  1021.52  1028.91  1031.36  1037.92
eigval :     1068.65  1081.54  1086.20  1096.52  1104.78  1110.91
eigval :     1117.29  1121.53  1126.17  1130.73  1140.28  1141.78
eigval :     1164.66  1165.09  1168.98  1177.53  1194.46  1201.84
eigval :     1210.84  1214.25  1217.98  1226.14  1229.38  1238.32
eigval :     1254.47  1258.40  1266.77  1273.75  1277.75  1282.25
eigval :     1288.83  1296.63  1310.02  1317.06  1319.73  1325.86
eigval :     1330.73  1343.57  1344.93  1367.18  1370.50  1373.90
eigval :     1389.82  1393.18  1402.35  1412.83  1415.45  1420.40
eigval :     1430.95  1435.43  1450.68  1456.15  1456.83  1462.53
eigval :     1465.23  1474.46  1474.75  1481.84  1484.63  1492.85
eigval :     1495.56  1496.08  1497.20  1507.73  1509.36  1538.48
eigval :     1566.50  1578.64  1580.52  1594.93  1609.50  1628.56
eigval :     1716.77  1759.44  2873.71  2917.47  2963.62  2971.63
eigval :     2975.36  2982.60  2988.93  2990.32  2990.55  2991.70
eigval :     2994.98  2998.29  3000.52  3017.81  3022.16  3022.91
eigval :     3024.80  3029.81  3030.38  3032.03  3040.05  3057.90
eigval :     3060.73  3069.02  3069.60  3071.51  3076.48  3082.41
eigval :     3088.76  3097.89  3109.93  3319.26  3345.32  3399.33
eigval :     3447.66  3459.60  3481.86  3533.15  3653.83  3661.20
           -------------------------------------------------
          |                Property Printout                |
           -------------------------------------------------

    * Orbital Energies and Occupations

         #    Occupation            Energy/Eh            Energy/eV
      -------------------------------------------------------------
         1        2.0000           -0.7127807             -19.3958
       ...           ...                  ...                  ...
        87        2.0000           -0.4169409             -11.3455
        88        2.0000           -0.4149352             -11.2910
        89        2.0000           -0.4133774             -11.2486
        90        2.0000           -0.4112980             -11.1920
        91        2.0000           -0.4085873             -11.1182
        92        2.0000           -0.4057838             -11.0419
        93        2.0000           -0.4052035             -11.0261
        94        2.0000           -0.4032950             -10.9742
        95        2.0000           -0.3983874             -10.8407
        96        2.0000           -0.3856524             -10.4941
        97        2.0000           -0.3769532             -10.2574
        98        2.0000           -0.3749982             -10.2042
        99        2.0000           -0.3554044              -9.6710 (HOMO)
       100                         -0.2310409              -6.2869 (LUMO)
       101                         -0.2289764              -6.2308
       102                         -0.2254291              -6.1342
       103                         -0.2177445              -5.9251
       104                         -0.2070353              -5.6337
       105                         -0.1928322              -5.2472
       106                         -0.1539054              -4.1880
       107                         -0.1047388              -2.8501
       108                         -0.0669585              -1.8220
       109                          0.0007935               0.0216
       110                          0.0022351               0.0608
       ...                                ...                  ...
       184                          0.7221926              19.6519
      -------------------------------------------------------------
                  HL-Gap            0.1243635 Eh            3.3841 eV
             Fermi-level           -0.2932226 Eh           -7.9790 eV

     #   Z          covCN         q      C6AA      α(0)
     1   7 N        2.685    -0.263    26.825     7.692
     2   6 C        2.907     0.074    26.340     8.415
     3   6 C        2.923    -0.046    29.131     8.851
     4   6 C        2.925    -0.038    28.950     8.824
     5   6 C        2.970     0.004    27.920     8.667
     6   6 C        2.924    -0.043    29.080     8.843
     7   6 C        2.921    -0.051    29.273     8.873
     8   6 C        3.811    -0.071    21.842     6.652
     9   6 C        3.797     0.019    20.252     6.408
    10   6 C        3.663     0.184    17.909     6.070
    11   6 C        3.808    -0.067    21.785     6.644
    12   6 C        3.855    -0.028    21.043     6.524
    13   6 C        3.805    -0.064    21.734     6.637
    14   6 C        3.801    -0.062    21.687     6.630
    15   6 C        3.752    -0.103    22.531     6.769
    16   8 O        1.654    -0.473    22.314     6.377
    17   7 N        2.784    -0.120    23.612     7.217
    18   6 C        3.070     0.041    27.002     8.520
    19   6 C        3.112    -0.025    28.473     8.742
    20   6 C        3.057    -0.050    29.188     8.860
    21   6 C        2.909    -0.055    29.367     8.886
    22   6 C        2.912    -0.049    29.222     8.864
    23   6 C        3.061     0.040    27.044     8.528
    24   6 C        2.924    -0.040    28.982     8.829
    25   6 C        2.919    -0.045    29.116     8.849
    26   6 C        3.754    -0.111    22.688     6.792
    27   8 O        1.610    -0.597    25.113     6.764
    28   1 H        0.860     0.146     1.432     1.875
    29   1 H        0.805     0.292     0.744     1.355
    30   1 H        0.926     0.043     2.411     2.428
    31   1 H        0.926     0.037     2.495     2.470
    32   1 H        0.925     0.031     2.575     2.510
    33   1 H        0.925     0.026     2.640     2.541
    34   1 H        0.924     0.065     2.146     2.291
    35   1 H        0.924     0.060     2.202     2.321
    36   1 H        0.924     0.063     2.168     2.303
    37   1 H        0.860     0.178     1.224     1.733
    38   1 H        0.860     0.206     1.076     1.625
    39   1 H        0.923     0.025     2.657     2.549
    40   1 H        0.924     0.049     2.334     2.389
    41   1 H        0.924     0.063     2.165     2.301
    42   1 H        0.924     0.040     2.452     2.449
    43   1 H        0.924     0.030     2.582     2.513
    44   1 H        0.924     0.021     2.717     2.578
    45   1 H        0.924     0.059     2.216     2.328
    46   1 H        0.925     0.030     2.589     2.516
    47   1 H        0.925     0.035     2.514     2.480
    48   1 H        0.925     0.030     2.580     2.512
    49   1 H        0.860     0.156     1.364     1.829
    50   1 H        0.805     0.274     0.806     1.410
    51   1 H        0.926     0.019     2.746     2.592
    52   1 H        0.926     0.040     2.449     2.447
    53   1 H        0.926     0.024     2.679     2.559
    54   1 H        0.926     0.024     2.668     2.554
    55   1 H        0.925     0.052     2.290     2.367
    56   1 H        0.924     0.052     2.301     2.372
    57   1 H        0.925     0.040     2.444     2.445
    58   1 H        0.925     0.047     2.358     2.401
    59   1 H        0.805     0.283     0.776     1.383
    60   8 O        1.610    -0.601    25.200     6.775
    61   1 H        0.804     0.314     0.681     1.296
    62   1 H        0.804     0.304     0.709     1.323
    63   7 N        2.692    -0.183    24.973     7.422
    64   6 C        2.753     0.263    22.557     7.777
    65   8 O        0.858    -0.436    22.417     6.348
    66   6 C        3.757    -0.143    23.311     6.884
    67   6 C        2.749     0.277    22.306     7.733
    68   8 O        0.859    -0.455    22.810     6.403
    69   1 H        0.925     0.055     2.261     2.352
    70   1 H        0.925     0.060     2.194     2.316
    71   1 H        0.925     0.079     1.985     2.203
    72   7 N        2.686    -0.176    24.805     7.397
    73   6 C        3.690    -0.043    21.530     6.640
    74   1 H        0.924     0.053     2.286     2.364
    75   1 H        0.924     0.050     2.320     2.382
    76   1 H        0.925     0.082     1.955     2.187

 Mol. C6AA /au·bohr⁶  :      55559.627622
 Mol. C8AA /au·bohr⁸  :    1265584.568740
 Mol. α(0) /au        :        361.954898


Wiberg/Mayer (AO) data.
largest (>0.10) Wiberg bond orders for each atom

 ---------------------------------------------------------------------------
     #   Z sym  total        # sym  WBO       # sym  WBO       # sym  WBO
 ---------------------------------------------------------------------------
     1   7 N    3.150 --     2 C    1.045    10 C    0.995    28 H    0.946
     2   6 C    3.974 --     7 C    1.396     3 C    1.378     1 N    1.045
                             5 C    0.101
     3   6 C    3.991 --     4 C    1.465     2 C    1.378    30 H    0.966
                             6 C    0.106
     4   6 C    3.991 --     3 C    1.465     5 C    1.397    31 H    0.968
                             7 C    0.107
     5   6 C    3.987 --     6 C    1.416     4 C    1.397     8 C    1.010
                             2 C    0.101
     6   6 C    3.990 --     7 C    1.442     5 C    1.416    32 H    0.968
                             3 C    0.106
     7   6 C    3.990 --     6 C    1.442     2 C    1.396    33 H    0.968
                             4 C    0.107
     8   6 C    3.991 --     5 C    1.010     9 C    0.984    34 H    0.970
                            35 H    0.961
     9   6 C    3.964 --     8 C    0.984    63 N    0.975    36 H    0.951
                            64 C    0.915
    10   6 C    3.939 --     1 N    0.995    11 C    0.993    39 H    0.956
                            16 O    0.944
    11   6 C    3.991 --    10 C    0.993    12 C    0.980    40 H    0.969
                            58 H    0.967
    12   6 C    3.991 --    20 C    1.005    13 C    0.985    11 C    0.980
                            41 H    0.954
    13   6 C    3.995 --    14 C    1.008    12 C    0.985    42 H    0.977
                            43 H    0.975
    14   6 C    3.995 --    15 C    1.019    13 C    1.008    44 H    0.976
                            45 H    0.972
    15   6 C    3.996 --    14 C    1.019    47 H    0.988    48 H    0.987
                            46 H    0.987
    16   8 O    1.978 --    10 C    0.944    29 H    0.897
    17   7 N    3.528 --    18 C    1.174    23 C    1.172    49 H    0.945
    18   6 C    3.958 --    21 C    1.343    19 C    1.243    17 N    1.174
    19   6 C    3.983 --    22 C    1.331    18 C    1.243    20 C    1.203
    20   6 C    3.971 --    23 C    1.551    19 C    1.203    12 C    1.005
    21   6 C    3.988 --    24 C    1.487    18 C    1.343    51 H    0.969
                            22 C    0.111
    22   6 C    3.989 --    25 C    1.501    19 C    1.331    52 H    0.963
                            21 C    0.111
    23   6 C    3.950 --    20 C    1.551    17 N    1.172    26 C    1.029
    24   6 C    3.988 --    21 C    1.487    25 C    1.374    53 H    0.972
    25   6 C    3.990 --    22 C    1.501    24 C    1.374    54 H    0.972
    26   6 C    3.995 --    23 C    1.029    57 H    0.980    55 H    0.975
                            56 H    0.967
    27   8 O    1.855 --    59 H    0.918    61 H    0.859
    28   1 H    0.978 --     1 N    0.946
    29   1 H    0.914 --    16 O    0.897
    30   1 H    0.998 --     3 C    0.966
    31   1 H    0.998 --     4 C    0.968
    32   1 H    0.999 --     6 C    0.968
    33   1 H    0.999 --     7 C    0.968
    34   1 H    0.995 --     8 C    0.970
    35   1 H    0.995 --     8 C    0.961
    36   1 H    0.996 --     9 C    0.951
    37   1 H    0.968 --    63 N    0.937
    38   1 H    0.958 --    72 N    0.907
    39   1 H    0.999 --    10 C    0.956
    40   1 H    0.997 --    11 C    0.969
    41   1 H    0.996 --    12 C    0.954
    42   1 H    0.998 --    13 C    0.977
    43   1 H    0.999 --    13 C    0.975
    44   1 H    1.000 --    14 C    0.976
    45   1 H    0.996 --    14 C    0.972
    46   1 H    0.999 --    15 C    0.987
    47   1 H    0.999 --    15 C    0.988
    48   1 H    0.999 --    15 C    0.987
    49   1 H    0.975 --    17 N    0.945
    50   1 H    0.925 --    60 O    0.922
    51   1 H    0.999 --    21 C    0.969
    52   1 H    0.998 --    22 C    0.963
    53   1 H    0.999 --    24 C    0.972
    54   1 H    0.999 --    25 C    0.972
    55   1 H    0.996 --    26 C    0.975
    56   1 H    0.993 --    26 C    0.967
    57   1 H    0.997 --    26 C    0.980
    58   1 H    0.998 --    11 C    0.967
    59   1 H    0.920 --    27 O    0.918
    60   8 O    1.824 --    50 H    0.922    62 H    0.871
    61   1 H    0.901 --    27 O    0.859
    62   1 H    0.908 --    60 O    0.871
    63   7 N    3.448 --    67 C    1.266     9 C    0.975    37 H    0.937
                            68 O    0.191
    64   6 C    3.957 --    65 O    1.678    72 N    1.293     9 C    0.915
    65   8 O    2.010 --    64 C    1.678    72 N    0.212
    66   6 C    3.992 --    67 C    0.984    71 H    0.981    69 H    0.973
                            70 H    0.966
    67   6 C    3.949 --    68 O    1.650    63 N    1.266    66 C    0.984
    68   8 O    1.993 --    67 C    1.650    63 N    0.191
    69   1 H    0.997 --    66 C    0.973
    70   1 H    0.996 --    66 C    0.966
    71   1 H    0.993 --    66 C    0.981
    72   7 N    3.467 --    64 C    1.293    73 C    1.006    38 H    0.907
                            65 O    0.212
    73   6 C    3.965 --    72 N    1.006    74 H    0.977    76 H    0.977
                            75 H    0.976
    74   1 H    0.997 --    73 C    0.977
    75   1 H    0.997 --    73 C    0.976
    76   1 H    0.993 --    73 C    0.977
 ---------------------------------------------------------------------------

Topologies differ in total number of bonds
Writing topology from bond orders to xtbtopo.mol

molecular dipole:
                 x           y           z       tot (Debye)
 q only:        0.000      -0.348       0.850
   full:       -0.417      -0.736       1.000       3.330
molecular quadrupole (traceless):
                xx          xy          yy          xz          yz          zz
 q only:      -16.011      20.756      -7.386      -5.557      15.533      23.397
  q+dip:      -22.615      24.798     -12.595      -8.853      28.346      35.211
   full:      -24.500      24.126     -10.359      -8.988      24.364      34.859

           -------------------------------------------------
          |               Frequency Printout                |
           -------------------------------------------------
 projected vibrational frequencies (cm⁻¹)
eigval :       -0.00    -0.00    -0.00     0.00     0.00     0.00
eigval :        3.75     9.46    19.11    21.85    25.81    27.64
eigval :       35.69    38.67    41.33    48.09    51.66    55.96
eigval :       62.02    63.78    68.05    69.76    72.17    84.92
eigval :       87.86    98.39   110.36   122.47   124.22   125.58
eigval :      141.32   143.30   151.55   165.02   166.61   172.08
eigval :      186.98   189.31   194.73   222.66   237.34   237.55
eigval :      239.94   251.54   270.49   287.47   289.52   291.53
eigval :      304.07   311.17   322.00   347.58   361.77   379.86
eigval :      385.41   398.45   411.08   415.23   420.56   443.28
eigval :      444.40   452.74   462.35   470.43   481.23   489.00
eigval :      495.95   528.16   531.13   543.53   552.78   579.91
eigval :      594.30   601.91   613.24   625.23   631.58   639.34
eigval :      645.78   656.59   688.70   696.29   704.07   725.06
eigval :      751.66   763.06   774.38   787.59   812.43   816.37
eigval :      859.67   864.79   869.92   870.62   872.07   879.94
eigval :      893.50   902.54   912.51   921.42   924.41   927.28
eigval :      933.46   953.06   978.02   991.36   994.27   997.13
eigval :     1005.15  1006.54  1021.52  1028.91  1031.36  1037.92
eigval :     1068.65  1081.54  1086.20  1096.52  1104.78  1110.91
eigval :     1117.29  1121.53  1126.17  1130.73  1140.28  1141.78
eigval :     1164.66  1165.09  1168.98  1177.53  1194.46  1201.84
eigval :     1210.84  1214.25  1217.98  1226.14  1229.38  1238.32
eigval :     1254.47  1258.40  1266.77  1273.75  1277.75  1282.25
eigval :     1288.83  1296.63  1310.02  1317.06  1319.73  1325.86
eigval :     1330.73  1343.57  1344.93  1367.18  1370.50  1373.90
eigval :     1389.82  1393.18  1402.35  1412.83  1415.45  1420.40
eigval :     1430.95  1435.43  1450.68  1456.15  1456.83  1462.53
eigval :     1465.23  1474.46  1474.75  1481.84  1484.63  1492.85
eigval :     1495.56  1496.08  1497.20  1507.73  1509.36  1538.48
eigval :     1566.50  1578.64  1580.52  1594.93  1609.50  1628.56
eigval :     1716.77  1759.44  2873.71  2917.47  2963.62  2971.63
eigval :     2975.36  2982.60  2988.93  2990.32  2990.55  2991.70
eigval :     2994.98  2998.29  3000.52  3017.81  3022.16  3022.91
eigval :     3024.80  3029.81  3030.38  3032.03  3040.05  3057.90
eigval :     3060.73  3069.02  3069.60  3071.51  3076.48  3082.41
eigval :     3088.76  3097.89  3109.93  3319.26  3345.32  3399.33
eigval :     3447.66  3459.60  3481.86  3533.15  3653.83  3661.20
 reduced masses (amu)
   1: 11.60   2: 12.04   3: 11.76   4: 12.03   5: 12.13   6: 12.11   7: 11.42   8: 11.73
   9: 12.41  10: 11.31  11: 11.06  12: 12.13  13: 12.37  14: 11.68  15: 11.52  16: 11.31
  17: 13.13  18:  7.62  19: 12.44  20: 10.85  21: 11.35  22:  6.67  23: 12.52  24:  6.94
  25:  7.76  26: 10.97  27:  5.50  28:  9.83  29: 10.31  30:  2.41  31: 10.05  32: 11.85
  33: 10.83  34: 10.95  35:  8.06  36:  6.92  37: 11.42  38:  7.52  39:  5.66  40: 11.28
  41: 10.01  42:  7.45  43:  9.73  44:  8.45  45:  8.87  46:  7.11  47:  5.90  48: 11.84
  49:  8.59  50:  9.82  51: 11.99  52: 10.26  53:  9.22  54:  7.51  55:  8.27  56:  7.32
  57:  9.56  58:  9.35  59:  9.21  60:  5.34  61:  7.24  62:  4.33  63:  9.50  64:  9.17
  65:  6.56  66: 10.98  67: 10.57  68:  5.40  69:  9.55  70:  7.08  71:  7.62  72:  8.22
  73: 11.01  74: 10.68  75: 10.94  76:  9.87  77:  2.93  78: 10.22  79:  8.72  80: 10.72
  81:  6.10  82: 10.50  83: 11.55  84: 11.08  85:  9.63  86: 10.50  87:  3.52  88:  2.52
  89:  5.71  90:  6.88  91:  9.42  92: 11.06  93:  6.65  94:  3.50  95:  6.67  96:  9.15
  97:  4.11  98:  3.80  99:  2.89 100:  9.08 101:  2.90 102:  4.24 103:  8.78 104:  6.66
 105: 10.69 106:  6.00 107:  5.33 108:  7.39 109:  5.45 110:  9.52 111:  6.33 112:  9.07
 113:  4.41 114:  8.49 115:  6.28 116:  7.00 117:  9.25 118:  6.92 119:  3.75 120:  8.43
 121:  7.83 122:  7.72 123:  7.41 124:  6.77 125:  5.79 126:  5.04 127:  4.90 128:  5.24
 129:  4.86 130:  2.58 131:  2.49 132:  4.97 133:  5.33 134:  5.86 135:  4.62 136:  5.93
 137:  4.52 138:  4.37 139:  4.34 140:  4.05 141:  3.35 142:  7.22 143:  4.35 144:  5.52
 145:  2.46 146:  4.59 147:  6.52 148:  9.18 149:  5.67 150:  4.83 151:  6.42 152:  6.60
 153:  6.67 154:  9.19 155:  6.77 156:  3.68 157:  6.86 158:  2.63 159:  4.94 160:  7.56
 161:  3.36 162:  9.87 163:  8.10 164:  8.55 165: 10.98 166:  1.69 167:  2.01 168:  1.57
 169:  1.60 170:  1.71 171:  2.09 172:  2.01 173:  2.53 174:  2.08 175:  2.30 176: 10.00
 177:  9.55 178:  1.55 179:  1.58 180:  2.10 181:  2.11 182: 11.45 183: 11.49 184: 11.71
 185: 11.54 186: 11.67 187: 13.15 188: 13.19 189:  1.72 190:  1.75 191:  1.79 192:  1.92
 193:  1.83 194:  1.92 195:  1.76 196:  1.75 197:  1.50 198:  1.70 199:  1.68 200:  1.56
 201:  1.70 202:  1.64 203:  1.82 204:  1.83 205:  1.73 206:  1.67 207:  1.72 208:  1.73
 209:  1.52 210:  1.78 211:  1.68 212:  1.75 213:  1.78 214:  1.87 215:  1.79 216:  1.81
 217:  1.87 218:  1.88 219:  1.85 220:  1.88 221:  1.81 222:  1.86 223:  1.87 224:  1.85
 225:  1.86 226:  1.87 227:  1.84 228:  1.83
 IR intensities (km·mol⁻¹)
   1:  0.02   2:  0.07   3:  0.06   4:  0.01   5:  0.01   6:  0.02   7:  0.75   8:  0.30
   9:  0.52  10:  0.18  11:  0.81  12:  0.52  13:  5.16  14:  0.23  15:  0.32  16:  1.36
  17:  2.08  18:  0.53  19:  4.39  20:  2.47  21:  3.34  22:  9.02  23:  0.12  24:  2.13
  25:  1.75  26: 12.75  27:  1.52  28:  0.55  29:  3.33  30:  1.11  31:  1.42  32:  3.55
  33:  8.76  34:  4.20  35: 53.90  36: 42.41  37:  7.75  38: 47.77  39: 60.85  40: 47.41
  41:  4.74  42:  2.82  43:  3.98  44:  8.37  45: 12.44  46: 87.71  47:113.91  48:  2.47
  49:  2.15  50:  1.49  51: 11.38  52:  4.59  53:  4.70  54:  7.98  55: 25.77  56: 30.72
  57: 24.51  58:  1.95  59:  6.57  60:129.99  61:  9.47  62: 99.29  63:  9.03  64:  6.58
  65:100.64  66:  0.61  67:  2.29  68: 73.92  69: 21.80  70: 84.12  71: 13.59  72:  3.84
  73:  5.67  74: 24.97  75:  9.43  76:  6.62  77:256.98  78:  9.90  79: 57.03  80:  9.09
  81: 39.24  82:  6.22  83:  0.72  84:  2.46  85:  4.64  86: 39.12  87: 28.92  88: 21.39
  89: 39.98  90: 46.33  91: 17.97  92:  0.32  93:  1.47  94:  0.66  95: 12.18  96: 12.26
  97:  6.60  98:  1.06  99:  0.26 100:  0.73 101:  0.66 102:  0.35 103:  0.95 104: 17.36
 105: 18.69 106: 10.26 107:  2.18 108: 13.83 109: 28.90 110: 29.90 111: 13.54 112: 42.63
 113:  8.56 114: 29.47 115:  0.55 116: 23.20 117:  7.22 118: 61.06 119:  0.35 120:  2.00
 121:  4.41 122: 33.57 123: 10.41 124: 17.51 125:  1.91 126:  1.49 127:  3.18 128:  3.01
 129: 12.26 130:  5.61 131: 14.09 132:  2.25 133:  6.00 134: 33.75 135:  9.02 136: 15.99
 137:  7.04 138: 84.74 139: 40.67 140: 30.07 141:  1.60 142: 28.62 143:  5.04 144: 47.16
 145:  0.40 146:  2.07 147: 25.54 148: 35.40 149:  6.87 150:  0.58 151:  4.04 152: 34.56
 153: 22.09 154: 13.45 155:  2.18 156: 19.13 157: 16.49 158:  2.72 159: 10.37 160: 13.27
 161:  2.97 162:246.59 163: 27.80 164:210.76 165: 58.75 166:  5.22 167:  1.97 168: 10.01
 169: 14.43 170:  4.30 171:  0.32 172:  3.54 173: 27.50 174:  1.26 175:  3.57 176:  8.29
 177: 79.10 178:  2.23 179:  1.59 180:130.07 181:158.20 182:  5.29 183:  0.35 184:  7.18
 185: 13.66 186: 16.24 187:296.96 188:577.00 189: 52.09 190: 13.08 191: 27.78 192: 28.10
 193: 30.88 194: 16.61 195:  3.44 196: 76.12 197: 23.27 198: 25.64 199: 39.77 200: 12.51
 201:  3.20 202: 37.53 203: 30.78 204: 11.99 205: 43.11 206: 35.48 207: 28.43 208:  6.84
 209: 41.89 210: 22.36 211: 14.92 212:  2.13 213: 18.06 214: 57.24 215: 34.23 216: 19.95
 217: 90.35 218: 29.12 219: 26.14 220:131.48 221:  5.51 222:466.53 223:223.44 224: 13.60
 225:  7.86 226: 12.35 227:  7.77 228: 10.93
 Raman intensities (Ä⁴*amu⁻¹)
   1:  0.00   2:  0.00   3:  0.00   4:  0.00   5:  0.00   6:  0.00   7:  0.00   8:  0.00
   9:  0.00  10:  0.00  11:  0.00  12:  0.00  13:  0.00  14:  0.00  15:  0.00  16:  0.00
  17:  0.00  18:  0.00  19:  0.00  20:  0.00  21:  0.00  22:  0.00  23:  0.00  24:  0.00
  25:  0.00  26:  0.00  27:  0.00  28:  0.00  29:  0.00  30:  0.00  31:  0.00  32:  0.00
  33:  0.00  34:  0.00  35:  0.00  36:  0.00  37:  0.00  38:  0.00  39:  0.00  40:  0.00
  41:  0.00  42:  0.00  43:  0.00  44:  0.00  45:  0.00  46:  0.00  47:  0.00  48:  0.00
  49:  0.00  50:  0.00  51:  0.00  52:  0.00  53:  0.00  54:  0.00  55:  0.00  56:  0.00
  57:  0.00  58:  0.00  59:  0.00  60:  0.00  61:  0.00  62:  0.00  63:  0.00  64:  0.00
  65:  0.00  66:  0.00  67:  0.00  68:  0.00  69:  0.00  70:  0.00  71:  0.00  72:  0.00
  73:  0.00  74:  0.00  75:  0.00  76:  0.00  77:  0.00  78:  0.00  79:  0.00  80:  0.00
  81:  0.00  82:  0.00  83:  0.00  84:  0.00  85:  0.00  86:  0.00  87:  0.00  88:  0.00
  89:  0.00  90:  0.00  91:  0.00  92:  0.00  93:  0.00  94:  0.00  95:  0.00  96:  0.00
  97:  0.00  98:  0.00  99:  0.00 100:  0.00 101:  0.00 102:  0.00 103:  0.00 104:  0.00
 105:  0.00 106:  0.00 107:  0.00 108:  0.00 109:  0.00 110:  0.00 111:  0.00 112:  0.00
 113:  0.00 114:  0.00 115:  0.00 116:  0.00 117:  0.00 118:  0.00 119:  0.00 120:  0.00
 121:  0.00 122:  0.00 123:  0.00 124:  0.00 125:  0.00 126:  0.00 127:  0.00 128:  0.00
 129:  0.00 130:  0.00 131:  0.00 132:  0.00 133:  0.00 134:  0.00 135:  0.00 136:  0.00
 137:  0.00 138:  0.00 139:  0.00 140:  0.00 141:  0.00 142:  0.00 143:  0.00 144:  0.00
 145:  0.00 146:  0.00 147:  0.00 148:  0.00 149:  0.00 150:  0.00 151:  0.00 152:  0.00
 153:  0.00 154:  0.00 155:  0.00 156:  0.00 157:  0.00 158:  0.00 159:  0.00 160:  0.00
 161:  0.00 162:  0.00 163:  0.00 164:  0.00 165:  0.00 166:  0.00 167:  0.00 168:  0.00
 169:  0.00 170:  0.00 171:  0.00 172:  0.00 173:  0.00 174:  0.00 175:  0.00 176:  0.00
 177:  0.00 178:  0.00 179:  0.00 180:  0.00 181:  0.00 182:  0.00 183:  0.00 184:  0.00
 185:  0.00 186:  0.00 187:  0.00 188:  0.00 189:  0.00 190:  0.00 191:  0.00 192:  0.00
 193:  0.00 194:  0.00 195:  0.00 196:  0.00 197:  0.00 198:  0.00 199:  0.00 200:  0.00
 201:  0.00 202:  0.00 203:  0.00 204:  0.00 205:  0.00 206:  0.00 207:  0.00 208:  0.00
 209:  0.00 210:  0.00 211:  0.00 212:  0.00 213:  0.00 214:  0.00 215:  0.00 216:  0.00
 217:  0.00 218:  0.00 219:  0.00 220:  0.00 221:  0.00 222:  0.00 223:  0.00 224:  0.00
 225:  0.00 226:  0.00 227:  0.00 228:  0.00
 output can be read by thermo (or use thermo option).
 writing <g98.out> molden fake output.
 recommended (thermochemical) frequency scaling factor: 1.0
           -------------------------------------------------
          |             Thermodynamic Functions             |
           -------------------------------------------------

Refinement of some symmetry elements was terminated before convergence was reached.
Some symmetry elements may remain unidentified.
Molecule has no symmetry elements
It seems to be the C1 point group
c1  symmetry found (for desy threshold:  0.10E+00) used in thermo

          ...................................................
          :                      SETUP                      :
          :.................................................:
          :  # frequencies                         222      :
          :  # imaginary freq.                       0      :
          :  linear?                             false      :
          :  only rotor calc.                    false      :
          :  symmetry                               c1      :
          :  rotational number                       1      :
          :  scaling factor                  1.0000000      :
          :  rotor cutoff                   50.0000000 cm⁻¹ :
          :  imag. cutoff                  -20.0000000 cm⁻¹ :
          :.................................................:

    mode    ω/cm⁻¹     T·S(HO)/kcal·mol⁻¹    T·S(FR)/kcal·mol⁻¹   T·S(vib)
   ------------------------------------------------------------------------
       1      3.75    -2.96891 (  0.00%)    -1.82341 (100.00%)    -1.82344
       2      9.46    -2.42138 (  0.13%)    -1.54972 ( 99.87%)    -1.55083
       3     19.11    -2.00500 (  2.09%)    -1.34148 ( 97.91%)    -1.35533
       4     21.85    -1.92560 (  3.52%)    -1.30175 ( 96.48%)    -1.32371
       5     25.81    -1.82707 (  6.63%)    -1.25244 ( 93.37%)    -1.29052
       6     27.64    -1.78654 (  8.54%)    -1.23215 ( 91.46%)    -1.27949
       7     35.69    -1.63529 ( 20.62%)    -1.15638 ( 79.38%)    -1.25512
       8     38.67    -1.58794 ( 26.35%)    -1.13264 ( 73.65%)    -1.25263
       9     41.33    -1.54864 ( 31.83%)    -1.11293 ( 68.17%)    -1.25163
      10     48.09    -1.45929 ( 46.11%)    -1.06809 ( 53.89%)    -1.24847
      11     51.66    -1.41702 ( 53.27%)    -1.04685 ( 46.73%)    -1.24402
      12     55.96    -1.36993 ( 61.08%)    -1.02317 ( 38.92%)    -1.23496
      13     62.02    -1.30941 ( 70.30%)    -0.99271 ( 29.70%)    -1.21537
      14     63.78    -1.29298 ( 72.58%)    -0.98443 ( 27.42%)    -1.20839
      15     68.05    -1.25492 ( 77.43%)    -0.96524 ( 22.57%)    -1.18954
      16     69.76    -1.24037 ( 79.12%)    -0.95790 ( 20.88%)    -1.18138
      17     72.17    -1.22037 ( 81.28%)    -0.94780 ( 18.72%)    -1.16934
      18     84.92    -1.12517 ( 89.27%)    -0.89963 ( 10.73%)    -1.10097
      19     87.86    -1.10526 ( 90.51%)    -0.88953 (  9.49%)    -1.08478
      20     98.39    -1.03931 ( 93.75%)    -0.85600 (  6.25%)    -1.02785
      21    110.36    -0.97275 ( 95.96%)    -0.82201 (  4.04%)    -0.96665
      22    122.47    -0.91265 ( 97.30%)    -0.79116 (  2.70%)    -0.90936
      23    124.22    -0.90450 ( 97.44%)    -0.78696 (  2.56%)    -0.90149
      24    125.58    -0.89824 ( 97.55%)    -0.78374 (  2.45%)    -0.89543
      25    141.32    -0.83063 ( 98.46%)    -0.74875 (  1.54%)    -0.82937
      26    143.30    -0.82271 ( 98.54%)    -0.74464 (  1.46%)    -0.82157
      27    151.55    -0.79090 ( 98.83%)    -0.72805 (  1.17%)    -0.79017
      28    165.02    -0.74282 ( 99.16%)    -0.70282 (  0.84%)    -0.74249
      29    166.61    -0.73745 ( 99.20%)    -0.69999 (  0.80%)    -0.73715
      30    172.08    -0.71933 ( 99.29%)    -0.69041 (  0.71%)    -0.71913
      31    186.98    -0.67309 ( 99.49%)    -0.66581 (  0.51%)    -0.67305
      32    189.31    -0.66624 ( 99.52%)    -0.66214 (  0.48%)    -0.66622
      33    194.73    -0.65067 ( 99.57%)    -0.65379 (  0.43%)    -0.65069
      34    222.66    -0.57761 ( 99.75%)    -0.61407 (  0.25%)    -0.57771
      35    237.34    -0.54344 ( 99.80%)    -0.59515 (  0.20%)    -0.54354
      36    237.55    -0.54297 ( 99.80%)    -0.59489 (  0.20%)    -0.54307
      37    239.94    -0.53765 ( 99.81%)    -0.59193 (  0.19%)    -0.53776
      38    251.54    -0.51274 ( 99.84%)    -0.57794 (  0.16%)    -0.51285
      39    270.49    -0.47497 ( 99.88%)    -0.55642 (  0.12%)    -0.47506
      40    287.47    -0.44388 ( 99.91%)    -0.53839 (  0.09%)    -0.44397
      41    289.52    -0.44030 ( 99.91%)    -0.53629 (  0.09%)    -0.44038
      42    291.53    -0.43681 ( 99.91%)    -0.53424 (  0.09%)    -0.43689
   ------------------------------------------------------------------------

   temp. (K)  partition function   enthalpy   heat capacity  entropy
                                   cal/mol     cal/K/mol   cal/K/mol   J/K/mol
 298.15  VIB  0.267E+23            25196.861    138.829    166.101
         ROT  0.419E+08              888.752      2.981     37.860
         INT  0.112E+31            26085.613    141.810    203.961
         TR   0.108E+29             1481.254      4.968     44.499
         TOT                       27566.8671   146.7781   248.4600  1039.5567

       T/K    H(0)-H(T)+PV         H(T)/Eh          T*S/Eh         G(T)/Eh
   ------------------------------------------------------------------------
    298.15    0.439306E-01    0.671355E+00    0.118051E+00    0.553304E+00
   ------------------------------------------------------------------------

         :::::::::::::::::::::::::::::::::::::::::::::::::::::
         ::                  THERMODYNAMIC                  ::
         :::::::::::::::::::::::::::::::::::::::::::::::::::::
         :: total free energy        -109.741329003278 Eh   ::
         ::.................................................::
         :: total energy             -110.294632569195 Eh   ::
         :: zero point energy           0.627424339610 Eh   ::
         :: G(RRHO) w/o ZPVE           -0.074120773692 Eh   ::
         :: G(RRHO) contrib.            0.553303565918 Eh   ::
         :::::::::::::::::::::::::::::::::::::::::::::::::::::

           -------------------------------------------------
          | TOTAL ENERGY             -110.294632569195 Eh   |
          | TOTAL ENTHALPY           -109.623277630499 Eh   |
          | TOTAL FREE ENERGY        -109.741329003278 Eh   |
          | GRADIENT NORM               0.000254330535 Eh/α |
          | HOMO-LUMO GAP               3.384102962210 eV   |
           -------------------------------------------------

------------------------------------------------------------------------
 * finished run on 2026/08/20 at 20:40:27.737     
------------------------------------------------------------------------
 total:
 * wall-time:     0 d,  0 h,  0 min, 12.368 sec
 *  cpu-time:     0 d,  0 h,  1 min, 22.656 sec
 * ratio c/w:     6.683 speedup
 SCF:
 * wall-time:     0 d,  0 h,  0 min,  0.066 sec
 *  cpu-time:     0 d,  0 h,  0 min,  0.250 sec
 * ratio c/w:     3.788 speedup
 analytical hessian:
 * wall-time:     0 d,  0 h,  0 min, 12.235 sec
 *  cpu-time:     0 d,  0 h,  1 min, 22.359 sec
 * ratio c/w:     6.731 speedup



===== STDERR =====

normal termination of xtb
