      -----------------------------------------------------------      
     |                   =====================                   |     
     |                           x T B                           |     
     |                   =====================                   |     
     |                         S. Grimme                         |     
     |          Mulliken Center for Theoretical Chemistry        |     
     |                    University of Bonn                     |     
      -----------------------------------------------------------      

   * xtb version 6.7.1pre (5071a88) compiled by 'Marcel@Raven' on 2024-07-23

   xtb is free software: you can redistribute it and/or modify it under
   the terms of the GNU Lesser General Public License as published by
   the Free Software Foundation, either version 3 of the License, or
   (at your option) any later version.
   
   xtb is distributed in the hope that it will be useful,
   but WITHOUT ANY WARRANTY; without even the implied warranty of
   MERCHANTABILITY or FITNESS FOR A PARTICULAR PURPOSE.  See the
   GNU Lesser General Public License for more details.
   
   Cite this work as:
   * C. Bannwarth, E. Caldeweyher, S. Ehlert, A. Hansen, P. Pracht,
     J. Seibert, S. Spicher, S. Grimme, WIREs Comput. Mol. Sci., 2020, 11,
     e01493. DOI: 10.1002/wcms.1493
   
   for GFN2-xTB:
   * C. Bannwarth, S. Ehlert and S. Grimme., J. Chem. Theory Comput., 2019,
     15, 1652-1671. DOI: 10.1021/acs.jctc.8b01176
   for GFN1-xTB:
   * S. Grimme, C. Bannwarth, P. Shushkov, J. Chem. Theory Comput., 2017,
     13, 1989-2009. DOI: 10.1021/acs.jctc.7b00118
   for GFN0-xTB:
   * P. Pracht, E. Caldeweyher, S. Ehlert, S. Grimme, ChemRxiv, 2019, preprint.
     DOI: 10.26434/chemrxiv.8326202.v1
   for GFN-FF:
   * S. Spicher and S. Grimme, Angew. Chem. Int. Ed., 2020, 59, 15665-15673.
     DOI: 10.1002/anie.202004239
   
   for ALPB and GBSA implicit solvation:
   * S. Ehlert, M. Stahn, S. Spicher, S. Grimme, J. Chem. Theory Comput.,
     2021, 17, 4250-4261. DOI: 10.1021/acs.jctc.1c00471
   
   for ddCOSMO and CPCM-X implicit solvation:
   * M. Stahn, S. Ehlert, S. Grimme, J. Phys. Chem. A,
     2023, XX, XXXX-XXXX. DOI: 10.1021/acs.jpca.3c04382
   
   for DFT-D4:
   * E. Caldeweyher, C. Bannwarth and S. Grimme, J. Chem. Phys., 2017,
     147, 034112. DOI: 10.1063/1.4993215
   * E. Caldeweyher, S. Ehlert, A. Hansen, H. Neugebauer, S. Spicher,
     C. Bannwarth and S. Grimme, J. Chem. Phys., 2019, 150, 154122.
     DOI: 10.1063/1.5090222
   * E. Caldeweyher, J.-M. Mewes, S. Ehlert and S. Grimme, Phys. Chem. Chem. Phys.
     2020, 22, 8499-8512. DOI: 10.1039/D0CP00502A
   
   for sTDA-xTB:
   * S. Grimme and C. Bannwarth, J. Chem. Phys., 2016, 145, 054103.
     DOI: 10.1063/1.4959605
   
   in the mass-spec context:
   * V. Asgeirsson, C. Bauer and S. Grimme, Chem. Sci., 2017, 8, 4879.
     DOI: 10.1039/c7sc00601b
   * J. Koopman and S. Grimme, ACS Omega 2019, 4, 12, 15120-15133.
     DOI: 10.1021/acsomega.9b02011
   
   for metadynamics refer to:
   * S. Grimme, J. Chem. Theory Comput., 2019, 155, 2847-2862
     DOI: 10.1021/acs.jctc.9b00143
   
   for SPH calculations refer to:
   * S. Spicher and S. Grimme, J. Chem. Theory Comput., 2021, 17, 1701-1714
     DOI: 10.1021/acs.jctc.0c01306
   
   for ONIOM refer to:
   * C. Plett, A. Katbashev, S. Ehlert, S. Grimme, M. Bursch,
     Phys. Chem. Chem. Phys., 2023, 25, 17860-17868. DOI: 10.1039/D3CP02178E
   
   for DIPRO refer to:
   * J. Kohn, N. Gildemeister, S. Grimme, D. Fazzi, A. Hansen,
     J. Chem. Phys., 2023, just accepted.
   
   for PTB refer to:
   * S. Grimme, M. Mueller, A. Hansen, J. Chem. Phys., 2023, 158, 124111.
     DOI: 10.1063/5.0137838
   
   with help from (in alphabetical order)
   P. Atkinson, C. Bannwarth, F. Bohle, G. Brandenburg, E. Caldeweyher
   M. Checinski, S. Dohm, S. Ehlert, S. Ehrlich, I. Gerasimov, C. Hölzer
   A. Katbashev, J. Kohn, J. Koopman, C. Lavigne, S. Lehtola, F. März, M. Müller,
   F. Musil, H. Neugebauer, J. Pisarek, C. Plett, P. Pracht, F. Pultar,
   J. Seibert, P. Shushkov, S. Spicher, M. Stahn, M. Steiner, T. Strunk,
   J. Stückrath, T. Rose, and J. Unsleber
   
 * started run on 2026/08/20 at 20:39:53.368     
   ID    Z sym.   atoms
    1    7 N      1, 17, 63, 72
    2    6 C      2-15, 18-26, 64, 66, 67, 73
    3    8 O      16, 27, 60, 65, 68
    4    1 H      28-59, 61, 62, 69-71, 74-76

           -------------------------------------------------
          |                Calculation Setup                |
           -------------------------------------------------

          program call               : C:\Users\Nayanika\Downloads\xtb-6.7.1pre-windows-x86_64\xtb-6.7.1\bin\xtb.exe D:\PhD_Thesis\LmrR_EVB\charges\fast_lmrr_5QM\xtb_preparation\TS2_1a_to_PS2_2\TS2_1a_to_PS2_2_PS.xyz --gfn 2 --opt tight --chrg 0 --uhf 0 --etemp 500
          coordinate file            : D:\PhD_Thesis\LmrR_EVB\charges\fast_lmrr_5QM\xtb_preparation\TS2_1a_to_PS2_2\TS2_1a_to_PS2_2_PS.xyz
          omp threads                :                     8


molecular fragmentation (1/2 indicates fragments):
111111111111111211111111112121111111111111111111121111111122221111111111
1111
# atoms in fragment 1/2:    68     8
 fragment masses (1/2) :      447.59       53.04
CMA distance (Bohr)    :   6.005
constraining FC (au)   :  0.0500

           -------------------------------------------------
          |                 G F N 2 - x T B                 |
           -------------------------------------------------

        Reference                      10.1021/acs.jctc.8b01176
      * Hamiltonian:
        H0-scaling (s, p, d)           1.850000    2.230000    2.230000
        zeta-weighting                 0.500000
      * Dispersion:
        s8                             2.700000
        a1                             0.520000
        a2                             5.000000
        s9                             5.000000
      * Repulsion:
        kExp                           1.500000    1.000000
        rExp                           1.000000
      * Coulomb:
        alpha                          2.000000
        third order                    shell-resolved
        anisotropic                    true
        a3                             3.000000
        a5                             4.000000
        cn-shift                       1.200000
        cn-exp                         4.000000
        max-rad                        5.000000

q/qsh data taken from xtbrestart
CAMM data taken from xtbrestart

          ...................................................
          :                      SETUP                      :
          :.................................................:
          :  # basis functions                 184          :
          :  # atomic orbitals                 184          :
          :  # shells                          112          :
          :  # electrons                       198          :
          :  max. iterations                   250          :
          :  Hamiltonian                  GFN2-xTB          :
          :  restarted?                       true          :
          :  GBSA solvation                  false          :
          :  PC potential                    false          :
          :  electronic temp.          500.0000000     K    :
          :  accuracy                    1.0000000          :
          :  -> integral cutoff          0.2500000E+02      :
          :  -> integral neglect         0.1000000E-07      :
          :  -> SCF convergence          0.1000000E-05 Eh   :
          :  -> wf. convergence          0.1000000E-03 e    :
          :  Broyden damping             0.4000000          :
          :  net charge                          0          :
          :  unpaired electrons                  0          :
          ...................................................

 iter      E             dE          RMSdq      gap      omega  full diag
   1   -111.3857737 -0.111386E+03  0.211E+00    1.57       0.0  T
   2   -110.7639916  0.621782E+00  0.305E+00    0.68       1.0  T
   3   -111.4012743 -0.637283E+00  0.134E+00    1.65       1.0  T
   4   -111.4213494 -0.200751E-01  0.913E-01    0.74       1.0  T
   5   -111.4417131 -0.203637E-01  0.665E-01    0.43       1.0  T
   6   -111.3377412  0.103972E+00  0.117E+00    0.05       1.0  T
   7   -111.4469816 -0.109240E+00  0.601E-01    0.36       1.0  T
   8   -111.4808786 -0.338970E-01  0.131E-01    0.15       1.0  T
   9   -111.4823618 -0.148322E-02  0.336E-02    0.12       1.0  T
  10   -111.4824612 -0.994395E-04  0.771E-03    0.12       1.5  T
  11   -111.4819050  0.556247E-03  0.734E-02    0.11       1.0  T
  12   -111.4822852 -0.380184E-03  0.418E-02    0.13       1.0  T
  13   -111.4824641 -0.178927E-03  0.383E-03    0.12       3.0  T
  14   -111.4824655 -0.144560E-05  0.105E-03    0.12      11.0  T
  15   -111.4824656 -0.363790E-07  0.833E-04    0.12      13.8  T
  16   -111.4824656 -0.698909E-07  0.743E-05    0.12     154.4  T

   *** convergence criteria satisfied after 16 iterations ***

         #    Occupation            Energy/Eh            Energy/eV
      -------------------------------------------------------------
         1        2.0000           -0.7103407             -19.3294
       ...           ...                  ...                  ...
        93        2.0000           -0.3624219              -9.8620
        94        2.0000           -0.3557754              -9.6811
        95        2.0000           -0.3529990              -9.6056
        96        2.0000           -0.3312565              -9.0139
        97        2.0000           -0.3281172              -8.9285
        98        2.0000           -0.2954335              -8.0392
        99        1.6157           -0.2647674              -7.2047 (HOMO)
       100        0.3843           -0.2602197              -7.0809 (LUMO)
       101                         -0.2324247              -6.3246
       102                         -0.2223347              -6.0500
       103                         -0.2123588              -5.7786
       104                         -0.2071400              -5.6366
       ...                                ...                  ...
       184                          0.7160843              19.4856
      -------------------------------------------------------------
                  HL-Gap            0.0045477 Eh            0.1237 eV
             Fermi-level           -0.2624935 Eh           -7.1428 eV

 SCC (total)                   0 d,  0 h,  0 min,  0.278 sec
 SCC setup                      ...        0 min,  0.001 sec (  0.360%)
 Dispersion                     ...        0 min,  0.002 sec (  0.719%)
 classical contributions        ...        0 min,  0.000 sec (  0.000%)
 integral evaluation            ...        0 min,  0.004 sec (  1.439%)
 iterations                     ...        0 min,  0.255 sec ( 91.727%)
 molecular gradient             ...        0 min,  0.016 sec (  5.755%)
 printout                       ...        0 min,  0.000 sec (  0.000%)

         :::::::::::::::::::::::::::::::::::::::::::::::::::::
         ::                     SUMMARY                     ::
         :::::::::::::::::::::::::::::::::::::::::::::::::::::
         :: total energy            -109.963101749063 Eh    ::
         :: gradient norm              0.206682391456 Eh/a0 ::
         :: HOMO-LUMO gap              0.123749236107 eV    ::
         ::.................................................::
         :: SCC energy              -111.479883862147 Eh    ::
         :: -> isotropic ES            0.232647306906 Eh    ::
         :: -> anisotropic ES          0.009343627898 Eh    ::
         :: -> anisotropic XC          0.045853039675 Eh    ::
         :: -> dispersion             -0.087835507177 Eh    ::
         :: repulsion energy           1.516782113084 Eh    ::
         :: add. restraining           0.000000000000 Eh    ::
         :: total charge               0.000000000000 e     ::
         :::::::::::::::::::::::::::::::::::::::::::::::::::::

      ----------------------------------------------------------- 
     |                   =====================                   |
     |                        A N C O P T                        |
     |                   =====================                   |
     |               Approximate Normal Coordinate               |
     |                Rational Function Optimizer                |
      ----------------------------------------------------------- 
      ----------------------------------------------------------- 
     |                   =====================                   |
     |                        A N C O P T                        |
     |                   =====================                   |
     |               Approximate Normal Coordinate               |
     |                Rational Function Optimizer                |
      ----------------------------------------------------------- 

          ...................................................
          :                      SETUP                      :
          :.................................................:
          :   optimization level             tight          :
          :   max. optcycles                   380          :
          :   ANC micro-cycles                  20          :
          :   degrees of freedom               222          :
          :.................................................:
          :   RF solver                   davidson          :
          :   write xtbopt.log                true          :
          :   linear?                        false          :
          :   energy convergence         0.1000000E-05 Eh   :
          :   grad. convergence          0.8000000E-03 Eh/α :
          :   maxmium RF displ.          1.0000000          :
          :   Hlow (freq-cutoff)         0.1000000E-01      :
          :   Hmax (freq-cutoff)         5.0000000          :
          :   S6 in model hess.         20.0000000          :
          ...................................................

generating ANC from exact Hessian ...
Using Lindh-Hessian (1995)
 Shifting diagonal of input Hessian by   1.221307512294794E-002
 Lowest  eigenvalues of input Hessian
    0.010000    0.011925    0.012111    0.000000    0.000000    0.000000
    0.000000    0.000000    0.000000    0.012247    0.012293    0.012424
    0.012567    0.012790    0.012871    0.013004    0.013201    0.013357
 Highest eigenvalues
    2.004037    2.011674    2.074715    2.127239    2.239081    2.251255
 

........................................................................
.............................. CYCLE    1 ..............................
........................................................................

 iter      E             dE          RMSdq      gap      omega  full diag
   1   -111.4824656 -0.111482E+03  0.120E-04    0.12       0.0  T
   2   -111.4824652  0.476600E-06  0.214E-03    0.12       5.4  T
   3   -111.4824656 -0.478084E-06  0.979E-06    0.12    1171.9  T
   4   -111.4824656 -0.322586E-11  0.602E-06    0.12    1904.7  T
     SCC iter.                  ...        0 min,  0.047 sec
     gradient                   ...        0 min,  0.014 sec
 * total energy  :  -109.9631017 Eh     change       -0.5043006E-09 Eh
   gradient norm :     0.2066733 Eh/α   predicted     0.0000000E+00 (-100.00%)
   displ. norm   :     0.6544012 α      lambda       -0.9972627E-01
   maximum displ.:     0.2231601 α      in ANC's #57, #61, #84, ...

........................................................................
.............................. CYCLE    2 ..............................
........................................................................

 iter      E             dE          RMSdq      gap      omega  full diag
   1   -111.5595884 -0.111560E+03  0.662E-01    0.49       0.0  T
   2   -110.8013283  0.758260E+00  0.297E+00    0.31       1.0  T
   3   -111.5868226 -0.785494E+00  0.317E-01    0.22       1.0  T
   4   -111.5879866 -0.116399E-02  0.244E-01    0.12       1.0  T
   5   -111.5856967  0.228992E-02  0.277E-01    0.22       1.0  T
   6   -111.5883918 -0.269506E-02  0.222E-01    0.12       1.0  T
   7   -111.5928984 -0.450665E-02  0.709E-02    0.17       1.0  T
   8   -111.5930839 -0.185505E-03  0.569E-02    0.15       1.0  T
   9   -111.5933210 -0.237043E-03  0.306E-02    0.15       1.0  T
  10   -111.5934023 -0.813055E-04  0.119E-02    0.16       1.0  T
  11   -111.5934149 -0.126299E-04  0.422E-03    0.16       2.7  T
  12   -111.5934167 -0.179690E-05  0.641E-04    0.16      17.9  T
  13   -111.5934167  0.292001E-07  0.821E-04    0.16      14.0  T
  14   -111.5934167 -0.692405E-07  0.293E-05    0.16     391.3  T
     SCC iter.                  ...        0 min,  0.163 sec
     gradient                   ...        0 min,  0.016 sec
 * total energy  :  -110.0419229 Eh     change       -0.7882115E-01 Eh
   gradient norm :     0.1234085 Eh/α   predicted    -0.7124770E-01 (  -9.61%)
   displ. norm   :     0.7157754 α      lambda       -0.6906939E-01
   maximum displ.:     0.2167842 α      in ANC's #57, #84, #61, ...

........................................................................
.............................. CYCLE    3 ..............................
........................................................................

 iter      E             dE          RMSdq      gap      omega  full diag
   1   -111.6396786 -0.111640E+03  0.573E-01    0.46       0.0  T
   2   -110.8232561  0.816423E+00  0.291E+00    0.08       1.0  T
   3   -111.6545776 -0.831322E+00  0.331E-01    0.30       1.0  T
   4   -111.6601947 -0.561703E-02  0.179E-01    0.18       1.0  T
   5   -111.6622869 -0.209219E-02  0.623E-02    0.20       1.0  T
   6   -111.6623111 -0.241999E-04  0.365E-02    0.22       1.0  T
   7   -111.6623646 -0.535326E-04  0.309E-02    0.20       1.0  T
   8   -111.6624410 -0.763751E-04  0.109E-02    0.21       1.1  T
   9   -111.6624517 -0.106893E-04  0.302E-03    0.21       3.8  T
  10   -111.6624523 -0.685023E-06  0.101E-03    0.21      11.4  T
  11   -111.6624523 -0.109123E-07  0.678E-04    0.21      16.9  T
  12   -111.6624524 -0.379189E-07  0.268E-04    0.21      42.9  T
     SCC iter.                  ...        0 min,  0.139 sec
     gradient                   ...        0 min,  0.014 sec
 * total energy  :  -110.0883453 Eh     change       -0.4642245E-01 Eh
   gradient norm :     0.0641698 Eh/α   predicted    -0.5222824E-01 (  12.51%)
   displ. norm   :     0.6704546 α      lambda       -0.2764767E-01
   maximum displ.:     0.2492822 α      in ANC's #57, #28, #38, ...

........................................................................
.............................. CYCLE    4 ..............................
........................................................................

 iter      E             dE          RMSdq      gap      omega  full diag
   1   -111.6748709 -0.111675E+03  0.259E-01    0.27       0.0  T
   2   -110.9144774  0.760394E+00  0.270E+00    0.10       1.0  T
   3   -111.6785117 -0.764034E+00  0.109E-01    0.23       1.0  T
   4   -111.6780034  0.508291E-03  0.951E-02    0.20       1.0  T
   5   -111.6775037  0.499713E-03  0.109E-01    0.20       1.0  T
   6   -111.6785679 -0.106423E-02  0.395E-02    0.21       1.0  T
   7   -111.6787303 -0.162341E-03  0.887E-03    0.22       1.3  T
   8   -111.6787359 -0.562827E-05  0.516E-03    0.22       2.2  T
   9   -111.6787353  0.635299E-06  0.452E-03    0.22       2.5  T
  10   -111.6787363 -0.101301E-05  0.217E-03    0.22       5.3  T
  11   -111.6787365 -0.255055E-06  0.143E-03    0.22       8.0  T
  12   -111.6787367 -0.156932E-06  0.532E-04    0.22      21.5  T
  13   -111.6787367 -0.195475E-07  0.742E-05    0.22     154.6  T
     SCC iter.                  ...        0 min,  0.153 sec
     gradient                   ...        0 min,  0.014 sec
 * total energy  :  -110.1105586 Eh     change       -0.2221325E-01 Eh
   gradient norm :     0.0585556 Eh/α   predicted    -0.2003779E-01 (  -9.79%)
   displ. norm   :     0.7601781 α      lambda       -0.2408871E-01
   maximum displ.:     0.2915473 α      in ANC's #57, #30, #40, ...

........................................................................
.............................. CYCLE    5 ..............................
........................................................................

 iter      E             dE          RMSdq      gap      omega  full diag
   1   -111.6593227 -0.111659E+03  0.404E-01    0.40       0.0  T
   2   -110.7521734  0.907149E+00  0.305E+00    0.13       1.0  T
   3   -111.6700275 -0.917854E+00  0.185E-01    0.28       1.0  T
   4   -111.6716635 -0.163596E-02  0.108E-01    0.21       1.0  T
   5   -111.6723987 -0.735244E-03  0.479E-02    0.22       1.0  T
   6   -111.6724044 -0.574468E-05  0.350E-02    0.24       1.0  T
   7   -111.6725145 -0.110080E-03  0.132E-02    0.23       1.0  T
   8   -111.6725305 -0.159625E-04  0.272E-03    0.23       4.2  T
   9   -111.6725293  0.120843E-05  0.411E-03    0.23       2.8  T
  10   -111.6725309 -0.163538E-05  0.750E-04    0.23      15.3  T
  11   -111.6725310 -0.440128E-07  0.185E-04    0.23      62.0  T
  12   -111.6725310 -0.765539E-10  0.181E-04    0.23      63.3  T
     SCC iter.                  ...        0 min,  0.151 sec
     gradient                   ...        0 min,  0.014 sec
 * total energy  :  -110.1279090 Eh     change       -0.1735039E-01 Eh
   gradient norm :     0.0591377 Eh/α   predicted    -0.1900444E-01 (   9.53%)
   displ. norm   :     0.7536200 α      lambda       -0.2044464E-01
   maximum displ.:     0.2949815 α      in ANC's #28, #57, #15, ...

........................................................................
.............................. CYCLE    6 ..............................
........................................................................

 iter      E             dE          RMSdq      gap      omega  full diag
   1   -111.6901796 -0.111690E+03  0.192E-01    0.23       0.0  T
   2   -111.4254324  0.264747E+00  0.156E+00    0.08       1.0  T
   3   -111.6833785 -0.257946E+00  0.292E-01    0.30       1.0  T
   4   -111.6819940  0.138451E-02  0.290E-01    0.32       1.0  T
   5   -111.6843572 -0.236327E-02  0.244E-01    0.29       1.0  T
   6   -111.6880864 -0.372918E-02  0.156E-01    0.25       1.0  T
   7   -111.6899346 -0.184818E-02  0.867E-02    0.23       1.0  T
   8   -111.6903373 -0.402677E-03  0.622E-02    0.22       1.0  T
   9   -111.6907649 -0.427626E-03  0.396E-03    0.21       2.9  T
  10   -111.6907618  0.305499E-05  0.648E-03    0.20       1.8  T
  11   -111.6907654 -0.351761E-05  0.310E-03    0.20       3.7  T
  12   -111.6907662 -0.837217E-06  0.138E-03    0.20       8.3  T
  13   -111.6907664 -0.211193E-06  0.927E-05    0.21     123.7  T
  14   -111.6907664 -0.647020E-10  0.651E-05    0.21     176.2  T
     SCC iter.                  ...        0 min,  0.180 sec
     gradient                   ...        0 min,  0.014 sec
 * total energy  :  -110.1422638 Eh     change       -0.1435483E-01 Eh
   gradient norm :     0.0466328 Eh/α   predicted    -0.1602802E-01 (  11.66%)
   displ. norm   :     0.6991611 α      lambda       -0.1238830E-01
   maximum displ.:     0.2300921 α      in ANC's #28, #15, #30, ...

........................................................................
.............................. CYCLE    7 ..............................
........................................................................

 iter      E             dE          RMSdq      gap      omega  full diag
   1   -111.6945171 -0.111695E+03  0.293E-01    0.32       0.0  T
   2   -110.8373482  0.857169E+00  0.287E+00    0.05       1.0  T
   3   -111.6971431 -0.859795E+00  0.215E-01    0.28       1.0  T
   4   -111.6998791 -0.273601E-02  0.120E-01    0.23       1.0  T
   5   -111.7010377 -0.115858E-02  0.463E-02    0.21       1.0  T
   6   -111.7011282 -0.905425E-04  0.160E-02    0.20       1.0  T
   7   -111.7011188  0.938311E-05  0.124E-02    0.20       1.0  T
   8   -111.7011304 -0.115204E-04  0.210E-03    0.20       5.5  T
   9   -111.7011306 -0.236991E-06  0.632E-04    0.20      18.1  T
  10   -111.7011306  0.219788E-08  0.527E-04    0.20      21.8  T
     SCC iter.                  ...        0 min,  0.115 sec
     gradient                   ...        0 min,  0.015 sec
 * total energy  :  -110.1515217 Eh     change       -0.9257942E-02 Eh
   gradient norm :     0.0275866 Eh/α   predicted    -0.9222016E-02 (  -0.39%)
   displ. norm   :     0.7263824 α      lambda       -0.9439887E-02
   maximum displ.:     0.2741897 α      in ANC's #15, #57, #28, ...

........................................................................
.............................. CYCLE    8 ..............................
........................................................................

 iter      E             dE          RMSdq      gap      omega  full diag
   1   -111.6940365 -0.111694E+03  0.309E-01    0.38       0.0  T
   2   -110.9348526  0.759184E+00  0.276E+00    0.19       1.0  T
   3   -111.6954803 -0.760628E+00  0.244E-01    0.34       1.0  T
   4   -111.6993442 -0.386384E-02  0.112E-01    0.25       1.0  T
   5   -111.7005090 -0.116489E-02  0.256E-02    0.21       1.0  T
   6   -111.7004667  0.423364E-04  0.293E-02    0.20       1.0  T
   7   -111.7005347 -0.680139E-04  0.113E-02    0.21       1.0  T
   8   -111.7005457 -0.109852E-04  0.297E-03    0.21       3.9  T
   9   -111.7005459 -0.157740E-06  0.236E-03    0.21       4.9  T
  10   -111.7005463 -0.438457E-06  0.114E-03    0.21      10.0  T
  11   -111.7005464 -0.112912E-06  0.284E-04    0.21      40.5  T
  12   -111.7005464 -0.565171E-08  0.960E-05    0.21     119.4  T
     SCC iter.                  ...        0 min,  0.174 sec
     gradient                   ...        0 min,  0.015 sec
 * total energy  :  -110.1573393 Eh     change       -0.5817543E-02 Eh
   gradient norm :     0.0472369 Eh/α   predicted    -0.7210334E-02 (  23.94%)
   displ. norm   :     0.6315744 α      lambda       -0.7229711E-02
   maximum displ.:     0.2212709 α      in ANC's #15, #33, #30, ...

........................................................................
.............................. CYCLE    9 ..............................
........................................................................

 iter      E             dE          RMSdq      gap      omega  full diag
   1   -111.7097984 -0.111710E+03  0.253E-01    0.38       0.0  T
   2   -111.0472511  0.662547E+00  0.262E+00    0.30       1.0  T
   3   -111.7113154 -0.664064E+00  0.188E-01    0.34       1.0  T
   4   -111.7135234 -0.220796E-02  0.917E-02    0.27       1.0  T
   5   -111.7142478 -0.724454E-03  0.258E-02    0.24       1.0  T
   6   -111.7142543 -0.649455E-05  0.180E-02    0.23       1.0  T
   7   -111.7142825 -0.281429E-04  0.385E-03    0.23       3.0  T
   8   -111.7142829 -0.401280E-06  0.228E-03    0.23       5.0  T
   9   -111.7142828  0.540473E-07  0.216E-03    0.23       5.3  T
  10   -111.7142831 -0.335834E-06  0.110E-03    0.23      10.4  T
  11   -111.7142832 -0.988597E-07  0.398E-04    0.23      28.8  T
  12   -111.7142832 -0.129803E-07  0.150E-04    0.23      76.6  T
     SCC iter.                  ...        0 min,  0.173 sec
     gradient                   ...        0 min,  0.014 sec
 * total energy  :  -110.1621900 Eh     change       -0.4850750E-02 Eh
   gradient norm :     0.0326366 Eh/α   predicted    -0.5056771E-02 (   4.25%)
   displ. norm   :     0.6892946 α      lambda       -0.6338860E-02
   maximum displ.:     0.2756696 α      in ANC's #15, #13, #11, ...

........................................................................
.............................. CYCLE   10 ..............................
........................................................................

 iter      E             dE          RMSdq      gap      omega  full diag
   1   -111.7094992 -0.111709E+03  0.237E-01    0.49       0.0  T
   2   -111.2644525  0.445047E+00  0.217E+00    0.16       1.0  T
   3   -111.7115662 -0.447114E+00  0.154E-01    0.43       1.0  T
   4   -111.7129695 -0.140330E-02  0.741E-02    0.36       1.0  T
   5   -111.7133154 -0.345954E-03  0.261E-02    0.32       1.0  T
   6   -111.7133036  0.118336E-04  0.202E-02    0.31       1.0  T
   7   -111.7133264 -0.227723E-04  0.974E-03    0.31       1.2  T
   8   -111.7133344 -0.807457E-05  0.227E-03    0.32       5.1  T
   9   -111.7133347 -0.286859E-06  0.120E-03    0.32       9.6  T
  10   -111.7133348 -0.720979E-07  0.700E-04    0.32      16.4  T
  11   -111.7133348 -0.395680E-07  0.152E-04    0.32      75.3  T
     SCC iter.                  ...        0 min,  0.157 sec
     gradient                   ...        0 min,  0.014 sec
 * total energy  :  -110.1671881 Eh     change       -0.4998054E-02 Eh
   gradient norm :     0.0340856 Eh/α   predicted    -0.4675312E-02 (  -6.46%)
   displ. norm   :     0.7755777 α      lambda       -0.7525411E-02
   maximum displ.:     0.2826381 α      in ANC's #15, #13, #18, ...

........................................................................
.............................. CYCLE   11 ..............................
........................................................................

 iter      E             dE          RMSdq      gap      omega  full diag
   1   -111.7187329 -0.111719E+03  0.190E-01    0.72       0.0  T
   2   -111.7150456  0.368733E-02  0.306E-01    0.53       1.0  T
   3   -111.7196978 -0.465226E-02  0.116E-01    0.67       1.0  T
   4   -111.7191903  0.507553E-03  0.982E-02    0.65       1.0  T
   5   -111.7196758 -0.485458E-03  0.308E-02    0.69       1.0  T
   6   -111.7197470 -0.712940E-04  0.434E-03    0.71       2.6  T
   7   -111.7197474 -0.403445E-06  0.299E-03    0.71       3.8  T
   8   -111.7197475 -0.787456E-07  0.173E-03    0.71       6.6  T
   9   -111.7197477 -0.122948E-06  0.865E-04    0.71      13.3  T
  10   -111.7197477 -0.425062E-07  0.350E-04    0.71      32.8  T
     SCC iter.                  ...        0 min,  0.134 sec
     gradient                   ...        0 min,  0.013 sec
 * total energy  :  -110.1734476 Eh     change       -0.6259548E-02 Eh
   gradient norm :     0.0432918 Eh/α   predicted    -0.6026052E-02 (  -3.73%)
   displ. norm   :     0.6790975 α      lambda       -0.7168137E-02
   maximum displ.:     0.2491410 α      in ANC's #13, #18, #17, ...

........................................................................
.............................. CYCLE   12 ..............................
........................................................................

 iter      E             dE          RMSdq      gap      omega  full diag
   1   -111.7183522 -0.111718E+03  0.286E-01    1.19       0.0  T
   2   -111.7189184 -0.566175E-03  0.184E-01    1.69       1.0  T
   3   -111.7208651 -0.194670E-02  0.961E-02    1.37       1.0  T
   4   -111.7210555 -0.190469E-03  0.368E-02    1.42       1.0  T
   5   -111.7210652 -0.967729E-05  0.114E-02    1.42       1.0  T
   6   -111.7210705 -0.528291E-05  0.413E-03    1.43       2.8  T
   7   -111.7210713 -0.762061E-06  0.224E-03    1.43       5.1  T
   8   -111.7210715 -0.222199E-06  0.636E-04    1.43      18.0  T
   9   -111.7210715  0.123499E-08  0.462E-04    1.43      24.8  T
     SCC iter.                  ...        0 min,  0.126 sec
     gradient                   ...        0 min,  0.014 sec
 * total energy  :  -110.1790009 Eh     change       -0.5553289E-02 Eh
   gradient norm :     0.0565148 Eh/α   predicted    -0.5236946E-02 (  -5.70%)
   displ. norm   :     0.6866614 α      lambda       -0.1025931E-01
   maximum displ.:     0.2532719 α      in ANC's #17, #13, #18, ...

........................................................................
.............................. CYCLE   13 ..............................
........................................................................

 iter      E             dE          RMSdq      gap      omega  full diag
   1   -111.7197547 -0.111720E+03  0.530E-01    2.04       0.0  T
   2   -111.7274705 -0.771583E-02  0.275E-01    2.87       1.0  T
   3   -111.7316615 -0.419099E-02  0.104E-01    2.57       1.0  T
   4   -111.7318086 -0.147109E-03  0.514E-02    2.61       1.0  T
   5   -111.7318199 -0.112896E-04  0.177E-02    2.59       1.0  T
   6   -111.7318332 -0.133145E-04  0.659E-03    2.61       1.7  T
   7   -111.7318344 -0.114216E-05  0.301E-03    2.61       3.8  T
   8   -111.7318347 -0.349503E-06  0.116E-03    2.61       9.9  T
   9   -111.7318347 -0.293983E-07  0.689E-04    2.61      16.7  T
  10   -111.7318347 -0.113389E-07  0.271E-04    2.61      42.4  T
     SCC iter.                  ...        0 min,  0.137 sec
     gradient                   ...        0 min,  0.014 sec
 * total energy  :  -110.1902111 Eh     change       -0.1121017E-01 Eh
   gradient norm :     0.0738892 Eh/α   predicted    -0.7548307E-02 ( -32.67%)
   displ. norm   :     0.6717658 α      lambda       -0.1603449E-01
   maximum displ.:     0.2962015 α      in ANC's #17, #22, #18, ...

........................................................................
.............................. CYCLE   14 ..............................
........................................................................

 iter      E             dE          RMSdq      gap      omega  full diag
   1   -111.7279011 -0.111728E+03  0.549E-01    3.08       0.0  T
   2   -111.7396323 -0.117312E-01  0.188E-01    3.27       1.0  T
   3   -111.7403870 -0.754662E-03  0.102E-01    3.32       1.0  T
   4   -111.7404706 -0.836125E-04  0.546E-02    3.31       1.0  T
   5   -111.7405348 -0.641553E-04  0.136E-02    3.33       1.0  T
   6   -111.7405426 -0.782972E-05  0.665E-03    3.32       1.7  T
   7   -111.7405436 -0.100147E-05  0.280E-03    3.33       4.1  T
   8   -111.7405437 -0.720467E-07  0.137E-03    3.33       8.4  T
   9   -111.7405437 -0.486891E-07  0.714E-04    3.33      16.1  T
  10   -111.7405437 -0.982877E-08  0.287E-04    3.33      40.0  T
     SCC iter.                  ...        0 min,  0.146 sec
     gradient                   ...        0 min,  0.013 sec
 * total energy  :  -110.2084084 Eh     change       -0.1819731E-01 Eh
   gradient norm :     0.1035746 Eh/α   predicted    -0.1163519E-01 ( -36.06%)
   displ. norm   :     0.6125723 α      lambda       -0.2389905E-01
   maximum displ.:     0.3184657 α      in ANC's #17, #22, #65, ...

........................................................................
.............................. CYCLE   15 ..............................
........................................................................

 iter      E             dE          RMSdq      gap      omega  full diag
   1   -111.7521253 -0.111752E+03  0.389E-01    3.33       0.0  T
   2   -111.7571896 -0.506434E-02  0.171E-01    3.30       1.0  T
   3   -111.7574053 -0.215660E-03  0.935E-02    3.34       1.0  T
   4   -111.7573483  0.569800E-04  0.462E-02    3.33       1.0  T
   5   -111.7574645 -0.116217E-03  0.108E-02    3.34       1.1  T
   6   -111.7574677 -0.322423E-05  0.545E-03    3.34       2.1  T
   7   -111.7574683 -0.504346E-06  0.306E-03    3.34       3.8  T
   8   -111.7574684 -0.177568E-06  0.145E-03    3.34       7.9  T
   9   -111.7574685 -0.525616E-07  0.645E-04    3.34      17.8  T
  10   -111.7574685 -0.662132E-08  0.263E-04    3.34      43.7  T
     SCC iter.                  ...        0 min,  0.168 sec
     gradient                   ...        0 min,  0.015 sec
 * total energy  :  -110.2300233 Eh     change       -0.2161488E-01 Eh
   gradient norm :     0.1104510 Eh/α   predicted    -0.1643354E-01 ( -23.97%)
   displ. norm   :     0.7374005 α      lambda       -0.4438800E-01
   maximum displ.:     0.2542375 α      in ANC's #65, #22, #130, ...

........................................................................
.............................. CYCLE   16 ..............................
........................................................................

 iter      E             dE          RMSdq      gap      omega  full diag
   1   -111.7669880 -0.111767E+03  0.456E-01    3.28       0.0  T
   2   -111.7714745 -0.448642E-02  0.288E-01    3.22       1.0  T
   3   -111.7718817 -0.407281E-03  0.155E-01    3.23       1.0  T
   4   -111.7719660 -0.842531E-04  0.529E-02    3.20       1.0  T
   5   -111.7720779 -0.111951E-03  0.210E-02    3.22       1.0  T
   6   -111.7721033 -0.253830E-04  0.627E-03    3.21       1.8  T
   7   -111.7721036 -0.312387E-06  0.316E-03    3.21       3.6  T
   8   -111.7721040 -0.341913E-06  0.142E-03    3.21       8.1  T
   9   -111.7721040 -0.618605E-07  0.402E-04    3.21      28.6  T
  10   -111.7721040 -0.297118E-08  0.186E-04    3.21      61.8  T
     SCC iter.                  ...        0 min,  0.160 sec
     gradient                   ...        0 min,  0.016 sec
 * total energy  :  -110.2188574 Eh     change        0.1116593E-01 Eh
   gradient norm :     0.1986877 Eh/α   predicted    -0.3426219E-01 (-406.85%)
   displ. norm   :     0.4034291 α      lambda       -0.6720735E-01
   maximum displ.:     0.1407805 α      in ANC's #18, #23, #65, ...

........................................................................
.............................. CYCLE   17 ..............................
........................................................................

 iter      E             dE          RMSdq      gap      omega  full diag
   1   -111.7613447 -0.111761E+03  0.302E-01    3.22       0.0  T
   2   -111.7636124 -0.226774E-02  0.180E-01    3.26       1.0  T
   3   -111.7637555 -0.143106E-03  0.968E-02    3.25       1.0  T
   4   -111.7637705 -0.149631E-04  0.326E-02    3.26       1.0  T
   5   -111.7638009 -0.303733E-04  0.101E-02    3.25       1.1  T
   6   -111.7638071 -0.625700E-05  0.404E-03    3.25       2.8  T
   7   -111.7638077 -0.562285E-06  0.152E-03    3.25       7.5  T
   8   -111.7638077 -0.174650E-07  0.726E-04    3.25      15.8  T
   9   -111.7638077 -0.244552E-07  0.242E-04    3.25      47.5  T
     SCC iter.                  ...        0 min,  0.131 sec
     gradient                   ...        0 min,  0.014 sec
 * total energy  :  -110.2461280 Eh     change       -0.2727063E-01 Eh
   gradient norm :     0.0529217 Eh/α   predicted    -0.3907286E-01 (  43.28%)
   displ. norm   :     0.6601661 α      lambda       -0.2006634E-01
   maximum displ.:     0.3134441 α      in ANC's #17, #13, #39, ...

........................................................................
.............................. CYCLE   18 ..............................
........................................................................

 iter      E             dE          RMSdq      gap      omega  full diag
   1   -111.7534308 -0.111753E+03  0.345E-01    3.29       0.0  T
   2   -111.7545301 -0.109933E-02  0.201E-01    3.29       1.0  T
   3   -111.7545589 -0.287586E-04  0.772E-02    3.30       1.0  T
   4   -111.7546555 -0.965988E-04  0.333E-02    3.31       1.0  T
   5   -111.7547036 -0.481402E-04  0.139E-02    3.31       1.0  T
   6   -111.7547098 -0.623290E-05  0.745E-03    3.31       1.5  T
   7   -111.7547099 -0.205926E-07  0.361E-03    3.31       3.2  T
   8   -111.7547105 -0.665569E-06  0.834E-04    3.31      13.8  T
   9   -111.7547105 -0.124224E-07  0.384E-04    3.31      29.9  T
     SCC iter.                  ...        0 min,  0.134 sec
     gradient                   ...        0 min,  0.014 sec
 * total energy  :  -110.2294885 Eh     change        0.1663952E-01 Eh
   gradient norm :     0.1732516 Eh/α   predicted    -0.1440583E-01 (-186.58%)
   displ. norm   :     0.4028160 α      lambda       -0.4528768E-01
   maximum displ.:     0.1848502 α      in ANC's #17, #28, #38, ...

........................................................................
.............................. CYCLE   19 ..............................
........................................................................

 iter      E             dE          RMSdq      gap      omega  full diag
   1   -111.7912957 -0.111791E+03  0.261E-01    3.30       0.0  T
   2   -111.7922131 -0.917416E-03  0.145E-01    3.30       1.0  T
   3   -111.7922782 -0.651037E-04  0.629E-02    3.30       1.0  T
   4   -111.7922926 -0.144292E-04  0.327E-02    3.29       1.0  T
   5   -111.7923453 -0.526688E-04  0.101E-02    3.29       1.1  T
   6   -111.7923475 -0.221020E-05  0.571E-03    3.29       2.0  T
   7   -111.7923478 -0.307421E-06  0.298E-03    3.29       3.8  T
   8   -111.7923481 -0.247675E-06  0.878E-04    3.29      13.1  T
   9   -111.7923481 -0.278650E-07  0.280E-04    3.29      40.9  T
     SCC iter.                  ...        0 min,  0.126 sec
     gradient                   ...        0 min,  0.014 sec
 * total energy  :  -110.2513000 Eh     change       -0.2181153E-01 Eh
   gradient norm :     0.0621901 Eh/α   predicted    -0.2631804E-01 (  20.66%)
   displ. norm   :     0.6121491 α      lambda       -0.2381703E-01
   maximum displ.:     0.1613948 α      in ANC's #18, #23, #3, ...

........................................................................
.............................. CYCLE   20 ..............................
........................................................................

 iter      E             dE          RMSdq      gap      omega  full diag
   1   -111.7414123 -0.111741E+03  0.388E-01    3.26       0.0  T
   2   -111.7424695 -0.105715E-02  0.219E-01    3.25       1.0  T
   3   -111.7424137  0.557123E-04  0.921E-02    3.25       1.0  T
   4   -111.7426097 -0.196003E-03  0.266E-02    3.24       1.0  T
   5   -111.7426284 -0.186821E-04  0.118E-02    3.24       1.0  T
   6   -111.7426357 -0.730244E-05  0.406E-03    3.24       2.8  T
   7   -111.7426358 -0.697714E-07  0.168E-03    3.24       6.8  T
   8   -111.7426359 -0.679973E-07  0.769E-04    3.24      14.9  T
   9   -111.7426359 -0.225812E-07  0.237E-04    3.24      48.4  T
     SCC iter.                  ...        0 min,  0.128 sec
     gradient                   ...        0 min,  0.013 sec
 * total energy  :  -110.2418532 Eh     change        0.9446831E-02 Eh
   gradient norm :     0.1115421 Eh/α   predicted    -0.1637095E-01 (-273.30%)
   displ. norm   :     0.3433258 α      lambda       -0.2859364E-01
   maximum displ.:     0.1203178 α      in ANC's #38, #128, #130, ...
 * RMSD in coord.:     0.8154906 α      energy gain  -0.2787514E+00 Eh

generating ANC from exact Hessian ...
Using Lindh-Hessian (1995)
 Shifting diagonal of input Hessian by   1.011655811238517E-002
 Lowest  eigenvalues of input Hessian
    0.010000    0.010048    0.000000    0.000000    0.000000    0.000000
    0.000000    0.000000    0.010165    0.010205    0.010249    0.010276
    0.010339    0.010405    0.010509    0.010592    0.010667    0.010712
 Highest eigenvalues
    2.002264    2.069895    2.073562    2.197799    2.309172    2.329990
 

........................................................................
.............................. CYCLE   21 ..............................
........................................................................

 iter      E             dE          RMSdq      gap      omega  full diag
   1   -111.7843865 -0.111784E+03  0.233E-01    3.27       0.0  T
   2   -111.7846541 -0.267607E-03  0.131E-01    3.26       1.0  T
   3   -111.7846451  0.903990E-05  0.448E-02    3.27       1.0  T
   4   -111.7846887 -0.435910E-04  0.124E-02    3.27       1.0  T
   5   -111.7846910 -0.232994E-05  0.661E-03    3.27       1.7  T
   6   -111.7846932 -0.224756E-05  0.194E-03    3.27       5.9  T
   7   -111.7846933 -0.205832E-07  0.999E-04    3.27      11.5  T
   8   -111.7846933 -0.299694E-07  0.310E-04    3.27      37.0  T
     SCC iter.                  ...        0 min,  0.092 sec
     gradient                   ...        0 min,  0.015 sec
 * total energy  :  -110.2581225 Eh     change       -0.1626928E-01 Eh
   gradient norm :     0.0299172 Eh/α   predicted     0.0000000E+00 (-100.00%)
   displ. norm   :     0.4364932 α      lambda       -0.6916345E-02
   maximum displ.:     0.1348423 α      in ANC's #44, #20, #21, ...

........................................................................
.............................. CYCLE   22 ..............................
........................................................................

 iter      E             dE          RMSdq      gap      omega  full diag
   1   -111.7921598 -0.111792E+03  0.931E-02    3.29       0.0  T
   2   -111.7921722 -0.123414E-04  0.566E-02    3.29       1.0  T
   3   -111.7921654  0.675035E-05  0.138E-02    3.30       1.0  T
   4   -111.7921780 -0.125206E-04  0.491E-03    3.30       2.3  T
   5   -111.7921784 -0.399963E-06  0.256E-03    3.30       4.5  T
   6   -111.7921785 -0.108111E-06  0.116E-03    3.30       9.9  T
   7   -111.7921785 -0.306529E-07  0.403E-04    3.30      28.4  T
   8   -111.7921785 -0.472929E-08  0.129E-04    3.30      88.7  T
     SCC iter.                  ...        0 min,  0.108 sec
     gradient                   ...        0 min,  0.013 sec
 * total energy  :  -110.2634634 Eh     change       -0.5340973E-02 Eh
   gradient norm :     0.0212156 Eh/α   predicted    -0.4117120E-02 ( -22.91%)
   displ. norm   :     0.5689142 α      lambda       -0.5923842E-02
   maximum displ.:     0.1678740 α      in ANC's #44, #33, #21, ...

........................................................................
.............................. CYCLE   23 ..............................
........................................................................

 iter      E             dE          RMSdq      gap      omega  full diag
   1   -111.7956054 -0.111796E+03  0.113E-01    3.32       0.0  T
   2   -111.7956376 -0.321935E-04  0.681E-02    3.32       1.0  T
   3   -111.7956237  0.138862E-04  0.205E-02    3.32       1.0  T
   4   -111.7956471 -0.233765E-04  0.774E-03    3.32       1.5  T
   5   -111.7956490 -0.192345E-05  0.354E-03    3.32       3.2  T
   6   -111.7956493 -0.260261E-06  0.183E-03    3.32       6.3  T
   7   -111.7956493 -0.398316E-07  0.689E-04    3.32      16.7  T
   8   -111.7956494 -0.171826E-07  0.177E-04    3.32      64.7  T
     SCC iter.                  ...        0 min,  0.123 sec
     gradient                   ...        0 min,  0.014 sec
 * total energy  :  -110.2675017 Eh     change       -0.4038285E-02 Eh
   gradient norm :     0.0320956 Eh/α   predicted    -0.3920589E-02 (  -2.91%)
   displ. norm   :     0.4634681 α      lambda       -0.3068682E-02
   maximum displ.:     0.1744343 α      in ANC's #33, #21, #44, ...

........................................................................
.............................. CYCLE   24 ..............................
........................................................................

 iter      E             dE          RMSdq      gap      omega  full diag
   1   -111.7974957 -0.111797E+03  0.727E-02    3.34       0.0  T
   2   -111.7975016 -0.588969E-05  0.440E-02    3.33       1.0  T
   3   -111.7974857  0.159045E-04  0.158E-02    3.34       1.0  T
   4   -111.7975052 -0.194569E-04  0.314E-03    3.34       3.7  T
   5   -111.7975053 -0.179392E-06  0.178E-03    3.34       6.4  T
   6   -111.7975054 -0.491915E-07  0.721E-04    3.34      15.9  T
   7   -111.7975054 -0.141785E-07  0.246E-04    3.34      46.6  T
     SCC iter.                  ...        0 min,  0.099 sec
     gradient                   ...        0 min,  0.014 sec
 * total energy  :  -110.2699391 Eh     change       -0.2437408E-02 Eh
   gradient norm :     0.0243893 Eh/α   predicted    -0.1863933E-02 ( -23.53%)
   displ. norm   :     0.5460429 α      lambda       -0.3058541E-02
   maximum displ.:     0.1937254 α      in ANC's #21, #33, #5, ...

........................................................................
.............................. CYCLE   25 ..............................
........................................................................

 iter      E             dE          RMSdq      gap      omega  full diag
   1   -111.8050246 -0.111805E+03  0.866E-02    3.34       0.0  T
   2   -111.8050359 -0.113292E-04  0.521E-02    3.34       1.0  T
   3   -111.8050245  0.113728E-04  0.145E-02    3.34       1.0  T
   4   -111.8050392 -0.146974E-04  0.406E-03    3.34       2.8  T
   5   -111.8050397 -0.516636E-06  0.203E-03    3.34       5.6  T
   6   -111.8050398 -0.757050E-07  0.929E-04    3.34      12.3  T
   7   -111.8050398 -0.231370E-07  0.382E-04    3.34      30.0  T
     SCC iter.                  ...        0 min,  0.101 sec
     gradient                   ...        0 min,  0.013 sec
 * total energy  :  -110.2721371 Eh     change       -0.2198002E-02 Eh
   gradient norm :     0.0140573 Eh/α   predicted    -0.1985220E-02 (  -9.68%)
   displ. norm   :     0.6111237 α      lambda       -0.2393194E-02
   maximum displ.:     0.1795626 α      in ANC's #15, #5, #21, ...

........................................................................
.............................. CYCLE   26 ..............................
........................................................................

 iter      E             dE          RMSdq      gap      omega  full diag
   1   -111.7980463 -0.111798E+03  0.113E-01    3.35       0.0  T
   2   -111.7980671 -0.207681E-04  0.681E-02    3.35       1.0  T
   3   -111.7980494  0.176646E-04  0.194E-02    3.36       1.0  T
   4   -111.7980753 -0.259082E-04  0.577E-03    3.36       2.0  T
   5   -111.7980760 -0.710910E-06  0.311E-03    3.36       3.7  T
   6   -111.7980762 -0.208598E-06  0.137E-03    3.36       8.3  T
   7   -111.7980763 -0.388180E-07  0.592E-04    3.36      19.4  T
   8   -111.7980763 -0.933916E-08  0.166E-04    3.36      68.9  T
     SCC iter.                  ...        0 min,  0.111 sec
     gradient                   ...        0 min,  0.014 sec
 * total energy  :  -110.2733220 Eh     change       -0.1184877E-02 Eh
   gradient norm :     0.0300240 Eh/α   predicted    -0.1643482E-02 (  38.70%)
   displ. norm   :     0.3567878 α      lambda       -0.2015465E-02
   maximum displ.:     0.1262128 α      in ANC's #21, #28, #20, ...

........................................................................
.............................. CYCLE   27 ..............................
........................................................................

 iter      E             dE          RMSdq      gap      omega  full diag
   1   -111.8062766 -0.111806E+03  0.766E-02    3.36       0.0  T
   2   -111.8062871 -0.105173E-04  0.469E-02    3.35       1.0  T
   3   -111.8062850  0.207661E-05  0.102E-02    3.35       1.1  T
   4   -111.8062904 -0.540945E-05  0.379E-03    3.35       3.0  T
   5   -111.8062908 -0.364701E-06  0.179E-03    3.35       6.4  T
   6   -111.8062908 -0.462216E-07  0.828E-04    3.35      13.9  T
   7   -111.8062909 -0.138067E-07  0.364E-04    3.35      31.5  T
     SCC iter.                  ...        0 min,  0.099 sec
     gradient                   ...        0 min,  0.013 sec
 * total energy  :  -110.2744648 Eh     change       -0.1142783E-02 Eh
   gradient norm :     0.0184422 Eh/α   predicted    -0.1136010E-02 (  -0.59%)
   displ. norm   :     0.3583332 α      lambda       -0.1343038E-02
   maximum displ.:     0.1140863 α      in ANC's #11, #16, #8, ...

........................................................................
.............................. CYCLE   28 ..............................
........................................................................

 iter      E             dE          RMSdq      gap      omega  full diag
   1   -111.8143747 -0.111814E+03  0.694E-02    3.33       0.0  T
   2   -111.8143874 -0.126188E-04  0.411E-02    3.34       1.0  T
   3   -111.8143746  0.128039E-04  0.169E-02    3.34       1.0  T
   4   -111.8143917 -0.171104E-04  0.445E-03    3.34       2.6  T
   5   -111.8143922 -0.506406E-06  0.202E-03    3.34       5.7  T
   6   -111.8143923 -0.861518E-07  0.912E-04    3.34      12.6  T
   7   -111.8143923 -0.116292E-07  0.456E-04    3.34      25.1  T
     SCC iter.                  ...        0 min,  0.099 sec
     gradient                   ...        0 min,  0.014 sec
 * total energy  :  -110.2747428 Eh     change       -0.2780449E-03 Eh
   gradient norm :     0.0263169 Eh/α   predicted    -0.7577410E-03 ( 172.52%)
   displ. norm   :     0.3530365 α      lambda       -0.1531543E-02
   maximum displ.:     0.1331248 α      in ANC's #15, #7, #9, ...

........................................................................
.............................. CYCLE   29 ..............................
........................................................................

 iter      E             dE          RMSdq      gap      omega  full diag
   1   -111.8079721 -0.111808E+03  0.713E-02    3.35       0.0  T
   2   -111.8079821 -0.100427E-04  0.423E-02    3.35       1.0  T
   3   -111.8079774  0.474848E-05  0.115E-02    3.35       1.0  T
   4   -111.8079855 -0.810818E-05  0.381E-03    3.35       3.0  T
   5   -111.8079857 -0.275610E-06  0.189E-03    3.35       6.1  T
   6   -111.8079858 -0.910939E-07  0.922E-04    3.35      12.4  T
   7   -111.8079858 -0.117209E-07  0.424E-04    3.35      27.1  T
     SCC iter.                  ...        0 min,  0.101 sec
     gradient                   ...        0 min,  0.014 sec
 * total energy  :  -110.2756134 Eh     change       -0.8705465E-03 Eh
   gradient norm :     0.0122712 Eh/α   predicted    -0.8612127E-03 (  -1.07%)
   displ. norm   :     0.3628003 α      lambda       -0.9535883E-03
   maximum displ.:     0.1419257 α      in ANC's #28, #25, #14, ...

........................................................................
.............................. CYCLE   30 ..............................
........................................................................

 iter      E             dE          RMSdq      gap      omega  full diag
   1   -111.8023659 -0.111802E+03  0.715E-02    3.36       0.0  T
   2   -111.8023706 -0.472225E-05  0.430E-02    3.36       1.0  T
   3   -111.8023641  0.647133E-05  0.108E-02    3.36       1.1  T
   4   -111.8023729 -0.881600E-05  0.298E-03    3.35       3.9  T
   5   -111.8023730 -0.100727E-06  0.165E-03    3.35       7.0  T
   6   -111.8023731 -0.612120E-07  0.655E-04    3.35      17.5  T
   7   -111.8023731 -0.105506E-07  0.234E-04    3.35      49.0  T
     SCC iter.                  ...        0 min,  0.096 sec
     gradient                   ...        0 min,  0.016 sec
 * total energy  :  -110.2755020 Eh     change        0.1113835E-03 Eh
   gradient norm :     0.0334151 Eh/α   predicted    -0.5395511E-03 (-584.41%)
   displ. norm   :     0.1849356 α      lambda       -0.1562968E-02
   maximum displ.:     0.0519346 α      in ANC's #21, #11, #7, ...

........................................................................
.............................. CYCLE   31 ..............................
........................................................................

 iter      E             dE          RMSdq      gap      omega  full diag
   1   -111.8071782 -0.111807E+03  0.398E-02    3.35       0.0  T
   2   -111.8071804 -0.214569E-05  0.236E-02    3.35       1.0  T
   3   -111.8071795  0.890560E-06  0.539E-03    3.35       2.1  T
   4   -111.8071813 -0.182192E-05  0.213E-03    3.35       5.4  T
   5   -111.8071814 -0.751559E-07  0.974E-04    3.35      11.8  T
   6   -111.8071814 -0.186465E-07  0.469E-04    3.35      24.4  T
     SCC iter.                  ...        0 min,  0.083 sec
     gradient                   ...        0 min,  0.023 sec
 * total energy  :  -110.2764030 Eh     change       -0.9010421E-03 Eh
   gradient norm :     0.0117304 Eh/α   predicted    -0.8082118E-03 ( -10.30%)
   displ. norm   :     0.3424239 α      lambda       -0.8997860E-03
   maximum displ.:     0.1122807 α      in ANC's #7, #1, #11, ...

........................................................................
.............................. CYCLE   32 ..............................
........................................................................

 iter      E             dE          RMSdq      gap      omega  full diag
   1   -111.8137422 -0.111814E+03  0.566E-02    3.36       0.0  T
   2   -111.8137496 -0.735219E-05  0.334E-02    3.36       1.0  T
   3   -111.8137495  0.122892E-06  0.758E-03    3.37       1.5  T
   4   -111.8137516 -0.216656E-05  0.327E-03    3.37       3.5  T
   5   -111.8137519 -0.285501E-06  0.161E-03    3.37       7.1  T
   6   -111.8137520 -0.633631E-07  0.690E-04    3.37      16.6  T
   7   -111.8137520 -0.170672E-08  0.342E-04    3.37      33.6  T
     SCC iter.                  ...        0 min,  0.098 sec
     gradient                   ...        0 min,  0.015 sec
 * total energy  :  -110.2763475 Eh     change        0.5554010E-04 Eh
   gradient norm :     0.0320603 Eh/α   predicted    -0.5026488E-03 (*******%)
   displ. norm   :     0.3747352 α      lambda       -0.1523540E-02
   maximum displ.:     0.1204091 α      in ANC's #1, #7, #11, ...

........................................................................
.............................. CYCLE   33 ..............................
........................................................................

 iter      E             dE          RMSdq      gap      omega  full diag
   1   -111.8083540 -0.111808E+03  0.578E-02    3.36       0.0  T
   2   -111.8083617 -0.769979E-05  0.342E-02    3.36       1.0  T
   3   -111.8083596  0.210686E-05  0.921E-03    3.36       1.2  T
   4   -111.8083639 -0.430644E-05  0.324E-03    3.36       3.5  T
   5   -111.8083642 -0.276314E-06  0.153E-03    3.36       7.5  T
   6   -111.8083642 -0.408404E-07  0.742E-04    3.36      15.5  T
   7   -111.8083642 -0.280957E-08  0.370E-04    3.36      31.0  T
     SCC iter.                  ...        0 min,  0.100 sec
     gradient                   ...        0 min,  0.014 sec
 * total energy  :  -110.2773202 Eh     change       -0.9727439E-03 Eh
   gradient norm :     0.0100206 Eh/α   predicted    -0.8687439E-03 ( -10.69%)
   displ. norm   :     0.4808159 α      lambda       -0.7100124E-03
   maximum displ.:     0.1674216 α      in ANC's #1, #7, #11, ...

........................................................................
.............................. CYCLE   34 ..............................
........................................................................

 iter      E             dE          RMSdq      gap      omega  full diag
   1   -111.8066715 -0.111807E+03  0.583E-02    3.37       0.0  T
   2   -111.8066748 -0.329276E-05  0.348E-02    3.37       1.0  T
   3   -111.8066686  0.622056E-05  0.102E-02    3.37       1.1  T
   4   -111.8066762 -0.765323E-05  0.212E-03    3.37       5.4  T
   5   -111.8066763 -0.108073E-06  0.119E-03    3.37       9.6  T
   6   -111.8066764 -0.214492E-07  0.536E-04    3.37      21.4  T
   7   -111.8066764 -0.815010E-08  0.158E-04    3.37      72.6  T
     SCC iter.                  ...        0 min,  0.102 sec
     gradient                   ...        0 min,  0.022 sec
 * total energy  :  -110.2778655 Eh     change       -0.5453063E-03 Eh
   gradient norm :     0.0105195 Eh/α   predicted    -0.4370843E-03 ( -19.85%)
   displ. norm   :     0.5998035 α      lambda       -0.7500093E-03
   maximum displ.:     0.2222672 α      in ANC's #1, #7, #11, ...

........................................................................
.............................. CYCLE   35 ..............................
........................................................................

 iter      E             dE          RMSdq      gap      omega  full diag
   1   -111.8064110 -0.111806E+03  0.638E-02    3.38       0.0  T
   2   -111.8064149 -0.388270E-05  0.378E-02    3.38       1.0  T
   3   -111.8064067  0.819337E-05  0.118E-02    3.38       1.0  T
   4   -111.8064167 -0.100255E-04  0.224E-03    3.38       5.1  T
   5   -111.8064168 -0.112931E-06  0.127E-03    3.38       9.0  T
   6   -111.8064168 -0.261517E-07  0.593E-04    3.38      19.4  T
   7   -111.8064168 -0.929379E-08  0.186E-04    3.38      61.8  T
     SCC iter.                  ...        0 min,  0.165 sec
     gradient                   ...        0 min,  0.016 sec
 * total energy  :  -110.2784763 Eh     change       -0.6107681E-03 Eh
   gradient norm :     0.0104544 Eh/α   predicted    -0.5099251E-03 ( -16.51%)
   displ. norm   :     0.6166025 α      lambda       -0.7993600E-03
   maximum displ.:     0.2436756 α      in ANC's #1, #7, #6, ...

........................................................................
.............................. CYCLE   36 ..............................
........................................................................

 iter      E             dE          RMSdq      gap      omega  full diag
   1   -111.8102657 -0.111810E+03  0.673E-02    3.39       0.0  T
   2   -111.8102712 -0.552999E-05  0.397E-02    3.39       1.0  T
   3   -111.8102604  0.108531E-04  0.138E-02    3.40       1.0  T
   4   -111.8102736 -0.131953E-04  0.262E-03    3.40       4.4  T
   5   -111.8102738 -0.183716E-06  0.136E-03    3.40       8.4  T
   6   -111.8102738 -0.345907E-07  0.681E-04    3.40      16.8  T
   7   -111.8102738 -0.955386E-08  0.248E-04    3.40      46.3  T
     SCC iter.                  ...        0 min,  0.108 sec
     gradient                   ...        0 min,  0.016 sec
 * total energy  :  -110.2790897 Eh     change       -0.6133532E-03 Eh
   gradient norm :     0.0108038 Eh/α   predicted    -0.5516396E-03 ( -10.06%)
   displ. norm   :     0.6563829 α      lambda       -0.6811730E-03
   maximum displ.:     0.2732083 α      in ANC's #1, #6, #7, ...

........................................................................
.............................. CYCLE   37 ..............................
........................................................................

 iter      E             dE          RMSdq      gap      omega  full diag
   1   -111.8101845 -0.111810E+03  0.734E-02    3.41       0.0  T
   2   -111.8101905 -0.599126E-05  0.434E-02    3.41       1.0  T
   3   -111.8101805  0.999246E-05  0.133E-02    3.41       1.0  T
   4   -111.8101930 -0.125184E-04  0.285E-03    3.41       4.0  T
   5   -111.8101932 -0.194670E-06  0.154E-03    3.41       7.5  T
   6   -111.8101932 -0.366562E-07  0.760E-04    3.41      15.1  T
   7   -111.8101932 -0.143132E-07  0.266E-04    3.41      43.2  T
     SCC iter.                  ...        0 min,  0.101 sec
     gradient                   ...        0 min,  0.028 sec
 * total energy  :  -110.2795856 Eh     change       -0.4959017E-03 Eh
   gradient norm :     0.0147783 Eh/α   predicted    -0.4873280E-03 (  -1.73%)
   displ. norm   :     0.5866571 α      lambda       -0.8441105E-03
   maximum displ.:     0.2673253 α      in ANC's #1, #6, #17, ...

........................................................................
.............................. CYCLE   38 ..............................
........................................................................

 iter      E             dE          RMSdq      gap      omega  full diag
   1   -111.8194756 -0.111819E+03  0.738E-02    3.43       0.0  T
   2   -111.8194835 -0.784630E-05  0.434E-02    3.43       1.0  T
   3   -111.8194705  0.130239E-04  0.153E-02    3.43       1.0  T
   4   -111.8194862 -0.157490E-04  0.323E-03    3.43       3.6  T
   5   -111.8194866 -0.412522E-06  0.145E-03    3.43       7.9  T
   6   -111.8194866 -0.130886E-07  0.794E-04    3.43      14.5  T
   7   -111.8194866 -0.157651E-07  0.229E-04    3.43      50.0  T
     SCC iter.                  ...        0 min,  0.111 sec
     gradient                   ...        0 min,  0.016 sec
 * total energy  :  -110.2801103 Eh     change       -0.5247730E-03 Eh
   gradient norm :     0.0150289 Eh/α   predicted    -0.5673140E-03 (   8.11%)
   displ. norm   :     0.6417072 α      lambda       -0.9740237E-03
   maximum displ.:     0.2789871 α      in ANC's #1, #6, #7, ...

........................................................................
.............................. CYCLE   39 ..............................
........................................................................

 iter      E             dE          RMSdq      gap      omega  full diag
   1   -111.8091989 -0.111809E+03  0.855E-02    3.44       0.0  T
   2   -111.8092117 -0.127795E-04  0.503E-02    3.44       1.0  T
   3   -111.8091923  0.193732E-04  0.197E-02    3.44       1.0  T
   4   -111.8092167 -0.244323E-04  0.434E-03    3.44       2.6  T
   5   -111.8092173 -0.530751E-06  0.215E-03    3.44       5.3  T
   6   -111.8092173 -0.623904E-07  0.105E-03    3.44      10.9  T
   7   -111.8092174 -0.228032E-07  0.442E-04    3.44      26.0  T
   8   -111.8092174 -0.293505E-08  0.139E-04    3.44      82.7  T
     SCC iter.                  ...        0 min,  0.126 sec
     gradient                   ...        0 min,  0.011 sec
 * total energy  :  -110.2803722 Eh     change       -0.2618412E-03 Eh
   gradient norm :     0.0245730 Eh/α   predicted    -0.6875641E-03 ( 162.59%)
   displ. norm   :     0.2789291 α      lambda       -0.9982002E-03
   maximum displ.:     0.1372934 α      in ANC's #1, #6, #10, ...

........................................................................
.............................. CYCLE   40 ..............................
........................................................................

 iter      E             dE          RMSdq      gap      omega  full diag
   1   -111.8148436 -0.111815E+03  0.455E-02    3.44       0.0  T
   2   -111.8148474 -0.373723E-05  0.266E-02    3.44       1.0  T
   3   -111.8148463  0.109865E-05  0.618E-03    3.44       1.9  T
   4   -111.8148482 -0.188060E-05  0.250E-03    3.44       4.6  T
   5   -111.8148484 -0.226863E-06  0.106E-03    3.44      10.8  T
   6   -111.8148484 -0.166000E-07  0.502E-04    3.44      22.8  T
   7   -111.8148484 -0.382555E-08  0.249E-04    3.44      46.0  T
     SCC iter.                  ...        0 min,  0.102 sec
     gradient                   ...        0 min,  0.019 sec
 * total energy  :  -110.2809446 Eh     change       -0.5724231E-03 Eh
   gradient norm :     0.0105816 Eh/α   predicted    -0.5379341E-03 (  -6.03%)
   displ. norm   :     0.5029680 α      lambda       -0.5177241E-03
   maximum displ.:     0.2514416 α      in ANC's #1, #6, #46, ...

........................................................................
.............................. CYCLE   41 ..............................
........................................................................

 iter      E             dE          RMSdq      gap      omega  full diag
   1   -111.8135920 -0.111814E+03  0.600E-02    3.44       0.0  T
   2   -111.8135981 -0.612547E-05  0.355E-02    3.45       1.0  T
   3   -111.8135906  0.749584E-05  0.121E-02    3.45       1.0  T
   4   -111.8135998 -0.917062E-05  0.287E-03    3.45       4.0  T
   5   -111.8136002 -0.397348E-06  0.119E-03    3.45       9.7  T
   6   -111.8136002 -0.167703E-07  0.575E-04    3.45      19.9  T
   7   -111.8136002 -0.505665E-08  0.264E-04    3.45      43.5  T
     SCC iter.                  ...        0 min,  0.106 sec
     gradient                   ...        0 min,  0.014 sec
 * total energy  :  -110.2812740 Eh     change       -0.3294147E-03 Eh
   gradient norm :     0.0099813 Eh/α   predicted    -0.3243493E-03 (  -1.54%)
   displ. norm   :     0.4332930 α      lambda       -0.5422747E-03
   maximum displ.:     0.2344109 α      in ANC's #1, #6, #9, ...

........................................................................
.............................. CYCLE   42 ..............................
........................................................................

 iter      E             dE          RMSdq      gap      omega  full diag
   1   -111.8193530 -0.111819E+03  0.570E-02    3.46       0.0  T
   2   -111.8193624 -0.940176E-05  0.336E-02    3.46       1.0  T
   3   -111.8193547  0.773817E-05  0.135E-02    3.46       1.0  T
   4   -111.8193643 -0.958165E-05  0.375E-03    3.46       3.1  T
   5   -111.8193650 -0.718801E-06  0.132E-03    3.46       8.7  T
   6   -111.8193650 -0.197726E-07  0.660E-04    3.46      17.4  T
   7   -111.8193650 -0.478181E-08  0.269E-04    3.46      42.6  T
     SCC iter.                  ...        0 min,  0.108 sec
     gradient                   ...        0 min,  0.010 sec
 * total energy  :  -110.2815933 Eh     change       -0.3192992E-03 Eh
   gradient norm :     0.0108719 Eh/α   predicted    -0.3220446E-03 (   0.86%)
   displ. norm   :     0.5776510 α      lambda       -0.6601539E-03
   maximum displ.:     0.3021095 α      in ANC's #1, #6, #46, ...
 * RMSD in coord.:     0.9220426 α      energy gain  -0.3974015E-01 Eh

generating ANC from exact Hessian ...
Using Lindh-Hessian (1995)
 Shifting diagonal of input Hessian by   1.018908053157796E-002
 Lowest  eigenvalues of input Hessian
    0.010000    0.010140    0.000000    0.000000    0.000000    0.000000
    0.000000    0.000000    0.010258    0.010333    0.010380    0.010458
    0.010512    0.010627    0.010708    0.010753    0.010789    0.010953
 Highest eigenvalues
    2.002025    2.072194    2.084589    2.198837    2.315931    2.357725
 

........................................................................
.............................. CYCLE   43 ..............................
........................................................................

 iter      E             dE          RMSdq      gap      omega  full diag
   1   -111.8148790 -0.111815E+03  0.715E-02    3.47       0.0  T
   2   -111.8148878 -0.883985E-05  0.421E-02    3.47       1.0  T
   3   -111.8148764  0.114267E-04  0.147E-02    3.47       1.0  T
   4   -111.8148901 -0.137449E-04  0.368E-03    3.47       3.1  T
   5   -111.8148907 -0.631307E-06  0.145E-03    3.47       7.9  T
   6   -111.8148908 -0.128532E-07  0.693E-04    3.47      16.6  T
   7   -111.8148908 -0.974464E-08  0.246E-04    3.47      46.5  T
     SCC iter.                  ...        0 min,  0.099 sec
     gradient                   ...        0 min,  0.018 sec
 * total energy  :  -110.2817791 Eh     change       -0.1857560E-03 Eh
   gradient norm :     0.0160438 Eh/α   predicted     0.0000000E+00 (-100.00%)
   displ. norm   :     0.1552048 α      lambda       -0.6549329E-03
   maximum displ.:     0.0652495 α      in ANC's #35, #13, #14, ...

........................................................................
.............................. CYCLE   44 ..............................
........................................................................

 iter      E             dE          RMSdq      gap      omega  full diag
   1   -111.8155025 -0.111816E+03  0.527E-02    3.48       0.0  T
   2   -111.8155076 -0.509804E-05  0.325E-02    3.48       1.0  T
   3   -111.8154969  0.106257E-04  0.143E-02    3.48       1.0  T
   4   -111.8155103 -0.133276E-04  0.260E-03    3.48       4.4  T
   5   -111.8155105 -0.203108E-06  0.119E-03    3.48       9.6  T
   6   -111.8155105 -0.798873E-08  0.536E-04    3.48      21.4  T
   7   -111.8155105 -0.758205E-08  0.173E-04    3.48      66.3  T
     SCC iter.                  ...        0 min,  0.102 sec
     gradient                   ...        0 min,  0.015 sec
 * total energy  :  -110.2822305 Eh     change       -0.4513961E-03 Eh
   gradient norm :     0.0048872 Eh/α   predicted    -0.3353586E-03 ( -25.71%)
   displ. norm   :     0.1829436 α      lambda       -0.2830377E-03
   maximum displ.:     0.0643891 α      in ANC's #1, #9, #6, ...

........................................................................
.............................. CYCLE   45 ..............................
........................................................................

 iter      E             dE          RMSdq      gap      omega  full diag
   1   -111.8154370 -0.111815E+03  0.401E-02    3.49       0.0  T
   2   -111.8154401 -0.308936E-05  0.246E-02    3.49       1.0  T
   3   -111.8154316  0.853232E-05  0.131E-02    3.49       1.0  T
   4   -111.8154424 -0.108128E-04  0.205E-03    3.49       5.6  T
   5   -111.8154425 -0.908966E-07  0.106E-03    3.49      10.8  T
   6   -111.8154425 -0.688327E-08  0.470E-04    3.49      24.4  T
   7   -111.8154425 -0.505004E-08  0.158E-04    3.49      72.8  T
     SCC iter.                  ...        0 min,  0.103 sec
     gradient                   ...        0 min,  0.014 sec
 * total energy  :  -110.2824022 Eh     change       -0.1717540E-03 Eh
   gradient norm :     0.0108540 Eh/α   predicted    -0.1465069E-03 ( -14.70%)
   displ. norm   :     0.1869188 α      lambda       -0.2392183E-03
   maximum displ.:     0.0846675 α      in ANC's #1, #10, #6, ...

........................................................................
.............................. CYCLE   46 ..............................
........................................................................

 iter      E             dE          RMSdq      gap      omega  full diag
   1   -111.8167255 -0.111817E+03  0.325E-02    3.50       0.0  T
   2   -111.8167277 -0.226115E-05  0.198E-02    3.50       1.0  T
   3   -111.8167224  0.528341E-05  0.103E-02    3.50       1.1  T
   4   -111.8167293 -0.681822E-05  0.187E-03    3.50       6.1  T
   5   -111.8167293 -0.705908E-07  0.976E-04    3.50      11.8  T
   6   -111.8167293 -0.109269E-07  0.437E-04    3.50      26.2  T
     SCC iter.                  ...        0 min,  0.082 sec
     gradient                   ...        0 min,  0.027 sec
 * total energy  :  -110.2825579 Eh     change       -0.1556798E-03 Eh
   gradient norm :     0.0098328 Eh/α   predicted    -0.1239058E-03 ( -20.41%)
   displ. norm   :     0.2377207 α      lambda       -0.2798898E-03
   maximum displ.:     0.1318172 α      in ANC's #1, #5, #10, ...

........................................................................
.............................. CYCLE   47 ..............................
........................................................................

 iter      E             dE          RMSdq      gap      omega  full diag
   1   -111.8175673 -0.111818E+03  0.322E-02    3.51       0.0  T
   2   -111.8175696 -0.229736E-05  0.195E-02    3.51       1.0  T
   3   -111.8175638  0.582525E-05  0.111E-02    3.51       1.0  T
   4   -111.8175715 -0.771437E-05  0.180E-03    3.51       6.4  T
   5   -111.8175715 -0.688984E-07  0.925E-04    3.51      12.4  T
   6   -111.8175715 -0.114032E-07  0.428E-04    3.51      26.8  T
     SCC iter.                  ...        0 min,  0.083 sec
     gradient                   ...        0 min,  0.015 sec
 * total energy  :  -110.2827696 Eh     change       -0.2116877E-03 Eh
   gradient norm :     0.0048537 Eh/α   predicted    -0.1478537E-03 ( -30.15%)
   displ. norm   :     0.3738489 α      lambda       -0.2832918E-03
   maximum displ.:     0.2046661 α      in ANC's #1, #5, #10, ...

........................................................................
.............................. CYCLE   48 ..............................
........................................................................

 iter      E             dE          RMSdq      gap      omega  full diag
   1   -111.8146572 -0.111815E+03  0.546E-02    3.52       0.0  T
   2   -111.8146625 -0.524587E-05  0.335E-02    3.52       1.0  T
   3   -111.8146437  0.187927E-04  0.198E-02    3.53       1.0  T
   4   -111.8146682 -0.245178E-04  0.266E-03    3.53       4.3  T
   5   -111.8146683 -0.127598E-06  0.152E-03    3.53       7.5  T
   6   -111.8146684 -0.191211E-07  0.609E-04    3.53      18.8  T
   7   -111.8146684 -0.968735E-08  0.196E-04    3.52      58.4  T
     SCC iter.                  ...        0 min,  0.103 sec
     gradient                   ...        0 min,  0.006 sec
 * total energy  :  -110.2829520 Eh     change       -0.1823830E-03 Eh
   gradient norm :     0.0087220 Eh/α   predicted    -0.1614476E-03 ( -11.48%)
   displ. norm   :     0.3234695 α      lambda       -0.3159657E-03
   maximum displ.:     0.2048657 α      in ANC's #1, #5, #9, ...

........................................................................
.............................. CYCLE   49 ..............................
........................................................................

 iter      E             dE          RMSdq      gap      omega  full diag
   1   -111.8158118 -0.111816E+03  0.381E-02    3.53       0.0  T
   2   -111.8158146 -0.276789E-05  0.228E-02    3.53       1.0  T
   3   -111.8158088  0.573810E-05  0.105E-02    3.53       1.1  T
   4   -111.8158160 -0.718683E-05  0.195E-03    3.53       5.9  T
   5   -111.8158161 -0.974627E-07  0.949E-04    3.53      12.1  T
   6   -111.8158161 -0.172365E-07  0.433E-04    3.53      26.5  T
     SCC iter.                  ...        0 min,  0.087 sec
     gradient                   ...        0 min,  0.014 sec
 * total energy  :  -110.2831312 Eh     change       -0.1792298E-03 Eh
   gradient norm :     0.0062291 Eh/α   predicted    -0.1745136E-03 (  -2.63%)
   displ. norm   :     0.3439118 α      lambda       -0.2280735E-03
   maximum displ.:     0.2113328 α      in ANC's #1, #5, #9, ...

........................................................................
.............................. CYCLE   50 ..............................
........................................................................

 iter      E             dE          RMSdq      gap      omega  full diag
   1   -111.8153347 -0.111815E+03  0.419E-02    3.53       0.0  T
   2   -111.8153374 -0.271088E-05  0.253E-02    3.53       1.0  T
   3   -111.8153288  0.852828E-05  0.126E-02    3.53       1.0  T
   4   -111.8153395 -0.106714E-04  0.199E-03    3.53       5.8  T
   5   -111.8153396 -0.892718E-07  0.114E-03    3.53      10.0  T
   6   -111.8153396 -0.138135E-07  0.480E-04    3.53      23.9  T
   7   -111.8153396 -0.446413E-08  0.174E-04    3.53      66.0  T
     SCC iter.                  ...        0 min,  0.097 sec
     gradient                   ...        0 min,  0.016 sec
 * total energy  :  -110.2833213 Eh     change       -0.1901393E-03 Eh
   gradient norm :     0.0055817 Eh/α   predicted    -0.1275265E-03 ( -32.93%)
   displ. norm   :     0.4352312 α      lambda       -0.3158548E-03
   maximum displ.:     0.2775952 α      in ANC's #1, #5, #9, ...

........................................................................
.............................. CYCLE   51 ..............................
........................................................................

 iter      E             dE          RMSdq      gap      omega  full diag
   1   -111.8166879 -0.111817E+03  0.515E-02    3.53       0.0  T
   2   -111.8166911 -0.326398E-05  0.308E-02    3.53       1.0  T
   3   -111.8166838  0.738200E-05  0.115E-02    3.53       1.0  T
   4   -111.8166930 -0.924694E-05  0.220E-03    3.53       5.2  T
   5   -111.8166931 -0.112478E-06  0.127E-03    3.53       9.0  T
   6   -111.8166931 -0.188307E-07  0.533E-04    3.53      21.5  T
   7   -111.8166931 -0.615911E-08  0.193E-04    3.53      59.4  T
     SCC iter.                  ...        0 min,  0.095 sec
     gradient                   ...        0 min,  0.021 sec
 * total energy  :  -110.2835535 Eh     change       -0.2322015E-03 Eh
   gradient norm :     0.0089282 Eh/α   predicted    -0.1878442E-03 ( -19.10%)
   displ. norm   :     0.3640772 α      lambda       -0.2791689E-03
   maximum displ.:     0.2341726 α      in ANC's #1, #5, #3, ...

........................................................................
.............................. CYCLE   52 ..............................
........................................................................

 iter      E             dE          RMSdq      gap      omega  full diag
   1   -111.8195652 -0.111820E+03  0.424E-02    3.53       0.0  T
   2   -111.8195670 -0.183230E-05  0.251E-02    3.53       1.0  T
   3   -111.8195652  0.180581E-05  0.596E-03    3.53       1.9  T
   4   -111.8195677 -0.246025E-05  0.129E-03    3.53       8.9  T
   5   -111.8195677 -0.291346E-07  0.699E-04    3.53      16.4  T
   6   -111.8195677 -0.776093E-08  0.261E-04    3.53      43.9  T
     SCC iter.                  ...        0 min,  0.083 sec
     gradient                   ...        0 min,  0.015 sec
 * total energy  :  -110.2837552 Eh     change       -0.2016744E-03 Eh
   gradient norm :     0.0076135 Eh/α   predicted    -0.1580904E-03 ( -21.61%)
   displ. norm   :     0.4707281 α      lambda       -0.2459645E-03
   maximum displ.:     0.3059539 α      in ANC's #1, #5, #3, ...

........................................................................
.............................. CYCLE   53 ..............................
........................................................................

 iter      E             dE          RMSdq      gap      omega  full diag
   1   -111.8168049 -0.111817E+03  0.537E-02    3.53       0.0  T
   2   -111.8168074 -0.251374E-05  0.320E-02    3.53       1.0  T
   3   -111.8168035  0.394098E-05  0.867E-03    3.53       1.3  T
   4   -111.8168087 -0.521438E-05  0.190E-03    3.53       6.0  T
   5   -111.8168088 -0.523467E-07  0.114E-03    3.53      10.1  T
   6   -111.8168088 -0.191701E-07  0.429E-04    3.53      26.7  T
   7   -111.8168088 -0.531546E-08  0.172E-04    3.53      66.6  T
     SCC iter.                  ...        0 min,  0.104 sec
     gradient                   ...        0 min,  0.017 sec
 * total energy  :  -110.2839351 Eh     change       -0.1799075E-03 Eh
   gradient norm :     0.0087929 Eh/α   predicted    -0.1502334E-03 ( -16.49%)
   displ. norm   :     0.4808160 α      lambda       -0.3498637E-03
   maximum displ.:     0.3175415 α      in ANC's #1, #5, #3, ...

........................................................................
.............................. CYCLE   54 ..............................
........................................................................

 iter      E             dE          RMSdq      gap      omega  full diag
   1   -111.8172289 -0.111817E+03  0.520E-02    3.53       0.0  T
   2   -111.8172325 -0.360480E-05  0.306E-02    3.53       1.0  T
   3   -111.8172301  0.238870E-05  0.739E-03    3.53       1.6  T
   4   -111.8172336 -0.351882E-05  0.205E-03    3.53       5.6  T
   5   -111.8172337 -0.830412E-07  0.100E-03    3.53      11.4  T
   6   -111.8172337 -0.204241E-07  0.471E-04    3.53      24.3  T
   7   -111.8172337 -0.315936E-08  0.232E-04    3.53      49.4  T
     SCC iter.                  ...        0 min,  0.102 sec
     gradient                   ...        0 min,  0.014 sec
 * total energy  :  -110.2840848 Eh     change       -0.1497178E-03 Eh
   gradient norm :     0.0115357 Eh/α   predicted    -0.2153736E-03 (  43.85%)
   displ. norm   :     0.3009516 α      lambda       -0.2639613E-03
   maximum displ.:     0.1995645 α      in ANC's #1, #5, #3, ...

........................................................................
.............................. CYCLE   55 ..............................
........................................................................

 iter      E             dE          RMSdq      gap      omega  full diag
   1   -111.8175513 -0.111818E+03  0.327E-02    3.53       0.0  T
   2   -111.8175523 -0.103055E-05  0.194E-02    3.53       1.0  T
   3   -111.8175516  0.707203E-06  0.413E-03    3.53       2.8  T
   4   -111.8175527 -0.107630E-05  0.111E-03    3.53      10.4  T
   5   -111.8175527 -0.159341E-07  0.574E-04    3.53      20.0  T
   6   -111.8175527 -0.727627E-08  0.238E-04    3.53      48.2  T
     SCC iter.                  ...        0 min,  0.094 sec
     gradient                   ...        0 min,  0.015 sec
 * total energy  :  -110.2842717 Eh     change       -0.1868855E-03 Eh
   gradient norm :     0.0051577 Eh/α   predicted    -0.1439370E-03 ( -22.98%)
   displ. norm   :     0.4502830 α      lambda       -0.2565119E-03
   maximum displ.:     0.3009447 α      in ANC's #1, #5, #3, ...

........................................................................
.............................. CYCLE   56 ..............................
........................................................................

 iter      E             dE          RMSdq      gap      omega  full diag
   1   -111.8159263 -0.111816E+03  0.467E-02    3.53       0.0  T
   2   -111.8159284 -0.215692E-05  0.278E-02    3.53       1.0  T
   3   -111.8159259  0.249665E-05  0.770E-03    3.53       1.5  T
   4   -111.8159294 -0.343579E-05  0.189E-03    3.53       6.1  T
   5   -111.8159294 -0.727386E-07  0.107E-03    3.53      10.8  T
   6   -111.8159295 -0.216378E-07  0.434E-04    3.53      26.4  T
   7   -111.8159295 -0.339240E-08  0.191E-04    3.53      59.9  T
     SCC iter.                  ...        0 min,  0.106 sec
     gradient                   ...        0 min,  0.013 sec
 * total energy  :  -110.2844323 Eh     change       -0.1605190E-03 Eh
   gradient norm :     0.0098061 Eh/α   predicted    -0.1542657E-03 (  -3.90%)
   displ. norm   :     0.3759009 α      lambda       -0.2455712E-03
   maximum displ.:     0.2478011 α      in ANC's #1, #5, #3, ...

........................................................................
.............................. CYCLE   57 ..............................
........................................................................

 iter      E             dE          RMSdq      gap      omega  full diag
   1   -111.8187185 -0.111819E+03  0.325E-02    3.52       0.0  T
   2   -111.8187198 -0.128654E-05  0.191E-02    3.52       1.0  T
   3   -111.8187184  0.134161E-05  0.538E-03    3.52       2.1  T
   4   -111.8187202 -0.175424E-05  0.114E-03    3.52      10.1  T
   5   -111.8187202 -0.363436E-07  0.584E-04    3.52      19.7  T
   6   -111.8187202 -0.592865E-08  0.270E-04    3.52      42.4  T
     SCC iter.                  ...        0 min,  0.099 sec
     gradient                   ...        0 min,  0.014 sec
 * total energy  :  -110.2846139 Eh     change       -0.1816625E-03 Eh
   gradient norm :     0.0064050 Eh/α   predicted    -0.1401362E-03 ( -22.86%)
   displ. norm   :     0.5228364 α      lambda       -0.2311384E-03
   maximum displ.:     0.3490622 α      in ANC's #1, #5, #3, ...

........................................................................
.............................. CYCLE   58 ..............................
........................................................................

 iter      E             dE          RMSdq      gap      omega  full diag
   1   -111.8178278 -0.111818E+03  0.458E-02    3.51       0.0  T
   2   -111.8178297 -0.190555E-05  0.272E-02    3.51       1.0  T
   3   -111.8178270  0.272392E-05  0.736E-03    3.51       1.6  T
   4   -111.8178305 -0.356862E-05  0.157E-03    3.51       7.3  T
   5   -111.8178306 -0.459792E-07  0.901E-04    3.51      12.7  T
   6   -111.8178306 -0.106850E-07  0.383E-04    3.51      29.9  T
     SCC iter.                  ...        0 min,  0.093 sec
     gradient                   ...        0 min,  0.016 sec
 * total energy  :  -110.2847933 Eh     change       -0.1793640E-03 Eh
   gradient norm :     0.0041206 Eh/α   predicted    -0.1471661E-03 ( -17.95%)
   displ. norm   :     0.5546016 α      lambda       -0.1945868E-03
   maximum displ.:     0.3721476 α      in ANC's #1, #5, #3, ...

........................................................................
.............................. CYCLE   59 ..............................
........................................................................

 iter      E             dE          RMSdq      gap      omega  full diag
   1   -111.8172104 -0.111817E+03  0.456E-02    3.50       0.0  T
   2   -111.8172125 -0.202200E-05  0.271E-02    3.50       1.0  T
   3   -111.8172084  0.409868E-05  0.868E-03    3.50       1.3  T
   4   -111.8172135 -0.509774E-05  0.159E-03    3.50       7.2  T
   5   -111.8172135 -0.565018E-07  0.905E-04    3.50      12.7  T
   6   -111.8172135 -0.117533E-07  0.420E-04    3.50      27.3  T
     SCC iter.                  ...        0 min,  0.086 sec
     gradient                   ...        0 min,  0.015 sec
 * total energy  :  -110.2849568 Eh     change       -0.1634964E-03 Eh
   gradient norm :     0.0048597 Eh/α   predicted    -0.1272219E-03 ( -22.19%)
   displ. norm   :     0.5830570 α      lambda       -0.2199236E-03
   maximum displ.:     0.3901252 α      in ANC's #1, #5, #3, ...

........................................................................
.............................. CYCLE   60 ..............................
........................................................................

 iter      E             dE          RMSdq      gap      omega  full diag
   1   -111.8181678 -0.111818E+03  0.460E-02    3.49       0.0  T
   2   -111.8181703 -0.242709E-05  0.274E-02    3.49       1.0  T
   3   -111.8181653  0.494583E-05  0.952E-03    3.49       1.2  T
   4   -111.8181714 -0.610716E-05  0.176E-03    3.49       6.5  T
   5   -111.8181715 -0.771388E-07  0.952E-04    3.49      12.0  T
   6   -111.8181715 -0.121042E-07  0.474E-04    3.49      24.2  T
     SCC iter.                  ...        0 min,  0.089 sec
     gradient                   ...        0 min,  0.015 sec
 * total energy  :  -110.2851408 Eh     change       -0.1840457E-03 Eh
   gradient norm :     0.0047047 Eh/α   predicted    -0.1473495E-03 ( -19.94%)
   displ. norm   :     0.6364383 α      lambda       -0.2306481E-03
   maximum displ.:     0.4224500 α      in ANC's #1, #5, #3, ...

........................................................................
.............................. CYCLE   61 ..............................
........................................................................

 iter      E             dE          RMSdq      gap      omega  full diag
   1   -111.8176520 -0.111818E+03  0.498E-02    3.48       0.0  T
   2   -111.8176543 -0.229877E-05  0.295E-02    3.48       1.0  T
   3   -111.8176496  0.472595E-05  0.909E-03    3.48       1.3  T
   4   -111.8176554 -0.579767E-05  0.177E-03    3.48       6.5  T
   5   -111.8176555 -0.733782E-07  0.956E-04    3.48      12.0  T
   6   -111.8176555 -0.103983E-07  0.461E-04    3.48      24.9  T
     SCC iter.                  ...        0 min,  0.081 sec
     gradient                   ...        0 min,  0.023 sec
 * total energy  :  -110.2853358 Eh     change       -0.1950079E-03 Eh
   gradient norm :     0.0052834 Eh/α   predicted    -0.1620373E-03 ( -16.91%)
   displ. norm   :     0.5769797 α      lambda       -0.2760510E-03
   maximum displ.:     0.3538126 α      in ANC's #1, #5, #3, ...

........................................................................
.............................. CYCLE   62 ..............................
........................................................................

 iter      E             dE          RMSdq      gap      omega  full diag
   1   -111.8234382 -0.111823E+03  0.436E-02    3.48       0.0  T
   2   -111.8234407 -0.249164E-05  0.257E-02    3.48       1.0  T
   3   -111.8234379  0.275468E-05  0.722E-03    3.48       1.6  T
   4   -111.8234413 -0.338257E-05  0.200E-03    3.48       5.7  T
   5   -111.8234414 -0.169240E-06  0.836E-04    3.48      13.7  T
   6   -111.8234415 -0.554047E-08  0.392E-04    3.48      29.2  T
     SCC iter.                  ...        0 min,  0.089 sec
     gradient                   ...        0 min,  0.015 sec
 * total energy  :  -110.2855080 Eh     change       -0.1721978E-03 Eh
   gradient norm :     0.0067329 Eh/α   predicted    -0.1839786E-03 (   6.84%)
   displ. norm   :     0.7144218 α      lambda       -0.2904103E-03
   maximum displ.:     0.4620093 α      in ANC's #1, #5, #3, ...

........................................................................
.............................. CYCLE   63 ..............................
........................................................................

 iter      E             dE          RMSdq      gap      omega  full diag
   1   -111.8168741 -0.111817E+03  0.592E-02    3.47       0.0  T
   2   -111.8168770 -0.292479E-05  0.351E-02    3.47       1.0  T
   3   -111.8168731  0.394549E-05  0.836E-03    3.47       1.4  T
   4   -111.8168782 -0.514922E-05  0.201E-03    3.47       5.7  T
   5   -111.8168783 -0.679646E-07  0.112E-03    3.47      10.3  T
   6   -111.8168783 -0.142629E-07  0.515E-04    3.47      22.3  T
   7   -111.8168783 -0.904036E-08  0.187E-04    3.47      61.3  T
     SCC iter.                  ...        0 min,  0.104 sec
     gradient                   ...        0 min,  0.008 sec
 * total energy  :  -110.2856728 Eh     change       -0.1647767E-03 Eh
   gradient norm :     0.0103133 Eh/α   predicted    -0.2193206E-03 (  33.10%)
   displ. norm   :     0.3119925 α      lambda       -0.2234149E-03
   maximum displ.:     0.1873367 α      in ANC's #1, #5, #3, ...

........................................................................
.............................. CYCLE   64 ..............................
........................................................................

 iter      E             dE          RMSdq      gap      omega  full diag
   1   -111.8147782 -0.111815E+03  0.272E-02    3.47       0.0  T
   2   -111.8147792 -0.104679E-05  0.160E-02    3.47       1.0  T
   3   -111.8147788  0.376051E-06  0.333E-03    3.47       3.4  T
   4   -111.8147794 -0.585359E-06  0.112E-03    3.47      10.2  T
   5   -111.8147795 -0.444261E-07  0.507E-04    3.47      22.6  T
   6   -111.8147795 -0.190472E-08  0.222E-04    3.47      51.6  T
     SCC iter.                  ...        0 min,  0.089 sec
     gradient                   ...        0 min,  0.014 sec
 * total energy  :  -110.2858124 Eh     change       -0.1396462E-03 Eh
   gradient norm :     0.0089800 Eh/α   predicted    -0.1225855E-03 ( -12.22%)
   displ. norm   :     0.3716040 α      lambda       -0.3477281E-03
   maximum displ.:     0.1741927 α      in ANC's #1, #3, #5, ...

........................................................................
.............................. CYCLE   65 ..............................
........................................................................

 iter      E             dE          RMSdq      gap      omega  full diag
   1   -111.8214737 -0.111821E+03  0.307E-02    3.47       0.0  T
   2   -111.8214780 -0.437391E-05  0.180E-02    3.47       1.0  T
   3   -111.8214769  0.111556E-05  0.737E-03    3.47       1.6  T
   4   -111.8214787 -0.174783E-05  0.224E-03    3.47       5.1  T
   5   -111.8214789 -0.269457E-06  0.844E-04    3.47      13.6  T
   6   -111.8214789 -0.941309E-08  0.449E-04    3.47      25.6  T
     SCC iter.                  ...        0 min,  0.090 sec
     gradient                   ...        0 min,  0.016 sec
 * total energy  :  -110.2860354 Eh     change       -0.2229245E-03 Eh
   gradient norm :     0.0057033 Eh/α   predicted    -0.1978761E-03 ( -11.24%)
   displ. norm   :     0.6872060 α      lambda       -0.2730643E-03
   maximum displ.:     0.3980232 α      in ANC's #1, #5, #3, ...

........................................................................
.............................. CYCLE   66 ..............................
........................................................................

 iter      E             dE          RMSdq      gap      omega  full diag
   1   -111.8195843 -0.111820E+03  0.496E-02    3.47       0.0  T
   2   -111.8195866 -0.226379E-05  0.295E-02    3.47       1.0  T
   3   -111.8195787  0.786923E-05  0.110E-02    3.47       1.0  T
   4   -111.8195880 -0.930029E-05  0.181E-03    3.47       6.3  T
   5   -111.8195881 -0.726257E-07  0.947E-04    3.47      12.1  T
   6   -111.8195881 -0.984654E-08  0.407E-04    3.47      28.2  T
     SCC iter.                  ...        0 min,  0.086 sec
     gradient                   ...        0 min,  0.014 sec
 * total energy  :  -110.2862288 Eh     change       -0.1934594E-03 Eh
   gradient norm :     0.0088052 Eh/α   predicted    -0.2010104E-03 (   3.90%)
   displ. norm   :     0.6319415 α      lambda       -0.3207963E-03
   maximum displ.:     0.3410703 α      in ANC's #1, #5, #3, ...
 * RMSD in coord.:     1.0551530 α      energy gain  -0.4635512E-02 Eh

generating ANC from exact Hessian ...
Using Lindh-Hessian (1995)
 Shifting diagonal of input Hessian by   1.016385794942472E-002
 Lowest  eigenvalues of input Hessian
    0.010000    0.000000    0.000000    0.000000    0.000000    0.000000
    0.000000    0.010184    0.010250    0.010320    0.010444    0.010515
    0.010540    0.010591    0.010735    0.010914    0.011010    0.011114
 Highest eigenvalues
    2.003608    2.075476    2.078316    2.204885    2.314585    2.345449
 

........................................................................
.............................. CYCLE   67 ..............................
........................................................................

 iter      E             dE          RMSdq      gap      omega  full diag
   1   -111.8165293 -0.111817E+03  0.496E-02    3.47       0.0  T
   2   -111.8165327 -0.336198E-05  0.298E-02    3.47       1.0  T
   3   -111.8165282  0.450549E-05  0.903E-03    3.47       1.3  T
   4   -111.8165343 -0.611994E-05  0.237E-03    3.47       4.8  T
   5   -111.8165344 -0.107951E-06  0.133E-03    3.47       8.6  T
   6   -111.8165344 -0.152233E-07  0.548E-04    3.47      20.9  T
   7   -111.8165344 -0.111661E-07  0.172E-04    3.47      66.5  T
     SCC iter.                  ...        0 min,  0.086 sec
     gradient                   ...        0 min,  0.013 sec
 * total energy  :  -110.2863637 Eh     change       -0.1348480E-03 Eh
   gradient norm :     0.0136148 Eh/α   predicted     0.0000000E+00 (-100.00%)
   displ. norm   :     0.0741485 α      lambda       -0.2498256E-03
   maximum displ.:     0.0285446 α      in ANC's #17, #11, #25, ...

........................................................................
.............................. CYCLE   68 ..............................
........................................................................

 iter      E             dE          RMSdq      gap      omega  full diag
   1   -111.8206521 -0.111821E+03  0.189E-02    3.47       0.0  T
   2   -111.8206533 -0.113470E-05  0.111E-02    3.47       1.0  T
   3   -111.8206531  0.214961E-06  0.341E-03    3.47       3.4  T
   4   -111.8206534 -0.368574E-06  0.103E-03    3.47      11.1  T
   5   -111.8206535 -0.475632E-07  0.485E-04    3.47      23.6  T
   6   -111.8206535 -0.451210E-08  0.223E-04    3.47      51.4  T
     SCC iter.                  ...        0 min,  0.077 sec
     gradient                   ...        0 min,  0.010 sec
 * total energy  :  -110.2865515 Eh     change       -0.1878380E-03 Eh
   gradient norm :     0.0040286 Eh/α   predicted    -0.1344004E-03 ( -28.45%)
   displ. norm   :     0.1228889 α      lambda       -0.1419763E-03
   maximum displ.:     0.0462281 α      in ANC's #11, #25, #17, ...

........................................................................
.............................. CYCLE   69 ..............................
........................................................................

 iter      E             dE          RMSdq      gap      omega  full diag
   1   -111.8226509 -0.111823E+03  0.237E-02    3.47       0.0  T
   2   -111.8226515 -0.661402E-06  0.142E-02    3.47       1.0  T
   3   -111.8226511  0.467675E-06  0.326E-03    3.47       3.5  T
   4   -111.8226517 -0.622806E-06  0.954E-04    3.47      12.0  T
   5   -111.8226517 -0.387266E-07  0.445E-04    3.47      25.8  T
     SCC iter.                  ...        0 min,  0.067 sec
     gradient                   ...        0 min,  0.010 sec
 * total energy  :  -110.2866523 Eh     change       -0.1007326E-03 Eh
   gradient norm :     0.0038762 Eh/α   predicted    -0.7206227E-04 ( -28.46%)
   displ. norm   :     0.1911057 α      lambda       -0.1283370E-03
   maximum displ.:     0.0767525 α      in ANC's #11, #25, #20, ...

........................................................................
.............................. CYCLE   70 ..............................
........................................................................

 iter      E             dE          RMSdq      gap      omega  full diag
   1   -111.8227800 -0.111823E+03  0.352E-02    3.46       0.0  T
   2   -111.8227809 -0.846562E-06  0.213E-02    3.46       1.0  T
   3   -111.8227807  0.187871E-06  0.318E-03    3.46       3.6  T
   4   -111.8227812 -0.532283E-06  0.112E-03    3.46      10.2  T
   5   -111.8227813 -0.208871E-07  0.611E-04    3.46      18.8  T
   6   -111.8227813 -0.317466E-08  0.177E-04    3.46      64.9  T
     SCC iter.                  ...        0 min,  0.064 sec
     gradient                   ...        0 min,  0.027 sec
 * total energy  :  -110.2867568 Eh     change       -0.1045844E-03 Eh
   gradient norm :     0.0069880 Eh/α   predicted    -0.6654717E-04 ( -36.37%)
   displ. norm   :     0.4101069 α      lambda       -0.2467037E-03
   maximum displ.:     0.1732820 α      in ANC's #25, #11, #20, ...

........................................................................
.............................. CYCLE   71 ..............................
........................................................................

 iter      E             dE          RMSdq      gap      omega  full diag
   1   -111.8196346 -0.111820E+03  0.734E-02    3.44       0.0  T
   2   -111.8196387 -0.406929E-05  0.443E-02    3.44       1.0  T
   3   -111.8196375  0.113903E-05  0.701E-03    3.44       1.6  T
   4   -111.8196405 -0.291936E-05  0.265E-03    3.44       4.3  T
   5   -111.8196406 -0.120432E-06  0.147E-03    3.44       7.8  T
   6   -111.8196406 -0.181592E-07  0.496E-04    3.44      23.1  T
   7   -111.8196406 -0.980792E-08  0.195E-04    3.44      58.8  T
     SCC iter.                  ...        0 min,  0.097 sec
     gradient                   ...        0 min,  0.018 sec
 * total energy  :  -110.2868847 Eh     change       -0.1278753E-03 Eh
   gradient norm :     0.0114481 Eh/α   predicted    -0.1441024E-03 (  12.69%)
   displ. norm   :     0.1144436 α      lambda       -0.1782961E-03
   maximum displ.:     0.0600957 α      in ANC's #25, #8, #5, ...

........................................................................
.............................. CYCLE   72 ..............................
........................................................................

 iter      E             dE          RMSdq      gap      omega  full diag
   1   -111.8207499 -0.111821E+03  0.185E-02    3.44       0.0  T
   2   -111.8207505 -0.575216E-06  0.108E-02    3.44       1.1  T
   3   -111.8207503  0.195928E-06  0.235E-03    3.44       4.9  T
   4   -111.8207506 -0.325060E-06  0.804E-04    3.44      14.3  T
   5   -111.8207506 -0.221506E-07  0.366E-04    3.44      31.3  T
     SCC iter.                  ...        0 min,  0.081 sec
     gradient                   ...        0 min,  0.021 sec
 * total energy  :  -110.2870036 Eh     change       -0.1188485E-03 Eh
   gradient norm :     0.0052302 Eh/α   predicted    -0.9031703E-04 ( -24.01%)
   displ. norm   :     0.3010393 α      lambda       -0.1853321E-03
   maximum displ.:     0.1519258 α      in ANC's #25, #8, #5, ...

........................................................................
.............................. CYCLE   73 ..............................
........................................................................

 iter      E             dE          RMSdq      gap      omega  full diag
   1   -111.8193089 -0.111819E+03  0.470E-02    3.43       0.0  T
   2   -111.8193111 -0.217550E-05  0.282E-02    3.43       1.0  T
   3   -111.8193103  0.781345E-06  0.508E-03    3.43       2.3  T
   4   -111.8193118 -0.146403E-05  0.181E-03    3.43       6.3  T
   5   -111.8193119 -0.815251E-07  0.945E-04    3.43      12.1  T
   6   -111.8193119 -0.115608E-07  0.392E-04    3.43      29.2  T
     SCC iter.                  ...        0 min,  0.096 sec
     gradient                   ...        0 min,  0.015 sec
 * total energy  :  -110.2871388 Eh     change       -0.1352250E-03 Eh
   gradient norm :     0.0062709 Eh/α   predicted    -0.1010643E-03 ( -25.26%)
   displ. norm   :     0.4264783 α      lambda       -0.3110505E-03
   maximum displ.:     0.2039571 α      in ANC's #25, #8, #5, ...

........................................................................
.............................. CYCLE   74 ..............................
........................................................................

 iter      E             dE          RMSdq      gap      omega  full diag
   1   -111.8191355 -0.111819E+03  0.606E-02    3.43       0.0  T
   2   -111.8191408 -0.528450E-05  0.360E-02    3.43       1.0  T
   3   -111.8191332  0.764672E-05  0.116E-02    3.43       1.0  T
   4   -111.8191429 -0.968869E-05  0.261E-03    3.43       4.4  T
   5   -111.8191431 -0.240743E-06  0.137E-03    3.43       8.4  T
   6   -111.8191431 -0.213304E-07  0.671E-04    3.43      17.1  T
   7   -111.8191431 -0.112854E-07  0.215E-04    3.43      53.3  T
     SCC iter.                  ...        0 min,  0.114 sec
     gradient                   ...        0 min,  0.014 sec
 * total energy  :  -110.2872985 Eh     change       -0.1597454E-03 Eh
   gradient norm :     0.0117556 Eh/α   predicted    -0.1838150E-03 (  15.07%)
   displ. norm   :     0.3128914 α      lambda       -0.3505906E-03
   maximum displ.:     0.1288568 α      in ANC's #8, #25, #5, ...

........................................................................
.............................. CYCLE   75 ..............................
........................................................................

 iter      E             dE          RMSdq      gap      omega  full diag
   1   -111.8213342 -0.111821E+03  0.465E-02    3.42       0.0  T
   2   -111.8213389 -0.462686E-05  0.274E-02    3.42       1.0  T
   3   -111.8213374  0.149739E-05  0.724E-03    3.42       1.6  T
   4   -111.8213397 -0.236899E-05  0.253E-03    3.42       4.5  T
   5   -111.8213400 -0.252678E-06  0.116E-03    3.42       9.9  T
   6   -111.8213400 -0.202454E-07  0.517E-04    3.42      22.2  T
   7   -111.8213400 -0.513393E-08  0.221E-04    3.42      52.0  T
     SCC iter.                  ...        0 min,  0.107 sec
     gradient                   ...        0 min,  0.015 sec
 * total energy  :  -110.2874678 Eh     change       -0.1692535E-03 Eh
   gradient norm :     0.0094696 Eh/α   predicted    -0.1924616E-03 (  13.71%)
   displ. norm   :     0.5080073 α      lambda       -0.3256636E-03
   maximum displ.:     0.2580017 α      in ANC's #25, #8, #5, ...

........................................................................
.............................. CYCLE   76 ..............................
........................................................................

 iter      E             dE          RMSdq      gap      omega  full diag
   1   -111.8131239 -0.111813E+03  0.766E-02    3.41       0.0  T
   2   -111.8131343 -0.104131E-04  0.452E-02    3.41       1.0  T
   3   -111.8131316  0.269708E-05  0.964E-03    3.41       1.2  T
   4   -111.8131358 -0.411404E-05  0.342E-03    3.41       3.4  T
   5   -111.8131364 -0.607528E-06  0.162E-03    3.41       7.1  T
   6   -111.8131364 -0.541554E-08  0.760E-04    3.41      15.1  T
   7   -111.8131364 -0.213799E-07  0.192E-04    3.41      59.6  T
     SCC iter.                  ...        0 min,  0.102 sec
     gradient                   ...        0 min,  0.020 sec
 * total energy  :  -110.2874544 Eh     change        0.1340378E-04 Eh
   gradient norm :     0.0193685 Eh/α   predicted    -0.2048592E-03 (*******%)
   displ. norm   :     0.1479796 α      lambda       -0.6453071E-03
   maximum displ.:     0.0809942 α      in ANC's #17, #11, #18, ...

........................................................................
.............................. CYCLE   77 ..............................
........................................................................

 iter      E             dE          RMSdq      gap      omega  full diag
   1   -111.8220381 -0.111822E+03  0.412E-02    3.43       0.0  T
   2   -111.8220452 -0.706941E-05  0.244E-02    3.43       1.0  T
   3   -111.8220438  0.144118E-05  0.870E-03    3.43       1.3  T
   4   -111.8220462 -0.243904E-05  0.316E-03    3.43       3.6  T
   5   -111.8220467 -0.481134E-06  0.126E-03    3.43       9.1  T
   6   -111.8220467 -0.262245E-07  0.571E-04    3.43      20.1  T
   7   -111.8220467 -0.798896E-08  0.256E-04    3.43      44.7  T
     SCC iter.                  ...        0 min,  0.105 sec
     gradient                   ...        0 min,  0.016 sec
 * total energy  :  -110.2877494 Eh     change       -0.2950090E-03 Eh
   gradient norm :     0.0086858 Eh/α   predicted    -0.3297213E-03 (  11.77%)
   displ. norm   :     0.2388959 α      lambda       -0.2543092E-03
   maximum displ.:     0.0993059 α      in ANC's #8, #1, #5, ...

........................................................................
.............................. CYCLE   78 ..............................
........................................................................

 iter      E             dE          RMSdq      gap      omega  full diag
   1   -111.8224157 -0.111822E+03  0.381E-02    3.42       0.0  T
   2   -111.8224190 -0.334221E-05  0.229E-02    3.42       1.0  T
   3   -111.8224176  0.141410E-05  0.661E-03    3.42       1.7  T
   4   -111.8224199 -0.225747E-05  0.200E-03    3.42       5.7  T
   5   -111.8224200 -0.130127E-06  0.958E-04    3.42      12.0  T
   6   -111.8224200 -0.102168E-07  0.418E-04    3.42      27.4  T
     SCC iter.                  ...        0 min,  0.092 sec
     gradient                   ...        0 min,  0.007 sec
 * total energy  :  -110.2878685 Eh     change       -0.1190730E-03 Eh
   gradient norm :     0.0076794 Eh/α   predicted    -0.1344116E-03 (  12.88%)
   displ. norm   :     0.4581786 α      lambda       -0.3723264E-03
   maximum displ.:     0.1985908 α      in ANC's #25, #8, #7, ...

........................................................................
.............................. CYCLE   79 ..............................
........................................................................

 iter      E             dE          RMSdq      gap      omega  full diag
   1   -111.8214492 -0.111821E+03  0.571E-02    3.40       0.0  T
   2   -111.8214530 -0.383459E-05  0.340E-02    3.41       1.0  T
   3   -111.8214478  0.519505E-05  0.999E-03    3.41       1.1  T
   4   -111.8214546 -0.681420E-05  0.250E-03    3.41       4.6  T
   5   -111.8214548 -0.143215E-06  0.131E-03    3.41       8.8  T
   6   -111.8214548 -0.184586E-07  0.581E-04    3.41      19.7  T
   7   -111.8214548 -0.951361E-08  0.239E-04    3.41      47.9  T
     SCC iter.                  ...        0 min,  0.102 sec
     gradient                   ...        0 min,  0.015 sec
 * total energy  :  -110.2880751 Eh     change       -0.2065889E-03 Eh
   gradient norm :     0.0091401 Eh/α   predicted    -0.2252448E-03 (   9.03%)
   displ. norm   :     0.5111894 α      lambda       -0.3077951E-03
   maximum displ.:     0.2191946 α      in ANC's #25, #8, #1, ...

........................................................................
.............................. CYCLE   80 ..............................
........................................................................

 iter      E             dE          RMSdq      gap      omega  full diag
   1   -111.8159589 -0.111816E+03  0.638E-02    3.40       0.0  T
   2   -111.8159671 -0.819469E-05  0.375E-02    3.41       1.0  T
   3   -111.8159631  0.394733E-05  0.997E-03    3.41       1.2  T
   4   -111.8159683 -0.517759E-05  0.304E-03    3.41       3.8  T
   5   -111.8159689 -0.540598E-06  0.129E-03    3.41       8.9  T
   6   -111.8159689 -0.337970E-08  0.682E-04    3.41      16.8  T
   7   -111.8159689 -0.152853E-07  0.209E-04    3.41      54.9  T
     SCC iter.                  ...        0 min,  0.108 sec
     gradient                   ...        0 min,  0.015 sec
 * total energy  :  -110.2882147 Eh     change       -0.1396085E-03 Eh
   gradient norm :     0.0118210 Eh/α   predicted    -0.1941141E-03 (  39.04%)
   displ. norm   :     0.1354433 α      lambda       -0.2890098E-03
   maximum displ.:     0.0573243 α      in ANC's #7, #1, #23, ...

........................................................................
.............................. CYCLE   81 ..............................
........................................................................

 iter      E             dE          RMSdq      gap      omega  full diag
   1   -111.8212794 -0.111821E+03  0.276E-02    3.41       0.0  T
   2   -111.8212844 -0.492793E-05  0.158E-02    3.41       1.0  T
   3   -111.8212841  0.290995E-06  0.633E-03    3.41       1.8  T
   4   -111.8212848 -0.733073E-06  0.197E-03    3.41       5.8  T
   5   -111.8212850 -0.197849E-06  0.778E-04    3.41      14.7  T
   6   -111.8212850 -0.858630E-08  0.394E-04    3.41      29.1  T
     SCC iter.                  ...        0 min,  0.094 sec
     gradient                   ...        0 min,  0.017 sec
 * total energy  :  -110.2883460 Eh     change       -0.1312973E-03 Eh
   gradient norm :     0.0079986 Eh/α   predicted    -0.1471586E-03 (  12.08%)
   displ. norm   :     0.3366245 α      lambda       -0.2299669E-03
   maximum displ.:     0.1489674 α      in ANC's #8, #1, #25, ...

........................................................................
.............................. CYCLE   82 ..............................
........................................................................

 iter      E             dE          RMSdq      gap      omega  full diag
   1   -111.8222405 -0.111822E+03  0.365E-02    3.40       0.0  T
   2   -111.8222420 -0.150735E-05  0.216E-02    3.41       1.0  T
   3   -111.8222414  0.634142E-06  0.410E-03    3.41       2.8  T
   4   -111.8222424 -0.101081E-05  0.127E-03    3.41       9.0  T
   5   -111.8222425 -0.522517E-07  0.680E-04    3.41      16.9  T
   6   -111.8222425 -0.518629E-08  0.258E-04    3.41      44.4  T
     SCC iter.                  ...        0 min,  0.093 sec
     gradient                   ...        0 min,  0.011 sec
 * total energy  :  -110.2885172 Eh     change       -0.1711945E-03 Eh
   gradient norm :     0.0041408 Eh/α   predicted    -0.1280156E-03 ( -25.22%)
   displ. norm   :     0.6034230 α      lambda       -0.2595740E-03
   maximum displ.:     0.2578718 α      in ANC's #8, #1, #25, ...

........................................................................
.............................. CYCLE   83 ..............................
........................................................................

 iter      E             dE          RMSdq      gap      omega  full diag
   1   -111.8188129 -0.111819E+03  0.670E-02    3.39       0.0  T
   2   -111.8188173 -0.447227E-05  0.396E-02    3.40       1.0  T
   3   -111.8188159  0.143842E-05  0.665E-03    3.40       1.7  T
   4   -111.8188185 -0.257627E-05  0.226E-03    3.40       5.1  T
   5   -111.8188187 -0.172402E-06  0.124E-03    3.40       9.3  T
   6   -111.8188187 -0.146423E-07  0.475E-04    3.40      24.1  T
   7   -111.8188187 -0.640590E-08  0.209E-04    3.40      54.8  T
     SCC iter.                  ...        0 min,  0.106 sec
     gradient                   ...        0 min,  0.014 sec
 * total energy  :  -110.2886786 Eh     change       -0.1614392E-03 Eh
   gradient norm :     0.0070458 Eh/α   predicted    -0.1770465E-03 (   9.67%)
   displ. norm   :     0.3142840 α      lambda       -0.1841687E-03
   maximum displ.:     0.1281740 α      in ANC's #8, #1, #7, ...

........................................................................
.............................. CYCLE   84 ..............................
........................................................................

 iter      E             dE          RMSdq      gap      omega  full diag
   1   -111.8214460 -0.111821E+03  0.342E-02    3.39       0.0  T
   2   -111.8214482 -0.222561E-05  0.200E-02    3.39       1.0  T
   3   -111.8214470  0.125428E-05  0.576E-03    3.40       2.0  T
   4   -111.8214486 -0.167001E-05  0.153E-03    3.40       7.5  T
   5   -111.8214488 -0.127870E-06  0.657E-04    3.40      17.4  T
   6   -111.8214488 -0.354817E-08  0.326E-04    3.40      35.2  T
     SCC iter.                  ...        0 min,  0.089 sec
     gradient                   ...        0 min,  0.014 sec
 * total energy  :  -110.2888229 Eh     change       -0.1443486E-03 Eh
   gradient norm :     0.0057582 Eh/α   predicted    -0.1011848E-03 ( -29.90%)
   displ. norm   :     0.3902730 α      lambda       -0.2539394E-03
   maximum displ.:     0.1516442 α      in ANC's #1, #8, #7, ...

........................................................................
.............................. CYCLE   85 ..............................
........................................................................

 iter      E             dE          RMSdq      gap      omega  full diag
   1   -111.8246913 -0.111825E+03  0.477E-02    3.39       0.0  T
   2   -111.8246960 -0.469393E-05  0.279E-02    3.39       1.0  T
   3   -111.8246929  0.311330E-05  0.898E-03    3.39       1.3  T
   4   -111.8246971 -0.413727E-05  0.243E-03    3.39       4.7  T
   5   -111.8246973 -0.294732E-06  0.104E-03    3.39      11.0  T
   6   -111.8246974 -0.811306E-08  0.509E-04    3.39      22.6  T
   7   -111.8246974 -0.635231E-08  0.169E-04    3.39      68.0  T
     SCC iter.                  ...        0 min,  0.097 sec
     gradient                   ...        0 min,  0.019 sec
 * total energy  :  -110.2889962 Eh     change       -0.1732907E-03 Eh
   gradient norm :     0.0044463 Eh/α   predicted    -0.1463108E-03 ( -15.57%)
   displ. norm   :     0.6388923 α      lambda       -0.2918365E-03
   maximum displ.:     0.2492803 α      in ANC's #1, #25, #8, ...

........................................................................
.............................. CYCLE   86 ..............................
........................................................................

 iter      E             dE          RMSdq      gap      omega  full diag
   1   -111.8197599 -0.111820E+03  0.787E-02    3.38       0.0  T
   2   -111.8197745 -0.146253E-04  0.461E-02    3.38       1.0  T
   3   -111.8197693  0.515437E-05  0.129E-02    3.38       1.0  T
   4   -111.8197765 -0.718699E-05  0.356E-03    3.38       3.2  T
   5   -111.8197773 -0.749225E-06  0.149E-03    3.38       7.7  T
   6   -111.8197773 -0.361284E-08  0.779E-04    3.38      14.7  T
   7   -111.8197773 -0.209568E-07  0.234E-04    3.38      49.0  T
     SCC iter.                  ...        0 min,  0.103 sec
     gradient                   ...        0 min,  0.009 sec
 * total energy  :  -110.2891095 Eh     change       -0.1132820E-03 Eh
   gradient norm :     0.0109806 Eh/α   predicted    -0.2054839E-03 (  81.39%)
   displ. norm   :     0.1939864 α      lambda       -0.2852982E-03
   maximum displ.:     0.0780256 α      in ANC's #21, #14, #6, ...

........................................................................
.............................. CYCLE   87 ..............................
........................................................................

 iter      E             dE          RMSdq      gap      omega  full diag
   1   -111.8248756 -0.111825E+03  0.302E-02    3.38       0.0  T
   2   -111.8248788 -0.316598E-05  0.178E-02    3.38       1.0  T
   3   -111.8248777  0.114838E-05  0.673E-03    3.38       1.7  T
   4   -111.8248794 -0.178767E-05  0.157E-03    3.38       7.3  T
   5   -111.8248796 -0.115809E-06  0.712E-04    3.38      16.1  T
   6   -111.8248796 -0.775748E-08  0.353E-04    3.38      32.5  T
     SCC iter.                  ...        0 min,  0.084 sec
     gradient                   ...        0 min,  0.015 sec
 * total energy  :  -110.2892865 Eh     change       -0.1769991E-03 Eh
   gradient norm :     0.0063442 Eh/α   predicted    -0.1480182E-03 ( -16.37%)
   displ. norm   :     0.3565628 α      lambda       -0.2823690E-03
   maximum displ.:     0.1404573 α      in ANC's #25, #1, #6, ...

........................................................................
.............................. CYCLE   88 ..............................
........................................................................

 iter      E             dE          RMSdq      gap      omega  full diag
   1   -111.8232726 -0.111823E+03  0.555E-02    3.36       0.0  T
   2   -111.8232765 -0.388485E-05  0.330E-02    3.37       1.0  T
   3   -111.8232725  0.397889E-05  0.894E-03    3.36       1.3  T
   4   -111.8232777 -0.525180E-05  0.222E-03    3.37       5.2  T
   5   -111.8232779 -0.157360E-06  0.116E-03    3.37       9.9  T
   6   -111.8232779 -0.130357E-07  0.518E-04    3.37      22.1  T
   7   -111.8232779 -0.850554E-08  0.203E-04    3.37      56.4  T
     SCC iter.                  ...        0 min,  0.102 sec
     gradient                   ...        0 min,  0.014 sec
 * total energy  :  -110.2894289 Eh     change       -0.1424018E-03 Eh
   gradient norm :     0.0066795 Eh/α   predicted    -0.1591368E-03 (  11.75%)
   displ. norm   :     0.2976557 α      lambda       -0.1922559E-03
   maximum displ.:     0.1200396 α      in ANC's #25, #1, #14, ...

........................................................................
.............................. CYCLE   89 ..............................
........................................................................

 iter      E             dE          RMSdq      gap      omega  full diag
   1   -111.8223814 -0.111822E+03  0.388E-02    3.36       0.0  T
   2   -111.8223832 -0.185740E-05  0.228E-02    3.36       1.0  T
   3   -111.8223819  0.131763E-05  0.557E-03    3.36       2.1  T
   4   -111.8223837 -0.180607E-05  0.123E-03    3.36       9.3  T
   5   -111.8223838 -0.439981E-07  0.621E-04    3.36      18.5  T
   6   -111.8223838 -0.397094E-08  0.277E-04    3.36      41.4  T
     SCC iter.                  ...        0 min,  0.093 sec
     gradient                   ...        0 min,  0.015 sec
 * total energy  :  -110.2895609 Eh     change       -0.1320182E-03 Eh
   gradient norm :     0.0058055 Eh/α   predicted    -0.1046501E-03 ( -20.73%)
   displ. norm   :     0.2654660 α      lambda       -0.2020216E-03
   maximum displ.:     0.0969344 α      in ANC's #25, #14, #21, ...

........................................................................
.............................. CYCLE   90 ..............................
........................................................................

 iter      E             dE          RMSdq      gap      omega  full diag
   1   -111.8235026 -0.111824E+03  0.411E-02    3.36       0.0  T
   2   -111.8235153 -0.126805E-04  0.235E-02    3.36       1.0  T
   3   -111.8235150  0.225836E-06  0.984E-03    3.36       1.2  T
   4   -111.8235162 -0.120031E-05  0.228E-03    3.36       5.0  T
   5   -111.8235166 -0.366576E-06  0.713E-04    3.36      16.1  T
   6   -111.8235166 -0.766518E-08  0.297E-04    3.36      38.6  T
     SCC iter.                  ...        0 min,  0.089 sec
     gradient                   ...        0 min,  0.015 sec
 * total energy  :  -110.2896617 Eh     change       -0.1007406E-03 Eh
   gradient norm :     0.0092180 Eh/α   predicted    -0.1081320E-03 (   7.34%)
   displ. norm   :     0.1942762 α      lambda       -0.1816557E-03
   maximum displ.:     0.0949855 α      in ANC's #7, #21, #14, ...

........................................................................
.............................. CYCLE   91 ..............................
........................................................................

 iter      E             dE          RMSdq      gap      omega  full diag
   1   -111.8251031 -0.111825E+03  0.288E-02    3.37       0.0  T
   2   -111.8251129 -0.981641E-05  0.173E-02    3.37       1.0  T
   3   -111.8251132 -0.288563E-06  0.803E-03    3.37       1.4  T
   4   -111.8251139 -0.666988E-06  0.195E-03    3.37       5.9  T
   5   -111.8251141 -0.238731E-06  0.774E-04    3.37      14.8  T
   6   -111.8251141 -0.148105E-07  0.372E-04    3.37      30.8  T
     SCC iter.                  ...        0 min,  0.088 sec
     gradient                   ...        0 min,  0.015 sec
 * total energy  :  -110.2897186 Eh     change       -0.5690406E-04 Eh
   gradient norm :     0.0075136 Eh/α   predicted    -0.9425848E-04 (  65.64%)
   displ. norm   :     0.2694867 α      lambda       -0.1437061E-03
   maximum displ.:     0.1088540 α      in ANC's #25, #1, #2, ...

........................................................................
.............................. CYCLE   92 ..............................
........................................................................

 iter      E             dE          RMSdq      gap      omega  full diag
   1   -111.8208462 -0.111821E+03  0.386E-02    3.36       0.0  T
   2   -111.8208495 -0.334910E-05  0.229E-02    3.37       1.0  T
   3   -111.8208482  0.127857E-05  0.612E-03    3.37       1.9  T
   4   -111.8208501 -0.186767E-05  0.170E-03    3.37       6.8  T
   5   -111.8208502 -0.132068E-06  0.817E-04    3.37      14.0  T
   6   -111.8208502 -0.116492E-07  0.408E-04    3.37      28.1  T
     SCC iter.                  ...        0 min,  0.086 sec
     gradient                   ...        0 min,  0.008 sec
 * total energy  :  -110.2897674 Eh     change       -0.4882425E-04 Eh
   gradient norm :     0.0067660 Eh/α   predicted    -0.7707421E-04 (  57.86%)
   displ. norm   :     0.1984707 α      lambda       -0.2020786E-03
   maximum displ.:     0.1028146 α      in ANC's #7, #8, #25, ...
 * RMSD in coord.:     0.6860821 α      energy gain  -0.3538567E-02 Eh

generating ANC from exact Hessian ...
Using Lindh-Hessian (1995)
 Shifting diagonal of input Hessian by   1.013171130547699E-002
 Lowest  eigenvalues of input Hessian
    0.010000    0.010088    0.000000    0.000000    0.000000    0.000000
    0.000000    0.000000    0.010156    0.010255    0.010325    0.010501
    0.010503    0.010612    0.010705    0.010737    0.010799    0.010880
 Highest eigenvalues
    2.003553    2.076109    2.078377    2.207984    2.308672    2.351873
 

........................................................................
.............................. CYCLE   93 ..............................
........................................................................

 iter      E             dE          RMSdq      gap      omega  full diag
   1   -111.8234393 -0.111823E+03  0.290E-02    3.37       0.0  T
   2   -111.8234468 -0.749361E-05  0.170E-02    3.37       1.0  T
   3   -111.8234468  0.130313E-07  0.721E-03    3.37       1.6  T
   4   -111.8234474 -0.603504E-06  0.208E-03    3.37       5.5  T
   5   -111.8234477 -0.269926E-06  0.779E-04    3.37      14.7  T
   6   -111.8234477 -0.929033E-08  0.326E-04    3.37      35.1  T
     SCC iter.                  ...        0 min,  0.074 sec
     gradient                   ...        0 min,  0.011 sec
 * total energy  :  -110.2897948 Eh     change       -0.2739283E-04 Eh
   gradient norm :     0.0093917 Eh/α   predicted     0.0000000E+00 (-100.00%)
   displ. norm   :     0.0518391 α      lambda       -0.1474168E-03
   maximum displ.:     0.0164810 α      in ANC's #12, #18, #8, ...

........................................................................
.............................. CYCLE   94 ..............................
........................................................................

 iter      E             dE          RMSdq      gap      omega  full diag
   1   -111.8238412 -0.111824E+03  0.158E-02    3.37       0.0  T
   2   -111.8238422 -0.985098E-06  0.939E-03    3.37       1.2  T
   3   -111.8238421  0.114323E-06  0.282E-03    3.37       4.1  T
   4   -111.8238424 -0.278192E-06  0.740E-04    3.37      15.5  T
   5   -111.8238424 -0.125780E-07  0.401E-04    3.37      28.6  T
     SCC iter.                  ...        0 min,  0.058 sec
     gradient                   ...        0 min,  0.015 sec
 * total energy  :  -110.2898927 Eh     change       -0.9791290E-04 Eh
   gradient norm :     0.0019352 Eh/α   predicted    -0.7562031E-04 ( -22.77%)
   displ. norm   :     0.1074865 α      lambda       -0.4892424E-04
   maximum displ.:     0.0354508 α      in ANC's #18, #12, #8, ...

........................................................................
.............................. CYCLE   95 ..............................
........................................................................

 iter      E             dE          RMSdq      gap      omega  full diag
   1   -111.8235146 -0.111824E+03  0.203E-02    3.37       0.0  T
   2   -111.8235152 -0.629150E-06  0.121E-02    3.37       1.0  T
   3   -111.8235148  0.430091E-06  0.319E-03    3.37       3.6  T
   4   -111.8235154 -0.641932E-06  0.962E-04    3.37      11.9  T
   5   -111.8235155 -0.221940E-07  0.531E-04    3.37      21.6  T
     SCC iter.                  ...        0 min,  0.067 sec
     gradient                   ...        0 min,  0.008 sec
 * total energy  :  -110.2899357 Eh     change       -0.4297177E-04 Eh
   gradient norm :     0.0040122 Eh/α   predicted    -0.2458847E-04 ( -42.78%)
   displ. norm   :     0.0793177 α      lambda       -0.3556614E-04
   maximum displ.:     0.0308635 α      in ANC's #18, #8, #12, ...

........................................................................
.............................. CYCLE   96 ..............................
........................................................................

 iter      E             dE          RMSdq      gap      omega  full diag
   1   -111.8232906 -0.111823E+03  0.127E-02    3.37       0.0  T
   2   -111.8232907 -0.144204E-06  0.760E-03    3.37       1.5  T
   3   -111.8232906  0.104450E-06  0.155E-03    3.37       7.4  T
   4   -111.8232908 -0.174967E-06  0.513E-04    3.37      22.4  T
   5   -111.8232908 -0.371809E-08  0.300E-04    3.37      38.3  T
     SCC iter.                  ...        0 min,  0.061 sec
     gradient                   ...        0 min,  0.014 sec
 * total energy  :  -110.2899682 Eh     change       -0.3248120E-04 Eh
   gradient norm :     0.0041146 Eh/α   predicted    -0.1796056E-04 ( -44.70%)
   displ. norm   :     0.3340803 α      lambda       -0.1431804E-03
   maximum displ.:     0.1322532 α      in ANC's #18, #8, #12, ...

........................................................................
.............................. CYCLE   97 ..............................
........................................................................

 iter      E             dE          RMSdq      gap      omega  full diag
   1   -111.8217956 -0.111822E+03  0.518E-02    3.37       0.0  T
   2   -111.8217978 -0.224681E-05  0.308E-02    3.37       1.0  T
   3   -111.8217961  0.169717E-05  0.620E-03    3.37       1.9  T
   4   -111.8217988 -0.271428E-05  0.207E-03    3.37       5.5  T
   5   -111.8217989 -0.811261E-07  0.118E-03    3.37       9.7  T
   6   -111.8217989 -0.199519E-07  0.405E-04    3.37      28.3  T
   7   -111.8217989 -0.446325E-08  0.176E-04    3.37      65.2  T
     SCC iter.                  ...        0 min,  0.085 sec
     gradient                   ...        0 min,  0.020 sec
 * total energy  :  -110.2900577 Eh     change       -0.8955191E-04 Eh
   gradient norm :     0.0048679 Eh/α   predicted    -0.7958095E-04 ( -11.13%)
   displ. norm   :     0.1403449 α      lambda       -0.5295554E-04
   maximum displ.:     0.0547645 α      in ANC's #18, #8, #19, ...

........................................................................
.............................. CYCLE   98 ..............................
........................................................................

 iter      E             dE          RMSdq      gap      omega  full diag
   1   -111.8224894 -0.111822E+03  0.193E-02    3.37       0.0  T
   2   -111.8224897 -0.279724E-06  0.113E-02    3.37       1.0  T
   3   -111.8224896  0.148498E-06  0.183E-03    3.37       6.3  T
   4   -111.8224898 -0.252617E-06  0.622E-04    3.37      18.4  T
   5   -111.8224898 -0.767245E-08  0.352E-04    3.37      32.6  T
     SCC iter.                  ...        0 min,  0.062 sec
     gradient                   ...        0 min,  0.014 sec
 * total energy  :  -110.2900947 Eh     change       -0.3702030E-04 Eh
   gradient norm :     0.0021528 Eh/α   predicted    -0.2699941E-04 ( -27.07%)
   displ. norm   :     0.1675076 α      lambda       -0.3423167E-04
   maximum displ.:     0.0614648 α      in ANC's #18, #8, #4, ...

........................................................................
.............................. CYCLE   99 ..............................
........................................................................

 iter      E             dE          RMSdq      gap      omega  full diag
   1   -111.8229906 -0.111823E+03  0.236E-02    3.37       0.0  T
   2   -111.8229911 -0.428673E-06  0.140E-02    3.37       1.0  T
   3   -111.8229906  0.446005E-06  0.289E-03    3.37       4.0  T
   4   -111.8229913 -0.639243E-06  0.867E-04    3.37      13.2  T
   5   -111.8229913 -0.146604E-07  0.498E-04    3.37      23.0  T
     SCC iter.                  ...        0 min,  0.065 sec
     gradient                   ...        0 min,  0.014 sec
 * total energy  :  -110.2901196 Eh     change       -0.2488494E-04 Eh
   gradient norm :     0.0014334 Eh/α   predicted    -0.1759627E-04 ( -29.29%)
   displ. norm   :     0.1984440 α      lambda       -0.2509302E-04
   maximum displ.:     0.0769643 α      in ANC's #4, #8, #5, ...

........................................................................
.............................. CYCLE  100 ..............................
........................................................................

 iter      E             dE          RMSdq      gap      omega  full diag
   1   -111.8244216 -0.111824E+03  0.263E-02    3.37       0.0  T
   2   -111.8244221 -0.535070E-06  0.157E-02    3.37       1.0  T
   3   -111.8244214  0.734159E-06  0.359E-03    3.37       3.2  T
   4   -111.8244224 -0.972168E-06  0.960E-04    3.37      11.9  T
   5   -111.8244224 -0.209257E-07  0.531E-04    3.37      21.6  T
     SCC iter.                  ...        0 min,  0.065 sec
     gradient                   ...        0 min,  0.014 sec
 * total energy  :  -110.2901420 Eh     change       -0.2236784E-04 Eh
   gradient norm :     0.0017202 Eh/α   predicted    -0.1276798E-04 ( -42.92%)
   displ. norm   :     0.1823635 α      lambda       -0.1443137E-04
   maximum displ.:     0.0744670 α      in ANC's #4, #8, #29, ...

........................................................................
.............................. CYCLE  101 ..............................
........................................................................

 iter      E             dE          RMSdq      gap      omega  full diag
   1   -111.8228537 -0.111823E+03  0.262E-02    3.37       0.0  T
   2   -111.8228543 -0.610619E-06  0.157E-02    3.37       1.0  T
   3   -111.8228537  0.625593E-06  0.357E-03    3.37       3.2  T
   4   -111.8228546 -0.892241E-06  0.108E-03    3.37      10.6  T
   5   -111.8228546 -0.238500E-07  0.573E-04    3.37      20.0  T
   6   -111.8228546 -0.414943E-08  0.228E-04    3.37      50.4  T
     SCC iter.                  ...        0 min,  0.080 sec
     gradient                   ...        0 min,  0.007 sec
 * total energy  :  -110.2901481 Eh     change       -0.6091935E-05 Eh
   gradient norm :     0.0026421 Eh/α   predicted    -0.7327409E-05 (  20.28%)
   displ. norm   :     0.0589361 α      lambda       -0.2206128E-04
   maximum displ.:     0.0214836 α      in ANC's #2, #19, #4, ...

........................................................................
.............................. CYCLE  102 ..............................
........................................................................

 iter      E             dE          RMSdq      gap      omega  full diag
   1   -111.8237201 -0.111824E+03  0.756E-03    3.37       0.0  T
   2   -111.8237202 -0.112978E-06  0.445E-03    3.37       2.6  T
   3   -111.8237202  0.608641E-07  0.121E-03    3.37       9.4  T
   4   -111.8237203 -0.807844E-07  0.373E-04    3.37      30.8  T
   5   -111.8237203 -0.640594E-08  0.159E-04    3.37      72.0  T
     SCC iter.                  ...        0 min,  0.066 sec
     gradient                   ...        0 min,  0.016 sec
 * total energy  :  -110.2901647 Eh     change       -0.1660302E-04 Eh
   gradient norm :     0.0010207 Eh/α   predicted    -0.1107124E-04 ( -33.32%)
   displ. norm   :     0.1644901 α      lambda       -0.2214010E-04
   maximum displ.:     0.0688340 α      in ANC's #4, #2, #1, ...

........................................................................
.............................. CYCLE  103 ..............................
........................................................................

 iter      E             dE          RMSdq      gap      omega  full diag
   1   -111.8245964 -0.111825E+03  0.164E-02    3.37       0.0  T
   2   -111.8245967 -0.275211E-06  0.972E-03    3.37       1.2  T
   3   -111.8245964  0.227951E-06  0.211E-03    3.37       5.4  T
   4   -111.8245967 -0.289415E-06  0.632E-04    3.37      18.1  T
   5   -111.8245967 -0.166671E-07  0.284E-04    3.37      40.4  T
     SCC iter.                  ...        0 min,  0.065 sec
     gradient                   ...        0 min,  0.015 sec
 * total energy  :  -110.2901840 Eh     change       -0.1932209E-04 Eh
   gradient norm :     0.0023726 Eh/α   predicted    -0.1120646E-04 ( -42.00%)
   displ. norm   :     0.0844905 α      lambda       -0.1357898E-04
   maximum displ.:     0.0428460 α      in ANC's #4, #1, #5, ...

........................................................................
.............................. CYCLE  104 ..............................
........................................................................

 iter      E             dE          RMSdq      gap      omega  full diag
   1   -111.8243791 -0.111824E+03  0.741E-03    3.37       0.0  T
   2   -111.8243791 -0.317777E-07  0.443E-03    3.37       2.6  T
   3   -111.8243791  0.283107E-07  0.717E-04    3.37      16.0  T
   4   -111.8243792 -0.405412E-07  0.203E-04    3.37      56.4  T
     SCC iter.                  ...        0 min,  0.054 sec
     gradient                   ...        0 min,  0.015 sec
 * total energy  :  -110.2901965 Eh     change       -0.1254779E-04 Eh
   gradient norm :     0.0019615 Eh/α   predicted    -0.6846833E-05 ( -45.43%)
   displ. norm   :     0.3098761 α      lambda       -0.3865092E-04
   maximum displ.:     0.1515025 α      in ANC's #4, #1, #5, ...

........................................................................
.............................. CYCLE  105 ..............................
........................................................................

 iter      E             dE          RMSdq      gap      omega  full diag
   1   -111.8231343 -0.111823E+03  0.277E-02    3.36       0.0  T
   2   -111.8231348 -0.557746E-06  0.165E-02    3.36       1.0  T
   3   -111.8231344  0.439014E-06  0.292E-03    3.36       3.9  T
   4   -111.8231350 -0.620066E-06  0.859E-04    3.36      13.4  T
   5   -111.8231350 -0.144339E-07  0.457E-04    3.36      25.1  T
     SCC iter.                  ...        0 min,  0.065 sec
     gradient                   ...        0 min,  0.007 sec
 * total energy  :  -110.2902313 Eh     change       -0.3479023E-04 Eh
   gradient norm :     0.0017219 Eh/α   predicted    -0.2015556E-04 ( -42.07%)
   displ. norm   :     0.1450445 α      lambda       -0.1160644E-04
   maximum displ.:     0.0791971 α      in ANC's #4, #1, #5, ...

........................................................................
.............................. CYCLE  106 ..............................
........................................................................

 iter      E             dE          RMSdq      gap      omega  full diag
   1   -111.8226868 -0.111823E+03  0.125E-02    3.36       0.0  T
   2   -111.8226870 -0.194243E-06  0.739E-03    3.36       1.6  T
   3   -111.8226868  0.213644E-06  0.196E-03    3.36       5.8  T
   4   -111.8226871 -0.276575E-06  0.426E-04    3.36      26.9  T
   5   -111.8226871 -0.520103E-08  0.229E-04    3.36      50.0  T
     SCC iter.                  ...        0 min,  0.065 sec
     gradient                   ...        0 min,  0.015 sec
 * total energy  :  -110.2902432 Eh     change       -0.1187625E-04 Eh
   gradient norm :     0.0019947 Eh/α   predicted    -0.5857746E-05 ( -50.68%)
   displ. norm   :     0.2118879 α      lambda       -0.1900265E-04
   maximum displ.:     0.1191023 α      in ANC's #4, #1, #5, ...

........................................................................
.............................. CYCLE  107 ..............................
........................................................................

 iter      E             dE          RMSdq      gap      omega  full diag
   1   -111.8233119 -0.111823E+03  0.171E-02    3.36       0.0  T
   2   -111.8233121 -0.291882E-06  0.101E-02    3.36       1.1  T
   3   -111.8233118  0.318541E-06  0.242E-03    3.36       4.7  T
   4   -111.8233122 -0.413545E-06  0.530E-04    3.36      21.7  T
   5   -111.8233122 -0.769296E-08  0.273E-04    3.36      42.0  T
     SCC iter.                  ...        0 min,  0.063 sec
     gradient                   ...        0 min,  0.015 sec
 * total energy  :  -110.2902650 Eh     change       -0.2176473E-04 Eh
   gradient norm :     0.0012611 Eh/α   predicted    -0.9694535E-05 ( -55.46%)
   displ. norm   :     0.2533756 α      lambda       -0.1997805E-04
   maximum displ.:     0.1434531 α      in ANC's #4, #1, #5, ...

........................................................................
.............................. CYCLE  108 ..............................
........................................................................

 iter      E             dE          RMSdq      gap      omega  full diag
   1   -111.8235229 -0.111824E+03  0.231E-02    3.36       0.0  T
   2   -111.8235232 -0.259805E-06  0.137E-02    3.37       1.0  T
   3   -111.8235230  0.217981E-06  0.225E-03    3.37       5.1  T
   4   -111.8235233 -0.334431E-06  0.650E-04    3.37      17.6  T
   5   -111.8235233 -0.514808E-08  0.330E-04    3.37      34.7  T
     SCC iter.                  ...        0 min,  0.063 sec
     gradient                   ...        0 min,  0.016 sec
 * total energy  :  -110.2902885 Eh     change       -0.2356767E-04 Eh
   gradient norm :     0.0010146 Eh/α   predicted    -0.1027617E-04 ( -56.40%)
   displ. norm   :     0.2892752 α      lambda       -0.2038292E-04
   maximum displ.:     0.1672804 α      in ANC's #4, #1, #5, ...

........................................................................
.............................. CYCLE  109 ..............................
........................................................................

 iter      E             dE          RMSdq      gap      omega  full diag
   1   -111.8238298 -0.111824E+03  0.274E-02    3.36       0.0  T
   2   -111.8238303 -0.496004E-06  0.162E-02    3.37       1.0  T
   3   -111.8238293  0.988260E-06  0.408E-03    3.37       2.8  T
   4   -111.8238305 -0.120921E-05  0.822E-04    3.37      14.0  T
   5   -111.8238305 -0.177830E-07  0.446E-04    3.37      25.7  T
   6   -111.8238305 -0.146656E-08  0.202E-04    3.37      56.7  T
     SCC iter.                  ...        0 min,  0.081 sec
     gradient                   ...        0 min,  0.014 sec
 * total energy  :  -110.2903125 Eh     change       -0.2398309E-04 Eh
   gradient norm :     0.0010452 Eh/α   predicted    -0.1057264E-04 ( -55.92%)
   displ. norm   :     0.2802940 α      lambda       -0.1732802E-04
   maximum displ.:     0.1638782 α      in ANC's #4, #1, #5, ...

........................................................................
.............................. CYCLE  110 ..............................
........................................................................

 iter      E             dE          RMSdq      gap      omega  full diag
   1   -111.8238964 -0.111824E+03  0.272E-02    3.36       0.0  T
   2   -111.8238967 -0.303302E-06  0.161E-02    3.37       1.0  T
   3   -111.8238961  0.591814E-06  0.318E-03    3.37       3.6  T
   4   -111.8238969 -0.744940E-06  0.623E-04    3.37      18.4  T
   5   -111.8238969 -0.430927E-08  0.359E-04    3.37      32.0  T
     SCC iter.                  ...        0 min,  0.072 sec
     gradient                   ...        0 min,  0.014 sec
 * total energy  :  -110.2903347 Eh     change       -0.2221188E-04 Eh
   gradient norm :     0.0008563 Eh/α   predicted    -0.8967450E-05 ( -59.63%)
   displ. norm   :     0.2931921 α      lambda       -0.1884708E-04
   maximum displ.:     0.1724013 α      in ANC's #1, #4, #5, ...

........................................................................
.............................. CYCLE  111 ..............................
........................................................................

 iter      E             dE          RMSdq      gap      omega  full diag
   1   -111.8240449 -0.111824E+03  0.297E-02    3.36       0.0  T
   2   -111.8240454 -0.441379E-06  0.176E-02    3.37       1.0  T
   3   -111.8240444  0.984929E-06  0.399E-03    3.37       2.9  T
   4   -111.8240456 -0.120385E-05  0.689E-04    3.37      16.6  T
   5   -111.8240456 -0.718792E-08  0.405E-04    3.37      28.3  T
   6   -111.8240456 -0.182798E-08  0.185E-04    3.37      62.0  T
     SCC iter.                  ...        0 min,  0.085 sec
     gradient                   ...        0 min,  0.020 sec
 * total energy  :  -110.2903597 Eh     change       -0.2493684E-04 Eh
   gradient norm :     0.0011363 Eh/α   predicted    -0.9786925E-05 ( -60.75%)
   displ. norm   :     0.3912028 α      lambda       -0.2562194E-04
   maximum displ.:     0.2330116 α      in ANC's #1, #4, #2, ...

........................................................................
.............................. CYCLE  112 ..............................
........................................................................

 iter      E             dE          RMSdq      gap      omega  full diag
   1   -111.8239324 -0.111824E+03  0.417E-02    3.36       0.0  T
   2   -111.8239331 -0.718196E-06  0.246E-02    3.37       1.0  T
   3   -111.8239317  0.138561E-05  0.479E-03    3.37       2.4  T
   4   -111.8239335 -0.171925E-05  0.824E-04    3.37      13.9  T
   5   -111.8239335 -0.847278E-08  0.464E-04    3.37      24.7  T
   6   -111.8239335 -0.205657E-08  0.204E-04    3.37      56.3  T
     SCC iter.                  ...        0 min,  0.090 sec
     gradient                   ...        0 min,  0.015 sec
 * total energy  :  -110.2903934 Eh     change       -0.3372937E-04 Eh
   gradient norm :     0.0010029 Eh/α   predicted    -0.1368573E-04 ( -59.42%)
   displ. norm   :     0.5382464 α      lambda       -0.3411110E-04
   maximum displ.:     0.3252683 α      in ANC's #1, #4, #2, ...

........................................................................
.............................. CYCLE  113 ..............................
........................................................................

 iter      E             dE          RMSdq      gap      omega  full diag
   1   -111.8233149 -0.111823E+03  0.600E-02    3.36       0.0  T
   2   -111.8233166 -0.173241E-05  0.353E-02    3.37       1.0  T
   3   -111.8233137  0.293822E-05  0.702E-03    3.36       1.6  T
   4   -111.8233173 -0.363113E-05  0.125E-03    3.37       9.2  T
   5   -111.8233173 -0.331061E-07  0.689E-04    3.37      16.7  T
   6   -111.8233173 -0.269702E-08  0.325E-04    3.37      35.3  T
     SCC iter.                  ...        0 min,  0.090 sec
     gradient                   ...        0 min,  0.009 sec
 * total energy  :  -110.2904369 Eh     change       -0.4345255E-04 Eh
   gradient norm :     0.0020684 Eh/α   predicted    -0.1925475E-04 ( -55.69%)
   displ. norm   :     0.5200292 α      lambda       -0.4723919E-04
   maximum displ.:     0.3162040 α      in ANC's #1, #4, #2, ...

........................................................................
.............................. CYCLE  114 ..............................
........................................................................

 iter      E             dE          RMSdq      gap      omega  full diag
   1   -111.8227453 -0.111823E+03  0.582E-02    3.36       0.0  T
   2   -111.8227466 -0.123692E-05  0.342E-02    3.37       1.0  T
   3   -111.8227445  0.210653E-05  0.608E-03    3.37       1.9  T
   4   -111.8227471 -0.265178E-05  0.106E-03    3.37      10.8  T
   5   -111.8227471 -0.146391E-07  0.581E-04    3.37      19.8  T
   6   -111.8227471 -0.251653E-08  0.241E-04    3.37      47.6  T
     SCC iter.                  ...        0 min,  0.088 sec
     gradient                   ...        0 min,  0.015 sec
 * total energy  :  -110.2904780 Eh     change       -0.4117555E-04 Eh
   gradient norm :     0.0020060 Eh/α   predicted    -0.3000869E-04 ( -27.12%)
   displ. norm   :     0.6915965 α      lambda       -0.6543714E-04
   maximum displ.:     0.4279766 α      in ANC's #1, #4, #2, ...

........................................................................
.............................. CYCLE  115 ..............................
........................................................................

 iter      E             dE          RMSdq      gap      omega  full diag
   1   -111.8225667 -0.111823E+03  0.798E-02    3.36       0.0  T
   2   -111.8225690 -0.232773E-05  0.468E-02    3.37       1.0  T
   3   -111.8225646  0.441147E-05  0.859E-03    3.37       1.3  T
   4   -111.8225700 -0.543650E-05  0.136E-03    3.37       8.4  T
   5   -111.8225700 -0.293233E-07  0.751E-04    3.37      15.3  T
   6   -111.8225700 -0.408687E-08  0.338E-04    3.37      33.9  T
     SCC iter.                  ...        0 min,  0.089 sec
     gradient                   ...        0 min,  0.014 sec
 * total energy  :  -110.2905322 Eh     change       -0.5415354E-04 Eh
   gradient norm :     0.0023434 Eh/α   predicted    -0.4837131E-04 ( -10.68%)
   displ. norm   :     0.6849102 α      lambda       -0.7772540E-04
   maximum displ.:     0.4273508 α      in ANC's #1, #4, #2, ...

........................................................................
.............................. CYCLE  116 ..............................
........................................................................

 iter      E             dE          RMSdq      gap      omega  full diag
   1   -111.8210567 -0.111821E+03  0.810E-02    3.36       0.0  T
   2   -111.8210588 -0.206022E-05  0.476E-02    3.37       1.0  T
   3   -111.8210561  0.271654E-05  0.731E-03    3.37       1.6  T
   4   -111.8210597 -0.361269E-05  0.151E-03    3.37       7.6  T
   5   -111.8210597 -0.271894E-07  0.809E-04    3.37      14.2  T
   6   -111.8210597 -0.500665E-08  0.330E-04    3.37      34.8  T
     SCC iter.                  ...        0 min,  0.088 sec
     gradient                   ...        0 min,  0.015 sec
 * total energy  :  -110.2905940 Eh     change       -0.6181319E-04 Eh
   gradient norm :     0.0039906 Eh/α   predicted    -0.5709584E-04 (  -7.63%)
   displ. norm   :     0.5165269 α      lambda       -0.1437197E-03
   maximum displ.:     0.3144920 α      in ANC's #1, #4, #2, ...

........................................................................
.............................. CYCLE  117 ..............................
........................................................................

 iter      E             dE          RMSdq      gap      omega  full diag
   1   -111.8288397 -0.111829E+03  0.671E-02    3.37       0.0  T
   2   -111.8288416 -0.194602E-05  0.394E-02    3.37       1.0  T
   3   -111.8288392  0.245396E-05  0.658E-03    3.37       1.7  T
   4   -111.8288422 -0.305991E-05  0.147E-03    3.37       7.8  T
   5   -111.8288423 -0.782445E-07  0.736E-04    3.37      15.6  T
   6   -111.8288423 -0.637327E-08  0.342E-04    3.37      33.5  T
     SCC iter.                  ...        0 min,  0.088 sec
     gradient                   ...        0 min,  0.008 sec
 * total energy  :  -110.2906573 Eh     change       -0.6326275E-04 Eh
   gradient norm :     0.0075623 Eh/α   predicted    -0.9103649E-04 (  43.90%)
   displ. norm   :     0.5782661 α      lambda       -0.1554667E-03
   maximum displ.:     0.3519807 α      in ANC's #1, #4, #2, ...

........................................................................
.............................. CYCLE  118 ..............................
........................................................................

 iter      E             dE          RMSdq      gap      omega  full diag
   1   -111.8249113 -0.111825E+03  0.726E-02    3.37       0.0  T
   2   -111.8249132 -0.197469E-05  0.427E-02    3.37       1.0  T
   3   -111.8249118  0.141247E-05  0.577E-03    3.37       2.0  T
   4   -111.8249139 -0.208686E-05  0.164E-03    3.37       7.0  T
   5   -111.8249140 -0.522421E-07  0.852E-04    3.37      13.5  T
   6   -111.8249140 -0.460902E-08  0.387E-04    3.37      29.6  T
     SCC iter.                  ...        0 min,  0.090 sec
     gradient                   ...        0 min,  0.012 sec
 * total energy  :  -110.2907659 Eh     change       -0.1086099E-03 Eh
   gradient norm :     0.0051210 Eh/α   predicted    -0.1037283E-03 (  -4.49%)
   displ. norm   :     0.6770486 α      lambda       -0.1430533E-03
   maximum displ.:     0.4165890 α      in ANC's #1, #4, #2, ...

........................................................................
.............................. CYCLE  119 ..............................
........................................................................

 iter      E             dE          RMSdq      gap      omega  full diag
   1   -111.8177681 -0.111818E+03  0.829E-02    3.36       0.0  T
   2   -111.8177713 -0.318871E-05  0.486E-02    3.37       1.0  T
   3   -111.8177688  0.250383E-05  0.726E-03    3.37       1.6  T
   4   -111.8177720 -0.326672E-05  0.174E-03    3.37       6.6  T
   5   -111.8177722 -0.110881E-06  0.831E-04    3.37      13.8  T
   6   -111.8177722 -0.428767E-08  0.399E-04    3.37      28.8  T
     SCC iter.                  ...        0 min,  0.088 sec
     gradient                   ...        0 min,  0.015 sec
 * total energy  :  -110.2908566 Eh     change       -0.9076433E-04 Eh
   gradient norm :     0.0060167 Eh/α   predicted    -0.1043156E-03 (  14.93%)
   displ. norm   :     0.4477651 α      lambda       -0.1414454E-03
   maximum displ.:     0.2575388 α      in ANC's #1, #2, #4, ...

........................................................................
.............................. CYCLE  120 ..............................
........................................................................

 iter      E             dE          RMSdq      gap      omega  full diag
   1   -111.8179938 -0.111818E+03  0.544E-02    3.37       0.0  T
   2   -111.8179950 -0.112409E-05  0.320E-02    3.37       1.0  T
   3   -111.8179940  0.925152E-06  0.426E-03    3.37       2.7  T
   4   -111.8179954 -0.133018E-05  0.121E-03    3.37       9.5  T
   5   -111.8179954 -0.306037E-07  0.658E-04    3.37      17.4  T
   6   -111.8179954 -0.299845E-08  0.256E-04    3.37      44.8  T
     SCC iter.                  ...        0 min,  0.083 sec
     gradient                   ...        0 min,  0.015 sec
 * total energy  :  -110.2909719 Eh     change       -0.1152714E-03 Eh
   gradient norm :     0.0062755 Eh/α   predicted    -0.8490412E-04 ( -26.34%)
   displ. norm   :     0.5372634 α      lambda       -0.2641130E-03
   maximum displ.:     0.2732560 α      in ANC's #2, #12, #1, ...
 * RMSD in coord.:     0.7359588 α      energy gain  -0.1204512E-02 Eh

generating ANC from exact Hessian ...
Using Lindh-Hessian (1995)
 Shifting diagonal of input Hessian by   1.011455735037297E-002
 Lowest  eigenvalues of input Hessian
    0.010000    0.000000    0.000000    0.000000    0.000000    0.000000
    0.000000    0.010176    0.010220    0.010296    0.010418    0.010468
    0.010481    0.010541    0.010715    0.010781    0.010919    0.010928
 Highest eigenvalues
    2.004202    2.078089    2.081315    2.207010    2.324019    2.353302
 

........................................................................
.............................. CYCLE  121 ..............................
........................................................................

 iter      E             dE          RMSdq      gap      omega  full diag
   1   -111.8269219 -0.111827E+03  0.524E-02    3.37       0.0  T
   2   -111.8269259 -0.391457E-05  0.307E-02    3.37       1.0  T
   3   -111.8269240  0.184965E-05  0.648E-03    3.37       1.8  T
   4   -111.8269266 -0.255752E-05  0.188E-03    3.37       6.1  T
   5   -111.8269267 -0.170427E-06  0.895E-04    3.37      12.8  T
   6   -111.8269268 -0.127495E-07  0.419E-04    3.37      27.4  T
     SCC iter.                  ...        0 min,  0.141 sec
     gradient                   ...        0 min,  0.015 sec
 * total energy  :  -110.2910620 Eh     change       -0.9006334E-04 Eh
   gradient norm :     0.0105219 Eh/α   predicted     0.0000000E+00 (-100.00%)
   displ. norm   :     0.0940050 α      lambda       -0.1823155E-03
   maximum displ.:     0.0371329 α      in ANC's #13, #1, #11, ...

........................................................................
.............................. CYCLE  122 ..............................
........................................................................

 iter      E             dE          RMSdq      gap      omega  full diag
   1   -111.8249713 -0.111825E+03  0.222E-02    3.37       0.0  T
   2   -111.8249726 -0.126973E-05  0.135E-02    3.37       1.0  T
   3   -111.8249720  0.591160E-06  0.436E-03    3.37       2.6  T
   4   -111.8249730 -0.990105E-06  0.127E-03    3.37       9.0  T
   5   -111.8249730 -0.587182E-07  0.654E-04    3.37      17.5  T
   6   -111.8249730 -0.349262E-08  0.293E-04    3.37      39.1  T
     SCC iter.                  ...        0 min,  0.090 sec
     gradient                   ...        0 min,  0.014 sec
 * total energy  :  -110.2912182 Eh     change       -0.1562275E-03 Eh
   gradient norm :     0.0034896 Eh/α   predicted    -0.1039259E-03 ( -33.48%)
   displ. norm   :     0.2082257 α      lambda       -0.2264555E-03
   maximum displ.:     0.0816414 α      in ANC's #13, #1, #15, ...

........................................................................
.............................. CYCLE  123 ..............................
........................................................................

 iter      E             dE          RMSdq      gap      omega  full diag
   1   -111.8227608 -0.111823E+03  0.344E-02    3.37       0.0  T
   2   -111.8227625 -0.172506E-05  0.210E-02    3.37       1.0  T
   3   -111.8227624  0.693490E-07  0.399E-03    3.37       2.9  T
   4   -111.8227632 -0.789551E-06  0.164E-03    3.37       7.0  T
   5   -111.8227633 -0.531557E-07  0.936E-04    3.37      12.3  T
   6   -111.8227633 -0.105878E-07  0.329E-04    3.37      34.8  T
     SCC iter.                  ...        0 min,  0.091 sec
     gradient                   ...        0 min,  0.013 sec
 * total energy  :  -110.2913840 Eh     change       -0.1658030E-03 Eh
   gradient norm :     0.0058397 Eh/α   predicted    -0.1181401E-03 ( -28.75%)
   displ. norm   :     0.2849824 α      lambda       -0.2101633E-03
   maximum displ.:     0.1192275 α      in ANC's #1, #2, #15, ...

........................................................................
.............................. CYCLE  124 ..............................
........................................................................

 iter      E             dE          RMSdq      gap      omega  full diag
   1   -111.8213565 -0.111821E+03  0.363E-02    3.38       0.0  T
   2   -111.8213577 -0.120590E-05  0.221E-02    3.38       1.0  T
   3   -111.8213581 -0.409549E-06  0.271E-03    3.38       4.2  T
   4   -111.8213583 -0.223396E-06  0.148E-03    3.38       7.8  T
   5   -111.8213583 -0.209703E-07  0.795E-04    3.38      14.4  T
   6   -111.8213583 -0.120683E-07  0.241E-04    3.38      47.7  T
     SCC iter.                  ...        0 min,  0.093 sec
     gradient                   ...        0 min,  0.013 sec
 * total energy  :  -110.2915452 Eh     change       -0.1612222E-03 Eh
   gradient norm :     0.0106325 Eh/α   predicted    -0.1136439E-03 ( -29.51%)
   displ. norm   :     0.3963064 α      lambda       -0.3181651E-03
   maximum displ.:     0.1839437 α      in ANC's #1, #2, #15, ...

........................................................................
.............................. CYCLE  125 ..............................
........................................................................

 iter      E             dE          RMSdq      gap      omega  full diag
   1   -111.8218443 -0.111822E+03  0.365E-02    3.38       0.0  T
   2   -111.8218460 -0.172641E-05  0.218E-02    3.38       1.0  T
   3   -111.8218459  0.764088E-07  0.387E-03    3.38       3.0  T
   4   -111.8218466 -0.670579E-06  0.170E-03    3.38       6.7  T
   5   -111.8218467 -0.674848E-07  0.743E-04    3.38      15.4  T
   6   -111.8218467 -0.720706E-08  0.381E-04    3.38      30.1  T
     SCC iter.                  ...        0 min,  0.090 sec
     gradient                   ...        0 min,  0.013 sec
 * total energy  :  -110.2918168 Eh     change       -0.2715429E-03 Eh
   gradient norm :     0.0107720 Eh/α   predicted    -0.1840817E-03 ( -32.21%)
   displ. norm   :     0.5867387 α      lambda       -0.5448627E-03
   maximum displ.:     0.2857811 α      in ANC's #1, #2, #7, ...

........................................................................
.............................. CYCLE  126 ..............................
........................................................................

 iter      E             dE          RMSdq      gap      omega  full diag
   1   -111.8234276 -0.111823E+03  0.537E-02    3.39       0.0  T
   2   -111.8234319 -0.425434E-05  0.324E-02    3.39       1.0  T
   3   -111.8234285  0.335705E-05  0.854E-03    3.39       1.3  T
   4   -111.8234333 -0.477663E-05  0.277E-03    3.39       4.1  T
   5   -111.8234335 -0.221791E-06  0.119E-03    3.39       9.6  T
   6   -111.8234336 -0.357155E-07  0.540E-04    3.39      21.2  T
   7   -111.8234336 -0.368789E-08  0.237E-04    3.39      48.4  T
     SCC iter.                  ...        0 min,  0.104 sec
     gradient                   ...        0 min,  0.007 sec
 * total energy  :  -110.2922730 Eh     change       -0.4562106E-03 Eh
   gradient norm :     0.0068588 Eh/α   predicted    -0.3662191E-03 ( -19.73%)
   displ. norm   :     0.5634329 α      lambda       -0.6333278E-03
   maximum displ.:     0.2979983 α      in ANC's #1, #2, #7, ...

........................................................................
.............................. CYCLE  127 ..............................
........................................................................

 iter      E             dE          RMSdq      gap      omega  full diag
   1   -111.8298798 -0.111830E+03  0.492E-02    3.39       0.0  T
   2   -111.8298902 -0.104210E-04  0.278E-02    3.39       1.0  T
   3   -111.8298902  0.630247E-07  0.782E-03    3.38       1.5  T
   4   -111.8298918 -0.166133E-05  0.346E-03    3.39       3.3  T
   5   -111.8298923 -0.440514E-06  0.102E-03    3.39      11.3  T
   6   -111.8298923 -0.273225E-07  0.524E-04    3.39      21.9  T
   7   -111.8298923 -0.911086E-09  0.236E-04    3.39      48.6  T
     SCC iter.                  ...        0 min,  0.103 sec
     gradient                   ...        0 min,  0.015 sec
 * total energy  :  -110.2924581 Eh     change       -0.1851137E-03 Eh
   gradient norm :     0.0205121 Eh/α   predicted    -0.4171938E-03 ( 125.37%)
   displ. norm   :     0.3750044 α      lambda       -0.7552308E-03
   maximum displ.:     0.1893509 α      in ANC's #1, #2, #11, ...

........................................................................
.............................. CYCLE  128 ..............................
........................................................................

 iter      E             dE          RMSdq      gap      omega  full diag
   1   -111.8250183 -0.111825E+03  0.536E-02    3.39       0.0  T
   2   -111.8250228 -0.453093E-05  0.328E-02    3.39       1.0  T
   3   -111.8250182  0.468038E-05  0.968E-03    3.39       1.2  T
   4   -111.8250252 -0.700176E-05  0.271E-03    3.39       4.2  T
   5   -111.8250253 -0.113695E-06  0.146E-03    3.39       7.9  T
   6   -111.8250253 -0.415310E-07  0.591E-04    3.39      19.4  T
   7   -111.8250253 -0.819972E-08  0.221E-04    3.39      51.9  T
     SCC iter.                  ...        0 min,  0.106 sec
     gradient                   ...        0 min,  0.008 sec
 * total energy  :  -110.2927307 Eh     change       -0.2726232E-03 Eh
   gradient norm :     0.0113409 Eh/α   predicted    -0.4307200E-03 (  57.99%)
   displ. norm   :     0.2870341 α      lambda       -0.5249638E-03
   maximum displ.:     0.1221175 α      in ANC's #15, #17, #13, ...

........................................................................
.............................. CYCLE  129 ..............................
........................................................................

 iter      E             dE          RMSdq      gap      omega  full diag
   1   -111.8262233 -0.111826E+03  0.320E-02    3.39       0.0  T
   2   -111.8262275 -0.424439E-05  0.192E-02    3.39       1.0  T
   3   -111.8262280 -0.479453E-06  0.440E-03    3.39       2.6  T
   4   -111.8262281 -0.153633E-06  0.190E-03    3.39       6.0  T
   5   -111.8262283 -0.147155E-06  0.568E-04    3.39      20.2  T
   6   -111.8262283 -0.809827E-08  0.285E-04    3.39      40.3  T
     SCC iter.                  ...        0 min,  0.088 sec
     gradient                   ...        0 min,  0.015 sec
 * total energy  :  -110.2929609 Eh     change       -0.2301569E-03 Eh
   gradient norm :     0.0081019 Eh/α   predicted    -0.2841085E-03 (  23.44%)
   displ. norm   :     0.2378118 α      lambda       -0.4876715E-03
   maximum displ.:     0.1142239 α      in ANC's #1, #2, #17, ...

........................................................................
.............................. CYCLE  130 ..............................
........................................................................

 iter      E             dE          RMSdq      gap      omega  full diag
   1   -111.8294288 -0.111829E+03  0.426E-02    3.38       0.0  T
   2   -111.8294348 -0.598945E-05  0.252E-02    3.39       1.0  T
   3   -111.8294316  0.315141E-05  0.914E-03    3.38       1.3  T
   4   -111.8294365 -0.490916E-05  0.277E-03    3.38       4.1  T
   5   -111.8294367 -0.183866E-06  0.120E-03    3.38       9.5  T
   6   -111.8294368 -0.475029E-07  0.524E-04    3.38      21.9  T
   7   -111.8294368 -0.471310E-08  0.267E-04    3.38      43.0  T
     SCC iter.                  ...        0 min,  0.094 sec
     gradient                   ...        0 min,  0.020 sec
 * total energy  :  -110.2931323 Eh     change       -0.1714230E-03 Eh
   gradient norm :     0.0114983 Eh/α   predicted    -0.2576278E-03 (  50.29%)
   displ. norm   :     0.3797996 α      lambda       -0.4144860E-03
   maximum displ.:     0.2093624 α      in ANC's #1, #2, #7, ...

........................................................................
.............................. CYCLE  131 ..............................
........................................................................

 iter      E             dE          RMSdq      gap      omega  full diag
   1   -111.8262210 -0.111826E+03  0.529E-02    3.38       0.0  T
   2   -111.8262258 -0.484972E-05  0.323E-02    3.38       1.0  T
   3   -111.8262270 -0.114632E-05  0.469E-03    3.38       2.4  T
   4   -111.8262274 -0.372792E-06  0.248E-03    3.38       4.6  T
   5   -111.8262276 -0.283565E-06  0.904E-04    3.38      12.7  T
   6   -111.8262277 -0.871688E-08  0.479E-04    3.38      24.0  T
     SCC iter.                  ...        0 min,  0.088 sec
     gradient                   ...        0 min,  0.014 sec
 * total energy  :  -110.2934116 Eh     change       -0.2792876E-03 Eh
   gradient norm :     0.0091908 Eh/α   predicted    -0.2371415E-03 ( -15.09%)
   displ. norm   :     0.3617398 α      lambda       -0.3166049E-03
   maximum displ.:     0.1928775 α      in ANC's #1, #2, #17, ...

........................................................................
.............................. CYCLE  132 ..............................
........................................................................

 iter      E             dE          RMSdq      gap      omega  full diag
   1   -111.8230960 -0.111823E+03  0.451E-02    3.39       0.0  T
   2   -111.8230979 -0.193250E-05  0.275E-02    3.39       1.0  T
   3   -111.8230966  0.131771E-05  0.607E-03    3.39       1.9  T
   4   -111.8230991 -0.249350E-05  0.203E-03    3.39       5.6  T
   5   -111.8230991 -0.468887E-07  0.995E-04    3.39      11.5  T
   6   -111.8230991 -0.155573E-07  0.339E-04    3.39      33.8  T
     SCC iter.                  ...        0 min,  0.089 sec
     gradient                   ...        0 min,  0.014 sec
 * total energy  :  -110.2935925 Eh     change       -0.1808998E-03 Eh
   gradient norm :     0.0096377 Eh/α   predicted    -0.1790201E-03 (  -1.04%)
   displ. norm   :     0.2656399 α      lambda       -0.2563050E-03
   maximum displ.:     0.1460507 α      in ANC's #1, #2, #23, ...

........................................................................
.............................. CYCLE  133 ..............................
........................................................................

 iter      E             dE          RMSdq      gap      omega  full diag
   1   -111.8250936 -0.111825E+03  0.264E-02    3.39       0.0  T
   2   -111.8250946 -0.102543E-05  0.154E-02    3.39       1.0  T
   3   -111.8250929  0.164392E-05  0.533E-03    3.39       2.2  T
   4   -111.8250949 -0.200818E-05  0.119E-03    3.39       9.7  T
   5   -111.8250950 -0.321623E-07  0.485E-04    3.39      23.6  T
   6   -111.8250950 -0.854901E-08  0.203E-04    3.39      56.4  T
     SCC iter.                  ...        0 min,  0.083 sec
     gradient                   ...        0 min,  0.014 sec
 * total energy  :  -110.2937647 Eh     change       -0.1722077E-03 Eh
   gradient norm :     0.0052048 Eh/α   predicted    -0.1371973E-03 ( -20.33%)
   displ. norm   :     0.3847231 α      lambda       -0.2280105E-03
   maximum displ.:     0.2139495 α      in ANC's #1, #2, #23, ...

........................................................................
.............................. CYCLE  134 ..............................
........................................................................

 iter      E             dE          RMSdq      gap      omega  full diag
   1   -111.8250819 -0.111825E+03  0.400E-02    3.39       0.0  T
   2   -111.8250832 -0.134569E-05  0.241E-02    3.39       1.0  T
   3   -111.8250811  0.210253E-05  0.618E-03    3.39       1.9  T
   4   -111.8250839 -0.282673E-05  0.155E-03    3.39       7.4  T
   5   -111.8250840 -0.298921E-07  0.836E-04    3.39      13.7  T
   6   -111.8250840 -0.121195E-07  0.316E-04    3.39      36.3  T
     SCC iter.                  ...        0 min,  0.086 sec
     gradient                   ...        0 min,  0.013 sec
 * total energy  :  -110.2939245 Eh     change       -0.1598250E-03 Eh
   gradient norm :     0.0035055 Eh/α   predicted    -0.1308829E-03 ( -18.11%)
   displ. norm   :     0.3339061 α      lambda       -0.1742402E-03
   maximum displ.:     0.1806037 α      in ANC's #1, #2, #23, ...

........................................................................
.............................. CYCLE  135 ..............................
........................................................................

 iter      E             dE          RMSdq      gap      omega  full diag
   1   -111.8254751 -0.111825E+03  0.366E-02    3.39       0.0  T
   2   -111.8254763 -0.119842E-05  0.220E-02    3.39       1.0  T
   3   -111.8254740  0.222797E-05  0.607E-03    3.39       1.9  T
   4   -111.8254768 -0.278971E-05  0.140E-03    3.39       8.2  T
   5   -111.8254769 -0.451453E-07  0.727E-04    3.39      15.8  T
   6   -111.8254769 -0.567788E-08  0.306E-04    3.39      37.5  T
     SCC iter.                  ...        0 min,  0.089 sec
     gradient                   ...        0 min,  0.012 sec
 * total energy  :  -110.2940359 Eh     change       -0.1113623E-03 Eh
   gradient norm :     0.0050228 Eh/α   predicted    -0.9683663E-04 ( -13.04%)
   displ. norm   :     0.2246360 α      lambda       -0.9574620E-04
   maximum displ.:     0.1219389 α      in ANC's #1, #2, #23, ...

........................................................................
.............................. CYCLE  136 ..............................
........................................................................

 iter      E             dE          RMSdq      gap      omega  full diag
   1   -111.8264433 -0.111826E+03  0.226E-02    3.39       0.0  T
   2   -111.8264439 -0.598979E-06  0.135E-02    3.39       1.0  T
   3   -111.8264435  0.422592E-06  0.307E-03    3.39       3.7  T
   4   -111.8264441 -0.625129E-06  0.101E-03    3.39      11.3  T
   5   -111.8264442 -0.322388E-07  0.524E-04    3.39      21.9  T
   6   -111.8264442 -0.245218E-08  0.224E-04    3.39      51.3  T
     SCC iter.                  ...        0 min,  0.085 sec
     gradient                   ...        0 min,  0.015 sec
 * total energy  :  -110.2940998 Eh     change       -0.6389443E-04 Eh
   gradient norm :     0.0032921 Eh/α   predicted    -0.5029008E-04 ( -21.29%)
   displ. norm   :     0.2382829 α      lambda       -0.8141869E-04
   maximum displ.:     0.1262820 α      in ANC's #1, #23, #2, ...

........................................................................
.............................. CYCLE  137 ..............................
........................................................................

 iter      E             dE          RMSdq      gap      omega  full diag
   1   -111.8258937 -0.111826E+03  0.240E-02    3.39       0.0  T
   2   -111.8258942 -0.467688E-06  0.144E-02    3.39       1.0  T
   3   -111.8258939  0.310799E-06  0.269E-03    3.39       4.3  T
   4   -111.8258943 -0.455582E-06  0.778E-04    3.39      14.7  T
   5   -111.8258944 -0.141243E-07  0.391E-04    3.39      29.4  T
     SCC iter.                  ...        0 min,  0.072 sec
     gradient                   ...        0 min,  0.008 sec
 * total energy  :  -110.2941597 Eh     change       -0.5991607E-04 Eh
   gradient norm :     0.0030955 Eh/α   predicted    -0.4302166E-04 ( -28.20%)
   displ. norm   :     0.1989873 α      lambda       -0.7968322E-04
   maximum displ.:     0.0915381 α      in ANC's #1, #23, #24, ...

........................................................................
.............................. CYCLE  138 ..............................
........................................................................

 iter      E             dE          RMSdq      gap      omega  full diag
   1   -111.8267476 -0.111827E+03  0.213E-02    3.38       0.0  T
   2   -111.8267484 -0.792479E-06  0.126E-02    3.38       1.0  T
   3   -111.8267477  0.710940E-06  0.398E-03    3.38       2.9  T
   4   -111.8267486 -0.898881E-06  0.906E-04    3.38      12.7  T
   5   -111.8267486 -0.287855E-07  0.397E-04    3.38      28.9  T
     SCC iter.                  ...        0 min,  0.074 sec
     gradient                   ...        0 min,  0.014 sec
 * total energy  :  -110.2942081 Eh     change       -0.4841191E-04 Eh
   gradient norm :     0.0028346 Eh/α   predicted    -0.4142229E-04 ( -14.44%)
   displ. norm   :     0.1992545 α      lambda       -0.4874103E-04
   maximum displ.:     0.1048574 α      in ANC's #1, #23, #2, ...

........................................................................
.............................. CYCLE  139 ..............................
........................................................................

 iter      E             dE          RMSdq      gap      omega  full diag
   1   -111.8247008 -0.111825E+03  0.213E-02    3.38       0.0  T
   2   -111.8247013 -0.522402E-06  0.128E-02    3.38       1.0  T
   3   -111.8247009  0.388735E-06  0.320E-03    3.38       3.6  T
   4   -111.8247015 -0.567022E-06  0.803E-04    3.38      14.3  T
   5   -111.8247015 -0.126647E-07  0.403E-04    3.38      28.5  T
     SCC iter.                  ...        0 min,  0.069 sec
     gradient                   ...        0 min,  0.014 sec
 * total energy  :  -110.2942311 Eh     change       -0.2298417E-04 Eh
   gradient norm :     0.0027291 Eh/α   predicted    -0.2534088E-04 (  10.25%)
   displ. norm   :     0.0801342 α      lambda       -0.3803075E-04
   maximum displ.:     0.0473185 α      in ANC's #11, #5, #14, ...

........................................................................
.............................. CYCLE  140 ..............................
........................................................................

 iter      E             dE          RMSdq      gap      omega  full diag
   1   -111.8259195 -0.111826E+03  0.969E-03    3.38       0.0  T
   2   -111.8259198 -0.245572E-06  0.572E-03    3.38       2.0  T
   3   -111.8259196  0.139350E-06  0.197E-03    3.38       5.8  T
   4   -111.8259198 -0.195498E-06  0.533E-04    3.38      21.5  T
   5   -111.8259198 -0.934502E-08  0.237E-04    3.38      48.4  T
     SCC iter.                  ...        0 min,  0.070 sec
     gradient                   ...        0 min,  0.019 sec
 * total energy  :  -110.2942585 Eh     change       -0.2740292E-04 Eh
   gradient norm :     0.0020611 Eh/α   predicted    -0.1913923E-04 ( -30.16%)
   displ. norm   :     0.1333198 α      lambda       -0.4163981E-04
   maximum displ.:     0.0702342 α      in ANC's #11, #13, #5, ...

........................................................................
.............................. CYCLE  141 ..............................
........................................................................

 iter      E             dE          RMSdq      gap      omega  full diag
   1   -111.8265847 -0.111827E+03  0.142E-02    3.38       0.0  T
   2   -111.8265851 -0.395532E-06  0.845E-03    3.38       1.4  T
   3   -111.8265847  0.389552E-06  0.300E-03    3.38       3.8  T
   4   -111.8265852 -0.516793E-06  0.656E-04    3.38      17.5  T
   5   -111.8265852 -0.112509E-07  0.332E-04    3.38      34.5  T
     SCC iter.                  ...        0 min,  0.071 sec
     gradient                   ...        0 min,  0.019 sec
 * total energy  :  -110.2942862 Eh     change       -0.2775086E-04 Eh
   gradient norm :     0.0031767 Eh/α   predicted    -0.2119238E-04 ( -23.63%)
   displ. norm   :     0.2193828 α      lambda       -0.5566824E-04
   maximum displ.:     0.1189212 α      in ANC's #11, #1, #13, ...

........................................................................
.............................. CYCLE  142 ..............................
........................................................................

 iter      E             dE          RMSdq      gap      omega  full diag
   1   -111.8270643 -0.111827E+03  0.213E-02    3.38       0.0  T
   2   -111.8270650 -0.706146E-06  0.126E-02    3.38       1.0  T
   3   -111.8270643  0.707796E-06  0.419E-03    3.38       2.7  T
   4   -111.8270652 -0.935188E-06  0.834E-04    3.38      13.7  T
   5   -111.8270653 -0.148017E-07  0.429E-04    3.38      26.7  T
     SCC iter.                  ...        0 min,  0.073 sec
     gradient                   ...        0 min,  0.015 sec
 * total energy  :  -110.2943017 Eh     change       -0.1541364E-04 Eh
   gradient norm :     0.0056992 Eh/α   predicted    -0.2917689E-04 (  89.29%)
   displ. norm   :     0.1175635 α      lambda       -0.5088562E-04
   maximum displ.:     0.0643218 α      in ANC's #11, #5, #24, ...

........................................................................
.............................. CYCLE  143 ..............................
........................................................................

 iter      E             dE          RMSdq      gap      omega  full diag
   1   -111.8266709 -0.111827E+03  0.148E-02    3.38       0.0  T
   2   -111.8266714 -0.459001E-06  0.874E-03    3.37       1.3  T
   3   -111.8266711  0.261475E-06  0.265E-03    3.37       4.3  T
   4   -111.8266715 -0.374138E-06  0.774E-04    3.37      14.8  T
   5   -111.8266715 -0.156141E-07  0.313E-04    3.37      36.7  T
     SCC iter.                  ...        0 min,  0.073 sec
     gradient                   ...        0 min,  0.010 sec
 * total energy  :  -110.2943341 Eh     change       -0.3240169E-04 Eh
   gradient norm :     0.0026050 Eh/α   predicted    -0.2579500E-04 ( -20.39%)
   displ. norm   :     0.0983307 α      lambda       -0.3126848E-04
   maximum displ.:     0.0451961 α      in ANC's #11, #1, #13, ...

........................................................................
.............................. CYCLE  144 ..............................
........................................................................

 iter      E             dE          RMSdq      gap      omega  full diag
   1   -111.8266875 -0.111827E+03  0.113E-02    3.38       0.0  T
   2   -111.8266877 -0.199211E-06  0.672E-03    3.37       1.7  T
   3   -111.8266876  0.955613E-07  0.163E-03    3.37       7.0  T
   4   -111.8266877 -0.136595E-06  0.496E-04    3.37      23.1  T
   5   -111.8266877 -0.839904E-08  0.205E-04    3.37      56.0  T
     SCC iter.                  ...        0 min,  0.070 sec
     gradient                   ...        0 min,  0.015 sec
 * total energy  :  -110.2943553 Eh     change       -0.2122622E-04 Eh
   gradient norm :     0.0025394 Eh/α   predicted    -0.1579015E-04 ( -25.61%)
   displ. norm   :     0.1679617 α      lambda       -0.2713478E-04
   maximum displ.:     0.0870230 α      in ANC's #11, #1, #5, ...

........................................................................
.............................. CYCLE  145 ..............................
........................................................................

 iter      E             dE          RMSdq      gap      omega  full diag
   1   -111.8260400 -0.111826E+03  0.169E-02    3.37       0.0  T
   2   -111.8260403 -0.319834E-06  0.101E-02    3.37       1.1  T
   3   -111.8260400  0.314265E-06  0.267E-03    3.37       4.3  T
   4   -111.8260404 -0.412546E-06  0.591E-04    3.37      19.4  T
   5   -111.8260404 -0.819780E-08  0.285E-04    3.37      40.2  T
     SCC iter.                  ...        0 min,  0.068 sec
     gradient                   ...        0 min,  0.016 sec
 * total energy  :  -110.2943732 Eh     change       -0.1791943E-04 Eh
   gradient norm :     0.0024093 Eh/α   predicted    -0.1395423E-04 ( -22.13%)
   displ. norm   :     0.1290140 α      lambda       -0.2218340E-04
   maximum displ.:     0.0697122 α      in ANC's #11, #13, #5, ...

........................................................................
.............................. CYCLE  146 ..............................
........................................................................

 iter      E             dE          RMSdq      gap      omega  full diag
   1   -111.8266025 -0.111827E+03  0.130E-02    3.37       0.0  T
   2   -111.8266026 -0.184553E-06  0.774E-03    3.37       1.5  T
   3   -111.8266025  0.134013E-06  0.183E-03    3.37       6.3  T
   4   -111.8266027 -0.191427E-06  0.484E-04    3.37      23.7  T
   5   -111.8266027 -0.531610E-08  0.239E-04    3.37      48.1  T
     SCC iter.                  ...        0 min,  0.074 sec
     gradient                   ...        0 min,  0.015 sec
 * total energy  :  -110.2943870 Eh     change       -0.1382950E-04 Eh
   gradient norm :     0.0020832 Eh/α   predicted    -0.1128094E-04 ( -18.43%)
   displ. norm   :     0.1574133 α      lambda       -0.1963582E-04
   maximum displ.:     0.0720535 α      in ANC's #11, #1, #5, ...

........................................................................
.............................. CYCLE  147 ..............................
........................................................................

 iter      E             dE          RMSdq      gap      omega  full diag
   1   -111.8261142 -0.111826E+03  0.139E-02    3.37       0.0  T
   2   -111.8261145 -0.235907E-06  0.826E-03    3.37       1.4  T
   3   -111.8261142  0.302874E-06  0.250E-03    3.37       4.6  T
   4   -111.8261146 -0.384443E-06  0.541E-04    3.37      21.2  T
   5   -111.8261146 -0.734946E-08  0.279E-04    3.37      41.1  T
     SCC iter.                  ...        0 min,  0.070 sec
     gradient                   ...        0 min,  0.014 sec
 * total energy  :  -110.2944011 Eh     change       -0.1410099E-04 Eh
   gradient norm :     0.0017044 Eh/α   predicted    -0.1006586E-04 ( -28.62%)
   displ. norm   :     0.2302058 α      lambda       -0.2157627E-04
   maximum displ.:     0.0977600 α      in ANC's #11, #5, #1, ...

........................................................................
.............................. CYCLE  148 ..............................
........................................................................

 iter      E             dE          RMSdq      gap      omega  full diag
   1   -111.8263768 -0.111826E+03  0.215E-02    3.37       0.0  T
   2   -111.8263773 -0.475953E-06  0.128E-02    3.37       1.0  T
   3   -111.8263765  0.784523E-06  0.377E-03    3.37       3.0  T
   4   -111.8263775 -0.985411E-06  0.842E-04    3.37      13.6  T
   5   -111.8263775 -0.147374E-07  0.443E-04    3.37      25.9  T
     SCC iter.                  ...        0 min,  0.073 sec
     gradient                   ...        0 min,  0.021 sec
 * total energy  :  -110.2944208 Eh     change       -0.1966997E-04 Eh
   gradient norm :     0.0026232 Eh/α   predicted    -0.1104499E-04 ( -43.85%)
   displ. norm   :     0.0770437 α      lambda       -0.1365960E-04
   maximum displ.:     0.0287278 α      in ANC's #1, #8, #5, ...

........................................................................
.............................. CYCLE  149 ..............................
........................................................................

 iter      E             dE          RMSdq      gap      omega  full diag
   1   -111.8264847 -0.111826E+03  0.794E-03    3.37       0.0  T
   2   -111.8264848 -0.447556E-07  0.474E-03    3.37       2.4  T
   3   -111.8264847  0.558039E-07  0.102E-03    3.37      11.3  T
   4   -111.8264848 -0.757249E-07  0.275E-04    3.37      41.7  T
   5   -111.8264848 -0.161398E-08  0.159E-04    3.37      72.1  T
     SCC iter.                  ...        0 min,  0.076 sec
     gradient                   ...        0 min,  0.014 sec
 * total energy  :  -110.2944326 Eh     change       -0.1183204E-04 Eh
   gradient norm :     0.0019525 Eh/α   predicted    -0.6874336E-05 ( -41.90%)
   displ. norm   :     0.3456169 α      lambda       -0.3730903E-04
   maximum displ.:     0.1267916 α      in ANC's #8, #1, #5, ...

........................................................................
.............................. CYCLE  150 ..............................
........................................................................

 iter      E             dE          RMSdq      gap      omega  full diag
   1   -111.8263003 -0.111826E+03  0.370E-02    3.37       0.0  T
   2   -111.8263012 -0.823764E-06  0.221E-02    3.37       1.0  T
   3   -111.8263007  0.507041E-06  0.356E-03    3.37       3.2  T
   4   -111.8263015 -0.816347E-06  0.123E-03    3.37       9.3  T
   5   -111.8263015 -0.389830E-07  0.695E-04    3.37      16.5  T
   6   -111.8263015 -0.636737E-08  0.243E-04    3.37      47.2  T
     SCC iter.                  ...        0 min,  0.092 sec
     gradient                   ...        0 min,  0.014 sec
 * total energy  :  -110.2944567 Eh     change       -0.2403795E-04 Eh
   gradient norm :     0.0018253 Eh/α   predicted    -0.1964877E-04 ( -18.26%)
   displ. norm   :     0.0271494 α      lambda       -0.9229661E-05
   maximum displ.:     0.0093236 α      in ANC's #15, #8, #26, ...
 * RMSD in coord.:     0.5473180 α      energy gain  -0.3484761E-02 Eh

generating ANC from exact Hessian ...
Using Lindh-Hessian (1995)
 Shifting diagonal of input Hessian by   1.005173750599745E-002
 Lowest  eigenvalues of input Hessian
    0.010000    0.000000    0.000000    0.000000    0.000000    0.000000
    0.000000    0.010167    0.010199    0.010270    0.010357    0.010394
    0.010479    0.010605    0.010709    0.010924    0.011005    0.011239
 Highest eigenvalues
    2.006960    2.077027    2.079257    2.208364    2.316740    2.351976
 

........................................................................
.............................. CYCLE  151 ..............................
........................................................................

 iter      E             dE          RMSdq      gap      omega  full diag
   1   -111.8265624 -0.111827E+03  0.472E-03    3.37       0.0  T
   2   -111.8265625 -0.942624E-07  0.280E-03    3.37       4.1  T
   3   -111.8265624  0.624826E-07  0.128E-03    3.37       9.0  T
   4   -111.8265625 -0.873657E-07  0.338E-04    3.37      33.9  T
   5   -111.8265625 -0.422968E-08  0.139E-04    3.37      82.5  T
     SCC iter.                  ...        0 min,  0.048 sec
     gradient                   ...        0 min,  0.021 sec
 * total energy  :  -110.2944668 Eh     change       -0.1017078E-04 Eh
   gradient norm :     0.0012127 Eh/α   predicted     0.0000000E+00 (-100.00%)
   displ. norm   :     0.0259627 α      lambda       -0.6253753E-05
   maximum displ.:     0.0080597 α      in ANC's #19, #29, #27, ...

........................................................................
.............................. CYCLE  152 ..............................
........................................................................

 iter      E             dE          RMSdq      gap      omega  full diag
   1   -111.8265314 -0.111827E+03  0.532E-03    3.37       0.0  T
   2   -111.8265315 -0.373511E-07  0.325E-03    3.37       3.5  T
   3   -111.8265314  0.115576E-06  0.138E-03    3.37       8.3  T
   4   -111.8265315 -0.140157E-06  0.231E-04    3.37      49.7  T
   5   -111.8265315 -0.156754E-08  0.117E-04    3.37      98.4  T
     SCC iter.                  ...        0 min,  0.051 sec
     gradient                   ...        0 min,  0.024 sec
 * total energy  :  -110.2944736 Eh     change       -0.6724832E-05 Eh
   gradient norm :     0.0004056 Eh/α   predicted    -0.3192982E-05 ( -52.52%)
   displ. norm   :     0.0468074 α      lambda       -0.5760221E-05
   maximum displ.:     0.0158247 α      in ANC's #18, #10, #7, ...

........................................................................
.............................. CYCLE  153 ..............................
........................................................................

 iter      E             dE          RMSdq      gap      omega  full diag
   1   -111.8265718 -0.111827E+03  0.700E-03    3.37       0.0  T
   2   -111.8265719 -0.491539E-07  0.420E-03    3.37       2.7  T
   3   -111.8265719  0.126164E-07  0.695E-04    3.37      16.5  T
   4   -111.8265719 -0.246231E-07  0.271E-04    3.37      42.3  T
     SCC iter.                  ...        0 min,  0.052 sec
     gradient                   ...        0 min,  0.015 sec
 * total energy  :  -110.2944795 Eh     change       -0.5929262E-05 Eh
   gradient norm :     0.0006632 Eh/α   predicted    -0.2883101E-05 ( -51.38%)
   displ. norm   :     0.0559136 α      lambda       -0.4122476E-05
   maximum displ.:     0.0206859 α      in ANC's #10, #18, #7, ...

........................................................................
.............................. CYCLE  154 ..............................
........................................................................

 iter      E             dE          RMSdq      gap      omega  full diag
   1   -111.8265794 -0.111827E+03  0.680E-03    3.37       0.0  T
   2   -111.8265795 -0.379027E-07  0.403E-03    3.37       2.8  T
   3   -111.8265794  0.750243E-07  0.110E-03    3.37      10.4  T
   4   -111.8265795 -0.898063E-07  0.249E-04    3.37      46.1  T
   5   -111.8265795 -0.231876E-08  0.116E-04    3.37      99.2  T
     SCC iter.                  ...        0 min,  0.062 sec
     gradient                   ...        0 min,  0.017 sec
 * total energy  :  -110.2944839 Eh     change       -0.4407368E-05 Eh
   gradient norm :     0.0006610 Eh/α   predicted    -0.2109282E-05 ( -52.14%)
   displ. norm   :     0.0619086 α      lambda       -0.3635681E-05
   maximum displ.:     0.0244104 α      in ANC's #10, #18, #7, ...

........................................................................
.............................. CYCLE  155 ..............................
........................................................................

 iter      E             dE          RMSdq      gap      omega  full diag
   1   -111.8265902 -0.111827E+03  0.734E-03    3.37       0.0  T
   2   -111.8265902 -0.278476E-07  0.437E-03    3.37       2.6  T
   3   -111.8265902  0.214343E-07  0.659E-04    3.37      17.4  T
   4   -111.8265902 -0.307995E-07  0.216E-04    3.37      53.0  T
     SCC iter.                  ...        0 min,  0.056 sec
     gradient                   ...        0 min,  0.008 sec
 * total energy  :  -110.2944879 Eh     change       -0.3968111E-05 Eh
   gradient norm :     0.0004606 Eh/α   predicted    -0.1821324E-05 ( -54.10%)
   displ. norm   :     0.0671147 α      lambda       -0.3474872E-05
   maximum displ.:     0.0270360 α      in ANC's #10, #7, #18, ...

........................................................................
.............................. CYCLE  156 ..............................
........................................................................

 iter      E             dE          RMSdq      gap      omega  full diag
   1   -111.8266026 -0.111827E+03  0.829E-03    3.37       0.0  T
   2   -111.8266027 -0.279989E-07  0.495E-03    3.38       2.3  T
   3   -111.8266026  0.412684E-07  0.838E-04    3.38      13.7  T
   4   -111.8266027 -0.539424E-07  0.224E-04    3.38      51.2  T
     SCC iter.                  ...        0 min,  0.054 sec
     gradient                   ...        0 min,  0.013 sec
 * total energy  :  -110.2944917 Eh     change       -0.3860524E-05 Eh
   gradient norm :     0.0003609 Eh/α   predicted    -0.1741789E-05 ( -54.88%)
   displ. norm   :     0.0723674 α      lambda       -0.3182277E-05
   maximum displ.:     0.0285418 α      in ANC's #10, #7, #3, ...

........................................................................
.............................. CYCLE  157 ..............................
........................................................................

 iter      E             dE          RMSdq      gap      omega  full diag
   1   -111.8265856 -0.111827E+03  0.900E-03    3.38       0.0  T
   2   -111.8265856 -0.267808E-07  0.537E-03    3.38       2.1  T
   3   -111.8265856  0.149269E-07  0.598E-04    3.38      19.2  T
   4   -111.8265857 -0.245565E-07  0.227E-04    3.38      50.6  T
     SCC iter.                  ...        0 min,  0.045 sec
     gradient                   ...        0 min,  0.020 sec
 * total energy  :  -110.2944953 Eh     change       -0.3525591E-05 Eh
   gradient norm :     0.0004793 Eh/α   predicted    -0.1596296E-05 ( -54.72%)
   displ. norm   :     0.0756865 α      lambda       -0.2921026E-05
   maximum displ.:     0.0282865 α      in ANC's #10, #7, #1, ...

........................................................................
.............................. CYCLE  158 ..............................
........................................................................

 iter      E             dE          RMSdq      gap      omega  full diag
   1   -111.8265724 -0.111827E+03  0.927E-03    3.37       0.0  T
   2   -111.8265724 -0.273530E-07  0.552E-03    3.37       2.1  T
   3   -111.8265724  0.169343E-07  0.598E-04    3.38      19.2  T
   4   -111.8265724 -0.261425E-07  0.217E-04    3.37      52.8  T
     SCC iter.                  ...        0 min,  0.053 sec
     gradient                   ...        0 min,  0.015 sec
 * total energy  :  -110.2944986 Eh     change       -0.3293463E-05 Eh
   gradient norm :     0.0004891 Eh/α   predicted    -0.1466482E-05 ( -55.47%)
   displ. norm   :     0.0914898 α      lambda       -0.3215775E-05
   maximum displ.:     0.0323069 α      in ANC's #7, #10, #1, ...

........................................................................
.............................. CYCLE  159 ..............................
........................................................................

 iter      E             dE          RMSdq      gap      omega  full diag
   1   -111.8265205 -0.111827E+03  0.108E-02    3.37       0.0  T
   2   -111.8265205 -0.331251E-07  0.640E-03    3.37       1.8  T
   3   -111.8265205  0.133918E-07  0.606E-04    3.37      18.9  T
   4   -111.8265205 -0.244638E-07  0.237E-04    3.37      48.3  T
     SCC iter.                  ...        0 min,  0.049 sec
     gradient                   ...        0 min,  0.015 sec
 * total energy  :  -110.2945022 Eh     change       -0.3601020E-05 Eh
   gradient norm :     0.0004393 Eh/α   predicted    -0.1617571E-05 ( -55.08%)
   displ. norm   :     0.1012939 α      lambda       -0.3426265E-05
   maximum displ.:     0.0353797 α      in ANC's #1, #7, #10, ...

........................................................................
.............................. CYCLE  160 ..............................
........................................................................

 iter      E             dE          RMSdq      gap      omega  full diag
   1   -111.8264695 -0.111826E+03  0.116E-02    3.37       0.0  T
   2   -111.8264695 -0.362718E-07  0.690E-03    3.37       1.7  T
   3   -111.8264695  0.864098E-08  0.608E-04    3.37      18.9  T
   4   -111.8264695 -0.223688E-07  0.258E-04    3.37      44.5  T
     SCC iter.                  ...        0 min,  0.051 sec
     gradient                   ...        0 min,  0.015 sec
 * total energy  :  -110.2945060 Eh     change       -0.3797835E-05 Eh
   gradient norm :     0.0004198 Eh/α   predicted    -0.1724347E-05 ( -54.60%)
   displ. norm   :     0.1053710 α      lambda       -0.3721506E-05
   maximum displ.:     0.0377406 α      in ANC's #1, #2, #32, ...

........................................................................
.............................. CYCLE  161 ..............................
........................................................................

 iter      E             dE          RMSdq      gap      omega  full diag
   1   -111.8264438 -0.111826E+03  0.118E-02    3.37       0.0  T
   2   -111.8264439 -0.395189E-07  0.703E-03    3.37       1.6  T
   3   -111.8264439  0.606867E-08  0.634E-04    3.37      18.1  T
   4   -111.8264439 -0.218316E-07  0.275E-04    3.37      41.6  T
     SCC iter.                  ...        0 min,  0.052 sec
     gradient                   ...        0 min,  0.015 sec
 * total energy  :  -110.2945101 Eh     change       -0.4109701E-05 Eh
   gradient norm :     0.0005195 Eh/α   predicted    -0.1874453E-05 ( -54.39%)
   displ. norm   :     0.1177376 α      lambda       -0.4245357E-05
   maximum displ.:     0.0427482 α      in ANC's #1, #2, #32, ...

........................................................................
.............................. CYCLE  162 ..............................
........................................................................

 iter      E             dE          RMSdq      gap      omega  full diag
   1   -111.8263715 -0.111826E+03  0.132E-02    3.37       0.0  T
   2   -111.8263716 -0.651875E-07  0.784E-03    3.37       1.5  T
   3   -111.8263716  0.195156E-07  0.835E-04    3.37      13.7  T
   4   -111.8263716 -0.429468E-07  0.334E-04    3.37      34.3  T
     SCC iter.                  ...        0 min,  0.048 sec
     gradient                   ...        0 min,  0.021 sec
 * total energy  :  -110.2945148 Eh     change       -0.4699389E-05 Eh
   gradient norm :     0.0005987 Eh/α   predicted    -0.2138060E-05 ( -54.50%)
   displ. norm   :     0.1220456 α      lambda       -0.4894371E-05
   maximum displ.:     0.0480650 α      in ANC's #2, #1, #32, ...

........................................................................
.............................. CYCLE  163 ..............................
........................................................................

 iter      E             dE          RMSdq      gap      omega  full diag
   1   -111.8263947 -0.111826E+03  0.135E-02    3.37       0.0  T
   2   -111.8263948 -0.667759E-07  0.808E-03    3.37       1.4  T
   3   -111.8263947  0.466192E-07  0.998E-04    3.37      11.5  T
   4   -111.8263948 -0.736378E-07  0.336E-04    3.37      34.2  T
     SCC iter.                  ...        0 min,  0.052 sec
     gradient                   ...        0 min,  0.015 sec
 * total energy  :  -110.2945203 Eh     change       -0.5545295E-05 Eh
   gradient norm :     0.0005970 Eh/α   predicted    -0.2464856E-05 ( -55.55%)
   displ. norm   :     0.1477316 α      lambda       -0.5697520E-05
   maximum displ.:     0.0612435 α      in ANC's #2, #1, #35, ...

........................................................................
.............................. CYCLE  164 ..............................
........................................................................

 iter      E             dE          RMSdq      gap      omega  full diag
   1   -111.8261949 -0.111826E+03  0.163E-02    3.36       0.0  T
   2   -111.8261950 -0.101377E-06  0.969E-03    3.36       1.2  T
   3   -111.8261949  0.797974E-07  0.124E-03    3.36       9.3  T
   4   -111.8261950 -0.116856E-06  0.404E-04    3.36      28.4  T
   5   -111.8261950 -0.354544E-08  0.212E-04    3.36      54.1  T
     SCC iter.                  ...        0 min,  0.063 sec
     gradient                   ...        0 min,  0.015 sec
 * total energy  :  -110.2945266 Eh     change       -0.6263115E-05 Eh
   gradient norm :     0.0008311 Eh/α   predicted    -0.2877749E-05 ( -54.05%)
   displ. norm   :     0.1264570 α      lambda       -0.7587422E-05
   maximum displ.:     0.0572471 α      in ANC's #2, #1, #35, ...

........................................................................
.............................. CYCLE  165 ..............................
........................................................................

 iter      E             dE          RMSdq      gap      omega  full diag
   1   -111.8270019 -0.111827E+03  0.169E-02    3.36       0.0  T
   2   -111.8270021 -0.150792E-06  0.100E-02    3.36       1.1  T
   3   -111.8270020  0.111736E-06  0.143E-03    3.36       8.0  T
   4   -111.8270021 -0.155766E-06  0.449E-04    3.36      25.5  T
   5   -111.8270021 -0.597154E-08  0.240E-04    3.36      47.8  T
     SCC iter.                  ...        0 min,  0.062 sec
     gradient                   ...        0 min,  0.018 sec
 * total energy  :  -110.2945301 Eh     change       -0.3507517E-05 Eh
   gradient norm :     0.0011876 Eh/α   predicted    -0.3821130E-05 (   8.94%)
   displ. norm   :     0.2367739 α      lambda       -0.9962111E-05
   maximum displ.:     0.0988949 α      in ANC's #2, #1, #35, ...

........................................................................
.............................. CYCLE  166 ..............................
........................................................................

 iter      E             dE          RMSdq      gap      omega  full diag
   1   -111.8254743 -0.111825E+03  0.260E-02    3.36       0.0  T
   2   -111.8254749 -0.683196E-06  0.154E-02    3.36       1.0  T
   3   -111.8254749  0.238125E-07  0.178E-03    3.36       6.4  T
   4   -111.8254750 -0.989715E-07  0.696E-04    3.36      16.5  T
   5   -111.8254750 -0.185625E-07  0.362E-04    3.36      31.7  T
     SCC iter.                  ...        0 min,  0.059 sec
     gradient                   ...        0 min,  0.021 sec
 * total energy  :  -110.2945294 Eh     change        0.7193286E-06 Eh
   gradient norm :     0.0025739 Eh/α   predicted    -0.5107304E-05 (-810.01%)
   displ. norm   :     0.1076007 α      lambda       -0.1428860E-04
   maximum displ.:     0.0426256 α      in ANC's #2, #1, #35, ...

........................................................................
.............................. CYCLE  167 ..............................
........................................................................

 iter      E             dE          RMSdq      gap      omega  full diag
   1   -111.8261713 -0.111826E+03  0.122E-02    3.36       0.0  T
   2   -111.8261715 -0.144086E-06  0.720E-03    3.36       1.6  T
   3   -111.8261715  0.338084E-07  0.102E-03    3.36      11.2  T
   4   -111.8261715 -0.531041E-07  0.400E-04    3.36      28.7  T
   5   -111.8261715 -0.782049E-08  0.184E-04    3.36      62.5  T
     SCC iter.                  ...        0 min,  0.067 sec
     gradient                   ...        0 min,  0.011 sec
 * total energy  :  -110.2945377 Eh     change       -0.8320457E-05 Eh
   gradient norm :     0.0010228 Eh/α   predicted    -0.7228587E-05 ( -13.12%)
   displ. norm   :     0.0259620 α      lambda       -0.3495860E-05
   maximum displ.:     0.0091387 α      in ANC's #16, #14, #15, ...

........................................................................
.............................. CYCLE  168 ..............................
........................................................................

 iter      E             dE          RMSdq      gap      omega  full diag
   1   -111.8265003 -0.111827E+03  0.452E-03    3.36       0.0  T
   2   -111.8265003 -0.336820E-07  0.267E-03    3.36       4.3  T
   3   -111.8265003  0.787263E-08  0.547E-04    3.37      21.0  T
   4   -111.8265003 -0.142047E-07  0.195E-04    3.37      58.8  T
     SCC iter.                  ...        0 min,  0.050 sec
     gradient                   ...        0 min,  0.016 sec
 * total energy  :  -110.2945414 Eh     change       -0.3743857E-05 Eh
   gradient norm :     0.0002743 Eh/α   predicted    -0.1748648E-05 ( -53.29%)
   displ. norm   :     0.0710711 α      lambda       -0.3557851E-05
   maximum displ.:     0.0373510 α      in ANC's #2, #1, #17, ...

........................................................................
.............................. CYCLE  169 ..............................
........................................................................

 iter      E             dE          RMSdq      gap      omega  full diag
   1   -111.8266328 -0.111827E+03  0.102E-02    3.37       0.0  T
   2   -111.8266329 -0.365441E-07  0.603E-03    3.37       1.9  T
   3   -111.8266328  0.354447E-07  0.824E-04    3.37      13.9  T
   4   -111.8266329 -0.495793E-07  0.254E-04    3.37      45.1  T
     SCC iter.                  ...        0 min,  0.049 sec
     gradient                   ...        0 min,  0.013 sec
 * total energy  :  -110.2945456 Eh     change       -0.4227150E-05 Eh
   gradient norm :     0.0002915 Eh/α   predicted    -0.1785101E-05 ( -57.77%)
   displ. norm   :     0.1777625 α      lambda       -0.5524385E-05
   maximum displ.:     0.0936678 α      in ANC's #2, #1, #32, ...

........................................................................
.............................. CYCLE  170 ..............................
........................................................................

 iter      E             dE          RMSdq      gap      omega  full diag
   1   -111.8263788 -0.111826E+03  0.235E-02    3.37       0.0  T
   2   -111.8263789 -0.150383E-06  0.138E-02    3.37       1.0  T
   3   -111.8263788  0.110563E-06  0.156E-03    3.37       7.3  T
   4   -111.8263790 -0.158046E-06  0.497E-04    3.37      23.1  T
   5   -111.8263790 -0.633074E-08  0.254E-04    3.37      45.1  T
     SCC iter.                  ...        0 min,  0.069 sec
     gradient                   ...        0 min,  0.015 sec
 * total energy  :  -110.2945518 Eh     change       -0.6154966E-05 Eh
   gradient norm :     0.0007594 Eh/α   predicted    -0.2803695E-05 ( -54.45%)
   displ. norm   :     0.1575589 α      lambda       -0.3956620E-05
   maximum displ.:     0.0871458 α      in ANC's #2, #1, #32, ...

........................................................................
.............................. CYCLE  171 ..............................
........................................................................

 iter      E             dE          RMSdq      gap      omega  full diag
   1   -111.8260366 -0.111826E+03  0.213E-02    3.37       0.0  T
   2   -111.8260367 -0.112782E-06  0.125E-02    3.37       1.0  T
   3   -111.8260366  0.840467E-07  0.137E-03    3.37       8.4  T
   4   -111.8260367 -0.122089E-06  0.399E-04    3.37      28.8  T
   5   -111.8260367 -0.306430E-08  0.206E-04    3.37      55.7  T
     SCC iter.                  ...        0 min,  0.064 sec
     gradient                   ...        0 min,  0.008 sec
 * total energy  :  -110.2945556 Eh     change       -0.3830897E-05 Eh
   gradient norm :     0.0012979 Eh/α   predicted    -0.2002381E-05 ( -47.73%)
   displ. norm   :     0.0860115 α      lambda       -0.4552385E-05
   maximum displ.:     0.0535071 α      in ANC's #2, #1, #4, ...

........................................................................
.............................. CYCLE  172 ..............................
........................................................................

 iter      E             dE          RMSdq      gap      omega  full diag
   1   -111.8263116 -0.111826E+03  0.131E-02    3.37       0.0  T
   2   -111.8263117 -0.520243E-07  0.772E-03    3.37       1.5  T
   3   -111.8263116  0.671696E-07  0.113E-03    3.37      10.1  T
   4   -111.8263117 -0.860829E-07  0.253E-04    3.37      45.3  T
   5   -111.8263117 -0.129783E-08  0.125E-04    3.37      91.8  T
     SCC iter.                  ...        0 min,  0.066 sec
     gradient                   ...        0 min,  0.015 sec
 * total energy  :  -110.2945610 Eh     change       -0.5338936E-05 Eh
   gradient norm :     0.0006879 Eh/α   predicted    -0.2285842E-05 ( -57.19%)
   displ. norm   :     0.1626355 α      lambda       -0.5687252E-05
   maximum displ.:     0.1000695 α      in ANC's #2, #1, #4, ...

........................................................................
.............................. CYCLE  173 ..............................
........................................................................

 iter      E             dE          RMSdq      gap      omega  full diag
   1   -111.8263606 -0.111826E+03  0.236E-02    3.37       0.0  T
   2   -111.8263608 -0.123672E-06  0.139E-02    3.37       1.0  T
   3   -111.8263606  0.186830E-06  0.191E-03    3.37       6.0  T
   4   -111.8263608 -0.241722E-06  0.410E-04    3.37      27.9  T
   5   -111.8263608 -0.222053E-08  0.213E-04    3.37      53.9  T
     SCC iter.                  ...        0 min,  0.063 sec
     gradient                   ...        0 min,  0.016 sec
 * total energy  :  -110.2945675 Eh     change       -0.6493334E-05 Eh
   gradient norm :     0.0006692 Eh/α   predicted    -0.2877943E-05 ( -55.68%)
   displ. norm   :     0.1642361 α      lambda       -0.5609884E-05
   maximum displ.:     0.1055844 α      in ANC's #2, #1, #4, ...

........................................................................
.............................. CYCLE  174 ..............................
........................................................................

 iter      E             dE          RMSdq      gap      omega  full diag
   1   -111.8264461 -0.111826E+03  0.238E-02    3.37       0.0  T
   2   -111.8264462 -0.133186E-06  0.140E-02    3.37       1.0  T
   3   -111.8264460  0.240004E-06  0.208E-03    3.37       5.5  T
   4   -111.8264463 -0.304571E-06  0.426E-04    3.37      26.9  T
   5   -111.8264463 -0.204702E-08  0.227E-04    3.37      50.6  T
     SCC iter.                  ...        0 min,  0.062 sec
     gradient                   ...        0 min,  0.017 sec
 * total energy  :  -110.2945737 Eh     change       -0.6257264E-05 Eh
   gradient norm :     0.0005770 Eh/α   predicted    -0.2842162E-05 ( -54.58%)
   displ. norm   :     0.1726814 α      lambda       -0.4341327E-05
   maximum displ.:     0.1105340 α      in ANC's #2, #1, #4, ...

........................................................................
.............................. CYCLE  175 ..............................
........................................................................

 iter      E             dE          RMSdq      gap      omega  full diag
   1   -111.8262199 -0.111826E+03  0.243E-02    3.37       0.0  T
   2   -111.8262200 -0.152480E-06  0.143E-02    3.37       1.0  T
   3   -111.8262198  0.211067E-06  0.197E-03    3.37       5.8  T
   4   -111.8262201 -0.273488E-06  0.440E-04    3.37      26.0  T
   5   -111.8262201 -0.312664E-08  0.232E-04    3.37      49.4  T
     SCC iter.                  ...        0 min,  0.066 sec
     gradient                   ...        0 min,  0.014 sec
 * total energy  :  -110.2945786 Eh     change       -0.4835046E-05 Eh
   gradient norm :     0.0008571 Eh/α   predicted    -0.2202045E-05 ( -54.46%)
   displ. norm   :     0.1465310 α      lambda       -0.6021556E-05
   maximum displ.:     0.0985977 α      in ANC's #2, #1, #4, ...

........................................................................
.............................. CYCLE  176 ..............................
........................................................................

 iter      E             dE          RMSdq      gap      omega  full diag
   1   -111.8268897 -0.111827E+03  0.206E-02    3.37       0.0  T
   2   -111.8268898 -0.173857E-06  0.121E-02    3.37       1.0  T
   3   -111.8268896  0.207858E-06  0.192E-03    3.38       6.0  T
   4   -111.8268899 -0.269211E-06  0.467E-04    3.38      24.6  T
   5   -111.8268899 -0.482322E-08  0.235E-04    3.38      48.8  T
     SCC iter.                  ...        0 min,  0.058 sec
     gradient                   ...        0 min,  0.021 sec
 * total energy  :  -110.2945827 Eh     change       -0.4165322E-05 Eh
   gradient norm :     0.0009172 Eh/α   predicted    -0.3043719E-05 ( -26.93%)
   displ. norm   :     0.1645069 α      lambda       -0.5352607E-05
   maximum displ.:     0.1060185 α      in ANC's #2, #1, #4, ...

........................................................................
.............................. CYCLE  177 ..............................
........................................................................

 iter      E             dE          RMSdq      gap      omega  full diag
   1   -111.8263552 -0.111826E+03  0.217E-02    3.38       0.0  T
   2   -111.8263554 -0.168247E-06  0.128E-02    3.38       1.0  T
   3   -111.8263552  0.165314E-06  0.174E-03    3.38       6.6  T
   4   -111.8263554 -0.213372E-06  0.461E-04    3.38      24.9  T
   5   -111.8263554 -0.666559E-08  0.232E-04    3.38      49.4  T
     SCC iter.                  ...        0 min,  0.056 sec
     gradient                   ...        0 min,  0.021 sec
 * total energy  :  -110.2945878 Eh     change       -0.5041423E-05 Eh
   gradient norm :     0.0008195 Eh/α   predicted    -0.2709946E-05 ( -46.25%)
   displ. norm   :     0.0771838 α      lambda       -0.3234759E-05
   maximum displ.:     0.0520562 α      in ANC's #2, #1, #4, ...

........................................................................
.............................. CYCLE  178 ..............................
........................................................................

 iter      E             dE          RMSdq      gap      omega  full diag
   1   -111.8263762 -0.111826E+03  0.941E-03    3.38       0.0  T
   2   -111.8263762 -0.231410E-07  0.555E-03    3.38       2.1  T
   3   -111.8263762  0.279839E-07  0.717E-04    3.38      16.0  T
   4   -111.8263762 -0.372449E-07  0.173E-04    3.38      66.2  T
     SCC iter.                  ...        0 min,  0.051 sec
     gradient                   ...        0 min,  0.015 sec
 * total energy  :  -110.2945918 Eh     change       -0.4050970E-05 Eh
   gradient norm :     0.0008385 Eh/α   predicted    -0.1626552E-05 ( -59.85%)
   displ. norm   :     0.1499883 α      lambda       -0.7503672E-05
   maximum displ.:     0.0998023 α      in ANC's #2, #1, #4, ...

........................................................................
.............................. CYCLE  179 ..............................
........................................................................

 iter      E             dE          RMSdq      gap      omega  full diag
   1   -111.8266331 -0.111827E+03  0.166E-02    3.38       0.0  T
   2   -111.8266332 -0.787611E-07  0.982E-03    3.38       1.2  T
   3   -111.8266331  0.955851E-07  0.130E-03    3.38       8.8  T
   4   -111.8266332 -0.126271E-06  0.331E-04    3.38      34.7  T
   5   -111.8266332 -0.195661E-08  0.166E-04    3.38      69.1  T
     SCC iter.                  ...        0 min,  0.064 sec
     gradient                   ...        0 min,  0.014 sec
 * total energy  :  -110.2945994 Eh     change       -0.7621627E-05 Eh
   gradient norm :     0.0005377 Eh/α   predicted    -0.3791392E-05 ( -50.25%)
   displ. norm   :     0.1551877 α      lambda       -0.3744854E-05
   maximum displ.:     0.1050775 α      in ANC's #2, #1, #4, ...

........................................................................
.............................. CYCLE  180 ..............................
........................................................................

 iter      E             dE          RMSdq      gap      omega  full diag
   1   -111.8263092 -0.111826E+03  0.186E-02    3.38       0.0  T
   2   -111.8263093 -0.721031E-07  0.110E-02    3.38       1.0  T
   3   -111.8263092  0.854522E-07  0.129E-03    3.38       8.9  T
   4   -111.8263093 -0.113997E-06  0.295E-04    3.38      38.9  T
   5   -111.8263093 -0.128946E-08  0.148E-04    3.38      77.5  T
     SCC iter.                  ...        0 min,  0.063 sec
     gradient                   ...        0 min,  0.015 sec
 * total energy  :  -110.2946036 Eh     change       -0.4125317E-05 Eh
   gradient norm :     0.0006436 Eh/α   predicted    -0.1896696E-05 ( -54.02%)
   displ. norm   :     0.1540151 α      lambda       -0.3544725E-05
   maximum displ.:     0.1065031 α      in ANC's #2, #1, #4, ...

........................................................................
.............................. CYCLE  181 ..............................
........................................................................

 iter      E             dE          RMSdq      gap      omega  full diag
   1   -111.8263558 -0.111826E+03  0.190E-02    3.38       0.0  T
   2   -111.8263559 -0.686927E-07  0.112E-02    3.38       1.0  T
   3   -111.8263558  0.102960E-06  0.137E-03    3.38       8.4  T
   4   -111.8263559 -0.135605E-06  0.290E-04    3.38      39.5  T
   5   -111.8263559 -0.601958E-09  0.150E-04    3.38      76.7  T
     SCC iter.                  ...        0 min,  0.062 sec
     gradient                   ...        0 min,  0.017 sec
 * total energy  :  -110.2946078 Eh     change       -0.4280599E-05 Eh
   gradient norm :     0.0005364 Eh/α   predicted    -0.1793159E-05 ( -58.11%)
   displ. norm   :     0.1969842 α      lambda       -0.4601292E-05
   maximum displ.:     0.1367768 α      in ANC's #2, #1, #4, ...

........................................................................
.............................. CYCLE  182 ..............................
........................................................................

 iter      E             dE          RMSdq      gap      omega  full diag
   1   -111.8263301 -0.111826E+03  0.251E-02    3.38       0.0  T
   2   -111.8263302 -0.126264E-06  0.148E-02    3.38       1.0  T
   3   -111.8263301  0.158461E-06  0.179E-03    3.38       6.4  T
   4   -111.8263303 -0.214209E-06  0.384E-04    3.38      29.8  T
   5   -111.8263303 -0.129762E-08  0.189E-04    3.38      60.7  T
     SCC iter.                  ...        0 min,  0.066 sec
     gradient                   ...        0 min,  0.015 sec
 * total energy  :  -110.2946133 Eh     change       -0.5456452E-05 Eh
   gradient norm :     0.0005135 Eh/α   predicted    -0.2343509E-05 ( -57.05%)
   displ. norm   :     0.2419674 α      lambda       -0.4838012E-05
   maximum displ.:     0.1687290 α      in ANC's #2, #1, #4, ...

........................................................................
.............................. CYCLE  183 ..............................
........................................................................

 iter      E             dE          RMSdq      gap      omega  full diag
   1   -111.8262448 -0.111826E+03  0.317E-02    3.38       0.0  T
   2   -111.8262450 -0.203240E-06  0.187E-02    3.38       1.0  T
   3   -111.8262448  0.217577E-06  0.218E-03    3.38       5.3  T
   4   -111.8262451 -0.302451E-06  0.486E-04    3.38      23.6  T
   5   -111.8262451 -0.266381E-08  0.244E-04    3.38      47.0  T
     SCC iter.                  ...        0 min,  0.063 sec
     gradient                   ...        0 min,  0.014 sec
 * total energy  :  -110.2946185 Eh     change       -0.5217782E-05 Eh
   gradient norm :     0.0006114 Eh/α   predicted    -0.2483450E-05 ( -52.40%)
   displ. norm   :     0.2034519 α      lambda       -0.4076395E-05
   maximum displ.:     0.1428933 α      in ANC's #2, #1, #4, ...
 * RMSD in coord.:     0.3331736 α      energy gain  -0.1618459E-03 Eh

generating ANC from exact Hessian ...
Using Lindh-Hessian (1995)
 Shifting diagonal of input Hessian by   1.004957248029466E-002
 Lowest  eigenvalues of input Hessian
    0.010000    0.000000    0.000000    0.000000    0.000000    0.000000
    0.000000    0.010169    0.010200    0.010261    0.010341    0.010372
    0.010473    0.010605    0.010708    0.010914    0.010986    0.011253
 Highest eigenvalues
    2.006731    2.077424    2.078981    2.208147    2.316242    2.350906
 

........................................................................
.............................. CYCLE  184 ..............................
........................................................................

 iter      E             dE          RMSdq      gap      omega  full diag
   1   -111.8267016 -0.111827E+03  0.270E-02    3.38       0.0  T
   2   -111.8267018 -0.164657E-06  0.159E-02    3.38       1.0  T
   3   -111.8267016  0.163084E-06  0.192E-03    3.38       6.0  T
   4   -111.8267019 -0.227452E-06  0.429E-04    3.38      26.7  T
   5   -111.8267019 -0.246511E-08  0.219E-04    3.38      52.4  T
     SCC iter.                  ...        0 min,  0.054 sec
     gradient                   ...        0 min,  0.021 sec
 * total energy  :  -110.2946224 Eh     change       -0.3916712E-05 Eh
   gradient norm :     0.0005846 Eh/α   predicted     0.0000000E+00 (-100.00%)
   displ. norm   :     0.0131133 α      lambda       -0.3438141E-06
   maximum displ.:     0.0049864 α      in ANC's #11, #12, #17, ...

........................................................................
.............................. CYCLE  185 ..............................
........................................................................

 iter      E             dE          RMSdq      gap      omega  full diag
   1   -111.8267634 -0.111827E+03  0.271E-03    3.38       0.0  T
   2   -111.8267634 -0.885279E-08  0.161E-03    3.38       7.1  T
   3   -111.8267634  0.626714E-08  0.358E-04    3.38      32.0  T
   4   -111.8267634 -0.874584E-08  0.101E-04    3.38     113.9  T
     SCC iter.                  ...        0 min,  0.052 sec
     gradient                   ...        0 min,  0.015 sec
 * total energy  :  -110.2946242 Eh     change       -0.1764920E-05 Eh
   gradient norm :     0.0002106 Eh/α   predicted    -0.7625072E-06 ( -56.80%)
   displ. norm   :     0.0362415 α      lambda       -0.2010014E-05
   maximum displ.:     0.0136649 α      in ANC's #11, #17, #19, ...

........................................................................
.............................. CYCLE  186 ..............................
........................................................................

 iter      E             dE          RMSdq      gap      omega  full diag
   1   -111.8267781 -0.111827E+03  0.696E-03    3.39       0.0  T
   2   -111.8267781 -0.321953E-07  0.416E-03    3.39       2.8  T
   3   -111.8267781  0.750848E-07  0.103E-03    3.39      11.1  T
   4   -111.8267782 -0.932762E-07  0.217E-04    3.39      53.0  T
   5   -111.8267782 -0.479616E-09  0.130E-04    3.39      88.1  T
     SCC iter.                  ...        0 min,  0.064 sec
     gradient                   ...        0 min,  0.016 sec
 * total energy  :  -110.2946267 Eh     change       -0.2531514E-05 Eh
   gradient norm :     0.0004688 Eh/α   predicted    -0.1238749E-05 ( -51.07%)
   displ. norm   :     0.0338104 α      lambda       -0.1294858E-05
   maximum displ.:     0.0127138 α      in ANC's #17, #11, #14, ...

........................................................................
.............................. CYCLE  187 ..............................
........................................................................

 iter      E             dE          RMSdq      gap      omega  full diag
   1   -111.8267432 -0.111827E+03  0.626E-03    3.39       0.0  T
   2   -111.8267432 -0.233526E-07  0.373E-03    3.39       3.1  T
   3   -111.8267432  0.452004E-07  0.797E-04    3.39      14.4  T
   4   -111.8267432 -0.571192E-07  0.180E-04    3.39      63.7  T
     SCC iter.                  ...        0 min,  0.048 sec
     gradient                   ...        0 min,  0.017 sec
 * total energy  :  -110.2946282 Eh     change       -0.1438252E-05 Eh
   gradient norm :     0.0003976 Eh/α   predicted    -0.6634323E-06 ( -53.87%)
   displ. norm   :     0.0377957 α      lambda       -0.1166095E-05
   maximum displ.:     0.0140945 α      in ANC's #17, #14, #1, ...

........................................................................
.............................. CYCLE  188 ..............................
........................................................................

 iter      E             dE          RMSdq      gap      omega  full diag
   1   -111.8267117 -0.111827E+03  0.669E-03    3.39       0.0  T
   2   -111.8267117 -0.177834E-07  0.397E-03    3.39       2.9  T
   3   -111.8267117  0.236941E-07  0.615E-04    3.39      18.6  T
   4   -111.8267117 -0.321263E-07  0.171E-04    3.39      67.2  T
     SCC iter.                  ...        0 min,  0.054 sec
     gradient                   ...        0 min,  0.015 sec
 * total energy  :  -110.2946295 Eh     change       -0.1298105E-05 Eh
   gradient norm :     0.0002345 Eh/α   predicted    -0.5892719E-06 ( -54.61%)
   displ. norm   :     0.0419090 α      lambda       -0.1163242E-05
   maximum displ.:     0.0149779 α      in ANC's #17, #1, #4, ...

........................................................................
.............................. CYCLE  189 ..............................
........................................................................

 iter      E             dE          RMSdq      gap      omega  full diag
   1   -111.8266798 -0.111827E+03  0.719E-03    3.39       0.0  T
   2   -111.8266799 -0.155393E-07  0.425E-03    3.39       2.7  T
   3   -111.8266799  0.800991E-08  0.448E-04    3.39      25.6  T
   4   -111.8266799 -0.144174E-07  0.157E-04    3.39      72.9  T
     SCC iter.                  ...        0 min,  0.053 sec
     gradient                   ...        0 min,  0.015 sec
 * total energy  :  -110.2946307 Eh     change       -0.1252134E-05 Eh
   gradient norm :     0.0002696 Eh/α   predicted    -0.5826949E-06 ( -53.46%)
   displ. norm   :     0.0397696 α      lambda       -0.9833834E-06
   maximum displ.:     0.0149918 α      in ANC's #4, #1, #5, ...

........................................................................
.............................. CYCLE  190 ..............................
........................................................................

 iter      E             dE          RMSdq      gap      omega  full diag
   1   -111.8266796 -0.111827E+03  0.682E-03    3.39       0.0  T
   2   -111.8266796 -0.111178E-07  0.403E-03    3.39       2.8  T
   3   -111.8266796  0.366180E-08  0.392E-04    3.39      29.3  T
   4   -111.8266796 -0.895649E-08  0.144E-04    3.39      79.7  T
     SCC iter.                  ...        0 min,  0.044 sec
     gradient                   ...        0 min,  0.021 sec
 * total energy  :  -110.2946318 Eh     change       -0.1034849E-05 Eh
   gradient norm :     0.0002984 Eh/α   predicted    -0.4948381E-06 ( -52.18%)
   displ. norm   :     0.0311807 α      lambda       -0.7476743E-06
   maximum displ.:     0.0128355 α      in ANC's #4, #1, #5, ...

........................................................................
.............................. CYCLE  191 ..............................
........................................................................

 iter      E             dE          RMSdq      gap      omega  full diag
   1   -111.8266986 -0.111827E+03  0.529E-03    3.38       0.0  T
   2   -111.8266986 -0.855646E-08  0.313E-03    3.38       3.7  T
   3   -111.8266986  0.213782E-07  0.589E-04    3.38      19.5  T
   4   -111.8266986 -0.262836E-07  0.123E-04    3.38      93.3  T
     SCC iter.                  ...        0 min,  0.055 sec
     gradient                   ...        0 min,  0.011 sec
 * total energy  :  -110.2946326 Eh     change       -0.8147386E-06 Eh
   gradient norm :     0.0002239 Eh/α   predicted    -0.3743606E-06 ( -54.05%)
   displ. norm   :     0.0308413 α      lambda       -0.6589757E-06
   maximum displ.:     0.0136343 α      in ANC's #1, #4, #5, ...

   *** GEOMETRY OPTIMIZATION CONVERGED AFTER 191 ITERATIONS ***

------------------------------------------------------------------------
 total energy gain   :        -0.3315308 Eh     -208.0387 kcal/mol
 total RMSD          :         3.0704624 a0        1.6248 Å
 total power (kW/mol):        -4.5572463 (step)  -40.5494 (real)
------------------------------------------------------------------------

 ANCopt (total)                0 d,  0 h,  0 min, 21.466 sec
 optimizer setup                ...        0 min,  0.000 sec (  0.000%)
 model hessian                  ...        0 min,  0.307 sec (  1.430%)
 ANC generation                 ...        0 min,  0.139 sec (  0.648%)
 coordinate transformation      ...        0 min,  0.022 sec (  0.102%)
 single point calculation       ...        0 min, 20.815 sec ( 96.967%)
 optimization log               ...        0 min,  0.101 sec (  0.471%)
 hessian update                 ...        0 min,  0.014 sec (  0.065%)
 rational function              ...        0 min,  0.060 sec (  0.280%)

================
 final structure:
================
76
 xtb: 6.7.1pre (5071a88)
N            0.41389637386262        0.11354315298601        1.12589135057223
C            1.76415486937492       -0.09371328177842        0.74799548410796
C            2.77889887296964        0.57105110631096        1.43103991227498
C            4.09990922575108        0.37750560936824        1.08457619285830
C            4.45109301759358       -0.48256363035399        0.04937446119979
C            3.44019449366718       -1.17233582480898       -0.60487190287414
C            2.11382743249599       -0.99013605127894       -0.25573191517642
C            5.88665065658455       -0.61878287663131       -0.37340259481123
C            6.43967909237067        0.72319070462665       -0.85863136778667
C           -0.29006120977291        1.24128091647054        0.55700066874966
C            0.49227020864651        2.54392351283952        0.66742812346438
C           -0.39129701257183        3.77545139487453        0.40934375097956
C            0.47247486027012        5.00980848410854        0.10285691035261
C            0.84502619031651        5.08866027087577       -1.37694644895683
C            1.84196674111312        6.20811325141572       -1.64883990103656
O           -0.57941413316773        1.03477382451745       -0.82937658317981
N           -2.22108736380434        4.51717020123536        3.54422303938136
C           -3.25129038194918        4.01684854921571        2.80428307284345
C           -2.72768481056099        3.66978964253526        1.53566280443769
C           -1.33300124719103        3.99266124957619        1.55619200962192
C           -4.58846389924702        3.83164767565069        3.12645926773566
C           -3.58302650325701        3.12147785692194        0.57814156588476
C           -1.06497527166751        4.50132646965339        2.80008423117066
C           -5.40838244320507        3.29007507078763        2.15963179417891
C           -4.90907920402429        2.94018117935258        0.90253932521821
C            0.19328537492708        5.02271559179040        3.40196723189826
O           -1.98880043879207        2.56768883642313       -2.69764689152904
H           -0.12377125606373       -0.73391983149697        0.96322335560437
H           -1.17036848850877        0.27735536171401       -0.91642339440815
H            2.52484657929028        1.22627921651371        2.24820157361925
H            4.87231095016809        0.89856028131297        1.63080164896328
H            3.69028444165704       -1.86328296103295       -1.39824982593366
H            1.34243917811893       -1.54199973812527       -0.77619950982045
H            5.98676599298223       -1.34838652438809       -1.17910789814993
H            6.50393911520209       -0.96160108376459        0.45915504528624
H            6.56477275703449        1.42161953991332       -0.02232727615101
H            4.87034037577157        0.72678271134379       -2.26920528683295
H            7.94632211146309        2.57788279564190       -1.47127537587273
H           -1.23803157566484        1.33154326659855        1.10901361189609
H            1.31088204253627        2.51169807570396       -0.05273909008866
H           -1.00130602308910        3.58082718089072       -0.47441562723500
H           -0.08374759667966        5.90980499922678        0.36887254024150
H            1.38224714643822        4.98754749524072        0.70525260411058
H            1.27666306002500        4.13751428928182       -1.69774052196789
H           -0.06170944015290        5.26414663348850       -1.95790693120805
H            2.07250356716253        6.26654068926149       -2.71037791574820
H            1.42920669566488        7.16495521176271       -1.33825227644658
H            2.76878861269218        6.04146560060580       -1.10239634012245
H           -2.29029265847666        4.85748465363481        4.48818700341629
H           -2.96583704965449        5.30562345004276       -1.25184680250063
H           -4.96989928725471        4.10356841277676        4.10002749419568
H           -3.21943262392624        2.84066943105429       -0.39873695103295
H           -6.45494764680289        3.13236965551359        2.37429961691944
H           -5.58350928092365        2.51919405281629        0.17123198509270
H            1.06090562824469        4.52120290735650        2.98491763191057
H            0.29779370786203        6.09139046790639        3.21044094141965
H            0.18655111246895        4.87007220316337        4.48034788815123
H            0.90769604741446        2.60340964703607        1.67093907172961
H           -1.49911240224450        2.64246316635918       -3.51833248385796
O           -2.51645042311954        5.28041963825569       -2.09872541710762
H           -1.39828903179059        2.13771032050583       -2.05673156077213
H           -2.46331374517830        4.34387216478833       -2.34583985514065
N            5.50296021263564        1.34117555840526       -1.78191823103141
C            7.81442762962491        0.55076353482338       -1.54132581967467
O            8.25805011704894       -0.52942123640857       -1.87214596535481
C            4.24225636303131        3.11866571613432       -2.79136875330101
C            5.38654823110337        2.67693274341463       -1.91120787359005
O            6.15747140579585        3.44843473529139       -1.36583245722222
H            3.32073765877902        2.62752110173833       -2.48731766902587
H            4.45377765439231        2.85644807287963       -3.82622571151891
H            4.12381676091522        4.19545810825945       -2.71666489003608
N            8.43799151831324        1.72494428046807       -1.71999959667686
C            9.71652320157308        1.83585064346888       -2.37738217033808
H           10.43401028532699        2.33807027226464       -1.72662529160571
H            9.62690987925647        2.39867639983489       -3.30860781560101
H           10.06751499911098        0.82834380171594       -2.59570301887329
 
 Bond Distances (Angstroems)
 ---------------------------
N1-C2=1.4174         N1-C10=1.4460        N1-H28=1.0167        C2-N1=1.4174         C2-C3=1.3922         C2-C7=1.3904         
C3-C2=1.3922         C3-C4=1.3793         C3-H30=1.0778        C4-C3=1.3793         C4-C5=1.3909         C4-H31=1.0800        
C5-C4=1.3909         C5-C6=1.3877         C5-C8=1.5027         C6-C5=1.3877         C6-C7=1.3836         C6-H32=1.0814        
C7-C2=1.3904         C7-C6=1.3836         C7-H33=1.0819        C8-C5=1.5027         C8-C9=1.5304         C8-H34=1.0916        
C8-H35=1.0917        C9-C8=1.5304         C9-H36=1.0967        C9-N63=1.4532        C9-C64=1.5446        C10-N1=1.4460        
C10-C11=1.5235       C10-O16=1.4312       C10-H39=1.1007       C11-C10=1.5235       C11-C12=1.5375       C11-H40=1.0908       
C11-H58=1.0877       C12-C11=1.5375       C12-C13=1.5374       C12-C20=1.4997       C12-H41=1.0913       C13-C12=1.5374       
C13-C14=1.5280       C13-H42=1.0909       C13-H43=1.0914       C14-C13=1.5280       C14-C15=1.5235       C14-H44=1.0927       
C14-H45=1.0911       C15-C14=1.5235       C15-H46=1.0879       C15-H47=1.0874       C15-H48=1.0887       O16-C10=1.4312       
O16-H29=0.9646       N17-C18=1.3635       N17-C23=1.3750       N17-H49=1.0058       C18-N17=1.3635       C18-C19=1.4156       
C18-C21=1.3879       C19-C18=1.4156       C19-C20=1.4317       C19-C22=1.3961       C20-C12=1.4997       C20-C19=1.4317       
C20-C23=1.3703       C21-C18=1.3879       C21-C24=1.3785       C21-H51=1.0804       C22-C19=1.3961       C22-C25=1.3771       
C22-H52=1.0795       C23-N17=1.3750       C23-C20=1.3703       C23-C26=1.4891       C24-C21=1.3785       C24-C25=1.3971       
C24-H53=1.0799       C25-C22=1.3771       C25-C24=1.3971       C25-H54=1.0802       C26-C23=1.4891       C26-H55=1.0855       
C26-H56=1.0907       C26-H57=1.0892       O27-H59=0.9586       O27-H61=0.9718       H28-N1=1.0167        H29-O16=0.9646       
H30-C3=1.0778        H31-C4=1.0800        H32-C6=1.0814        H33-C7=1.0819        H34-C8=1.0916        H35-C8=1.0917        
H36-C9=1.0967        H37-N63=1.0075       H38-N72=1.0154       H39-C10=1.1007       H40-C11=1.0908       H41-C12=1.0913       
H42-C13=1.0909       H43-C13=1.0914       H44-C14=1.0927       H45-C14=1.0911       H46-C15=1.0879       H47-C15=1.0874       
H48-C15=1.0887       H49-N17=1.0058       H50-O60=0.9591       H51-C21=1.0804       H52-C22=1.0795       H53-C24=1.0799       
H54-C25=1.0802       H55-C26=1.0855       H56-C26=1.0907       H57-C26=1.0892       H58-C11=1.0877       H59-O27=0.9586       
O60-H50=0.9591       O60-H62=0.9701       H61-O27=0.9718       H62-O60=0.9701       N63-C9=1.4532        N63-H37=1.0075       
N63-C67=1.3470       C64-C9=1.5446        C64-O65=1.2137       C64-N72=1.3414       O65-C64=1.2137       C66-C67=1.5097       
C66-H69=1.0876       C66-H70=1.0883       C66-H71=1.0859       C67-N63=1.3470       C67-C66=1.5097       C67-O68=1.2194       
O68-C67=1.2194       H69-C66=1.0876       H70-C66=1.0883       H71-C66=1.0859       N72-H38=1.0154       N72-C64=1.3414       
N72-C73=1.4419       C73-N72=1.4419       C73-H74=1.0911       C73-H75=1.0918       C73-H76=1.0890       H74-C73=1.0911       
H75-C73=1.0918       H76-C73=1.0890       
 C  H  Rav=1.0878 sigma=0.0053  Rmin=1.0778  Rmax=1.1007    31
 C  C  Rav=1.4482 sigma=0.0661  Rmin=1.3703  Rmax=1.5446    25
 N  H  Rav=1.0114 sigma=0.0048  Rmin=1.0058  Rmax=1.0167     4
 N  C  Rav=1.3982 sigma=0.0435  Rmin=1.3414  Rmax=1.4532     8
 O  H  Rav=0.9648 sigma=0.0054  Rmin=0.9586  Rmax=0.9718     5
 O  C  Rav=1.2881 sigma=0.1012  Rmin=1.2137  Rmax=1.4312     3
 
 selected bond angles (degree)
 --------------------
C10-N1-C2=118.22               H28-N1-C2=109.83               H28-N1-C10=109.25              C3-C2-N1=119.59                
C7-C2-N1=121.76                C7-C2-C3=118.60                C4-C3-C2=120.52                H30-C3-C2=119.37               
H30-C3-C4=120.10               C5-C4-C3=121.03                H31-C4-C3=119.35               H31-C4-C5=119.61               
C6-C5-C4=118.31                C8-C5-C4=120.44                C8-C5-C6=121.21                C7-C6-C5=120.92                
H32-C6-C5=119.67               H32-C6-C7=119.40               C6-C7-C2=120.54                H33-C7-C2=119.79               
H33-C7-C6=119.67               C9-C8-C5=110.79                H34-C8-C5=110.85               H34-C8-C9=108.60               
H35-C8-C5=110.74               H35-C8-C9=108.23               H35-C8-H34=107.53              H36-C9-C8=110.97               
N63-C9-C8=109.96               N63-C9-H36=106.69              C64-C9-C8=111.34               C64-C9-H36=107.85              
C64-C9-N63=109.90              C11-C10-N1=112.85              O16-C10-N1=111.53              O16-C10-C11=107.30             
H39-C10-N1=106.61              H39-C10-C11=109.62             H39-C10-O16=108.88             
 
 selected dihedral angles (degree)
 ---------------------------------
C3-C2-N1-C10= 85.66           C3-C2-N1-H28=211.91           C7-C2-N1-C10=262.92           C7-C2-N1-H28= 29.17           
C4-C3-C2-N1=179.61            C4-C3-C2-C7=  2.26            H30-C3-C2-N1=  0.78           H30-C3-C2-C7=183.43           
C5-C4-C3-C2=  0.00            C5-C4-C3-H30=178.81           H31-C4-C3-C2=180.35           H31-C4-C3-H30=359.17          
C6-C5-C4-C3=358.24            C6-C5-C4-H31=177.88           C8-C5-C4-C3=176.18            C8-C5-C4-H31=355.82           
C7-C6-C5-C4=  1.28            C7-C6-C5-C8=183.35            H32-C6-C5-C4=181.35           H32-C6-C5-C8=  3.42           
C6-C7-C2-N1=179.97            C6-C7-C2-C3=357.26            H33-C7-C2-N1=  0.66           H33-C7-C2-C3=177.95           
C2-C7-C6-C5=  0.98            C2-C7-C6-H32=180.91           H33-C7-C6-C5=180.29           H33-C7-C6-H32=  0.22          
C9-C8-C5-C4=299.33            C9-C8-C5-C6=117.22            H34-C8-C5-C4=178.69           H34-C8-C5-C6=356.58           
H35-C8-C5-C4= 59.43           H35-C8-C5-C6=237.32           H36-C9-C8-C5= 70.58           H36-C9-C8-H34=192.54          
H36-C9-C8-H35=308.99          N63-C9-C8-C5=312.77           N63-C9-C8-H34= 74.74          N63-C9-C8-H35=191.19          
C64-C9-C8-C5=190.72           C64-C9-C8-H34=312.69          C64-C9-C8-H35= 69.14          C11-C10-N1-C2=310.61          
C11-C10-N1-H28=184.08         O16-C10-N1-C2= 71.48          O16-C10-N1-H28=304.95         H39-C10-N1-C2=190.21          
H39-C10-N1-H28= 63.68         
 
 CMA Distance (Angstroems)
 ---------------------------
R(CMA):  4.2932
           -------------------------------------------------
          |                Final Singlepoint                |
           -------------------------------------------------

          ...................................................
          :                      SETUP                      :
          :.................................................:
          :  # basis functions                 184          :
          :  # atomic orbitals                 184          :
          :  # shells                          112          :
          :  # electrons                       198          :
          :  max. iterations                   250          :
          :  Hamiltonian                  GFN2-xTB          :
          :  restarted?                      false          :
          :  GBSA solvation                  false          :
          :  PC potential                    false          :
          :  electronic temp.          500.0000000     K    :
          :  accuracy                    1.0000000          :
          :  -> integral cutoff          0.2500000E+02      :
          :  -> integral neglect         0.1000000E-07      :
          :  -> SCF convergence          0.1000000E-05 Eh   :
          :  -> wf. convergence          0.1000000E-03 e    :
          :  Broyden damping             0.4000000          :
          :  net charge                          0          :
          :  unpaired electrons                  0          :
          ...................................................

 iter      E             dE          RMSdq      gap      omega  full diag
   1   -111.8266986 -0.111827E+03  0.696E-05    3.38       0.0  T
   2   -111.8266986 -0.442952E-10  0.446E-05    3.38     257.3  T
   3   -111.8266986 -0.366782E-10  0.283E-05    3.38     405.2  T

   *** convergence criteria satisfied after 3 iterations ***

         #    Occupation            Energy/Eh            Energy/eV
      -------------------------------------------------------------
         1        2.0000           -0.7127806             -19.3957
       ...           ...                  ...                  ...
        93        2.0000           -0.4052034             -11.0261
        94        2.0000           -0.4032949             -10.9742
        95        2.0000           -0.3983874             -10.8407
        96        2.0000           -0.3856524             -10.4941
        97        2.0000           -0.3769532             -10.2574
        98        2.0000           -0.3749982             -10.2042
        99        2.0000           -0.3554043              -9.6710 (HOMO)
       100                         -0.2310409              -6.2869 (LUMO)
       101                         -0.2289764              -6.2308
       102                         -0.2254290              -6.1342
       103                         -0.2177445              -5.9251
       104                         -0.2070353              -5.6337
       ...                                ...                  ...
       184                          0.7221927              19.6519
      -------------------------------------------------------------
                  HL-Gap            0.1243634 Eh            3.3841 eV
             Fermi-level           -0.2932226 Eh           -7.9790 eV

 SCC (total)                   0 d,  0 h,  0 min,  0.055 sec
 SCC setup                      ...        0 min,  0.000 sec (  0.000%)
 Dispersion                     ...        0 min,  0.001 sec (  1.818%)
 classical contributions        ...        0 min,  0.000 sec (  0.000%)
 integral evaluation            ...        0 min,  0.004 sec (  7.273%)
 iterations                     ...        0 min,  0.040 sec ( 72.727%)
 molecular gradient             ...        0 min,  0.010 sec ( 18.182%)
 printout                       ...        0 min,  0.000 sec (  0.000%)

         :::::::::::::::::::::::::::::::::::::::::::::::::::::
         ::                     SUMMARY                     ::
         :::::::::::::::::::::::::::::::::::::::::::::::::::::
         :: total energy            -110.294632569181 Eh    ::
         :: gradient norm              0.000254439793 Eh/a0 ::
         :: HOMO-LUMO gap              3.384101466628 eV    ::
         ::.................................................::
         :: SCC energy              -111.824068970225 Eh    ::
         :: -> isotropic ES            0.184464143040 Eh    ::
         :: -> anisotropic ES          0.006950916909 Eh    ::
         :: -> anisotropic XC          0.040831736179 Eh    ::
         :: -> dispersion             -0.082184159360 Eh    ::
         :: repulsion energy           1.529436401044 Eh    ::
         :: add. restraining           0.000000000000 Eh    ::
         :: total charge               0.000000000000 e     ::
         :::::::::::::::::::::::::::::::::::::::::::::::::::::

           -------------------------------------------------
          |                Property Printout                |
           -------------------------------------------------

    * Orbital Energies and Occupations

         #    Occupation            Energy/Eh            Energy/eV
      -------------------------------------------------------------
         1        2.0000           -0.7127806             -19.3957
       ...           ...                  ...                  ...
        87        2.0000           -0.4169409             -11.3455
        88        2.0000           -0.4149352             -11.2910
        89        2.0000           -0.4133775             -11.2486
        90        2.0000           -0.4112981             -11.1920
        91        2.0000           -0.4085872             -11.1182
        92        2.0000           -0.4057838             -11.0419
        93        2.0000           -0.4052034             -11.0261
        94        2.0000           -0.4032949             -10.9742
        95        2.0000           -0.3983874             -10.8407
        96        2.0000           -0.3856524             -10.4941
        97        2.0000           -0.3769532             -10.2574
        98        2.0000           -0.3749982             -10.2042
        99        2.0000           -0.3554043              -9.6710 (HOMO)
       100                         -0.2310409              -6.2869 (LUMO)
       101                         -0.2289764              -6.2308
       102                         -0.2254290              -6.1342
       103                         -0.2177445              -5.9251
       104                         -0.2070353              -5.6337
       105                         -0.1928322              -5.2472
       106                         -0.1539054              -4.1880
       107                         -0.1047389              -2.8501
       108                         -0.0669584              -1.8220
       109                          0.0007935               0.0216
       110                          0.0022352               0.0608
       ...                                ...                  ...
       184                          0.7221927              19.6519
      -------------------------------------------------------------
                  HL-Gap            0.1243634 Eh            3.3841 eV
             Fermi-level           -0.2932226 Eh           -7.9790 eV

     #   Z          covCN         q      C6AA      α(0)
     1   7 N        2.685    -0.263    26.825     7.692
     2   6 C        2.907     0.074    26.340     8.415
     3   6 C        2.923    -0.046    29.131     8.851
     4   6 C        2.925    -0.038    28.950     8.824
     5   6 C        2.970     0.004    27.920     8.667
     6   6 C        2.924    -0.043    29.080     8.843
     7   6 C        2.921    -0.051    29.273     8.873
     8   6 C        3.811    -0.071    21.842     6.652
     9   6 C        3.797     0.019    20.252     6.408
    10   6 C        3.663     0.184    17.909     6.070
    11   6 C        3.808    -0.067    21.785     6.644
    12   6 C        3.855    -0.028    21.043     6.524
    13   6 C        3.805    -0.064    21.734     6.637
    14   6 C        3.801    -0.062    21.687     6.630
    15   6 C        3.752    -0.103    22.531     6.769
    16   8 O        1.654    -0.473    22.314     6.377
    17   7 N        2.784    -0.120    23.612     7.217
    18   6 C        3.070     0.041    27.002     8.520
    19   6 C        3.112    -0.025    28.473     8.742
    20   6 C        3.057    -0.050    29.188     8.860
    21   6 C        2.909    -0.055    29.367     8.886
    22   6 C        2.912    -0.049    29.222     8.864
    23   6 C        3.061     0.040    27.044     8.528
    24   6 C        2.924    -0.040    28.982     8.829
    25   6 C        2.919    -0.045    29.116     8.849
    26   6 C        3.754    -0.111    22.688     6.792
    27   8 O        1.610    -0.597    25.113     6.764
    28   1 H        0.860     0.146     1.432     1.875
    29   1 H        0.805     0.292     0.744     1.355
    30   1 H        0.926     0.043     2.411     2.428
    31   1 H        0.926     0.037     2.495     2.470
    32   1 H        0.925     0.031     2.575     2.510
    33   1 H        0.925     0.026     2.640     2.541
    34   1 H        0.924     0.065     2.146     2.291
    35   1 H        0.924     0.060     2.202     2.321
    36   1 H        0.924     0.063     2.168     2.303
    37   1 H        0.860     0.178     1.224     1.733
    38   1 H        0.860     0.206     1.076     1.625
    39   1 H        0.923     0.025     2.657     2.549
    40   1 H        0.924     0.049     2.334     2.389
    41   1 H        0.924     0.063     2.165     2.301
    42   1 H        0.924     0.040     2.452     2.449
    43   1 H        0.924     0.030     2.582     2.513
    44   1 H        0.924     0.021     2.717     2.578
    45   1 H        0.924     0.059     2.216     2.328
    46   1 H        0.925     0.030     2.589     2.516
    47   1 H        0.925     0.035     2.514     2.480
    48   1 H        0.925     0.030     2.580     2.512
    49   1 H        0.860     0.156     1.364     1.829
    50   1 H        0.805     0.274     0.806     1.410
    51   1 H        0.926     0.019     2.746     2.592
    52   1 H        0.926     0.040     2.449     2.447
    53   1 H        0.926     0.024     2.679     2.559
    54   1 H        0.926     0.024     2.668     2.554
    55   1 H        0.925     0.052     2.290     2.367
    56   1 H        0.924     0.052     2.301     2.372
    57   1 H        0.925     0.040     2.444     2.445
    58   1 H        0.925     0.047     2.358     2.401
    59   1 H        0.805     0.283     0.776     1.383
    60   8 O        1.610    -0.601    25.200     6.775
    61   1 H        0.804     0.314     0.681     1.296
    62   1 H        0.804     0.304     0.709     1.323
    63   7 N        2.692    -0.183    24.973     7.422
    64   6 C        2.753     0.263    22.557     7.777
    65   8 O        0.858    -0.436    22.417     6.348
    66   6 C        3.757    -0.143    23.311     6.884
    67   6 C        2.749     0.277    22.306     7.733
    68   8 O        0.859    -0.455    22.810     6.403
    69   1 H        0.925     0.055     2.261     2.352
    70   1 H        0.925     0.060     2.194     2.316
    71   1 H        0.925     0.079     1.985     2.203
    72   7 N        2.686    -0.176    24.805     7.397
    73   6 C        3.690    -0.043    21.530     6.640
    74   1 H        0.924     0.053     2.286     2.364
    75   1 H        0.924     0.050     2.320     2.382
    76   1 H        0.925     0.082     1.955     2.187

 Mol. C6AA /au·bohr⁶  :      55559.627971
 Mol. C8AA /au·bohr⁸  :    1265584.577703
 Mol. α(0) /au        :        361.954898


Wiberg/Mayer (AO) data.
largest (>0.10) Wiberg bond orders for each atom

 ---------------------------------------------------------------------------
     #   Z sym  total        # sym  WBO       # sym  WBO       # sym  WBO
 ---------------------------------------------------------------------------
     1   7 N    3.150 --     2 C    1.045    10 C    0.995    28 H    0.946
     2   6 C    3.974 --     7 C    1.396     3 C    1.378     1 N    1.045
                             5 C    0.101
     3   6 C    3.991 --     4 C    1.465     2 C    1.378    30 H    0.966
                             6 C    0.106
     4   6 C    3.991 --     3 C    1.465     5 C    1.397    31 H    0.968
                             7 C    0.107
     5   6 C    3.987 --     6 C    1.416     4 C    1.397     8 C    1.010
                             2 C    0.101
     6   6 C    3.990 --     7 C    1.442     5 C    1.416    32 H    0.968
                             3 C    0.106
     7   6 C    3.990 --     6 C    1.442     2 C    1.396    33 H    0.968
                             4 C    0.107
     8   6 C    3.991 --     5 C    1.010     9 C    0.984    34 H    0.970
                            35 H    0.961
     9   6 C    3.964 --     8 C    0.984    63 N    0.975    36 H    0.951
                            64 C    0.915
    10   6 C    3.939 --     1 N    0.995    11 C    0.993    39 H    0.956
                            16 O    0.944
    11   6 C    3.991 --    10 C    0.993    12 C    0.980    40 H    0.969
                            58 H    0.967
    12   6 C    3.991 --    20 C    1.005    13 C    0.985    11 C    0.980
                            41 H    0.954
    13   6 C    3.995 --    14 C    1.008    12 C    0.985    42 H    0.977
                            43 H    0.975
    14   6 C    3.995 --    15 C    1.019    13 C    1.008    44 H    0.976
                            45 H    0.972
    15   6 C    3.996 --    14 C    1.019    47 H    0.988    48 H    0.987
                            46 H    0.987
    16   8 O    1.978 --    10 C    0.944    29 H    0.897
    17   7 N    3.528 --    18 C    1.174    23 C    1.172    49 H    0.945
    18   6 C    3.958 --    21 C    1.343    19 C    1.243    17 N    1.174
    19   6 C    3.983 --    22 C    1.331    18 C    1.243    20 C    1.203
    20   6 C    3.971 --    23 C    1.551    19 C    1.203    12 C    1.005
    21   6 C    3.988 --    24 C    1.487    18 C    1.343    51 H    0.969
                            22 C    0.111
    22   6 C    3.989 --    25 C    1.501    19 C    1.331    52 H    0.963
                            21 C    0.111
    23   6 C    3.950 --    20 C    1.551    17 N    1.172    26 C    1.029
    24   6 C    3.988 --    21 C    1.487    25 C    1.374    53 H    0.972
    25   6 C    3.990 --    22 C    1.501    24 C    1.374    54 H    0.972
    26   6 C    3.995 --    23 C    1.029    57 H    0.980    55 H    0.975
                            56 H    0.967
    27   8 O    1.855 --    59 H    0.918    61 H    0.859
    28   1 H    0.978 --     1 N    0.946
    29   1 H    0.914 --    16 O    0.897
    30   1 H    0.998 --     3 C    0.966
    31   1 H    0.998 --     4 C    0.968
    32   1 H    0.999 --     6 C    0.968
    33   1 H    0.999 --     7 C    0.968
    34   1 H    0.995 --     8 C    0.970
    35   1 H    0.995 --     8 C    0.961
    36   1 H    0.996 --     9 C    0.951
    37   1 H    0.968 --    63 N    0.937
    38   1 H    0.958 --    72 N    0.907
    39   1 H    0.999 --    10 C    0.956
    40   1 H    0.997 --    11 C    0.969
    41   1 H    0.996 --    12 C    0.954
    42   1 H    0.998 --    13 C    0.977
    43   1 H    0.999 --    13 C    0.975
    44   1 H    1.000 --    14 C    0.976
    45   1 H    0.996 --    14 C    0.972
    46   1 H    0.999 --    15 C    0.987
    47   1 H    0.999 --    15 C    0.988
    48   1 H    0.999 --    15 C    0.987
    49   1 H    0.975 --    17 N    0.945
    50   1 H    0.925 --    60 O    0.922
    51   1 H    0.999 --    21 C    0.969
    52   1 H    0.998 --    22 C    0.963
    53   1 H    0.999 --    24 C    0.972
    54   1 H    0.999 --    25 C    0.972
    55   1 H    0.996 --    26 C    0.975
    56   1 H    0.993 --    26 C    0.967
    57   1 H    0.997 --    26 C    0.980
    58   1 H    0.998 --    11 C    0.967
    59   1 H    0.920 --    27 O    0.918
    60   8 O    1.824 --    50 H    0.922    62 H    0.871
    61   1 H    0.901 --    27 O    0.859
    62   1 H    0.908 --    60 O    0.871
    63   7 N    3.448 --    67 C    1.266     9 C    0.975    37 H    0.937
                            68 O    0.191
    64   6 C    3.957 --    65 O    1.678    72 N    1.293     9 C    0.915
    65   8 O    2.010 --    64 C    1.678    72 N    0.212
    66   6 C    3.992 --    67 C    0.984    71 H    0.981    69 H    0.973
                            70 H    0.966
    67   6 C    3.949 --    68 O    1.650    63 N    1.266    66 C    0.984
    68   8 O    1.993 --    67 C    1.650    63 N    0.191
    69   1 H    0.997 --    66 C    0.973
    70   1 H    0.996 --    66 C    0.966
    71   1 H    0.993 --    66 C    0.981
    72   7 N    3.467 --    64 C    1.293    73 C    1.006    38 H    0.907
                            65 O    0.212
    73   6 C    3.965 --    72 N    1.006    74 H    0.977    76 H    0.977
                            75 H    0.976
    74   1 H    0.997 --    73 C    0.977
    75   1 H    0.997 --    73 C    0.976
    76   1 H    0.993 --    73 C    0.977
 ---------------------------------------------------------------------------

Topologies differ in total number of bonds
Writing topology from bond orders to xtbtopo.mol

molecular dipole:
                 x           y           z       tot (Debye)
 q only:        0.000      -0.348       0.850
   full:       -0.417      -0.736       1.000       3.330
molecular quadrupole (traceless):
                xx          xy          yy          xz          yz          zz
 q only:      -16.011      20.756      -7.386      -5.557      15.533      23.397
  q+dip:      -22.616      24.798     -12.595      -8.854      28.345      35.211
   full:      -24.500      24.126     -10.359      -8.988      24.364      34.859

           -------------------------------------------------
          |                Geometry Summary                 |
           -------------------------------------------------

      molecular mass/u    :      500.6313367
   center of mass at/Å    :        1.5935990       2.3736377      -0.0319173
  moments of inertia/u·Å² :        0.2573420E+04   0.1051478E+05   0.1113134E+05
rotational constants/cm⁻¹ :        0.6550674E-02   0.1603232E-02   0.1514429E-02

 * 72 selected distances

     #   Z          #   Z                                           value/Å
     1   7 N        2   6 C                                       1.4173775
     2   6 C        3   6 C                                       1.3921807
     3   6 C        4   6 C                                       1.3793352
     4   6 C        5   6 C                                       1.3909321
     5   6 C        6   6 C                                       1.3877104
     2   6 C        7   6 C                                       1.3904365
     6   6 C        7   6 C                                       1.3835987
     8   6 C        9   6 C                                       1.5304186
     1   7 N       10   6 C                                       1.4460241
    10   6 C       11   6 C                                       1.5235205
    11   6 C       12   6 C                                       1.5375175 (max)
    12   6 C       13   6 C                                       1.5374244
    13   6 C       14   6 C                                       1.5280152
    14   6 C       15   6 C                                       1.5234802
    10   6 C       16   8 O                                       1.4312276
    17   7 N       18   6 C                                       1.3635071
    18   6 C       19   6 C                                       1.4156308
    19   6 C       20   6 C                                       1.4317158
    18   6 C       21   6 C                                       1.3878509
    19   6 C       22   6 C                                       1.3961026
    17   7 N       23   6 C                                       1.3749869
    20   6 C       23   6 C                                       1.3703454
    21   6 C       24   6 C                                       1.3785220
    22   6 C       25   6 C                                       1.3771414
    24   6 C       25   6 C                                       1.3971440
    23   6 C       26   6 C                                       1.4890702
     1   7 N       28   1 H                                       1.0167306
    16   8 O       29   1 H                                       0.9646176
     3   6 C       30   1 H                                       1.0777847
     4   6 C       31   1 H                                       1.0800300
     6   6 C       32   1 H                                       1.0813888
     7   6 C       33   1 H                                       1.0818873
     8   6 C       34   1 H                                       1.0915612
     8   6 C       35   1 H                                       1.0916601
     9   6 C       36   1 H                                       1.0967479
    10   6 C       39   1 H                                       1.1006878
    11   6 C       40   1 H                                       1.0907818
    12   6 C       41   1 H                                       1.0913388
    13   6 C       42   1 H                                       1.0909362
    13   6 C       43   1 H                                       1.0913579
    14   6 C       44   1 H                                       1.0926565
    14   6 C       45   1 H                                       1.0910913
    15   6 C       46   1 H                                       1.0878530
    15   6 C       47   1 H                                       1.0873740
    15   6 C       48   1 H                                       1.0887474
    17   7 N       49   1 H                                       1.0058188
    21   6 C       51   1 H                                       1.0804023
    22   6 C       52   1 H                                       1.0795118
    24   6 C       53   1 H                                       1.0799316
    25   6 C       54   1 H                                       1.0802299
    26   6 C       55   1 H                                       1.0854540
    26   6 C       56   1 H                                       1.0907202
    26   6 C       57   1 H                                       1.0891512
    11   6 C       58   1 H                                       1.0877278
    27   8 O       59   1 H                                       0.9585982 (min)
    50   1 H       60   8 O                                       0.9590553
    27   8 O       61   1 H                                       0.9717808
    60   8 O       62   1 H                                       0.9700569
     9   6 C       63   7 N                                       1.4532056
    37   1 H       63   7 N                                       1.0075392
    64   6 C       65   8 O                                       1.2136895
    63   7 N       67   6 C                                       1.3470394
    67   6 C       68   8 O                                       1.2194148
    66   6 C       69   1 H                                       1.0875969
    66   6 C       70   1 H                                       1.0883145
    66   6 C       71   1 H                                       1.0858594
    38   1 H       72   7 N                                       1.0154343
    64   6 C       72   7 N                                       1.3414384
    72   7 N       73   6 C                                       1.4419070
    73   6 C       74   1 H                                       1.0910990
    73   6 C       75   1 H                                       1.0917806
    73   6 C       76   1 H                                       1.0890039

 * 6 distinct bonds (by element types)

   Z      Z             #   av. dist./Å        max./Å        min./Å
   1 H    6 C          31     1.0877635     1.1006878     1.0777847
   6 C    6 C          21     1.4356235     1.5375175     1.3703454
   1 H    7 N           4     1.0113807     1.0167306     1.0058188
   6 C    7 N           8     1.3981857     1.4532056     1.3414384
   1 H    8 O           5     0.9648218     0.9717808     0.9585982
   6 C    8 O           3     1.2881107     1.4312276     1.2136895


optimized geometry written to: xtbopt.xyz


           -------------------------------------------------
          | TOTAL ENERGY             -110.294632569181 Eh   |
          | GRADIENT NORM               0.000254439793 Eh/α |
          | HOMO-LUMO GAP               3.384101466628 eV   |
           -------------------------------------------------

------------------------------------------------------------------------
 * finished run on 2026/08/20 at 20:40:15.205     
------------------------------------------------------------------------
 total:
 * wall-time:     0 d,  0 h,  0 min, 21.835 sec
 *  cpu-time:     0 d,  0 h,  0 min, 46.938 sec
 * ratio c/w:     2.150 speedup
 SCF:
 * wall-time:     0 d,  0 h,  0 min,  0.278 sec
 *  cpu-time:     0 d,  0 h,  0 min,  0.484 sec
 * ratio c/w:     1.742 speedup
 ANC optimizer:
 * wall-time:     0 d,  0 h,  0 min, 21.537 sec
 *  cpu-time:     0 d,  0 h,  0 min, 46.422 sec
 * ratio c/w:     2.155 speedup



===== STDERR =====

normal termination of xtb
