76
 energy: -110.273356692161 gnorm: 0.000130761783 xtb: 6.7.1pre (5071a88)
N            0.22122091907868        0.48440028959432       -0.52487916103665
C            1.55135682340840        0.18945346501669       -0.29739116615046
C            2.27733792655064        0.71655050458903        0.77206241929970
C            3.62499958491637        0.45109859104469        0.89638998081447
C            4.28131199527790       -0.37745623406564       -0.00464467906782
C            3.52753812949308       -1.00372294884378       -0.99034215982437
C            2.18468080871273       -0.72988147778276       -1.13710045450036
C            5.77869662252249       -0.44628657370333       -0.03000544637609
C            6.27188240216577        0.70647440556684       -0.92580159479556
C           -0.43265147579009        1.67591237700185       -0.26660633270466
C            0.07888645590203        2.84489368949111        0.12053801586175
C           -0.79906131367612        4.03483519653294        0.40805475858038
C           -0.00909615769866        5.35237108719936        0.41560576033085
C            0.54969732291865        5.71352087123918       -0.95861682716693
C            1.22800952379139        7.07791391219050       -0.94181223396917
O            0.33758078750360        0.20415211901754       -3.54638466850020
N           -2.05960212174713        3.48103797818852        3.85388645948100
C           -3.24194801970622        3.75068016823062        3.23312693165065
C           -2.95328458184618        3.98902551417492        1.86582396059623
C           -1.53706428388516        3.85055568746925        1.70696014972692
C           -4.53468174573919        3.81957394481388        3.73390060662384
C           -4.00145826576312        4.29325751510682        0.99461154529629
C           -1.03152023356807        3.54117105994806        2.94144546299487
C           -5.54675315495758        4.12836315452269        2.84988600041210
C           -5.28165390261212        4.36020940477912        1.49732003495608
C            0.35739073352442        3.27298190082944        3.39993526742702
O            1.52798110421829        2.55533424245536       -2.81823301736500
H           -0.18554445632608       -0.05796611883761       -1.27674907505004
H           -0.17308316564122        0.40879198024396       -4.33080543652264
H            1.78168595920278        1.33564038592959        1.50111889491525
H            4.18405543177683        0.90775034605803        1.70112555317769
H            4.00354442257516       -1.70185561930629       -1.66582503543019
H            1.61783190485897       -1.18910421273067       -1.93328752469629
H            6.13571660405211       -1.39336996867827       -0.43766836465626
H            6.20768358343103       -0.31788443155562        0.96350115814759
H            5.87840416983042        1.65414354469986       -0.53907495126665
H            6.02872022877369       -0.26503155069312       -2.76450996793720
H            7.57112012587507        2.51230335596603       -2.03037768194596
H           -1.50179299352639        1.60094142387424       -0.43043088324628
H            1.13926065884472        2.97381182609162        0.27055608760691
H           -1.55957963831517        4.10285321378133       -0.37896188261307
H           -0.66973555300066        6.15560904429409        0.74897455221054
H            0.80980853215747        5.28634448184963        1.13453406330564
H            1.27219771175501        4.96054575756593       -1.27867681608369
H           -0.26354196690376        5.72296746233420       -1.68816186585517
H            1.61044207701007        7.32713657445381       -1.92900142618230
H            0.52375459689981        7.84945517897080       -0.63857899811256
H            2.05990602199082        7.08145931491894       -0.24064152779787
H           -1.94492894373661        3.27142900021196        4.83074136658726
H           -2.55384850055217        6.19593424062060        2.21257138441447
H           -4.73760898221462        3.63718911393517        4.77893206239940
H           -3.81228790213204        4.47633881598433       -0.05278170794415
H           -6.56452885493607        4.19114520320570        3.20516424784785
H           -6.10345957094816        4.59563988718568        0.83697299369132
H            1.06827794754943        3.49925158971856        2.61358141532461
H            0.59370040303162        3.88488283821847        4.27078467383001
H            0.47018990863558        2.22454091092562        3.68133307682646
H            2.46471333121100        2.48427780332635       -2.55425339243742
H            1.04747169329993        2.81742447556743       -2.02574783880153
O           -2.67720654991053        7.13970508969100        2.36015883747366
H            0.79855536310883        1.03487869444839       -3.30841496256475
H           -3.62441702051693        7.28747451139160        2.38193147535223
N            5.75073950746521        0.57130904648441       -2.27345825412811
C            7.80320806064960        0.77241581737742       -0.99283054076167
O            8.53171227832134       -0.06770666502482       -0.51317283104368
C            4.08634570939215        0.75569303785193       -4.01116777713813
C            4.65190388763922        1.23154810580878       -2.69863773613092
O            4.17533474264263        2.17084772376498       -2.08032101056685
H            3.22252837661489        0.12643403899354       -3.79964635425965
H            4.81165490559773        0.18995752207342       -4.58850004192081
H            3.73651598081409        1.60867821511472       -4.58709972256199
N            8.24292135422866        1.85594326929202       -1.66445088726847
C            9.64274279510897        2.12910291614748       -1.87929664534781
H            9.92612940378383        3.07767272866535       -1.42010859444812
H            9.87052920950886        2.16589497063044       -2.94615398155300
H           10.20646132794232        1.32113526450601       -1.41591773958622
