      -----------------------------------------------------------      
     |                   =====================                   |     
     |                           x T B                           |     
     |                   =====================                   |     
     |                         S. Grimme                         |     
     |          Mulliken Center for Theoretical Chemistry        |     
     |                    University of Bonn                     |     
      -----------------------------------------------------------      

   * xtb version 6.7.1pre (5071a88) compiled by 'Marcel@Raven' on 2024-07-23

   xtb is free software: you can redistribute it and/or modify it under
   the terms of the GNU Lesser General Public License as published by
   the Free Software Foundation, either version 3 of the License, or
   (at your option) any later version.
   
   xtb is distributed in the hope that it will be useful,
   but WITHOUT ANY WARRANTY; without even the implied warranty of
   MERCHANTABILITY or FITNESS FOR A PARTICULAR PURPOSE.  See the
   GNU Lesser General Public License for more details.
   
   Cite this work as:
   * C. Bannwarth, E. Caldeweyher, S. Ehlert, A. Hansen, P. Pracht,
     J. Seibert, S. Spicher, S. Grimme, WIREs Comput. Mol. Sci., 2020, 11,
     e01493. DOI: 10.1002/wcms.1493
   
   for GFN2-xTB:
   * C. Bannwarth, S. Ehlert and S. Grimme., J. Chem. Theory Comput., 2019,
     15, 1652-1671. DOI: 10.1021/acs.jctc.8b01176
   for GFN1-xTB:
   * S. Grimme, C. Bannwarth, P. Shushkov, J. Chem. Theory Comput., 2017,
     13, 1989-2009. DOI: 10.1021/acs.jctc.7b00118
   for GFN0-xTB:
   * P. Pracht, E. Caldeweyher, S. Ehlert, S. Grimme, ChemRxiv, 2019, preprint.
     DOI: 10.26434/chemrxiv.8326202.v1
   for GFN-FF:
   * S. Spicher and S. Grimme, Angew. Chem. Int. Ed., 2020, 59, 15665-15673.
     DOI: 10.1002/anie.202004239
   
   for ALPB and GBSA implicit solvation:
   * S. Ehlert, M. Stahn, S. Spicher, S. Grimme, J. Chem. Theory Comput.,
     2021, 17, 4250-4261. DOI: 10.1021/acs.jctc.1c00471
   
   for ddCOSMO and CPCM-X implicit solvation:
   * M. Stahn, S. Ehlert, S. Grimme, J. Phys. Chem. A,
     2023, XX, XXXX-XXXX. DOI: 10.1021/acs.jpca.3c04382
   
   for DFT-D4:
   * E. Caldeweyher, C. Bannwarth and S. Grimme, J. Chem. Phys., 2017,
     147, 034112. DOI: 10.1063/1.4993215
   * E. Caldeweyher, S. Ehlert, A. Hansen, H. Neugebauer, S. Spicher,
     C. Bannwarth and S. Grimme, J. Chem. Phys., 2019, 150, 154122.
     DOI: 10.1063/1.5090222
   * E. Caldeweyher, J.-M. Mewes, S. Ehlert and S. Grimme, Phys. Chem. Chem. Phys.
     2020, 22, 8499-8512. DOI: 10.1039/D0CP00502A
   
   for sTDA-xTB:
   * S. Grimme and C. Bannwarth, J. Chem. Phys., 2016, 145, 054103.
     DOI: 10.1063/1.4959605
   
   in the mass-spec context:
   * V. Asgeirsson, C. Bauer and S. Grimme, Chem. Sci., 2017, 8, 4879.
     DOI: 10.1039/c7sc00601b
   * J. Koopman and S. Grimme, ACS Omega 2019, 4, 12, 15120-15133.
     DOI: 10.1021/acsomega.9b02011
   
   for metadynamics refer to:
   * S. Grimme, J. Chem. Theory Comput., 2019, 155, 2847-2862
     DOI: 10.1021/acs.jctc.9b00143
   
   for SPH calculations refer to:
   * S. Spicher and S. Grimme, J. Chem. Theory Comput., 2021, 17, 1701-1714
     DOI: 10.1021/acs.jctc.0c01306
   
   for ONIOM refer to:
   * C. Plett, A. Katbashev, S. Ehlert, S. Grimme, M. Bursch,
     Phys. Chem. Chem. Phys., 2023, 25, 17860-17868. DOI: 10.1039/D3CP02178E
   
   for DIPRO refer to:
   * J. Kohn, N. Gildemeister, S. Grimme, D. Fazzi, A. Hansen,
     J. Chem. Phys., 2023, just accepted.
   
   for PTB refer to:
   * S. Grimme, M. Mueller, A. Hansen, J. Chem. Phys., 2023, 158, 124111.
     DOI: 10.1063/5.0137838
   
   with help from (in alphabetical order)
   P. Atkinson, C. Bannwarth, F. Bohle, G. Brandenburg, E. Caldeweyher
   M. Checinski, S. Dohm, S. Ehlert, S. Ehrlich, I. Gerasimov, C. Hölzer
   A. Katbashev, J. Kohn, J. Koopman, C. Lavigne, S. Lehtola, F. März, M. Müller,
   F. Musil, H. Neugebauer, J. Pisarek, C. Plett, P. Pracht, F. Pultar,
   J. Seibert, P. Shushkov, S. Spicher, M. Stahn, M. Steiner, T. Strunk,
   J. Stückrath, T. Rose, and J. Unsleber
   
 * started run on 2026/08/20 at 20:39:08.153     
   ID    Z sym.   atoms
    1    7 N      1, 17, 63, 72
    2    6 C      2-15, 18-26, 64, 66, 67, 73
    3    8 O      16, 27, 60, 65, 68
    4    1 H      28-59, 61, 62, 69-71, 74-76

           -------------------------------------------------
          |                Calculation Setup                |
           -------------------------------------------------

          program call               : C:\Users\Nayanika\Downloads\xtb-6.7.1pre-windows-x86_64\xtb-6.7.1\bin\xtb.exe D:\PhD_Thesis\LmrR_EVB\charges\fast_lmrr_5QM\xtb_preparation\stage2_five_xtb_protocols\GFN2_etemp500\TS2_1a_to_PS2_2\TS2_1a_to_PS2_2_RS_xtbopt.xyz --gfn 2 --chrg 0 --uhf 0 --hess --etemp 500
          coordinate file            : D:\PhD_Thesis\LmrR_EVB\charges\fast_lmrr_5QM\xtb_preparation\stage2_five_xtb_protocols\GFN2_etemp500\TS2_1a_to_PS2_2\TS2_1a_to_PS2_2_RS_xtbopt.xyz
          omp threads                :                     8


molecular fragmentation (1/2 indicates fragments):
111111111111111211111111112121111111111111111111121111111222221111111111
1111
# atoms in fragment 1/2:    67     9
 fragment masses (1/2) :      446.59       54.05
CMA distance (Bohr)    :   8.626
constraining FC (au)   :  0.0500

           -------------------------------------------------
          |                 G F N 2 - x T B                 |
           -------------------------------------------------

        Reference                      10.1021/acs.jctc.8b01176
      * Hamiltonian:
        H0-scaling (s, p, d)           1.850000    2.230000    2.230000
        zeta-weighting                 0.500000
      * Dispersion:
        s8                             2.700000
        a1                             0.520000
        a2                             5.000000
        s9                             5.000000
      * Repulsion:
        kExp                           1.500000    1.000000
        rExp                           1.000000
      * Coulomb:
        alpha                          2.000000
        third order                    shell-resolved
        anisotropic                    true
        a3                             3.000000
        a5                             4.000000
        cn-shift                       1.200000
        cn-exp                         4.000000
        max-rad                        5.000000

q/qsh data taken from xtbrestart
CAMM data taken from xtbrestart

          ...................................................
          :                      SETUP                      :
          :.................................................:
          :  # basis functions                 184          :
          :  # atomic orbitals                 184          :
          :  # shells                          112          :
          :  # electrons                       198          :
          :  max. iterations                   250          :
          :  Hamiltonian                  GFN2-xTB          :
          :  restarted?                       true          :
          :  GBSA solvation                  false          :
          :  PC potential                    false          :
          :  electronic temp.          500.0000000     K    :
          :  accuracy                    1.0000000          :
          :  -> integral cutoff          0.2500000E+02      :
          :  -> integral neglect         0.1000000E-07      :
          :  -> SCF convergence          0.1000000E-05 Eh   :
          :  -> wf. convergence          0.1000000E-03 e    :
          :  Broyden damping             0.4000000          :
          :  net charge                          0          :
          :  unpaired electrons                  0          :
          ...................................................

 iter      E             dE          RMSdq      gap      omega  full diag
   1   -111.8440262 -0.111844E+03  0.557E-07    2.62       0.0  T
   2   -111.8440262 -0.397904E-12  0.395E-07    2.62   29036.1  T
   3   -111.8440262  0.284217E-12  0.185E-07    2.62   61961.3  T

   *** convergence criteria satisfied after 3 iterations ***

         #    Occupation            Energy/Eh            Energy/eV
      -------------------------------------------------------------
         1        2.0000           -0.6998044             -19.0426
       ...           ...                  ...                  ...
        93        2.0000           -0.3949624             -10.7475
        94        2.0000           -0.3903344             -10.6215
        95        2.0000           -0.3894123             -10.5964
        96        2.0000           -0.3861851             -10.5086
        97        2.0000           -0.3761335             -10.2351
        98        2.0000           -0.3644682              -9.9177
        99        2.0000           -0.3336179              -9.0782 (HOMO)
       100                         -0.2373449              -6.4585 (LUMO)
       101                         -0.2126416              -5.7863
       102                         -0.2113365              -5.7508
       103                         -0.2099349              -5.7126
       104                         -0.2056929              -5.5972
       ...                                ...                  ...
       184                          0.7087171              19.2852
      -------------------------------------------------------------
                  HL-Gap            0.0962730 Eh            2.6197 eV
             Fermi-level           -0.2854814 Eh           -7.7683 eV

 SCC (total)                   0 d,  0 h,  0 min,  0.070 sec
 SCC setup                      ...        0 min,  0.000 sec (  0.000%)
 Dispersion                     ...        0 min,  0.001 sec (  1.429%)
 classical contributions        ...        0 min,  0.002 sec (  2.857%)
 integral evaluation            ...        0 min,  0.004 sec (  5.714%)
 iterations                     ...        0 min,  0.046 sec ( 65.714%)
 molecular gradient             ...        0 min,  0.016 sec ( 22.857%)
 printout                       ...        0 min,  0.001 sec (  1.428%)

         :::::::::::::::::::::::::::::::::::::::::::::::::::::
         ::                     SUMMARY                     ::
         :::::::::::::::::::::::::::::::::::::::::::::::::::::
         :: total energy            -110.267252105759 Eh    ::
         :: gradient norm              0.000640532836 Eh/a0 ::
         :: HOMO-LUMO gap              2.619722047603 eV    ::
         ::.................................................::
         :: SCC energy              -111.842472115576 Eh    ::
         :: -> isotropic ES            0.183207944688 Eh    ::
         :: -> anisotropic ES          0.006688549573 Eh    ::
         :: -> anisotropic XC          0.040573528437 Eh    ::
         :: -> dispersion             -0.080367178469 Eh    ::
         :: repulsion energy           1.575220009817 Eh    ::
         :: add. restraining           0.000000000000 Eh    ::
         :: total charge               0.000000000000 e     ::
         :::::::::::::::::::::::::::::::::::::::::::::::::::::

           ------------------------------------------------- 
          |                Numerical Hessian                |
           ------------------------------------------------- 
step length          :   0.00500
SCC accuracy         :   0.30000
Hessian scale factor :   1.00000
frozen atoms in %    :   0.00000    0
RMS gradient         :   0.00064
estimated CPU  time     11.35 min
estimated wall time      1.71 min

writing file <hessian>.

 projected vibrational frequencies (cm⁻¹)
eigval :       -0.00    -0.00    -0.00     0.00     0.00     0.00
eigval :        3.02     8.48    13.41    17.31    18.74    21.39
eigval :       25.08    28.78    33.29    37.90    43.38    48.07
eigval :       51.85    57.68    59.34    63.93    69.06    74.68
eigval :       79.09    81.84    86.62    89.80    92.53    97.83
eigval :      104.29   106.81   116.37   125.18   131.11   141.62
eigval :      149.96   156.67   160.07   168.56   170.89   183.94
eigval :      185.42   199.83   203.97   219.37   220.80   234.80
eigval :      236.55   239.98   268.60   281.48   289.57   291.59
eigval :      294.80   312.50   325.95   331.64   357.73   370.88
eigval :      383.82   386.80   409.91   413.56   434.26   448.43
eigval :      453.01   472.89   489.52   495.65   501.99   525.39
eigval :      528.88   554.06   578.64   585.83   594.62   603.83
eigval :      606.02   628.44   643.91   649.97   656.61   668.93
eigval :      693.08   697.56   702.82   720.58   728.43   769.49
eigval :      770.40   782.71   800.25   806.68   861.85   864.30
eigval :      865.51   867.00   874.70   895.00   896.64   909.57
eigval :      918.78   922.51   925.24   930.02   949.37   975.21
eigval :      990.22   993.23   997.17  1004.38  1008.80  1017.25
eigval :     1037.00  1039.25  1065.33  1077.41  1079.05  1104.93
eigval :     1105.01  1114.81  1118.90  1119.57  1132.19  1137.98
eigval :     1143.00  1161.71  1164.97  1168.31  1174.90  1196.89
eigval :     1201.34  1212.10  1221.41  1225.36  1225.78  1229.26
eigval :     1238.39  1254.19  1260.74  1273.08  1283.27  1288.43
eigval :     1294.18  1300.99  1312.10  1318.93  1319.57  1331.47
eigval :     1335.54  1355.38  1364.20  1367.47  1372.62  1392.55
eigval :     1395.05  1408.65  1409.34  1417.23  1421.92  1435.27
eigval :     1450.11  1455.00  1457.60  1463.39  1467.97  1469.05
eigval :     1472.60  1479.02  1485.35  1492.41  1493.99  1497.05
eigval :     1505.57  1507.42  1514.30  1525.28  1538.82  1557.11
eigval :     1568.39  1575.52  1587.93  1613.61  1626.23  1703.30
eigval :     1716.14  1757.52  2875.96  2908.99  2943.06  2966.53
eigval :     2968.14  2985.97  2988.29  2988.95  2992.84  2998.52
eigval :     2999.82  3015.28  3026.08  3026.49  3029.82  3030.48
eigval :     3032.26  3039.07  3051.95  3063.33  3067.14  3068.95
eigval :     3071.99  3072.76  3074.44  3076.37  3084.80  3096.31
eigval :     3109.57  3116.19  3301.65  3358.45  3449.31  3460.38
eigval :     3489.67  3534.11  3586.26  3654.38  3657.06  3670.69
           -------------------------------------------------
          |                Property Printout                |
           -------------------------------------------------

    * Orbital Energies and Occupations

         #    Occupation            Energy/Eh            Energy/eV
      -------------------------------------------------------------
         1        2.0000           -0.6998044             -19.0426
       ...           ...                  ...                  ...
        87        2.0000           -0.4235871             -11.5264
        88        2.0000           -0.4205697             -11.4443
        89        2.0000           -0.4188335             -11.3970
        90        2.0000           -0.4135828             -11.2542
        91        2.0000           -0.4079533             -11.1010
        92        2.0000           -0.3989952             -10.8572
        93        2.0000           -0.3949624             -10.7475
        94        2.0000           -0.3903344             -10.6215
        95        2.0000           -0.3894123             -10.5964
        96        2.0000           -0.3861851             -10.5086
        97        2.0000           -0.3761335             -10.2351
        98        2.0000           -0.3644682              -9.9177
        99        2.0000           -0.3336179              -9.0782 (HOMO)
       100                         -0.2373449              -6.4585 (LUMO)
       101                         -0.2126416              -5.7863
       102                         -0.2113365              -5.7508
       103                         -0.2099349              -5.7126
       104                         -0.2056930              -5.5972
       105                         -0.1987197              -5.4074
       106                         -0.1635469              -4.4503
       107                         -0.1615446              -4.3959
       108                         -0.0802644              -2.1841
       109                         -0.0781079              -2.1254
       110                          0.0107820               0.2934
       ...                                ...                  ...
       184                          0.7087171              19.2852
      -------------------------------------------------------------
                  HL-Gap            0.0962730 Eh            2.6197 eV
             Fermi-level           -0.2854814 Eh           -7.7683 eV

     #   Z          covCN         q      C6AA      α(0)
     1   7 N        2.693    -0.149    24.228     7.310
     2   6 C        2.902     0.067    26.504     8.441
     3   6 C        2.921    -0.057    29.428     8.896
     4   6 C        2.924    -0.040    28.995     8.830
     5   6 C        2.969    -0.008    28.225     8.714
     6   6 C        2.923    -0.044    29.085     8.844
     7   6 C        2.926    -0.065    29.624     8.926
     8   6 C        3.811    -0.069    21.811     6.648
     9   6 C        3.796     0.020    20.240     6.406
    10   6 C        2.825     0.008    27.828     8.644
    11   6 C        2.893    -0.085    30.138     9.001
    12   6 C        3.859    -0.018    20.858     6.495
    13   6 C        3.806    -0.059    21.629     6.621
    14   6 C        3.800    -0.052    21.506     6.603
    15   6 C        3.752    -0.103    22.518     6.767
    16   8 O        1.610    -0.594    25.041     6.754
    17   7 N        2.783    -0.114    23.488     7.198
    18   6 C        3.070     0.039    27.052     8.528
    19   6 C        3.110    -0.031    28.624     8.765
    20   6 C        3.059    -0.055    29.296     8.876
    21   6 C        2.908    -0.058    29.431     8.896
    22   6 C        2.911    -0.051    29.255     8.869
    23   6 C        3.064     0.045    26.928     8.509
    24   6 C        2.923    -0.043    29.065     8.841
    25   6 C        2.918    -0.047    29.158     8.855
    26   6 C        3.754    -0.120    22.852     6.816
    27   8 O        1.610    -0.583    24.780     6.719
    28   1 H        0.860     0.200     1.105     1.647
    29   1 H        0.806     0.276     0.799     1.404
    30   1 H        0.926     0.034     2.533     2.489
    31   1 H        0.926     0.027     2.625     2.534
    32   1 H        0.925     0.021     2.722     2.580
    33   1 H        0.926     0.027     2.626     2.534
    34   1 H        0.924     0.060     2.203     2.321
    35   1 H        0.924     0.056     2.251     2.346
    36   1 H        0.924     0.058     2.217     2.328
    37   1 H        0.860     0.183     1.197     1.714
    38   1 H        0.860     0.208     1.066     1.617
    39   1 H        0.925     0.039     2.465     2.455
    40   1 H        0.926     0.030     2.583     2.513
    41   1 H        0.923     0.034     2.532     2.488
    42   1 H        0.924     0.020     2.735     2.586
    43   1 H        0.924     0.036     2.509     2.477
    44   1 H        0.924     0.034     2.528     2.487
    45   1 H        0.924     0.027     2.629     2.536
    46   1 H        0.925     0.034     2.531     2.488
    47   1 H        0.925     0.030     2.584     2.514
    48   1 H        0.925     0.034     2.526     2.485
    49   1 H        0.860     0.165     1.306     1.790
    50   1 H        0.805     0.290     0.752     1.362
    51   1 H        0.926     0.023     2.692     2.566
    52   1 H        0.926     0.024     2.679     2.560
    53   1 H        0.926     0.025     2.653     2.547
    54   1 H        0.926     0.025     2.662     2.552
    55   1 H        0.925     0.059     2.216     2.328
    56   1 H        0.924     0.067     2.115     2.274
    57   1 H        0.925     0.046     2.367     2.406
    58   1 H        0.805     0.289     0.756     1.365
    59   1 H        0.805     0.300     0.720     1.333
    60   8 O        1.611    -0.578    24.666     6.703
    61   1 H        0.804     0.314     0.681     1.296
    62   1 H        0.805     0.280     0.785     1.392
    63   7 N        2.692    -0.183    24.960     7.420
    64   6 C        2.753     0.264    22.548     7.776
    65   8 O        0.858    -0.438    22.446     6.352
    66   6 C        3.757    -0.143    23.316     6.884
    67   6 C        2.749     0.277    22.310     7.734
    68   8 O        0.859    -0.457    22.852     6.409
    69   1 H        0.925     0.057     2.233     2.337
    70   1 H        0.925     0.072     2.062     2.246
    71   1 H        0.925     0.060     2.202     2.321
    72   7 N        2.686    -0.179    24.869     7.406
    73   6 C        3.690    -0.041    21.507     6.637
    74   1 H        0.924     0.051     2.306     2.375
    75   1 H        0.924     0.048     2.344     2.394
    76   1 H        0.925     0.081     1.969     2.194

 Mol. C6AA /au·bohr⁶  :      56259.538283
 Mol. C8AA /au·bohr⁸  :    1285398.335070
 Mol. α(0) /au        :        366.275952


Wiberg/Mayer (AO) data.
largest (>0.10) Wiberg bond orders for each atom

 ---------------------------------------------------------------------------
     #   Z sym  total        # sym  WBO       # sym  WBO       # sym  WBO
 ---------------------------------------------------------------------------
     1   7 N    3.473 --     2 C    1.149    10 C    1.135    28 H    0.908
     2   6 C    3.971 --     3 C    1.336     7 C    1.335     1 N    1.149
     3   6 C    3.988 --     4 C    1.470     2 C    1.336    30 H    0.964
     4   6 C    3.991 --     3 C    1.470     5 C    1.396    31 H    0.969
                             7 C    0.101
     5   6 C    3.970 --     4 C    1.396     6 C    1.395     8 C    1.009
     6   6 C    3.990 --     7 C    1.469     5 C    1.395    32 H    0.968
     7   6 C    3.986 --     6 C    1.469     2 C    1.335    33 H    0.968
                             4 C    0.101
     8   6 C    3.990 --     5 C    1.009     9 C    0.981    34 H    0.970
                            35 H    0.966
     9   6 C    3.962 --     8 C    0.981    63 N    0.973    36 H    0.952
                            64 C    0.915
    10   6 C    3.967 --    11 C    1.795     1 N    1.135    39 H    0.955
    11   6 C    3.957 --    10 C    1.795    12 C    0.997    40 H    0.958
    12   6 C    3.994 --    20 C    0.998    11 C    0.997    13 C    0.980
                            41 H    0.949
    13   6 C    3.995 --    14 C    1.008    12 C    0.980    43 H    0.976
                            42 H    0.976
    14   6 C    3.997 --    15 C    1.018    13 C    1.008    45 H    0.978
                            44 H    0.975
    15   6 C    3.996 --    14 C    1.018    47 H    0.988    48 H    0.988
                            46 H    0.987
    16   8 O    1.842 --    29 H    0.921    61 H    0.870
    17   7 N    3.538 --    18 C    1.182    23 C    1.176    49 H    0.943
    18   6 C    3.960 --    21 C    1.345    19 C    1.232    17 N    1.182
    19   6 C    3.983 --    22 C    1.325    18 C    1.232    20 C    1.209
    20   6 C    3.970 --    23 C    1.537    19 C    1.209    12 C    0.998
    21   6 C    3.989 --    24 C    1.485    18 C    1.345    51 H    0.969
                            22 C    0.109
    22   6 C    3.989 --    25 C    1.495    19 C    1.325    52 H    0.967
                            21 C    0.109
    23   6 C    3.953 --    20 C    1.537    17 N    1.176    26 C    1.033
    24   6 C    3.988 --    21 C    1.485    25 C    1.374    53 H    0.972
    25   6 C    3.989 --    22 C    1.495    24 C    1.374    54 H    0.972
    26   6 C    3.993 --    23 C    1.033    55 H    0.976    57 H    0.973
                            56 H    0.963
    27   8 O    1.854 --    58 H    0.913    59 H    0.887
    28   1 H    0.959 --     1 N    0.908
    29   1 H    0.924 --    16 O    0.921
    30   1 H    0.999 --     3 C    0.964
    31   1 H    0.999 --     4 C    0.969
    32   1 H    0.999 --     6 C    0.968
    33   1 H    0.999 --     7 C    0.968
    34   1 H    0.996 --     8 C    0.970
    35   1 H    0.995 --     8 C    0.966
    36   1 H    0.997 --     9 C    0.952
    37   1 H    0.966 --    63 N    0.932
    38   1 H    0.957 --    72 N    0.902
    39   1 H    0.998 --    10 C    0.955
    40   1 H    0.999 --    11 C    0.958
    41   1 H    0.997 --    12 C    0.949
    42   1 H    0.999 --    13 C    0.976
    43   1 H    0.999 --    13 C    0.976
    44   1 H    0.999 --    14 C    0.975
    45   1 H    0.999 --    14 C    0.978
    46   1 H    0.998 --    15 C    0.987
    47   1 H    0.999 --    15 C    0.988
    48   1 H    0.999 --    15 C    0.988
    49   1 H    0.972 --    17 N    0.943
    50   1 H    0.916 --    60 O    0.903
    51   1 H    0.999 --    21 C    0.969
    52   1 H    0.999 --    22 C    0.967
    53   1 H    0.999 --    24 C    0.972
    54   1 H    0.999 --    25 C    0.972
    55   1 H    0.996 --    26 C    0.976
    56   1 H    0.992 --    26 C    0.963
    57   1 H    0.996 --    26 C    0.973
    58   1 H    0.917 --    27 O    0.913
    59   1 H    0.910 --    27 O    0.887
    60   8 O    1.833 --    62 H    0.921    50 H    0.903
    61   1 H    0.901 --    16 O    0.870
    62   1 H    0.922 --    60 O    0.921
    63   7 N    3.453 --    67 C    1.275     9 C    0.973    37 H    0.932
                            68 O    0.192
    64   6 C    3.956 --    65 O    1.678    72 N    1.292     9 C    0.915
    65   8 O    2.008 --    64 C    1.678    72 N    0.212
    66   6 C    3.993 --    70 H    0.983    67 C    0.983    69 H    0.971
                            71 H    0.970
    67   6 C    3.951 --    68 O    1.644    63 N    1.275    66 C    0.983
    68   8 O    1.992 --    67 C    1.644    63 N    0.192
    69   1 H    0.997 --    66 C    0.971
    70   1 H    0.995 --    66 C    0.983
    71   1 H    0.996 --    66 C    0.970
    72   7 N    3.465 --    64 C    1.292    73 C    1.006    38 H    0.902
                            65 O    0.212
    73   6 C    3.967 --    72 N    1.006    74 H    0.977    76 H    0.977
                            75 H    0.976
    74   1 H    0.997 --    73 C    0.977
    75   1 H    0.998 --    73 C    0.976
    76   1 H    0.993 --    73 C    0.977
 ---------------------------------------------------------------------------

Topologies differ in total number of bonds
Writing topology from bond orders to xtbtopo.mol

molecular dipole:
                 x           y           z       tot (Debye)
 q only:       -1.757       0.438       0.019
   full:       -2.623       0.703      -0.146       6.911
molecular quadrupole (traceless):
                xx          xy          yy          xz          yz          zz
 q only:      -21.088       3.828       8.857      -8.307       9.745      12.231
  q+dip:      -28.113       0.177      14.283     -11.598      12.362      13.829
   full:      -30.405      -0.061      15.719     -11.850      12.540      14.685

           -------------------------------------------------
          |               Frequency Printout                |
           -------------------------------------------------
 projected vibrational frequencies (cm⁻¹)
eigval :       -0.00    -0.00    -0.00     0.00     0.00     0.00
eigval :        3.02     8.48    13.41    17.31    18.74    21.39
eigval :       25.08    28.78    33.29    37.90    43.38    48.07
eigval :       51.85    57.68    59.34    63.93    69.06    74.68
eigval :       79.09    81.84    86.62    89.80    92.53    97.83
eigval :      104.29   106.81   116.37   125.18   131.11   141.62
eigval :      149.96   156.67   160.07   168.56   170.89   183.94
eigval :      185.42   199.83   203.97   219.37   220.80   234.80
eigval :      236.55   239.98   268.60   281.48   289.57   291.59
eigval :      294.80   312.50   325.95   331.64   357.73   370.88
eigval :      383.82   386.80   409.91   413.56   434.26   448.43
eigval :      453.01   472.89   489.52   495.65   501.99   525.39
eigval :      528.88   554.06   578.64   585.83   594.62   603.83
eigval :      606.02   628.44   643.91   649.97   656.61   668.93
eigval :      693.08   697.56   702.82   720.58   728.43   769.49
eigval :      770.40   782.71   800.25   806.68   861.85   864.30
eigval :      865.51   867.00   874.70   895.00   896.64   909.57
eigval :      918.78   922.51   925.24   930.02   949.37   975.21
eigval :      990.22   993.23   997.17  1004.38  1008.80  1017.25
eigval :     1037.00  1039.25  1065.33  1077.41  1079.05  1104.93
eigval :     1105.01  1114.81  1118.90  1119.57  1132.19  1137.98
eigval :     1143.00  1161.71  1164.97  1168.31  1174.90  1196.89
eigval :     1201.34  1212.10  1221.41  1225.36  1225.78  1229.26
eigval :     1238.39  1254.19  1260.74  1273.08  1283.27  1288.43
eigval :     1294.18  1300.99  1312.10  1318.93  1319.57  1331.47
eigval :     1335.54  1355.38  1364.20  1367.47  1372.62  1392.55
eigval :     1395.05  1408.65  1409.34  1417.23  1421.92  1435.27
eigval :     1450.11  1455.00  1457.60  1463.39  1467.97  1469.05
eigval :     1472.60  1479.02  1485.35  1492.41  1493.99  1497.05
eigval :     1505.57  1507.42  1514.30  1525.28  1538.82  1557.11
eigval :     1568.39  1575.52  1587.93  1613.61  1626.23  1703.30
eigval :     1716.14  1757.52  2875.96  2908.99  2943.06  2966.53
eigval :     2968.14  2985.97  2988.29  2988.95  2992.84  2998.52
eigval :     2999.82  3015.28  3026.08  3026.49  3029.82  3030.48
eigval :     3032.26  3039.07  3051.95  3063.33  3067.14  3068.95
eigval :     3071.99  3072.76  3074.44  3076.37  3084.80  3096.31
eigval :     3109.57  3116.19  3301.65  3358.45  3449.31  3460.38
eigval :     3489.67  3534.11  3586.26  3654.38  3657.06  3670.69
 reduced masses (amu)
   1: 12.16   2: 11.88   3: 12.03   4: 11.74   5: 11.91   6: 12.21   7: 11.38   8: 11.80
   9: 12.10  10: 11.81  11: 12.59  12: 11.47  13: 12.00  14: 11.77  15: 12.07  16: 10.51
  17:  5.88  18: 12.94  19: 12.11  20: 11.45  21:  7.88  22:  8.69  23:  8.47  24:  7.81
  25:  7.49  26:  8.80  27:  9.69  28:  7.10  29: 11.01  30: 10.63  31:  6.03  32:  4.85
  33: 10.09  34:  1.86  35: 10.30  36:  8.15  37:  9.50  38: 10.97  39:  7.89  40:  7.42
  41:  9.60  42:  9.62  43:  3.89  44: 11.76  45: 10.13  46:  9.13  47:  2.30  48:  7.83
  49:  4.16  50: 11.80  51: 10.08  52:  2.30  53: 10.80  54: 11.79  55: 10.23  56: 10.28
  57: 10.93  58: 10.23  59: 10.91  60:  9.61  61:  6.03  62:  6.14  63:  9.34  64:  9.44
  65: 10.08  66:  5.27  67:  9.87  68: 10.21  69: 11.03  70:  8.81  71:  8.59  72:  9.38
  73: 10.14  74:  7.03  75:  8.43  76:  2.04  77: 10.99  78: 10.65  79: 10.96  80: 10.38
  81:  2.50  82:  9.64  83: 10.48  84: 10.49  85:  8.46  86:  7.53  87: 10.54  88:  8.19
  89: 11.04  90:  7.72  91:  4.34  92:  6.60  93:  7.61  94:  5.61  95:  5.78  96:  8.32
  97:  5.89  98:  7.63  99:  9.38 100:  3.99 101:  3.89 102:  2.67 103:  2.95 104:  4.42
 105:  8.58 106:  8.95 107:  6.71 108: 10.83 109:  3.05 110:  5.78 111:  4.77 112:  5.47
 113:  7.10 114:  6.95 115:  8.48 116:  4.37 117:  6.27 118:  9.35 119:  7.23 120:  3.85
 121:  8.76 122:  7.34 123:  7.27 124:  8.05 125:  7.48 126:  5.73 127:  4.45 128:  5.38
 129:  6.18 130:  5.37 131:  3.04 132:  5.39 133:  2.49 134:  5.28 135:  5.85 136:  4.82
 137:  4.94 138:  4.70 139:  5.24 140:  4.67 141:  4.29 142:  3.84 143:  4.37 144:  3.06
 145:  4.40 146:  4.67 147:  5.51 148:  5.42 149:  9.87 150:  6.48 151:  7.19 152:  7.72
 153: 10.64 154:  5.48 155:  3.27 156:  2.62 157:  4.26 158:  9.22 159:  9.12 160:  3.19
 161: 10.10 162:  8.59 163:  8.31 164: 11.29 165:  1.68 166:  1.57 167:  1.58 168:  1.86
 169:  1.83 170:  2.14 171:  2.50 172:  9.83 173:  2.71 174:  1.84 175:  1.53 176:  1.64
 177: 10.45 178:  2.23 179:  2.12 180:  2.10 181: 11.44 182: 11.50 183: 11.63 184: 11.54
 185: 11.65 186: 11.64 187: 13.10 188: 13.19 189:  1.73 190:  1.74 191:  1.81 192:  1.81
 193:  1.91 194:  1.70 195:  1.98 196:  1.48 197:  1.59 198:  1.49 199:  1.88 200:  1.54
 201:  1.89 202:  1.91 203:  1.52 204:  1.72 205:  1.83 206:  1.41 207:  1.79 208:  1.78
 209:  1.75 210:  1.72 211:  1.81 212:  1.77 213:  1.85 214:  1.79 215:  1.85 216:  1.91
 217:  1.83 218:  1.83 219:  1.89 220:  1.84 221:  1.85 222:  1.86 223:  1.86 224:  1.87
 225:  1.82 226:  1.82 227:  1.87 228:  1.83
 IR intensities (km·mol⁻¹)
   1:  0.20   2:  0.01   3:  0.12   4:  0.06   5:  0.01   6:  0.08   7:  0.20   8:  0.14
   9:  0.66  10:  0.12  11:  0.56  12:  0.92  13:  1.65  14:  3.21  15:  9.91  16:  1.05
  17: 13.67  18:  0.31  19:  7.50  20:  5.72  21:  3.93  22:  2.88  23: 12.54  24: 15.81
  25: 25.24  26: 25.98  27:  7.60  28:  8.30  29: 15.28  30:  7.13  31: 34.62  32: 16.49
  33:  5.53  34:  0.26  35: 63.07  36:  9.74  37:  2.28  38: 16.14  39: 31.62  40: 24.25
  41:  2.77  42: 32.33  43:136.97  44:  3.14  45:  2.76  46:  9.87  47:161.88  48:  6.67
  49:  0.13  50:  2.48  51:  4.97  52:166.22  53:  6.67  54:  2.53  55:  0.71  56:  1.63
  57:  1.87  58:  7.89  59:  8.46  60:  3.65  61: 80.59  62: 74.96  63:  1.96  64: 18.80
  65:  3.50  66:128.92  67:  8.94  68:  0.99  69:  1.17  70: 19.78  71: 32.15  72:  3.77
  73:  7.24  74: 24.69  75:  4.03  76:176.36  77: 11.85  78: 16.79  79:  8.43  80:  1.16
  81:256.80  82: 40.82  83: 11.26  84: 15.37  85: 29.85  86: 37.95  87:  3.35  88:  6.59
  89:  5.15  90:  7.14  91: 31.24  92:  2.56  93:  2.99  94: 20.97  95:  2.25  96:  0.07
  97:  0.01  98:  2.30  99:  2.02 100:  0.32 101:  0.81 102:  0.33 103:  0.01 104:  0.60
 105:  2.32 106:  0.63 107:  4.76 108: 17.85 109: 13.80 110:  2.48 111:  1.70 112: 24.80
 113:  2.45 114:  2.08 115: 24.61 116:  9.63 117:  0.13 118:  4.22 119: 23.66 120:  0.76
 121:  7.08 122:  5.13 123:  1.67 124: 35.89 125: 21.36 126:  1.22 127:  0.66 128: 11.67
 129:  9.73 130:  9.94 131:  2.60 132:  4.36 133: 11.05 134:  3.14 135: 22.94 136: 16.93
 137:  8.00 138:  0.69 139:  4.23 140: 27.19 141:  3.67 142:  4.49 143: 16.54 144: 10.41
 145:  6.63 146:  1.41 147:  2.76 148:  9.10 149: 42.80 150:  6.47 151: 25.41 152: 27.89
 153: 18.18 154:  4.75 155: 17.66 156:  2.29 157:  7.85 158: 99.15 159: 57.60 160:  0.43
 161:225.23 162:262.21 163:117.76 164: 76.54 165:  5.58 166: 10.07 167:  9.62 168: 11.42
 169:  6.19 170:  0.29 171: 27.84 172:  9.34 173:  0.37 174:  0.25 175:  2.80 176:  1.95
 177:488.83 178:127.21 179: 88.13 180:156.91 181:  1.85 182:  0.95 183: 12.61 184:167.54
 185: 19.69 186:231.83 187:328.69 188:595.24 189: 32.18 190: 17.02 191: 57.07 192: 31.81
 193: 33.09 194: 38.10 195: 15.80 196: 50.85 197: 33.66 198: 20.16 199:  7.83 200: 17.12
 201: 24.48 202: 56.18 203:  8.78 204:  8.49 205: 43.66 206: 37.25 207: 44.47 208: 23.04
 209:  6.19 210:  4.77 211: 41.74 212: 15.82 213: 34.80 214:  6.99 215: 70.77 216: 78.96
 217: 68.25 218: 17.88 219:163.89 220:240.90 221: 26.67 222:290.55 223: 15.39 224: 85.48
 225: 68.96 226: 12.20 227: 13.16 228: 11.09
 Raman intensities (Ä⁴*amu⁻¹)
   1:  0.00   2:  0.00   3:  0.00   4:  0.00   5:  0.00   6:  0.00   7:  0.00   8:  0.00
   9:  0.00  10:  0.00  11:  0.00  12:  0.00  13:  0.00  14:  0.00  15:  0.00  16:  0.00
  17:  0.00  18:  0.00  19:  0.00  20:  0.00  21:  0.00  22:  0.00  23:  0.00  24:  0.00
  25:  0.00  26:  0.00  27:  0.00  28:  0.00  29:  0.00  30:  0.00  31:  0.00  32:  0.00
  33:  0.00  34:  0.00  35:  0.00  36:  0.00  37:  0.00  38:  0.00  39:  0.00  40:  0.00
  41:  0.00  42:  0.00  43:  0.00  44:  0.00  45:  0.00  46:  0.00  47:  0.00  48:  0.00
  49:  0.00  50:  0.00  51:  0.00  52:  0.00  53:  0.00  54:  0.00  55:  0.00  56:  0.00
  57:  0.00  58:  0.00  59:  0.00  60:  0.00  61:  0.00  62:  0.00  63:  0.00  64:  0.00
  65:  0.00  66:  0.00  67:  0.00  68:  0.00  69:  0.00  70:  0.00  71:  0.00  72:  0.00
  73:  0.00  74:  0.00  75:  0.00  76:  0.00  77:  0.00  78:  0.00  79:  0.00  80:  0.00
  81:  0.00  82:  0.00  83:  0.00  84:  0.00  85:  0.00  86:  0.00  87:  0.00  88:  0.00
  89:  0.00  90:  0.00  91:  0.00  92:  0.00  93:  0.00  94:  0.00  95:  0.00  96:  0.00
  97:  0.00  98:  0.00  99:  0.00 100:  0.00 101:  0.00 102:  0.00 103:  0.00 104:  0.00
 105:  0.00 106:  0.00 107:  0.00 108:  0.00 109:  0.00 110:  0.00 111:  0.00 112:  0.00
 113:  0.00 114:  0.00 115:  0.00 116:  0.00 117:  0.00 118:  0.00 119:  0.00 120:  0.00
 121:  0.00 122:  0.00 123:  0.00 124:  0.00 125:  0.00 126:  0.00 127:  0.00 128:  0.00
 129:  0.00 130:  0.00 131:  0.00 132:  0.00 133:  0.00 134:  0.00 135:  0.00 136:  0.00
 137:  0.00 138:  0.00 139:  0.00 140:  0.00 141:  0.00 142:  0.00 143:  0.00 144:  0.00
 145:  0.00 146:  0.00 147:  0.00 148:  0.00 149:  0.00 150:  0.00 151:  0.00 152:  0.00
 153:  0.00 154:  0.00 155:  0.00 156:  0.00 157:  0.00 158:  0.00 159:  0.00 160:  0.00
 161:  0.00 162:  0.00 163:  0.00 164:  0.00 165:  0.00 166:  0.00 167:  0.00 168:  0.00
 169:  0.00 170:  0.00 171:  0.00 172:  0.00 173:  0.00 174:  0.00 175:  0.00 176:  0.00
 177:  0.00 178:  0.00 179:  0.00 180:  0.00 181:  0.00 182:  0.00 183:  0.00 184:  0.00
 185:  0.00 186:  0.00 187:  0.00 188:  0.00 189:  0.00 190:  0.00 191:  0.00 192:  0.00
 193:  0.00 194:  0.00 195:  0.00 196:  0.00 197:  0.00 198:  0.00 199:  0.00 200:  0.00
 201:  0.00 202:  0.00 203:  0.00 204:  0.00 205:  0.00 206:  0.00 207:  0.00 208:  0.00
 209:  0.00 210:  0.00 211:  0.00 212:  0.00 213:  0.00 214:  0.00 215:  0.00 216:  0.00
 217:  0.00 218:  0.00 219:  0.00 220:  0.00 221:  0.00 222:  0.00 223:  0.00 224:  0.00
 225:  0.00 226:  0.00 227:  0.00 228:  0.00
 output can be read by thermo (or use thermo option).
 writing <g98.out> molden fake output.
 recommended (thermochemical) frequency scaling factor: 1.0
           -------------------------------------------------
          |             Thermodynamic Functions             |
           -------------------------------------------------

Refinement of some symmetry elements was terminated before convergence was reached.
Some symmetry elements may remain unidentified.
Molecule has no symmetry elements
It seems to be the C1 point group
c1  symmetry found (for desy threshold:  0.10E+00) used in thermo

          ...................................................
          :                      SETUP                      :
          :.................................................:
          :  # frequencies                         222      :
          :  # imaginary freq.                       0      :
          :  linear?                             false      :
          :  only rotor calc.                    false      :
          :  symmetry                               c1      :
          :  rotational number                       1      :
          :  scaling factor                  1.0000000      :
          :  rotor cutoff                   50.0000000 cm⁻¹ :
          :  imag. cutoff                  -20.0000000 cm⁻¹ :
          :.................................................:

    mode    ω/cm⁻¹     T·S(HO)/kcal·mol⁻¹    T·S(FR)/kcal·mol⁻¹   T·S(vib)
   ------------------------------------------------------------------------
       1      3.02    -3.09754 (  0.00%)    -1.88771 (100.00%)    -1.88773
       2      8.48    -2.48610 (  0.08%)    -1.58208 ( 99.92%)    -1.58283
       3     13.41    -2.21461 (  0.52%)    -1.44633 ( 99.48%)    -1.45029
       4     17.31    -2.06363 (  1.42%)    -1.37082 ( 98.58%)    -1.38062
       5     18.74    -2.01657 (  1.93%)    -1.34727 ( 98.07%)    -1.36022
       6     21.39    -1.93830 (  3.24%)    -1.30811 ( 96.76%)    -1.32852
       7     25.08    -1.84404 (  5.95%)    -1.26094 ( 94.05%)    -1.29565
       8     28.78    -1.76261 (  9.89%)    -1.22016 ( 90.11%)    -1.27382
       9     33.29    -1.67643 ( 16.43%)    -1.17700 ( 83.57%)    -1.25906
      10     37.90    -1.59989 ( 24.81%)    -1.13863 ( 75.19%)    -1.25309
      11     43.38    -1.52012 ( 36.16%)    -1.09862 ( 63.84%)    -1.25105
      12     48.07    -1.45950 ( 46.08%)    -1.06819 ( 53.92%)    -1.24848
      13     51.85    -1.41494 ( 53.62%)    -1.04581 ( 46.38%)    -1.24373
      14     57.68    -1.35211 ( 63.91%)    -1.01421 ( 36.09%)    -1.23017
      15     59.34    -1.33543 ( 66.49%)    -1.00581 ( 33.51%)    -1.22496
      16     63.93    -1.29159 ( 72.77%)    -0.98373 ( 27.23%)    -1.20777
      17     69.06    -1.24628 ( 78.44%)    -0.96088 ( 21.56%)    -1.18476
      18     74.68    -1.20040 ( 83.26%)    -0.93771 ( 16.74%)    -1.15644
      19     79.09    -1.16679 ( 86.22%)    -0.92071 ( 13.78%)    -1.13289
      20     81.84    -1.14676 ( 87.77%)    -0.91058 ( 12.23%)    -1.11788
      21     86.62    -1.11360 ( 90.01%)    -0.89376 (  9.99%)    -1.09163
      22     89.80    -1.09256 ( 91.23%)    -0.88308 (  8.77%)    -1.07419
      23     92.53    -1.07506 ( 92.14%)    -0.87419 (  7.86%)    -1.05928
      24     97.83    -1.04265 ( 93.61%)    -0.85770 (  6.39%)    -1.03084
      25    104.29    -1.00550 ( 94.98%)    -0.83875 (  5.02%)    -0.99713
      26    106.81    -0.99169 ( 95.42%)    -0.83170 (  4.58%)    -0.98436
      27    116.37    -0.94208 ( 96.70%)    -0.80629 (  3.30%)    -0.93760
      28    125.18    -0.90005 ( 97.52%)    -0.78468 (  2.48%)    -0.89719
      29    131.11    -0.87351 ( 97.93%)    -0.77098 (  2.07%)    -0.87138
      30    141.62    -0.82942 ( 98.47%)    -0.74812 (  1.53%)    -0.82817
      31    149.96    -0.79687 ( 98.78%)    -0.73117 (  1.22%)    -0.79607
      32    156.67    -0.77208 ( 98.97%)    -0.71820 (  1.03%)    -0.77152
      33    160.07    -0.75997 ( 99.06%)    -0.71184 (  0.94%)    -0.75951
      34    168.56    -0.73090 ( 99.23%)    -0.69653 (  0.77%)    -0.73064
      35    170.89    -0.72321 ( 99.27%)    -0.69247 (  0.73%)    -0.72299
      36    183.94    -0.68217 ( 99.46%)    -0.67066 (  0.54%)    -0.68210
      37    185.42    -0.67773 ( 99.47%)    -0.66829 (  0.53%)    -0.67768
      38    199.83    -0.63645 ( 99.61%)    -0.64612 (  0.39%)    -0.63649
      39    203.97    -0.62521 ( 99.64%)    -0.64004 (  0.36%)    -0.62527
      40    219.37    -0.58564 ( 99.73%)    -0.61848 (  0.27%)    -0.58573
      41    220.80    -0.58215 ( 99.74%)    -0.61656 (  0.26%)    -0.58224
      42    234.80    -0.54917 ( 99.79%)    -0.59834 (  0.21%)    -0.54927
      43    236.55    -0.54521 ( 99.80%)    -0.59614 (  0.20%)    -0.54532
      44    239.98    -0.53757 ( 99.81%)    -0.59188 (  0.19%)    -0.53768
      45    268.60    -0.47858 ( 99.88%)    -0.55850 (  0.12%)    -0.47868
      46    281.48    -0.45458 ( 99.90%)    -0.54463 (  0.10%)    -0.45467
      47    289.57    -0.44020 ( 99.91%)    -0.53623 (  0.09%)    -0.44029
      48    291.59    -0.43671 ( 99.91%)    -0.53418 (  0.09%)    -0.43679
      49    294.80    -0.43119 ( 99.92%)    -0.53093 (  0.08%)    -0.43128
   ------------------------------------------------------------------------

   temp. (K)  partition function   enthalpy   heat capacity  entropy
                                   cal/mol     cal/K/mol   cal/K/mol   J/K/mol
 298.15  VIB  0.194E+27            27701.023    144.245    186.841
         ROT  0.520E+08              888.752      2.981     38.290
         INT  0.101E+35            28589.776    147.226    225.130
         TR   0.108E+29             1481.254      4.968     44.499
         TOT                       30071.0297   152.1940   269.6294  1128.1294

       T/K    H(0)-H(T)+PV         H(T)/Eh          T*S/Eh         G(T)/Eh
   ------------------------------------------------------------------------
    298.15    0.479212E-01    0.667942E+00    0.128110E+00    0.539833E+00
   ------------------------------------------------------------------------

         :::::::::::::::::::::::::::::::::::::::::::::::::::::
         ::                  THERMODYNAMIC                  ::
         :::::::::::::::::::::::::::::::::::::::::::::::::::::
         :: total free energy        -109.727419571801 Eh   ::
         ::.................................................::
         :: total energy             -110.267252105759 Eh   ::
         :: zero point energy           0.620020929420 Eh   ::
         :: G(RRHO) w/o ZPVE           -0.080188395462 Eh   ::
         :: G(RRHO) contrib.            0.539832533957 Eh   ::
         :::::::::::::::::::::::::::::::::::::::::::::::::::::

           -------------------------------------------------
          | TOTAL ENERGY             -110.267252105759 Eh   |
          | TOTAL ENTHALPY           -109.599309940270 Eh   |
          | TOTAL FREE ENERGY        -109.727419571801 Eh   |
          | GRADIENT NORM               0.000640525777 Eh/α |
          | HOMO-LUMO GAP               2.619721875308 eV   |
           -------------------------------------------------

------------------------------------------------------------------------
 * finished run on 2026/08/20 at 20:39:20.574     
------------------------------------------------------------------------
 total:
 * wall-time:     0 d,  0 h,  0 min, 12.420 sec
 *  cpu-time:     0 d,  0 h,  1 min, 22.578 sec
 * ratio c/w:     6.649 speedup
 SCF:
 * wall-time:     0 d,  0 h,  0 min,  0.070 sec
 *  cpu-time:     0 d,  0 h,  0 min,  0.234 sec
 * ratio c/w:     3.348 speedup
 analytical hessian:
 * wall-time:     0 d,  0 h,  0 min, 12.265 sec
 *  cpu-time:     0 d,  0 h,  1 min, 22.281 sec
 * ratio c/w:     6.709 speedup



===== STDERR =====

normal termination of xtb
