76
 xtb: 6.7.1pre (5071a88)
N            0.20827182314916        0.50114710735695       -0.56437821528620
C            1.53610143237628        0.19859794231887       -0.32386492053005
C            2.25481680324127        0.71756878342795        0.75457735558978
C            3.60026765112506        0.44585721320840        0.88954669566040
C            4.26107654652629       -0.38123468864007       -0.00956792289834
C            3.51341694318443       -0.99954601688325       -1.00498500840041
C            2.17304858449374       -0.71926837270626       -1.16248935501011
C            5.75837094543826       -0.45703454872318       -0.02163176543275
C            6.26537590252501        0.69636429041014       -0.90898063157659
C           -0.44440075626289        1.69017637167964       -0.29706332220158
C            0.06738206402379        2.85586175348210        0.09978351161141
C           -0.80988460380092        4.04364426192421        0.39763205534485
C           -0.02464453265392        5.36402185457467        0.38956620125981
C            0.50506802359360        5.72667652617011       -0.99602349181434
C            1.18431612653628        7.09073969199267       -0.99195266219226
O            0.34975018071823        0.23047020057644       -3.58935550825698
N           -2.01271168855608        3.50079997193705        3.86614982283774
C           -3.21075488207273        3.74533319791734        3.25762701876579
C           -2.94352932026780        3.97642770625230        1.88455654057260
C           -1.52710993131315        3.85881982285084        1.70842750896425
C           -4.49804245377541        3.79834073638887        3.77460919861076
C           -4.00783684135849        4.25694256461314        1.02442236080737
C           -1.00081162242718        3.56751485422859        2.93896980349208
C           -5.52643834839739        4.08384688527889        2.90117585986952
C           -5.28254031784436        4.30830937263230        1.54320459721918
C            0.39797206406119        3.32665196499175        3.38361508854098
O            1.54756902671276        2.56908386142893       -2.83286030819580
H           -0.18794640809986       -0.05189753095809       -1.28905448652005
H           -0.16814439821327        0.41742166157147       -4.34229060321842
H            1.77395197382998        1.33543810019849        1.49565109821660
H            4.17538183840967        0.90440461297379        1.70121709218608
H            4.00030199813808       -1.70037658780177       -1.66976801711011
H            1.61592125996706       -1.18427297113772       -1.94270547353274
H            6.12957528196153       -1.39660868064191       -0.43524731140336
H            6.19936165301702       -0.32260369801832        0.96716924248570
H            5.87671139106315        1.65134516401058       -0.53439170589646
H            6.03064976469436       -0.26584456283857       -2.76130794287153
H            7.57457558186907        2.50798713880560       -2.02142608629695
H           -1.50507666323724        1.60570905114410       -0.44030736082515
H            1.13590457244611        2.97634735461136        0.26547470877805
H           -1.56630151734233        4.10392756909859       -0.37858145872592
H           -0.67309373854404        6.15831110685118        0.74525874839617
H            0.80962796548899        5.29058950993885        1.12213991330808
H            1.25712922446372        4.96430682854049       -1.29425657790889
H           -0.28095798441287        5.72714407931905       -1.69397276436436
H            1.59156460248083        7.33125966536703       -1.94585308326409
H            0.51311930804557        7.85308950057740       -0.64828366774704
H            2.05173853355272        7.08473934630671       -0.26047513326102
H           -1.92766855612675        3.27978827716684        4.83413825140029
H           -2.55807514154559        6.19424676624407        2.20815160244993
H           -4.72220241829152        3.63273404140017        4.79195215794853
H           -3.81893151321769        4.46408992964085       -0.04531907759189
H           -6.55756472619739        4.17457130181805        3.22371173553004
H           -6.10723724613073        4.57530120795550        0.85278203224635
H            1.07573215063075        3.50742709446650        2.60285346268726
H            0.60861491375342        3.91070884402911        4.25801801853467
H            0.48542608521311        2.24351358043523        3.68791004377496
H            2.46916654841267        2.48682009420163       -2.55652198942247
H            1.05106591271154        2.81854546836597       -2.02947290443526
O           -2.68994186616609        7.13471119337055        2.33506621007305
H            0.80246524611393        1.04035586423462       -3.31697862663919
H           -3.62740242395099        7.28688876186667        2.37868206183326
N            5.75689569218640        0.56782067324243       -2.26111662128006
C            7.79760463855861        0.75575173394976       -0.96108158025117
O            8.51576810650572       -0.09086658213103       -0.46902730174937
C            4.10905049937878        0.76600192358224       -4.01467134134101
C            4.66448163333280        1.23459367249940       -2.69512022355862
O            4.18794713383187        2.17418348067773       -2.07744052421050
H            3.22790326610685        0.13003631875556       -3.80366806565333
H            4.81915616646958        0.19285156688414       -4.58828738424748
H            3.74547736684428        1.61268052341748       -4.58804407659076
N            8.24893482700624        1.83649873616162       -1.62467435387233
C            9.65156520231008        2.10536638889077       -1.82862381689981
H            9.92858411095352        3.07025925456719       -1.40436424843748
H            9.87611653210868        2.15902935072840       -2.93084840531973
H           10.20672028460743        1.31337713559709       -1.39993941866456
