      -----------------------------------------------------------      
     |                   =====================                   |     
     |                           x T B                           |     
     |                   =====================                   |     
     |                         S. Grimme                         |     
     |          Mulliken Center for Theoretical Chemistry        |     
     |                    University of Bonn                     |     
      -----------------------------------------------------------      

   * xtb version 6.7.1pre (5071a88) compiled by 'Marcel@Raven' on 2024-07-23

   xtb is free software: you can redistribute it and/or modify it under
   the terms of the GNU Lesser General Public License as published by
   the Free Software Foundation, either version 3 of the License, or
   (at your option) any later version.
   
   xtb is distributed in the hope that it will be useful,
   but WITHOUT ANY WARRANTY; without even the implied warranty of
   MERCHANTABILITY or FITNESS FOR A PARTICULAR PURPOSE.  See the
   GNU Lesser General Public License for more details.
   
   Cite this work as:
   * C. Bannwarth, E. Caldeweyher, S. Ehlert, A. Hansen, P. Pracht,
     J. Seibert, S. Spicher, S. Grimme, WIREs Comput. Mol. Sci., 2020, 11,
     e01493. DOI: 10.1002/wcms.1493
   
   for GFN2-xTB:
   * C. Bannwarth, S. Ehlert and S. Grimme., J. Chem. Theory Comput., 2019,
     15, 1652-1671. DOI: 10.1021/acs.jctc.8b01176
   for GFN1-xTB:
   * S. Grimme, C. Bannwarth, P. Shushkov, J. Chem. Theory Comput., 2017,
     13, 1989-2009. DOI: 10.1021/acs.jctc.7b00118
   for GFN0-xTB:
   * P. Pracht, E. Caldeweyher, S. Ehlert, S. Grimme, ChemRxiv, 2019, preprint.
     DOI: 10.26434/chemrxiv.8326202.v1
   for GFN-FF:
   * S. Spicher and S. Grimme, Angew. Chem. Int. Ed., 2020, 59, 15665-15673.
     DOI: 10.1002/anie.202004239
   
   for ALPB and GBSA implicit solvation:
   * S. Ehlert, M. Stahn, S. Spicher, S. Grimme, J. Chem. Theory Comput.,
     2021, 17, 4250-4261. DOI: 10.1021/acs.jctc.1c00471
   
   for ddCOSMO and CPCM-X implicit solvation:
   * M. Stahn, S. Ehlert, S. Grimme, J. Phys. Chem. A,
     2023, XX, XXXX-XXXX. DOI: 10.1021/acs.jpca.3c04382
   
   for DFT-D4:
   * E. Caldeweyher, C. Bannwarth and S. Grimme, J. Chem. Phys., 2017,
     147, 034112. DOI: 10.1063/1.4993215
   * E. Caldeweyher, S. Ehlert, A. Hansen, H. Neugebauer, S. Spicher,
     C. Bannwarth and S. Grimme, J. Chem. Phys., 2019, 150, 154122.
     DOI: 10.1063/1.5090222
   * E. Caldeweyher, J.-M. Mewes, S. Ehlert and S. Grimme, Phys. Chem. Chem. Phys.
     2020, 22, 8499-8512. DOI: 10.1039/D0CP00502A
   
   for sTDA-xTB:
   * S. Grimme and C. Bannwarth, J. Chem. Phys., 2016, 145, 054103.
     DOI: 10.1063/1.4959605
   
   in the mass-spec context:
   * V. Asgeirsson, C. Bauer and S. Grimme, Chem. Sci., 2017, 8, 4879.
     DOI: 10.1039/c7sc00601b
   * J. Koopman and S. Grimme, ACS Omega 2019, 4, 12, 15120-15133.
     DOI: 10.1021/acsomega.9b02011
   
   for metadynamics refer to:
   * S. Grimme, J. Chem. Theory Comput., 2019, 155, 2847-2862
     DOI: 10.1021/acs.jctc.9b00143
   
   for SPH calculations refer to:
   * S. Spicher and S. Grimme, J. Chem. Theory Comput., 2021, 17, 1701-1714
     DOI: 10.1021/acs.jctc.0c01306
   
   for ONIOM refer to:
   * C. Plett, A. Katbashev, S. Ehlert, S. Grimme, M. Bursch,
     Phys. Chem. Chem. Phys., 2023, 25, 17860-17868. DOI: 10.1039/D3CP02178E
   
   for DIPRO refer to:
   * J. Kohn, N. Gildemeister, S. Grimme, D. Fazzi, A. Hansen,
     J. Chem. Phys., 2023, just accepted.
   
   for PTB refer to:
   * S. Grimme, M. Mueller, A. Hansen, J. Chem. Phys., 2023, 158, 124111.
     DOI: 10.1063/5.0137838
   
   with help from (in alphabetical order)
   P. Atkinson, C. Bannwarth, F. Bohle, G. Brandenburg, E. Caldeweyher
   M. Checinski, S. Dohm, S. Ehlert, S. Ehrlich, I. Gerasimov, C. Hölzer
   A. Katbashev, J. Kohn, J. Koopman, C. Lavigne, S. Lehtola, F. März, M. Müller,
   F. Musil, H. Neugebauer, J. Pisarek, C. Plett, P. Pracht, F. Pultar,
   J. Seibert, P. Shushkov, S. Spicher, M. Stahn, M. Steiner, T. Strunk,
   J. Stückrath, T. Rose, and J. Unsleber
   
 * started run on 2026/08/20 at 20:27:55.419     
   ID    Z sym.   atoms
    1    7 N      1, 17, 63, 72
    2    6 C      2-15, 18-26, 64, 66, 67, 73
    3    8 O      16, 27, 60, 65, 68
    4    1 H      28-59, 61, 62, 69-71, 74-76

           -------------------------------------------------
          |                Calculation Setup                |
           -------------------------------------------------

          program call               : C:\Users\Nayanika\Downloads\xtb-6.7.1pre-windows-x86_64\xtb-6.7.1\bin\xtb.exe D:\PhD_Thesis\LmrR_EVB\charges\fast_lmrr_5QM\xtb_preparation\stage2_five_xtb_protocols\GFN2_tight\TS2_1a_to_PS2_2\TS2_1a_to_PS2_2_RS_xtbopt.xyz --gfn 2 --chrg 0 --uhf 0 --hess --etemp 0
          coordinate file            : D:\PhD_Thesis\LmrR_EVB\charges\fast_lmrr_5QM\xtb_preparation\stage2_five_xtb_protocols\GFN2_tight\TS2_1a_to_PS2_2\TS2_1a_to_PS2_2_RS_xtbopt.xyz
          omp threads                :                     8


molecular fragmentation (1/2 indicates fragments):
111111111111111211111111112121111111111111111111121111111222221111111111
1111
# atoms in fragment 1/2:    67     9
 fragment masses (1/2) :      446.59       54.05
CMA distance (Bohr)    :   4.988
constraining FC (au)   :  0.0500

           -------------------------------------------------
          |                 G F N 2 - x T B                 |
           -------------------------------------------------

        Reference                      10.1021/acs.jctc.8b01176
      * Hamiltonian:
        H0-scaling (s, p, d)           1.850000    2.230000    2.230000
        zeta-weighting                 0.500000
      * Dispersion:
        s8                             2.700000
        a1                             0.520000
        a2                             5.000000
        s9                             5.000000
      * Repulsion:
        kExp                           1.500000    1.000000
        rExp                           1.000000
      * Coulomb:
        alpha                          2.000000
        third order                    shell-resolved
        anisotropic                    true
        a3                             3.000000
        a5                             4.000000
        cn-shift                       1.200000
        cn-exp                         4.000000
        max-rad                        5.000000

q/qsh data taken from xtbrestart
CAMM data taken from xtbrestart

          ...................................................
          :                      SETUP                      :
          :.................................................:
          :  # basis functions                 184          :
          :  # atomic orbitals                 184          :
          :  # shells                          112          :
          :  # electrons                       198          :
          :  max. iterations                   250          :
          :  Hamiltonian                  GFN2-xTB          :
          :  restarted?                       true          :
          :  GBSA solvation                  false          :
          :  PC potential                    false          :
          :  electronic temp.            0.0000000     K    :
          :  accuracy                    1.0000000          :
          :  -> integral cutoff          0.2500000E+02      :
          :  -> integral neglect         0.1000000E-07      :
          :  -> SCF convergence          0.1000000E-05 Eh   :
          :  -> wf. convergence          0.1000000E-03 e    :
          :  Broyden damping             0.4000000          :
          :  net charge                          0          :
          :  unpaired electrons                  0          :
          ...................................................

 iter      E             dE          RMSdq      gap      omega  full diag
   1   -111.8422777 -0.111842E+03  0.107E-06    3.14       0.0  T
   2   -111.8422777 -0.994760E-13  0.785E-07    3.14   14612.3  T
   3   -111.8422777 -0.213163E-12  0.416E-07    3.14   27597.6  T

   *** convergence criteria satisfied after 3 iterations ***

         #    Occupation            Energy/Eh            Energy/eV
      -------------------------------------------------------------
         1        2.0000           -0.7026188             -19.1192
       ...           ...                  ...                  ...
        93        2.0000           -0.4013797             -10.9221
        94        2.0000           -0.3974787             -10.8159
        95        2.0000           -0.3946307             -10.7384
        96        2.0000           -0.3816375             -10.3849
        97        2.0000           -0.3804688             -10.3531
        98        2.0000           -0.3639915              -9.9047
        99        2.0000           -0.3477592              -9.4630 (HOMO)
       100                         -0.2322295              -6.3193 (LUMO)
       101                         -0.2226989              -6.0599
       102                         -0.2209509              -6.0124
       103                         -0.2126606              -5.7868
       104                         -0.2028646              -5.5202
       ...                                ...                  ...
       184                          0.7141440              19.4328
      -------------------------------------------------------------
                  HL-Gap            0.1155297 Eh            3.1437 eV
             Fermi-level            0.0000000 Eh            0.0000 eV

 SCC (total)                   0 d,  0 h,  0 min,  0.084 sec
 SCC setup                      ...        0 min,  0.000 sec (  0.000%)
 Dispersion                     ...        0 min,  0.001 sec (  1.190%)
 classical contributions        ...        0 min,  0.001 sec (  1.190%)
 integral evaluation            ...        0 min,  0.008 sec (  9.524%)
 iterations                     ...        0 min,  0.055 sec ( 65.476%)
 molecular gradient             ...        0 min,  0.018 sec ( 21.428%)
 printout                       ...        0 min,  0.001 sec (  1.190%)

         :::::::::::::::::::::::::::::::::::::::::::::::::::::
         ::                     SUMMARY                     ::
         :::::::::::::::::::::::::::::::::::::::::::::::::::::
         :: total energy            -110.267326560048 Eh    ::
         :: gradient norm              0.000201634183 Eh/a0 ::
         :: HOMO-LUMO gap              3.143723519949 eV    ::
         ::.................................................::
         :: SCC energy              -111.839700660301 Eh    ::
         :: -> isotropic ES            0.186060713594 Eh    ::
         :: -> anisotropic ES          0.006164179130 Eh    ::
         :: -> anisotropic XC          0.041330750520 Eh    ::
         :: -> dispersion             -0.083547881682 Eh    ::
         :: repulsion energy           1.572374100253 Eh    ::
         :: add. restraining           0.000000000000 Eh    ::
         :: total charge               0.000000000000 e     ::
         :::::::::::::::::::::::::::::::::::::::::::::::::::::

           ------------------------------------------------- 
          |                Numerical Hessian                |
           ------------------------------------------------- 
step length          :   0.00500
SCC accuracy         :   0.30000
Hessian scale factor :   1.00000
frozen atoms in %    :   0.00000    0
RMS gradient         :   0.00020
estimated CPU  time     11.93 min
estimated wall time      1.79 min

writing file <hessian>.

 projected vibrational frequencies (cm⁻¹)
eigval :       -0.00    -0.00    -0.00    -0.00     0.00     0.00
eigval :        1.59     7.68    12.92    17.07    18.81    32.68
eigval :       35.32    36.95    39.85    45.30    48.23    55.54
eigval :       60.40    66.03    68.62    82.29    84.91    87.68
eigval :       89.68    92.64    94.97   104.33   113.61   116.32
eigval :      117.78   123.62   126.31   140.16   146.40   149.47
eigval :      154.07   157.35   165.39   168.98   179.19   187.24
eigval :      212.27   219.73   230.40   231.68   238.63   250.57
eigval :      253.89   260.48   272.98   292.05   294.03   297.29
eigval :      317.52   334.36   338.31   362.11   365.21   381.90
eigval :      396.14   409.61   412.56   420.31   451.42   456.07
eigval :      462.13   480.07   486.49   488.99   498.09   527.75
eigval :      534.12   553.31   581.21   585.98   592.34   599.58
eigval :      607.52   617.42   623.37   646.99   656.81   671.99
eigval :      691.65   701.01   707.98   728.26   736.45   769.35
eigval :      777.15   796.02   806.21   818.63   863.05   865.09
eigval :      866.67   873.87   877.69   894.39   896.28   917.11
eigval :      919.12   925.57   931.07   934.68   948.14   977.80
eigval :      992.01   994.62  1004.92  1008.85  1012.93  1020.43
eigval :     1034.30  1035.15  1067.16  1079.06  1079.71  1104.96
eigval :     1105.41  1117.79  1118.24  1125.57  1130.84  1139.57
eigval :     1141.81  1159.23  1162.65  1170.22  1174.72  1194.64
eigval :     1197.56  1211.83  1218.33  1219.66  1223.44  1226.66
eigval :     1244.92  1255.78  1265.80  1267.91  1282.71  1284.98
eigval :     1287.55  1300.90  1308.28  1317.23  1322.73  1326.40
eigval :     1331.43  1339.17  1364.00  1365.69  1375.34  1388.57
eigval :     1393.04  1397.40  1410.29  1419.45  1421.32  1435.31
eigval :     1440.55  1448.89  1459.56  1463.03  1468.77  1473.05
eigval :     1477.45  1479.91  1485.17  1491.94  1494.62  1495.98
eigval :     1500.89  1503.41  1504.44  1525.58  1545.45  1555.79
eigval :     1575.27  1580.57  1594.57  1610.28  1628.84  1685.88
eigval :     1714.72  1759.58  2903.99  2910.58  2948.09  2967.82
eigval :     2969.30  2981.64  2985.17  2986.33  2988.94  2992.73
eigval :     3002.24  3004.08  3023.85  3028.83  3031.28  3031.37
eigval :     3036.14  3043.14  3050.49  3061.16  3062.44  3072.27
eigval :     3074.88  3076.54  3079.87  3082.48  3083.61  3093.05
eigval :     3095.09  3110.64  3325.10  3391.05  3394.98  3430.88
eigval :     3451.77  3488.41  3594.22  3639.34  3642.43  3668.42
           -------------------------------------------------
          |                Property Printout                |
           -------------------------------------------------

    * Orbital Energies and Occupations

         #    Occupation            Energy/Eh            Energy/eV
      -------------------------------------------------------------
         1        2.0000           -0.7026188             -19.1192
       ...           ...                  ...                  ...
        87        2.0000           -0.4240328             -11.5385
        88        2.0000           -0.4235850             -11.5263
        89        2.0000           -0.4199366             -11.4271
        90        2.0000           -0.4161020             -11.3227
        91        2.0000           -0.4140123             -11.2658
        92        2.0000           -0.4032497             -10.9730
        93        2.0000           -0.4013797             -10.9221
        94        2.0000           -0.3974787             -10.8159
        95        2.0000           -0.3946307             -10.7384
        96        2.0000           -0.3816375             -10.3849
        97        2.0000           -0.3804688             -10.3531
        98        2.0000           -0.3639915              -9.9047
        99        2.0000           -0.3477592              -9.4630 (HOMO)
       100                         -0.2322295              -6.3193 (LUMO)
       101                         -0.2226989              -6.0599
       102                         -0.2209509              -6.0124
       103                         -0.2126606              -5.7868
       104                         -0.2028646              -5.5202
       105                         -0.1998614              -5.4385
       106                         -0.1833908              -4.9903
       107                         -0.1602447              -4.3605
       108                         -0.0917682              -2.4971
       109                         -0.0739086              -2.0112
       110                          0.0075455               0.2053
       ...                                ...                  ...
       184                          0.7141440              19.4328
      -------------------------------------------------------------
                  HL-Gap            0.1155297 Eh            3.1437 eV
             Fermi-level            0.0000000 Eh            0.0000 eV

     #   Z          covCN         q      C6AA      α(0)
     1   7 N        2.691    -0.163    24.522     7.355
     2   6 C        2.908     0.065    26.539     8.447
     3   6 C        2.922    -0.054    29.339     8.883
     4   6 C        2.924    -0.040    29.003     8.832
     5   6 C        2.973    -0.002    28.069     8.690
     6   6 C        2.924    -0.043    29.077     8.843
     7   6 C        2.923    -0.062    29.530     8.912
     8   6 C        3.811    -0.069    21.820     6.649
     9   6 C        3.800     0.020    20.241     6.406
    10   6 C        2.828     0.011    27.765     8.634
    11   6 C        2.894    -0.096    30.418     9.043
    12   6 C        3.858    -0.019    20.866     6.496
    13   6 C        3.806    -0.063    21.709     6.633
    14   6 C        3.800    -0.054    21.536     6.607
    15   6 C        3.752    -0.105    22.557     6.773
    16   8 O        1.610    -0.601    25.203     6.776
    17   7 N        2.784    -0.118    23.562     7.209
    18   6 C        3.070     0.041    27.000     8.520
    19   6 C        3.110    -0.026    28.504     8.747
    20   6 C        3.059    -0.052    29.240     8.868
    21   6 C        2.908    -0.056    29.389     8.889
    22   6 C        2.912    -0.041    29.012     8.832
    23   6 C        3.060     0.039    27.063     8.531
    24   6 C        2.925    -0.040    28.989     8.829
    25   6 C        2.919    -0.044    29.103     8.847
    26   6 C        3.754    -0.112    22.701     6.794
    27   8 O        1.610    -0.591    24.965     6.744
    28   1 H        0.860     0.193     1.142     1.674
    29   1 H        0.806     0.272     0.813     1.416
    30   1 H        0.926     0.039     2.464     2.455
    31   1 H        0.926     0.030     2.587     2.515
    32   1 H        0.925     0.027     2.633     2.537
    33   1 H        0.926     0.046     2.373     2.409
    34   1 H        0.924     0.062     2.180     2.309
    35   1 H        0.924     0.055     2.254     2.348
    36   1 H        0.924     0.061     2.183     2.311
    37   1 H        0.860     0.182     1.201     1.716
    38   1 H        0.860     0.204     1.084     1.631
    39   1 H        0.925     0.036     2.505     2.475
    40   1 H        0.926     0.030     2.591     2.517
    41   1 H        0.924     0.033     2.546     2.496
    42   1 H        0.924     0.034     2.535     2.490
    43   1 H        0.924     0.034     2.528     2.487
    44   1 H        0.924     0.032     2.560     2.502
    45   1 H        0.924     0.020     2.736     2.587
    46   1 H        0.925     0.031     2.565     2.505
    47   1 H        0.925     0.036     2.502     2.474
    48   1 H        0.925     0.041     2.439     2.442
    49   1 H        0.860     0.161     1.331     1.807
    50   1 H        0.805     0.287     0.763     1.372
    51   1 H        0.926     0.023     2.682     2.561
    52   1 H        0.926     0.023     2.687     2.563
    53   1 H        0.926     0.026     2.641     2.541
    54   1 H        0.926     0.024     2.670     2.555
    55   1 H        0.925     0.058     2.223     2.332
    56   1 H        0.924     0.048     2.344     2.394
    57   1 H        0.924     0.046     2.367     2.406
    58   1 H        0.805     0.290     0.752     1.362
    59   1 H        0.804     0.303     0.712     1.326
    60   8 O        1.611    -0.578    24.665     6.703
    61   1 H        0.804     0.309     0.694     1.308
    62   1 H        0.805     0.281     0.782     1.389
    63   7 N        2.692    -0.186    25.025     7.430
    64   6 C        2.753     0.264    22.545     7.775
    65   8 O        0.858    -0.436    22.406     6.346
    66   6 C        3.757    -0.149    23.426     6.901
    67   6 C        2.749     0.277    22.319     7.736
    68   8 O        0.859    -0.460    22.918     6.418
    69   1 H        0.925     0.057     2.231     2.336
    70   1 H        0.925     0.070     2.084     2.258
    71   1 H        0.925     0.073     2.057     2.243
    72   7 N        2.687    -0.176    24.816     7.399
    73   6 C        3.690    -0.042    21.522     6.639
    74   1 H        0.924     0.052     2.298     2.370
    75   1 H        0.924     0.049     2.334     2.389
    76   1 H        0.925     0.082     1.957     2.188

 Mol. C6AA /au·bohr⁶  :      56220.080447
 Mol. C8AA /au·bohr⁸  :    1284762.172399
 Mol. α(0) /au        :        366.130042


Wiberg/Mayer (AO) data.
largest (>0.10) Wiberg bond orders for each atom

 ---------------------------------------------------------------------------
     #   Z sym  total        # sym  WBO       # sym  WBO       # sym  WBO
 ---------------------------------------------------------------------------
     1   7 N    3.418 --    10 C    1.132     2 C    1.103    28 H    0.920
                            11 C    0.111
     2   6 C    3.972 --     7 C    1.362     3 C    1.354     1 N    1.103
     3   6 C    3.990 --     4 C    1.468     2 C    1.354    30 H    0.965
                             6 C    0.101
     4   6 C    3.991 --     3 C    1.468     5 C    1.396    31 H    0.969
                             7 C    0.103
     5   6 C    3.986 --     6 C    1.403     4 C    1.396     8 C    1.010
     6   6 C    3.991 --     7 C    1.457     5 C    1.403    32 H    0.968
                             3 C    0.101
     7   6 C    3.987 --     6 C    1.457     2 C    1.362    33 H    0.965
                             4 C    0.103
     8   6 C    3.991 --     5 C    1.010     9 C    0.979    34 H    0.970
                            35 H    0.966
     9   6 C    3.963 --     8 C    0.979    63 N    0.975    36 H    0.952
                            64 C    0.916
    10   6 C    3.968 --    11 C    1.776     1 N    1.132    39 H    0.961
    11   6 C    3.973 --    10 C    1.776    12 C    1.000    40 H    0.957
                             1 N    0.111
    12   6 C    3.995 --    11 C    1.000    20 C    0.987    13 C    0.982
                            41 H    0.956
    13   6 C    3.995 --    14 C    1.007    12 C    0.982    43 H    0.975
                            42 H    0.975
    14   6 C    3.998 --    15 C    1.018    13 C    1.007    45 H    0.978
                            44 H    0.974
    15   6 C    3.995 --    14 C    1.018    48 H    0.988    47 H    0.988
                            46 H    0.987
    16   8 O    1.825 --    29 H    0.922    61 H    0.867
    17   7 N    3.532 --    18 C    1.176    23 C    1.174    49 H    0.945
    18   6 C    3.959 --    21 C    1.342    19 C    1.241    17 N    1.176
    19   6 C    3.983 --    22 C    1.333    18 C    1.241    20 C    1.201
    20   6 C    3.968 --    23 C    1.545    19 C    1.201    12 C    0.987
    21   6 C    3.989 --    24 C    1.488    18 C    1.342    51 H    0.969
                            22 C    0.111
    22   6 C    3.989 --    25 C    1.500    19 C    1.333    52 H    0.967
                            21 C    0.111
    23   6 C    3.951 --    20 C    1.545    17 N    1.174    26 C    1.030
    24   6 C    3.988 --    21 C    1.488    25 C    1.374    53 H    0.972
    25   6 C    3.990 --    22 C    1.500    24 C    1.374    54 H    0.972
    26   6 C    3.995 --    23 C    1.030    55 H    0.977    56 H    0.973
                            57 H    0.969
    27   8 O    1.864 --    58 H    0.912    59 H    0.873
    28   1 H    0.962 --     1 N    0.920
    29   1 H    0.926 --    16 O    0.922
    30   1 H    0.998 --     3 C    0.965
    31   1 H    0.999 --     4 C    0.969
    32   1 H    0.999 --     6 C    0.968
    33   1 H    0.998 --     7 C    0.965
    34   1 H    0.996 --     8 C    0.970
    35   1 H    0.996 --     8 C    0.966
    36   1 H    0.996 --     9 C    0.952
    37   1 H    0.967 --    63 N    0.932
    38   1 H    0.958 --    72 N    0.909
    39   1 H    0.998 --    10 C    0.961
    40   1 H    0.999 --    11 C    0.957
    41   1 H    0.998 --    12 C    0.956
    42   1 H    0.998 --    13 C    0.975
    43   1 H    0.999 --    13 C    0.975
    44   1 H    0.999 --    14 C    0.974
    45   1 H    1.000 --    14 C    0.978
    46   1 H    0.998 --    15 C    0.987
    47   1 H    0.999 --    15 C    0.988
    48   1 H    0.998 --    15 C    0.988
    49   1 H    0.974 --    17 N    0.945
    50   1 H    0.918 --    60 O    0.906
    51   1 H    0.999 --    21 C    0.969
    52   1 H    0.999 --    22 C    0.967
    53   1 H    0.999 --    24 C    0.972
    54   1 H    0.999 --    25 C    0.972
    55   1 H    0.996 --    26 C    0.977
    56   1 H    0.995 --    26 C    0.973
    57   1 H    0.995 --    26 C    0.969
    58   1 H    0.916 --    27 O    0.912
    59   1 H    0.908 --    27 O    0.873
    60   8 O    1.833 --    62 H    0.918    50 H    0.906
    61   1 H    0.904 --    16 O    0.867
    62   1 H    0.921 --    60 O    0.918
    63   7 N    3.448 --    67 C    1.269     9 C    0.975    37 H    0.932
                            68 O    0.191
    64   6 C    3.956 --    65 O    1.679    72 N    1.289     9 C    0.916
    65   8 O    2.010 --    64 C    1.679    72 N    0.211
    66   6 C    3.992 --    67 C    0.985    70 H    0.983    69 H    0.968
                            71 H    0.965
    67   6 C    3.949 --    68 O    1.646    63 N    1.269    66 C    0.985
    68   8 O    1.986 --    67 C    1.646    63 N    0.191
    69   1 H    0.997 --    66 C    0.968
    70   1 H    0.995 --    66 C    0.983
    71   1 H    0.995 --    66 C    0.965
    72   7 N    3.465 --    64 C    1.289    73 C    1.006    38 H    0.909
                            65 O    0.211
    73   6 C    3.966 --    72 N    1.006    74 H    0.977    76 H    0.977
                            75 H    0.977
    74   1 H    0.997 --    73 C    0.977
    75   1 H    0.998 --    73 C    0.977
    76   1 H    0.993 --    73 C    0.977
 ---------------------------------------------------------------------------

Topologies differ in total number of bonds
Writing topology from bond orders to xtbtopo.mol

molecular dipole:
                 x           y           z       tot (Debye)
 q only:       -0.872      -0.177      -0.470
   full:       -1.453      -0.123      -0.724       4.138
molecular quadrupole (traceless):
                xx          xy          yy          xz          yz          zz
 q only:      -15.964      11.183     -17.752       1.151      -6.045      33.717
  q+dip:      -22.305       8.870     -26.131       2.457      -2.891      48.436
   full:      -24.412       9.967     -23.999       1.515      -5.216      48.411

           -------------------------------------------------
          |               Frequency Printout                |
           -------------------------------------------------
 projected vibrational frequencies (cm⁻¹)
eigval :       -0.00    -0.00    -0.00    -0.00     0.00     0.00
eigval :        1.59     7.68    12.92    17.07    18.81    32.68
eigval :       35.32    36.95    39.85    45.30    48.23    55.54
eigval :       60.40    66.03    68.62    82.29    84.91    87.68
eigval :       89.68    92.64    94.97   104.33   113.61   116.32
eigval :      117.78   123.62   126.31   140.16   146.40   149.47
eigval :      154.07   157.35   165.39   168.98   179.19   187.24
eigval :      212.27   219.73   230.40   231.68   238.63   250.57
eigval :      253.89   260.48   272.98   292.05   294.03   297.29
eigval :      317.52   334.36   338.31   362.11   365.21   381.90
eigval :      396.14   409.61   412.56   420.31   451.42   456.07
eigval :      462.13   480.07   486.49   488.99   498.09   527.75
eigval :      534.12   553.31   581.21   585.98   592.34   599.58
eigval :      607.52   617.42   623.37   646.99   656.81   671.99
eigval :      691.65   701.01   707.98   728.26   736.45   769.35
eigval :      777.15   796.02   806.21   818.63   863.05   865.09
eigval :      866.67   873.87   877.69   894.39   896.28   917.11
eigval :      919.12   925.57   931.07   934.68   948.14   977.80
eigval :      992.01   994.62  1004.92  1008.85  1012.93  1020.43
eigval :     1034.30  1035.15  1067.16  1079.06  1079.71  1104.96
eigval :     1105.41  1117.79  1118.24  1125.57  1130.84  1139.57
eigval :     1141.81  1159.23  1162.65  1170.22  1174.72  1194.64
eigval :     1197.56  1211.83  1218.33  1219.66  1223.44  1226.66
eigval :     1244.92  1255.78  1265.80  1267.91  1282.71  1284.98
eigval :     1287.55  1300.90  1308.28  1317.23  1322.73  1326.40
eigval :     1331.43  1339.17  1364.00  1365.69  1375.34  1388.57
eigval :     1393.04  1397.40  1410.29  1419.45  1421.32  1435.31
eigval :     1440.55  1448.89  1459.56  1463.03  1468.77  1473.05
eigval :     1477.45  1479.91  1485.17  1491.94  1494.62  1495.98
eigval :     1500.89  1503.41  1504.44  1525.58  1545.45  1555.79
eigval :     1575.27  1580.57  1594.57  1610.28  1628.84  1685.88
eigval :     1714.72  1759.58  2903.99  2910.58  2948.09  2967.82
eigval :     2969.30  2981.64  2985.17  2986.33  2988.94  2992.73
eigval :     3002.24  3004.08  3023.85  3028.83  3031.28  3031.37
eigval :     3036.14  3043.14  3050.49  3061.16  3062.44  3072.27
eigval :     3074.88  3076.54  3079.87  3082.48  3083.61  3093.05
eigval :     3095.09  3110.64  3325.10  3391.05  3394.98  3430.88
eigval :     3451.77  3488.41  3594.22  3639.34  3642.43  3668.42
 reduced masses (amu)
   1: 12.07   2: 12.06   3: 11.92   4: 11.89   5: 11.84   6: 12.15   7: 11.35   8: 11.97
   9: 11.94  10: 11.77  11: 12.56  12: 12.05  13: 13.10  14: 13.40  15: 12.24  16: 11.97
  17: 12.03  18: 13.03  19: 12.41  20: 11.14  21:  9.51  22: 10.25  23:  6.72  24:  9.76
  25: 10.09  26:  8.58  27:  9.89  28:  7.67  29:  8.68  30:  3.75  31: 11.17  32: 10.57
  33:  2.18  34:  8.14  35:  5.73  36:  9.75  37:  7.42  38:  5.31  39:  6.68  40: 10.54
  41:  5.98  42: 11.09  43:  6.30  44:  8.65  45:  8.38  46:  4.71  47: 10.62  48:  8.88
  49:  6.60  50:  2.87  51:  9.91  52:  9.81  53: 12.13  54: 10.25  55: 10.68  56:  9.79
  57: 10.03  58:  9.11  59:  3.68  60:  9.77  61:  9.82  62:  9.24  63:  9.58  64:  9.67
  65:  9.86  66:  4.20  67:  4.74  68:  8.99  69:  7.14  70: 10.91  71:  9.78  72:  9.44
  73: 10.04  74:  7.25  75:  8.31  76:  4.02  77:  8.95  78: 10.51  79:  9.31  80:  8.46
  81:  9.71  82:  8.66  83: 10.65  84:  8.83  85:  7.73  86: 11.40  87:  9.07  88: 10.89
  89:  7.37  90:  3.71  91:  9.13  92:  4.26  93:  8.78  94:  5.31  95:  3.47  96: 10.96
  97:  9.01  98:  5.35  99:  7.90 100:  3.88 101:  3.87 102:  2.78 103:  3.00 104:  9.23
 105:  4.00 106:  8.76 107:  6.44 108: 10.81 109:  5.15 110:  5.67 111:  5.40 112:  3.45
 113:  6.76 114:  5.94 115:  8.24 116:  4.35 117:  6.22 118:  7.27 119:  9.22 120:  3.86
 121:  8.51 122:  7.88 123:  7.84 124:  7.62 125:  7.22 126:  4.62 127:  6.36 128:  6.12
 129:  5.82 130:  5.33 131:  3.65 132:  3.23 133:  4.23 134:  5.45 135:  5.40 136:  4.44
 137:  5.54 138:  5.49 139:  4.72 140:  4.43 141:  4.72 142:  3.14 143:  3.91 144:  3.68
 145:  3.89 146:  4.69 147:  4.98 148:  9.79 149:  5.58 150:  5.24 151:  7.10 152: 10.29
 153:  5.19 154: 11.22 155:  3.27 156:  9.15 157:  2.62 158:  4.93 159:  8.05 160:  3.44
 161:  9.72 162:  8.55 163:  8.65 164: 11.35 165:  1.66 166:  1.57 167:  1.58 168:  1.71
 169:  2.14 170:  1.70 171:  2.51 172:  2.03 173:  2.27 174: 10.12 175:  9.90 176:  1.53
 177:  1.66 178:  2.15 179:  2.21 180:  2.10 181: 11.46 182: 11.53 183: 11.58 184: 11.52
 185: 11.64 186: 11.54 187: 13.12 188: 13.20 189:  1.74 190:  1.74 191:  1.82 192:  1.82
 193:  1.92 194:  1.73 195:  1.77 196:  1.66 197:  1.47 198:  1.98 199:  1.50 200:  1.54
 201:  1.91 202:  1.50 203:  1.86 204:  1.76 205:  1.83 206:  1.44 207:  1.79 208:  1.80
 209:  1.77 210:  1.76 211:  1.81 212:  1.79 213:  1.79 214:  1.74 215:  1.86 216:  1.85
 217:  1.91 218:  1.84 219:  1.88 220:  1.84 221:  1.86 222:  1.86 223:  1.85 224:  1.86
 225:  1.86 226:  1.83 227:  1.83 228:  1.84
 IR intensities (km·mol⁻¹)
   1:  0.08   2:  0.10   3:  0.02   4:  0.01   5:  0.03   6:  0.02   7:  0.34   8:  0.09
   9:  0.83  10:  0.52  11:  1.61  12:  0.43  13:  1.41  14:  1.17  15:  0.93  16:  1.54
  17:  1.12  18:  6.12  19:  3.81  20:  0.19  21:  0.04  22:  4.99  23:  4.84  24:  4.28
  25:  2.14  26: 34.78  27: 10.58  28: 34.79  29: 42.67  30: 66.73  31:  9.66  32:  1.07
  33:  0.20  34:  0.40  35:  1.13  36:  0.52  37: 10.27  38:  9.18  39: 13.18  40:  0.45
  41: 33.20  42:  4.58  43: 39.92  44: 17.23  45:  4.18  46: 14.58  47:  2.50  48: 31.64
  49: 19.00  50:189.32  51:  1.55  52:  4.15  53:  3.79  54: 10.68  55:  5.44  56:  0.31
  57:  8.50  58: 68.94  59:185.20  60:  5.97  61:  7.66  62:  0.37  63: 18.51  64:  1.30
  65:  6.84  66: 83.45  67:123.01  68: 10.59  69: 38.75  70:  1.31  71: 11.78  72:  1.72
  73: 16.13  74: 23.60  75:  8.73  76:172.51  77: 48.80  78: 21.98  79: 56.44  80: 48.68
  81: 11.06  82: 52.94  83:  2.00  84: 51.90  85: 19.62  86:  3.48  87: 34.49  88: 17.92
  89:  9.52  90: 27.64  91: 13.74  92:  1.89  93: 19.68  94: 11.38  95:  0.06  96:  0.29
  97:  0.77  98:  2.85  99:  2.81 100:  0.93 101:  0.23 102:  1.72 103:  0.01 104:  0.95
 105:  0.46 106:  0.68 107:  3.08 108: 13.88 109:  1.15 110:  5.33 111: 23.58 112:  3.02
 113:  6.35 114:  5.13 115: 22.93 116:  6.08 117:  0.08 118: 24.38 119:  1.72 120:  0.57
 121: 10.71 122: 27.59 123:  5.77 124:  1.69 125: 22.90 126:  1.39 127:  5.60 128:  8.51
 129:  5.10 130:  6.47 131:  3.14 132:  3.86 133:  7.47 134:  5.65 135: 10.18 136:  7.87
 137: 27.68 138:  8.77 139: 12.35 140: 33.10 141:  3.74 142:  0.94 143:  6.77 144: 20.13
 145:  6.03 146:  2.29 147:  1.37 148: 40.50 149:  3.96 150:  9.26 151: 33.26 152: 44.46
 153:  0.99 154: 18.36 155: 19.94 156:202.23 157:  2.94 158:  7.17 159: 16.02 160: 10.65
 161:187.80 162:232.55 163: 69.11 164: 54.98 165:  7.62 166:  9.98 167:  9.59 168:  4.09
 169:  0.19 170:  4.45 171: 26.07 172:  0.83 173: 15.23 174:  9.42 175:221.43 176:  1.73
 177:  8.81 178:137.23 179:154.81 180:127.52 181:  5.01 182:  0.45 183:  8.69 184: 79.81
 185: 19.12 186:214.95 187:320.99 188:583.26 189: 23.16 190: 14.37 191: 32.07 192: 30.51
 193: 30.98 194: 46.70 195: 16.53 196: 49.46 197: 47.56 198: 17.34 199: 17.64 200: 27.62
 201:  4.91 202:  9.80 203: 51.86 204:  7.93 205: 45.49 206: 25.52 207: 26.41 208: 34.37
 209: 17.03 210: 15.48 211: 31.82 212:  4.62 213: 23.50 214: 39.24 215: 82.42 216: 16.20
 217: 76.85 218: 19.79 219:118.96 220: 21.49 221:315.32 222:294.20 223: 24.57 224: 11.73
 225: 60.45 226:  8.25 227: 15.51 228:  5.94
 Raman intensities (Ä⁴*amu⁻¹)
   1:  0.00   2:  0.00   3:  0.00   4:  0.00   5:  0.00   6:  0.00   7:  0.00   8:  0.00
   9:  0.00  10:  0.00  11:  0.00  12:  0.00  13:  0.00  14:  0.00  15:  0.00  16:  0.00
  17:  0.00  18:  0.00  19:  0.00  20:  0.00  21:  0.00  22:  0.00  23:  0.00  24:  0.00
  25:  0.00  26:  0.00  27:  0.00  28:  0.00  29:  0.00  30:  0.00  31:  0.00  32:  0.00
  33:  0.00  34:  0.00  35:  0.00  36:  0.00  37:  0.00  38:  0.00  39:  0.00  40:  0.00
  41:  0.00  42:  0.00  43:  0.00  44:  0.00  45:  0.00  46:  0.00  47:  0.00  48:  0.00
  49:  0.00  50:  0.00  51:  0.00  52:  0.00  53:  0.00  54:  0.00  55:  0.00  56:  0.00
  57:  0.00  58:  0.00  59:  0.00  60:  0.00  61:  0.00  62:  0.00  63:  0.00  64:  0.00
  65:  0.00  66:  0.00  67:  0.00  68:  0.00  69:  0.00  70:  0.00  71:  0.00  72:  0.00
  73:  0.00  74:  0.00  75:  0.00  76:  0.00  77:  0.00  78:  0.00  79:  0.00  80:  0.00
  81:  0.00  82:  0.00  83:  0.00  84:  0.00  85:  0.00  86:  0.00  87:  0.00  88:  0.00
  89:  0.00  90:  0.00  91:  0.00  92:  0.00  93:  0.00  94:  0.00  95:  0.00  96:  0.00
  97:  0.00  98:  0.00  99:  0.00 100:  0.00 101:  0.00 102:  0.00 103:  0.00 104:  0.00
 105:  0.00 106:  0.00 107:  0.00 108:  0.00 109:  0.00 110:  0.00 111:  0.00 112:  0.00
 113:  0.00 114:  0.00 115:  0.00 116:  0.00 117:  0.00 118:  0.00 119:  0.00 120:  0.00
 121:  0.00 122:  0.00 123:  0.00 124:  0.00 125:  0.00 126:  0.00 127:  0.00 128:  0.00
 129:  0.00 130:  0.00 131:  0.00 132:  0.00 133:  0.00 134:  0.00 135:  0.00 136:  0.00
 137:  0.00 138:  0.00 139:  0.00 140:  0.00 141:  0.00 142:  0.00 143:  0.00 144:  0.00
 145:  0.00 146:  0.00 147:  0.00 148:  0.00 149:  0.00 150:  0.00 151:  0.00 152:  0.00
 153:  0.00 154:  0.00 155:  0.00 156:  0.00 157:  0.00 158:  0.00 159:  0.00 160:  0.00
 161:  0.00 162:  0.00 163:  0.00 164:  0.00 165:  0.00 166:  0.00 167:  0.00 168:  0.00
 169:  0.00 170:  0.00 171:  0.00 172:  0.00 173:  0.00 174:  0.00 175:  0.00 176:  0.00
 177:  0.00 178:  0.00 179:  0.00 180:  0.00 181:  0.00 182:  0.00 183:  0.00 184:  0.00
 185:  0.00 186:  0.00 187:  0.00 188:  0.00 189:  0.00 190:  0.00 191:  0.00 192:  0.00
 193:  0.00 194:  0.00 195:  0.00 196:  0.00 197:  0.00 198:  0.00 199:  0.00 200:  0.00
 201:  0.00 202:  0.00 203:  0.00 204:  0.00 205:  0.00 206:  0.00 207:  0.00 208:  0.00
 209:  0.00 210:  0.00 211:  0.00 212:  0.00 213:  0.00 214:  0.00 215:  0.00 216:  0.00
 217:  0.00 218:  0.00 219:  0.00 220:  0.00 221:  0.00 222:  0.00 223:  0.00 224:  0.00
 225:  0.00 226:  0.00 227:  0.00 228:  0.00
 output can be read by thermo (or use thermo option).
 writing <g98.out> molden fake output.
 recommended (thermochemical) frequency scaling factor: 1.0
           -------------------------------------------------
          |             Thermodynamic Functions             |
           -------------------------------------------------

Refinement of some symmetry elements was terminated before convergence was reached.
Some symmetry elements may remain unidentified.
Molecule has no symmetry elements
It seems to be the C1 point group
c1  symmetry found (for desy threshold:  0.10E+00) used in thermo

          ...................................................
          :                      SETUP                      :
          :.................................................:
          :  # frequencies                         222      :
          :  # imaginary freq.                       0      :
          :  linear?                             false      :
          :  only rotor calc.                    false      :
          :  symmetry                               c1      :
          :  rotational number                       1      :
          :  scaling factor                  1.0000000      :
          :  rotor cutoff                   50.0000000 cm⁻¹ :
          :  imag. cutoff                  -20.0000000 cm⁻¹ :
          :.................................................:

    mode    ω/cm⁻¹     T·S(HO)/kcal·mol⁻¹    T·S(FR)/kcal·mol⁻¹   T·S(vib)
   ------------------------------------------------------------------------
       1      1.59    -3.47809 (  0.00%)    -2.07777 (100.00%)    -2.07777
       2      7.68    -2.54491 (  0.06%)    -1.61148 ( 99.94%)    -1.61200
       3     12.92    -2.23659 (  0.44%)    -1.45732 ( 99.56%)    -1.46078
       4     17.07    -2.07190 (  1.34%)    -1.37495 ( 98.66%)    -1.38428
       5     18.81    -2.01417 (  1.97%)    -1.34607 ( 98.03%)    -1.35920
       6     32.68    -1.68745 ( 15.43%)    -1.18252 ( 84.57%)    -1.26044
       7     35.32    -1.64148 ( 19.94%)    -1.15948 ( 80.06%)    -1.25559
       8     36.95    -1.61481 ( 22.98%)    -1.14611 ( 77.02%)    -1.25381
       9     39.85    -1.57023 ( 28.75%)    -1.12376 ( 71.25%)    -1.25211
      10     45.30    -1.49459 ( 40.25%)    -1.08581 ( 59.75%)    -1.25032
      11     48.23    -1.45750 ( 46.41%)    -1.06719 ( 53.59%)    -1.24834
      12     55.54    -1.37438 ( 60.36%)    -1.02541 ( 39.64%)    -1.23603
      13     60.40    -1.32505 ( 68.04%)    -1.00058 ( 31.96%)    -1.22134
      14     66.03    -1.27260 ( 75.26%)    -0.97416 ( 24.74%)    -1.19876
      15     68.62    -1.25003 ( 78.01%)    -0.96277 ( 21.99%)    -1.18685
      16     82.29    -1.14356 ( 88.00%)    -0.90895 ( 12.00%)    -1.11542
      17     84.91    -1.12520 ( 89.27%)    -0.89965 ( 10.73%)    -1.10100
      18     87.68    -1.10649 ( 90.44%)    -0.89015 (  9.56%)    -1.08580
      19     89.68    -1.09336 ( 91.19%)    -0.88349 (  8.81%)    -1.07486
      20     92.64    -1.07441 ( 92.18%)    -0.87386 (  7.82%)    -1.05872
      21     94.97    -1.05990 ( 92.87%)    -0.86648 (  7.13%)    -1.04610
      22    104.33    -1.00530 ( 94.99%)    -0.83865 (  5.01%)    -0.99695
      23    113.61    -0.95595 ( 96.38%)    -0.81340 (  3.62%)    -0.95079
      24    116.32    -0.94232 ( 96.70%)    -0.80641 (  3.30%)    -0.93783
      25    117.78    -0.93512 ( 96.85%)    -0.80272 (  3.15%)    -0.93095
      26    123.62    -0.90728 ( 97.39%)    -0.78840 (  2.61%)    -0.90418
      27    126.31    -0.89491 ( 97.60%)    -0.78202 (  2.40%)    -0.89220
      28    140.16    -0.83533 ( 98.41%)    -0.75119 (  1.59%)    -0.83399
      29    146.40    -0.81054 ( 98.66%)    -0.73830 (  1.34%)    -0.80957
      30    149.47    -0.79872 ( 98.76%)    -0.73214 (  1.24%)    -0.79790
      31    154.07    -0.78155 ( 98.90%)    -0.72316 (  1.10%)    -0.78091
      32    157.35    -0.76965 ( 98.99%)    -0.71692 (  1.01%)    -0.76912
      33    165.39    -0.74158 ( 99.17%)    -0.70216 (  0.83%)    -0.74125
      34    168.98    -0.72950 ( 99.24%)    -0.69579 (  0.76%)    -0.72924
      35    179.19    -0.69674 ( 99.40%)    -0.67842 (  0.60%)    -0.69663
      36    187.24    -0.67233 ( 99.49%)    -0.66540 (  0.51%)    -0.67229
      37    212.27    -0.60349 ( 99.69%)    -0.62824 (  0.31%)    -0.60356
      38    219.73    -0.58475 ( 99.73%)    -0.61799 (  0.27%)    -0.58484
      39    230.40    -0.55927 ( 99.78%)    -0.60395 (  0.22%)    -0.55937
      40    231.68    -0.55632 ( 99.78%)    -0.60232 (  0.22%)    -0.55642
      41    238.63    -0.54057 ( 99.81%)    -0.59356 (  0.19%)    -0.54067
      42    250.57    -0.51478 ( 99.84%)    -0.57909 (  0.16%)    -0.51488
      43    253.89    -0.50787 ( 99.85%)    -0.57519 (  0.15%)    -0.50797
      44    260.48    -0.49449 ( 99.86%)    -0.56760 (  0.14%)    -0.49459
      45    272.98    -0.47027 ( 99.89%)    -0.55372 (  0.11%)    -0.47036
      46    292.05    -0.43591 ( 99.91%)    -0.53371 (  0.09%)    -0.43599
      47    294.03    -0.43252 ( 99.92%)    -0.53171 (  0.08%)    -0.43260
      48    297.29    -0.42698 ( 99.92%)    -0.52844 (  0.08%)    -0.42706
   ------------------------------------------------------------------------

   temp. (K)  partition function   enthalpy   heat capacity  entropy
                                   cal/mol     cal/K/mol   cal/K/mol   J/K/mol
 298.15  VIB  0.621E+25            27028.374    145.197    180.865
         ROT  0.431E+08              888.752      2.981     37.915
         INT  0.268E+33            27917.126    148.178    218.780
         TR   0.108E+29             1481.254      4.968     44.499
         TOT                       29398.3804   153.1464   263.2786  1101.5576

       T/K    H(0)-H(T)+PV         H(T)/Eh          T*S/Eh         G(T)/Eh
   ------------------------------------------------------------------------
    298.15    0.468493E-01    0.668137E+00    0.125092E+00    0.543044E+00
   ------------------------------------------------------------------------

         :::::::::::::::::::::::::::::::::::::::::::::::::::::
         ::                  THERMODYNAMIC                  ::
         :::::::::::::::::::::::::::::::::::::::::::::::::::::
         :: total free energy        -109.724282188689 Eh   ::
         ::.................................................::
         :: total energy             -110.267326560047 Eh   ::
         :: zero point energy           0.621287217841 Eh   ::
         :: G(RRHO) w/o ZPVE           -0.078242846482 Eh   ::
         :: G(RRHO) contrib.            0.543044371358 Eh   ::
         :::::::::::::::::::::::::::::::::::::::::::::::::::::

           -------------------------------------------------
          | TOTAL ENERGY             -110.267326560047 Eh   |
          | TOTAL ENTHALPY           -109.599190040935 Eh   |
          | TOTAL FREE ENERGY        -109.724282188689 Eh   |
          | GRADIENT NORM               0.000201631809 Eh/α |
          | HOMO-LUMO GAP               3.143723459172 eV   |
           -------------------------------------------------

------------------------------------------------------------------------
 * finished run on 2026/08/20 at 20:28:08.459     
------------------------------------------------------------------------
 total:
 * wall-time:     0 d,  0 h,  0 min, 13.037 sec
 *  cpu-time:     0 d,  0 h,  1 min, 24.625 sec
 * ratio c/w:     6.491 speedup
 SCF:
 * wall-time:     0 d,  0 h,  0 min,  0.084 sec
 *  cpu-time:     0 d,  0 h,  0 min,  0.188 sec
 * ratio c/w:     2.232 speedup
 analytical hessian:
 * wall-time:     0 d,  0 h,  0 min, 12.868 sec
 *  cpu-time:     0 d,  0 h,  1 min, 24.359 sec
 * ratio c/w:     6.556 speedup



===== STDERR =====

normal termination of xtb
