76
 energy: -110.273360118190 gnorm: 0.000239426833 xtb: 6.7.1pre (5071a88)
N            0.24132539739939        0.46538602552457       -0.43662742199229
C            1.57829632449859        0.18789440452159       -0.22778189869664
C            2.32156500537630        0.75052116076096        0.81121167574533
C            3.67373164548195        0.49934137257135        0.91497791378632
C            4.31853239791884       -0.34885736574586        0.02404800443583
C            3.55003857443322       -1.00865088030365       -0.92785431144887
C            2.20219312267273       -0.74974423671323       -1.05425508067409
C            5.81558013005876       -0.40646482729035       -0.03059659453010
C            6.28076090570774        0.72421809947150       -0.96861983505229
C           -0.41868653832203        1.65790296452081       -0.19994771023604
C            0.08717586585361        2.84101927413618        0.14988089659733
C           -0.79853962300101        4.03035084379437        0.41569304282918
C           -0.01838566214128        5.35355712941901        0.39128750635341
C            0.54244519100572        5.68366934089355       -0.98994504532138
C            1.20705263402563        7.05481128007460       -1.00688077719933
O            0.30476031665441        0.10999735818755       -3.45179823789626
N           -2.04023982169949        3.53223914956213        3.87665470400061
C           -3.22510856622808        3.79973203637708        3.25963988407257
C           -2.94383679147922        4.01840538628837        1.88752393001145
C           -1.52952710413449        3.86964095268739        1.72163778047509
C           -4.51430554880966        3.88200759940677        3.76744112089160
C           -3.99555212029042        4.31782994754815        1.01900863699219
C           -1.01771956258103        3.57452595046824        2.95707173304963
C           -5.53014840611475        4.18494144053957        2.88572576838222
C           -5.27216943193670        4.39843441989992        1.52874811920725
C            0.37277922488896        3.30354623446852        3.40905274328663
O            1.48223559207064        2.49226632542770       -2.80921635387682
H           -0.17466666038847       -0.10078642803011       -1.16553601377833
H           -0.21856987473749        0.28708087032981       -4.23459103466362
H            1.83614109237900        1.38605851195932        1.53286128535683
H            4.24517224644213        0.98291999620984        1.69488977802260
H            4.01805815757147       -1.72156663204968       -1.59339239159686
H            1.62312543774144       -1.23560570451215       -1.82545426340855
H            6.17220457674191       -1.36186734893321       -0.41870371027195
H            6.26373902996984       -0.24651132828517        0.94979624950899
H            5.89034805713907        1.67987527136792       -0.59892565140144
H            6.00472579153938       -0.29731185178584       -2.77516357880607
H            7.54426338644587        2.50992113716413       -2.14541268924401
H           -1.48928965327976        1.56978600351274       -0.34689594326390
H            1.14800543139881        2.98367930730878        0.28241420399460
H           -1.56298968359291        4.07588156126849       -0.36924947688896
H           -0.68626897518406        6.16009699856263        0.70165669406369
H            0.79841787437095        5.31235405893462        1.11452879596652
H            1.27403309712334        4.92996582202303       -1.28686247806649
H           -0.26772475193737        5.66532297376082       -1.72275114303049
H            1.59335261768431        7.28034042068849       -1.99826265281514
H            0.49336843818009        7.82747082923914       -0.72958540411718
H            2.03430847257143        7.08615918563799       -0.30089686786188
H           -1.92069837261504        3.33420448207104        4.85534256694042
H           -2.51920778749737        6.23012917705749        2.22712459455864
H           -4.71172815590591        3.71408443885100        4.81593642048561
H           -3.81169291420819        4.48699347856811       -0.03164968679221
H           -6.54537968962721        4.25753902307005        3.24635565512512
H           -6.09674308371132        4.63039554300507        0.87062225903579
H            1.08198546353388        3.54999685337066        2.62712890703535
H            0.60652788068374        3.89779758379502        4.29258158852983
H            0.49114907906598        2.24980821055494        3.66766750014312
H            2.42394583998536        2.43208493550189       -2.56035974021384
H            1.01510669125481        2.77574950326671       -2.01614681330317
O           -2.67026408172407        7.17074174375449        2.36801889801950
H            0.75913575726476        0.95221408978397       -3.24310107063890
H           -3.62160849356771        7.29118754428468        2.38381200940570
N            5.73018747789517        0.54927313008355       -2.29997188338631
C            7.80973544845262        0.79613085528745       -1.07304496103935
O            8.55370963821767       -0.02921176666928       -0.59147391371648
C            4.02503631289477        0.67391079398614       -4.00321220139388
C            4.61583271584482        1.18856207731982       -2.71672337694710
O            4.14491973445889        2.13980752908258       -2.11245284145795
H            3.16928701097557        0.04664251554862       -3.75602997000570
H            4.74083597001955        0.09605330028932       -4.58032408968278
H            3.65836290143124        1.50903355571409       -4.59459499487799
N            8.22789584467816        1.86555492318793       -1.78009563715168
C            9.62084163355414        2.14013195753604       -2.03430644189285
H            9.90965954788700        3.10107055382398       -1.60521322691662
H            9.82356629007381        2.15178139360636       -3.10679275099226
H           10.19959408114357        1.34654753321302       -1.56464069994943
