      -----------------------------------------------------------      
     |                   =====================                   |     
     |                           x T B                           |     
     |                   =====================                   |     
     |                         S. Grimme                         |     
     |          Mulliken Center for Theoretical Chemistry        |     
     |                    University of Bonn                     |     
      -----------------------------------------------------------      

   * xtb version 6.7.1pre (5071a88) compiled by 'Marcel@Raven' on 2024-07-23

   xtb is free software: you can redistribute it and/or modify it under
   the terms of the GNU Lesser General Public License as published by
   the Free Software Foundation, either version 3 of the License, or
   (at your option) any later version.
   
   xtb is distributed in the hope that it will be useful,
   but WITHOUT ANY WARRANTY; without even the implied warranty of
   MERCHANTABILITY or FITNESS FOR A PARTICULAR PURPOSE.  See the
   GNU Lesser General Public License for more details.
   
   Cite this work as:
   * C. Bannwarth, E. Caldeweyher, S. Ehlert, A. Hansen, P. Pracht,
     J. Seibert, S. Spicher, S. Grimme, WIREs Comput. Mol. Sci., 2020, 11,
     e01493. DOI: 10.1002/wcms.1493
   
   for GFN2-xTB:
   * C. Bannwarth, S. Ehlert and S. Grimme., J. Chem. Theory Comput., 2019,
     15, 1652-1671. DOI: 10.1021/acs.jctc.8b01176
   for GFN1-xTB:
   * S. Grimme, C. Bannwarth, P. Shushkov, J. Chem. Theory Comput., 2017,
     13, 1989-2009. DOI: 10.1021/acs.jctc.7b00118
   for GFN0-xTB:
   * P. Pracht, E. Caldeweyher, S. Ehlert, S. Grimme, ChemRxiv, 2019, preprint.
     DOI: 10.26434/chemrxiv.8326202.v1
   for GFN-FF:
   * S. Spicher and S. Grimme, Angew. Chem. Int. Ed., 2020, 59, 15665-15673.
     DOI: 10.1002/anie.202004239
   
   for ALPB and GBSA implicit solvation:
   * S. Ehlert, M. Stahn, S. Spicher, S. Grimme, J. Chem. Theory Comput.,
     2021, 17, 4250-4261. DOI: 10.1021/acs.jctc.1c00471
   
   for ddCOSMO and CPCM-X implicit solvation:
   * M. Stahn, S. Ehlert, S. Grimme, J. Phys. Chem. A,
     2023, XX, XXXX-XXXX. DOI: 10.1021/acs.jpca.3c04382
   
   for DFT-D4:
   * E. Caldeweyher, C. Bannwarth and S. Grimme, J. Chem. Phys., 2017,
     147, 034112. DOI: 10.1063/1.4993215
   * E. Caldeweyher, S. Ehlert, A. Hansen, H. Neugebauer, S. Spicher,
     C. Bannwarth and S. Grimme, J. Chem. Phys., 2019, 150, 154122.
     DOI: 10.1063/1.5090222
   * E. Caldeweyher, J.-M. Mewes, S. Ehlert and S. Grimme, Phys. Chem. Chem. Phys.
     2020, 22, 8499-8512. DOI: 10.1039/D0CP00502A
   
   for sTDA-xTB:
   * S. Grimme and C. Bannwarth, J. Chem. Phys., 2016, 145, 054103.
     DOI: 10.1063/1.4959605
   
   in the mass-spec context:
   * V. Asgeirsson, C. Bauer and S. Grimme, Chem. Sci., 2017, 8, 4879.
     DOI: 10.1039/c7sc00601b
   * J. Koopman and S. Grimme, ACS Omega 2019, 4, 12, 15120-15133.
     DOI: 10.1021/acsomega.9b02011
   
   for metadynamics refer to:
   * S. Grimme, J. Chem. Theory Comput., 2019, 155, 2847-2862
     DOI: 10.1021/acs.jctc.9b00143
   
   for SPH calculations refer to:
   * S. Spicher and S. Grimme, J. Chem. Theory Comput., 2021, 17, 1701-1714
     DOI: 10.1021/acs.jctc.0c01306
   
   for ONIOM refer to:
   * C. Plett, A. Katbashev, S. Ehlert, S. Grimme, M. Bursch,
     Phys. Chem. Chem. Phys., 2023, 25, 17860-17868. DOI: 10.1039/D3CP02178E
   
   for DIPRO refer to:
   * J. Kohn, N. Gildemeister, S. Grimme, D. Fazzi, A. Hansen,
     J. Chem. Phys., 2023, just accepted.
   
   for PTB refer to:
   * S. Grimme, M. Mueller, A. Hansen, J. Chem. Phys., 2023, 158, 124111.
     DOI: 10.1063/5.0137838
   
   with help from (in alphabetical order)
   P. Atkinson, C. Bannwarth, F. Bohle, G. Brandenburg, E. Caldeweyher
   M. Checinski, S. Dohm, S. Ehlert, S. Ehrlich, I. Gerasimov, C. Hölzer
   A. Katbashev, J. Kohn, J. Koopman, C. Lavigne, S. Lehtola, F. März, M. Müller,
   F. Musil, H. Neugebauer, J. Pisarek, C. Plett, P. Pracht, F. Pultar,
   J. Seibert, P. Shushkov, S. Spicher, M. Stahn, M. Steiner, T. Strunk,
   J. Stückrath, T. Rose, and J. Unsleber
   
 * started run on 2026/08/20 at 20:28:28.863     
   ID    Z sym.   atoms
    1    7 N      1, 17, 63, 72
    2    6 C      2-15, 18-26, 64, 66, 67, 73
    3    8 O      16, 27, 60, 65, 68
    4    1 H      28-59, 61, 62, 69-71, 74-76

           -------------------------------------------------
          |                Calculation Setup                |
           -------------------------------------------------

          program call               : C:\Users\Nayanika\Downloads\xtb-6.7.1pre-windows-x86_64\xtb-6.7.1\bin\xtb.exe D:\PhD_Thesis\LmrR_EVB\charges\fast_lmrr_5QM\xtb_preparation\stage2_five_xtb_protocols\GFN2_tight\TS2_1a_to_PS2_2\TS2_1a_to_PS2_2_TS_xtbopt.xyz --gfn 2 --chrg 0 --uhf 0 --hess --etemp 0
          coordinate file            : D:\PhD_Thesis\LmrR_EVB\charges\fast_lmrr_5QM\xtb_preparation\stage2_five_xtb_protocols\GFN2_tight\TS2_1a_to_PS2_2\TS2_1a_to_PS2_2_TS_xtbopt.xyz
          omp threads                :                     8


molecular fragmentation (1/2 indicates fragments):
111111111111111211111111112121111111111111111111121111111222221111111111
1111
# atoms in fragment 1/2:    67     9
 fragment masses (1/2) :      446.59       54.05
CMA distance (Bohr)    :   5.100
constraining FC (au)   :  0.0500

           -------------------------------------------------
          |                 G F N 2 - x T B                 |
           -------------------------------------------------

        Reference                      10.1021/acs.jctc.8b01176
      * Hamiltonian:
        H0-scaling (s, p, d)           1.850000    2.230000    2.230000
        zeta-weighting                 0.500000
      * Dispersion:
        s8                             2.700000
        a1                             0.520000
        a2                             5.000000
        s9                             5.000000
      * Repulsion:
        kExp                           1.500000    1.000000
        rExp                           1.000000
      * Coulomb:
        alpha                          2.000000
        third order                    shell-resolved
        anisotropic                    true
        a3                             3.000000
        a5                             4.000000
        cn-shift                       1.200000
        cn-exp                         4.000000
        max-rad                        5.000000

q/qsh data taken from xtbrestart
CAMM data taken from xtbrestart

          ...................................................
          :                      SETUP                      :
          :.................................................:
          :  # basis functions                 184          :
          :  # atomic orbitals                 184          :
          :  # shells                          112          :
          :  # electrons                       198          :
          :  max. iterations                   250          :
          :  Hamiltonian                  GFN2-xTB          :
          :  restarted?                       true          :
          :  GBSA solvation                  false          :
          :  PC potential                    false          :
          :  electronic temp.            0.0000000     K    :
          :  accuracy                    1.0000000          :
          :  -> integral cutoff          0.2500000E+02      :
          :  -> integral neglect         0.1000000E-07      :
          :  -> SCF convergence          0.1000000E-05 Eh   :
          :  -> wf. convergence          0.1000000E-03 e    :
          :  Broyden damping             0.4000000          :
          :  net charge                          0          :
          :  unpaired electrons                  0          :
          ...................................................

 iter      E             dE          RMSdq      gap      omega  full diag
   1   -111.8480785 -0.111848E+03  0.136E-06    2.97       0.0  T
   2   -111.8480785  0.156319E-12  0.101E-06    2.97   11409.1  T
   3   -111.8480785  0.198952E-12  0.512E-07    2.97   22398.1  T

   *** convergence criteria satisfied after 3 iterations ***

         #    Occupation            Energy/Eh            Energy/eV
      -------------------------------------------------------------
         1        2.0000           -0.7110861             -19.3496
       ...           ...                  ...                  ...
        93        2.0000           -0.4053996             -11.0315
        94        2.0000           -0.3989083             -10.8548
        95        2.0000           -0.3931566             -10.6983
        96        2.0000           -0.3869988             -10.5308
        97        2.0000           -0.3776261             -10.2757
        98        2.0000           -0.3575963              -9.7307
        99        2.0000           -0.3370633              -9.1720 (HOMO)
       100                         -0.2279905              -6.2039 (LUMO)
       101                         -0.2235905              -6.0842
       102                         -0.2201849              -5.9915
       103                         -0.2127385              -5.7889
       104                         -0.2095271              -5.7015
       ...                                ...                  ...
       184                          0.7174962              19.5241
      -------------------------------------------------------------
                  HL-Gap            0.1090728 Eh            2.9680 eV
             Fermi-level            0.0000000 Eh            0.0000 eV

 SCC (total)                   0 d,  0 h,  0 min,  0.115 sec
 SCC setup                      ...        0 min,  0.000 sec (  0.000%)
 Dispersion                     ...        0 min,  0.000 sec (  0.000%)
 classical contributions        ...        0 min,  0.000 sec (  0.000%)
 integral evaluation            ...        0 min,  0.011 sec (  9.565%)
 iterations                     ...        0 min,  0.083 sec ( 72.174%)
 molecular gradient             ...        0 min,  0.020 sec ( 17.391%)
 printout                       ...        0 min,  0.001 sec (  0.870%)

         :::::::::::::::::::::::::::::::::::::::::::::::::::::
         ::                     SUMMARY                     ::
         :::::::::::::::::::::::::::::::::::::::::::::::::::::
         :: total energy            -110.273360118244 Eh    ::
         :: gradient norm              0.000240792416 Eh/a0 ::
         :: HOMO-LUMO gap              2.968022620377 eV    ::
         ::.................................................::
         :: SCC energy              -111.846032039138 Eh    ::
         :: -> isotropic ES            0.187632275591 Eh    ::
         :: -> anisotropic ES          0.003585828709 Eh    ::
         :: -> anisotropic XC          0.041138116269 Eh    ::
         :: -> dispersion             -0.085371413384 Eh    ::
         :: repulsion energy           1.572671920894 Eh    ::
         :: add. restraining           0.000000000000 Eh    ::
         :: total charge              -0.000000000000 e     ::
         :::::::::::::::::::::::::::::::::::::::::::::::::::::

           ------------------------------------------------- 
          |                Numerical Hessian                |
           ------------------------------------------------- 
step length          :   0.00500
SCC accuracy         :   0.30000
Hessian scale factor :   1.00000
frozen atoms in %    :   0.00000    0
RMS gradient         :   0.00024
estimated CPU  time     11.08 min
estimated wall time      1.58 min

writing file <hessian>.

 projected vibrational frequencies (cm⁻¹)
eigval :       -0.00    -0.00     0.00     0.00     0.00     0.00
eigval :       -5.63     9.14    10.59    14.31    16.23    26.54
eigval :       28.57    31.86    38.75    43.85    51.90    58.16
eigval :       59.84    64.22    69.99    71.77    83.44    85.86
eigval :       95.75    96.06    96.37   107.87   112.80   114.92
eigval :      122.32   126.38   128.78   129.76   136.18   151.59
eigval :      155.29   167.40   172.90   184.05   202.45   218.08
eigval :      229.73   234.62   244.11   257.51   265.00   269.37
eigval :      272.52   290.50   292.19   296.63   315.81   327.70
eigval :      336.87   354.54   369.59   374.34   394.66   408.43
eigval :      417.03   420.51   437.88   449.35   459.99   475.53
eigval :      483.00   488.60   493.46   507.75   526.17   529.27
eigval :      552.44   555.19   556.29   583.63   596.63   605.76
eigval :      613.07   624.49   655.76   659.35   676.21   682.74
eigval :      695.98   702.26   726.25   734.17   742.71   769.62
eigval :      773.62   786.55   806.51   818.23   863.24   864.36
eigval :      865.46   875.13   890.72   894.39   896.03   916.44
eigval :      918.79   924.20   926.26   928.67   948.55   980.00
eigval :      991.06  1000.41  1003.23  1008.44  1012.56  1022.58
eigval :     1023.40  1034.86  1066.48  1070.89  1081.08  1101.68
eigval :     1106.28  1107.54  1118.16  1123.11  1125.95  1138.86
eigval :     1142.00  1155.29  1161.74  1170.32  1174.94  1191.33
eigval :     1195.12  1199.94  1212.91  1219.29  1220.55  1224.17
eigval :     1239.53  1247.04  1265.00  1267.54  1273.37  1283.69
eigval :     1294.82  1302.68  1308.31  1317.15  1321.48  1329.15
eigval :     1331.28  1353.13  1365.02  1366.59  1375.98  1393.57
eigval :     1396.33  1398.68  1409.15  1416.48  1419.81  1425.85
eigval :     1446.90  1449.21  1450.23  1461.96  1465.27  1473.25
eigval :     1474.74  1479.90  1482.12  1494.02  1495.25  1496.71
eigval :     1503.93  1507.22  1507.74  1543.02  1545.78  1565.81
eigval :     1575.82  1578.21  1594.53  1613.77  1629.47  1692.20
eigval :     1705.34  1760.00  2913.12  2932.16  2965.15  2973.50
eigval :     2978.31  2981.26  2985.76  2989.46  2992.00  2992.72
eigval :     3004.58  3007.78  3020.06  3029.59  3033.30  3035.74
eigval :     3036.38  3037.83  3045.23  3053.89  3057.78  3069.35
eigval :     3072.65  3075.24  3081.90  3083.59  3090.73  3093.46
eigval :     3093.76  3120.42  3250.36  3330.87  3393.03  3444.03
eigval :     3454.16  3485.83  3557.53  3563.44  3654.17  3670.91
           -------------------------------------------------
          |                Property Printout                |
           -------------------------------------------------

    * Orbital Energies and Occupations

         #    Occupation            Energy/Eh            Energy/eV
      -------------------------------------------------------------
         1        2.0000           -0.7110861             -19.3496
       ...           ...                  ...                  ...
        87        2.0000           -0.4198442             -11.4245
        88        2.0000           -0.4151285             -11.2962
        89        2.0000           -0.4138848             -11.2624
        90        2.0000           -0.4123269             -11.2200
        91        2.0000           -0.4110344             -11.1848
        92        2.0000           -0.4087892             -11.1237
        93        2.0000           -0.4053996             -11.0315
        94        2.0000           -0.3989083             -10.8548
        95        2.0000           -0.3931566             -10.6983
        96        2.0000           -0.3869988             -10.5308
        97        2.0000           -0.3776261             -10.2757
        98        2.0000           -0.3575963              -9.7307
        99        2.0000           -0.3370633              -9.1720 (HOMO)
       100                         -0.2279905              -6.2039 (LUMO)
       101                         -0.2235905              -6.0842
       102                         -0.2201849              -5.9915
       103                         -0.2127385              -5.7889
       104                         -0.2095271              -5.7015
       105                         -0.1962714              -5.3408
       106                         -0.1702546              -4.6329
       107                         -0.1538291              -4.1859
       108                         -0.0815151              -2.2181
       109                         -0.0704948              -1.9183
       110                         -0.0078075              -0.2125
       ...                                ...                  ...
       184                          0.7174962              19.5241
      -------------------------------------------------------------
                  HL-Gap            0.1090728 Eh            2.9680 eV
             Fermi-level            0.0000000 Eh            0.0000 eV

     #   Z          covCN         q      C6AA      α(0)
     1   7 N        2.692    -0.152    24.284     7.319
     2   6 C        2.905     0.069    26.453     8.433
     3   6 C        2.921    -0.056    29.388     8.890
     4   6 C        2.925    -0.038    28.950     8.824
     5   6 C        2.975    -0.005    28.150     8.703
     6   6 C        2.924    -0.042    29.041     8.837
     7   6 C        2.926    -0.064    29.586     8.920
     8   6 C        3.810    -0.065    21.744     6.637
     9   6 C        3.802     0.017    20.293     6.414
    10   6 C        2.826     0.011    27.768     8.635
    11   6 C        2.894    -0.087    30.189     9.009
    12   6 C        3.859    -0.019    20.867     6.496
    13   6 C        3.807    -0.065    21.737     6.637
    14   6 C        3.800    -0.055    21.555     6.610
    15   6 C        3.752    -0.103    22.531     6.769
    16   8 O        1.609    -0.616    25.571     6.825
    17   7 N        2.784    -0.120    23.617     7.218
    18   6 C        3.068     0.041    27.005     8.521
    19   6 C        3.112    -0.030    28.588     8.759
    20   6 C        3.058    -0.048    29.124     8.850
    21   6 C        2.908    -0.055    29.364     8.885
    22   6 C        2.911    -0.042    29.037     8.836
    23   6 C        3.062     0.042    26.997     8.521
    24   6 C        2.924    -0.041    29.007     8.832
    25   6 C        2.919    -0.046    29.141     8.852
    26   6 C        3.754    -0.110    22.663     6.788
    27   8 O        1.609    -0.612    25.481     6.813
    28   1 H        0.860     0.187     1.176     1.699
    29   1 H        0.806     0.266     0.834     1.434
    30   1 H        0.926     0.038     2.480     2.463
    31   1 H        0.926     0.026     2.643     2.542
    32   1 H        0.925     0.019     2.753     2.595
    33   1 H        0.926     0.046     2.370     2.407
    34   1 H        0.924     0.051     2.314     2.379
    35   1 H        0.925     0.056     2.242     2.341
    36   1 H        0.924     0.075     2.035     2.231
    37   1 H        0.860     0.176     1.237     1.742
    38   1 H        0.860     0.174     1.250     1.751
    39   1 H        0.925     0.030     2.584     2.514
    40   1 H        0.926     0.034     2.525     2.485
    41   1 H        0.924     0.036     2.499     2.472
    42   1 H        0.924     0.044     2.401     2.423
    43   1 H        0.924     0.031     2.570     2.507
    44   1 H        0.924     0.034     2.532     2.488
    45   1 H        0.924     0.028     2.608     2.526
    46   1 H        0.925     0.032     2.560     2.502
    47   1 H        0.925     0.036     2.500     2.473
    48   1 H        0.925     0.032     2.558     2.501
    49   1 H        0.860     0.158     1.347     1.818
    50   1 H        0.805     0.288     0.757     1.367
    51   1 H        0.926     0.022     2.710     2.574
    52   1 H        0.926     0.027     2.634     2.538
    53   1 H        0.926     0.024     2.667     2.554
    54   1 H        0.926     0.023     2.686     2.563
    55   1 H        0.925     0.059     2.214     2.327
    56   1 H        0.925     0.044     2.394     2.420
    57   1 H        0.924     0.046     2.369     2.407
    58   1 H        0.803     0.318     0.669     1.285
    59   1 H        0.805     0.287     0.762     1.371
    60   8 O        1.611    -0.580    24.701     6.708
    61   1 H        0.803     0.316     0.676     1.292
    62   1 H        0.805     0.277     0.794     1.399
    63   7 N        2.691    -0.183    24.971     7.422
    64   6 C        2.754     0.263    22.556     7.777
    65   8 O        0.858    -0.422    22.117     6.305
    66   6 C        3.757    -0.153    23.524     6.915
    67   6 C        2.749     0.283    22.213     7.717
    68   8 O        0.859    -0.461    22.936     6.421
    69   1 H        0.925     0.095     1.827     2.114
    70   1 H        0.925     0.047     2.352     2.398
    71   1 H        0.925     0.081     1.969     2.195
    72   7 N        2.687    -0.169    24.660     7.375
    73   6 C        3.689    -0.046    21.592     6.650
    74   1 H        0.924     0.054     2.272     2.357
    75   1 H        0.924     0.052     2.298     2.371
    76   1 H        0.925     0.089     1.889     2.149

 Mol. C6AA /au·bohr⁶  :      56214.752711
 Mol. C8AA /au·bohr⁸  :    1284623.502469
 Mol. α(0) /au        :        366.098753


Wiberg/Mayer (AO) data.
largest (>0.10) Wiberg bond orders for each atom

 ---------------------------------------------------------------------------
     #   Z sym  total        # sym  WBO       # sym  WBO       # sym  WBO
 ---------------------------------------------------------------------------
     1   7 N    3.442 --     2 C    1.128    10 C    1.125    28 H    0.925
     2   6 C    3.971 --     3 C    1.346     7 C    1.345     1 N    1.128
     3   6 C    3.989 --     4 C    1.467     2 C    1.346    30 H    0.963
     4   6 C    3.991 --     3 C    1.467     5 C    1.398    31 H    0.969
                             7 C    0.101
     5   6 C    3.971 --     4 C    1.398     6 C    1.394     8 C    1.012
     6   6 C    3.991 --     7 C    1.468     5 C    1.394    32 H    0.969
     7   6 C    3.986 --     6 C    1.468     2 C    1.345    33 H    0.963
                             4 C    0.101
     8   6 C    3.991 --     5 C    1.012    34 H    0.972    35 H    0.968
                             9 C    0.965
     9   6 C    3.961 --    63 N    0.977     8 C    0.965    36 H    0.948
                            64 C    0.928
    10   6 C    3.967 --    11 C    1.794     1 N    1.125    39 H    0.961
    11   6 C    3.963 --    10 C    1.794    12 C    0.999    40 H    0.957
    12   6 C    3.994 --    11 C    0.999    20 C    0.987    13 C    0.982
                            41 H    0.955
    13   6 C    3.994 --    14 C    1.007    12 C    0.982    43 H    0.975
                            42 H    0.973
    14   6 C    3.997 --    15 C    1.018    13 C    1.007    45 H    0.978
                            44 H    0.974
    15   6 C    3.996 --    14 C    1.018    48 H    0.988    47 H    0.988
                            46 H    0.987
    16   8 O    1.814 --    29 H    0.927    61 H    0.844
    17   7 N    3.529 --    18 C    1.178    23 C    1.170    49 H    0.945
    18   6 C    3.959 --    21 C    1.343    19 C    1.236    17 N    1.178
    19   6 C    3.983 --    22 C    1.328    18 C    1.236    20 C    1.199
    20   6 C    3.970 --    23 C    1.552    19 C    1.199    12 C    0.987
    21   6 C    3.989 --    24 C    1.487    18 C    1.343    51 H    0.969
                            22 C    0.111
    22   6 C    3.989 --    25 C    1.501    19 C    1.328    52 H    0.967
                            21 C    0.111
    23   6 C    3.950 --    20 C    1.552    17 N    1.170    26 C    1.030
    24   6 C    3.988 --    21 C    1.487    25 C    1.373    53 H    0.972
    25   6 C    3.989 --    22 C    1.501    24 C    1.373    54 H    0.972
    26   6 C    3.995 --    23 C    1.030    55 H    0.976    56 H    0.974
                            57 H    0.968
    27   8 O    1.864 --    59 H    0.897    58 H    0.850
    28   1 H    0.964 --     1 N    0.925
    29   1 H    0.929 --    16 O    0.927
    30   1 H    0.998 --     3 C    0.963
    31   1 H    0.999 --     4 C    0.969
    32   1 H    0.999 --     6 C    0.969
    33   1 H    0.998 --     7 C    0.963
    34   1 H    0.997 --     8 C    0.972
    35   1 H    0.996 --     8 C    0.968
    36   1 H    0.994 --     9 C    0.948
    37   1 H    0.969 --    63 N    0.938
    38   1 H    0.970 --    72 N    0.942
    39   1 H    0.998 --    10 C    0.961
    40   1 H    0.999 --    11 C    0.957
    41   1 H    0.998 --    12 C    0.955
    42   1 H    0.998 --    13 C    0.973
    43   1 H    0.999 --    13 C    0.975
    44   1 H    0.999 --    14 C    0.974
    45   1 H    0.999 --    14 C    0.978
    46   1 H    0.998 --    15 C    0.987
    47   1 H    0.999 --    15 C    0.988
    48   1 H    0.999 --    15 C    0.988
    49   1 H    0.974 --    17 N    0.945
    50   1 H    0.917 --    60 O    0.897
    51   1 H    0.999 --    21 C    0.969
    52   1 H    0.999 --    22 C    0.967
    53   1 H    0.999 --    24 C    0.972
    54   1 H    0.999 --    25 C    0.972
    55   1 H    0.996 --    26 C    0.976
    56   1 H    0.996 --    26 C    0.974
    57   1 H    0.995 --    26 C    0.968
    58   1 H    0.899 --    27 O    0.850
    59   1 H    0.918 --    27 O    0.897
    60   8 O    1.832 --    62 H    0.922    50 H    0.897
    61   1 H    0.900 --    16 O    0.844
    62   1 H    0.923 --    60 O    0.922
    63   7 N    3.437 --    67 C    1.256     9 C    0.977    37 H    0.938
                            68 O    0.179
    64   6 C    3.953 --    65 O    1.696    72 N    1.262     9 C    0.928
    65   8 O    2.021 --    64 C    1.696    72 N    0.207
    66   6 C    3.990 --    67 C    0.994    70 H    0.982    71 H    0.972
                            69 H    0.950
    67   6 C    3.945 --    68 O    1.639    63 N    1.256    66 C    0.994
    68   8 O    2.001 --    67 C    1.639    63 N    0.179
    69   1 H    0.991 --    66 C    0.950
    70   1 H    0.998 --    66 C    0.982
    71   1 H    0.993 --    66 C    0.972
    72   7 N    3.451 --    64 C    1.262    73 C    1.004    38 H    0.942
                            65 O    0.207
    73   6 C    3.961 --    72 N    1.004    75 H    0.977    74 H    0.977
                            76 H    0.975
    74   1 H    0.997 --    73 C    0.977
    75   1 H    0.997 --    73 C    0.977
    76   1 H    0.992 --    73 C    0.975
 ---------------------------------------------------------------------------

Topologies differ in total number of bonds
Writing topology from bond orders to xtbtopo.mol

molecular dipole:
                 x           y           z       tot (Debye)
 q only:        0.753      -0.210      -0.465
   full:        0.458      -0.274      -0.561       1.969
molecular quadrupole (traceless):
                xx          xy          yy          xz          yz          zz
 q only:       10.078      21.449     -26.951     -22.785      -2.215      16.873
  q+dip:        9.725      20.061     -37.991     -27.723       0.436      28.266
   full:        7.726      21.581     -35.160     -28.726      -0.807      27.434

           -------------------------------------------------
          |               Frequency Printout                |
           -------------------------------------------------
 projected vibrational frequencies (cm⁻¹)
eigval :       -0.00    -0.00     0.00     0.00     0.00     0.00
eigval :       -5.63     9.14    10.59    14.31    16.23    26.54
eigval :       28.57    31.86    38.75    43.85    51.90    58.16
eigval :       59.84    64.22    69.99    71.77    83.44    85.86
eigval :       95.75    96.06    96.37   107.87   112.80   114.92
eigval :      122.32   126.38   128.78   129.76   136.18   151.59
eigval :      155.29   167.40   172.90   184.05   202.45   218.08
eigval :      229.73   234.62   244.11   257.51   265.00   269.37
eigval :      272.52   290.50   292.19   296.63   315.81   327.70
eigval :      336.87   354.54   369.59   374.34   394.66   408.43
eigval :      417.03   420.51   437.88   449.35   459.99   475.53
eigval :      483.00   488.60   493.46   507.75   526.17   529.27
eigval :      552.44   555.19   556.29   583.63   596.63   605.76
eigval :      613.07   624.49   655.76   659.35   676.21   682.74
eigval :      695.98   702.26   726.25   734.17   742.71   769.62
eigval :      773.62   786.55   806.51   818.23   863.24   864.36
eigval :      865.46   875.13   890.72   894.39   896.03   916.44
eigval :      918.79   924.20   926.26   928.67   948.55   980.00
eigval :      991.06  1000.41  1003.23  1008.44  1012.56  1022.58
eigval :     1023.40  1034.86  1066.48  1070.89  1081.08  1101.68
eigval :     1106.28  1107.54  1118.16  1123.11  1125.95  1138.86
eigval :     1142.00  1155.29  1161.74  1170.32  1174.94  1191.33
eigval :     1195.12  1199.94  1212.91  1219.29  1220.55  1224.17
eigval :     1239.53  1247.04  1265.00  1267.54  1273.37  1283.69
eigval :     1294.82  1302.68  1308.31  1317.15  1321.48  1329.15
eigval :     1331.28  1353.13  1365.02  1366.59  1375.98  1393.57
eigval :     1396.33  1398.68  1409.15  1416.48  1419.81  1425.85
eigval :     1446.90  1449.21  1450.23  1461.96  1465.27  1473.25
eigval :     1474.74  1479.90  1482.12  1494.02  1495.25  1496.71
eigval :     1503.93  1507.22  1507.74  1543.02  1545.78  1565.81
eigval :     1575.82  1578.21  1594.53  1613.77  1629.47  1692.20
eigval :     1705.34  1760.00  2913.12  2932.16  2965.15  2973.50
eigval :     2978.31  2981.26  2985.76  2989.46  2992.00  2992.72
eigval :     3004.58  3007.78  3020.06  3029.59  3033.30  3035.74
eigval :     3036.38  3037.83  3045.23  3053.89  3057.78  3069.35
eigval :     3072.65  3075.24  3081.90  3083.59  3090.73  3093.46
eigval :     3093.76  3120.42  3250.36  3330.87  3393.03  3444.03
eigval :     3454.16  3485.83  3557.53  3563.44  3654.17  3670.91
 reduced masses (amu)
   1: 11.83   2: 11.82   3: 11.76   4: 12.16   5: 11.96   6: 11.97   7: 11.16   8: 11.56
   9: 12.05  10: 11.95  11: 13.34  12: 13.33  13: 13.23  14: 11.60  15: 11.47  16: 11.11
  17:  8.13  18: 10.10  19: 10.67  20: 10.14  21: 10.76  22: 11.18  23:  5.04  24:  6.13
  25: 11.55  26: 10.73  27:  8.93  28: 12.87  29:  6.35  30: 10.48  31:  8.16  32:  8.64
  33:  4.19  34:  4.49  35:  8.91  36:  9.98  37: 11.58  38:  9.46  39:  9.77  40:  4.12
  41: 11.59  42: 10.13  43:  6.10  44:  6.16  45: 10.18  46: 10.65  47:  4.39  48: 11.18
  49:  9.84  50: 10.14  51: 10.53  52: 12.17  53:  9.91  54:  1.89  55: 10.36  56: 10.51
  57: 10.04  58: 10.33  59:  9.35  60:  9.25  61:  9.35  62:  9.49  63:  2.60  64: 10.51
  65:  2.13  66:  8.60  67:  6.70  68: 10.90  69:  9.19  70:  4.51  71:  8.05  72:  9.37
  73:  7.23  74:  8.37  75:  6.43  76:  7.57  77: 11.10  78: 10.68  79:  9.76  80: 10.28
  81: 10.77  82: 10.36  83:  8.83  84:  4.71  85: 10.72  86: 11.16  87: 10.90  88:  6.93
  89:  2.52  90:  3.69  91:  8.02  92:  4.77  93:  9.56  94:  5.12  95:  3.65  96:  7.37
  97:  9.93  98:  7.38  99:  4.13 100:  6.89 101:  3.89 102:  2.91 103:  2.98 104:  8.60
 105:  8.67 106:  5.86 107:  6.39 108: 10.08 109:  5.12 110:  5.50 111:  6.77 112:  3.43
 113:  7.34 114:  6.15 115:  6.91 116:  4.36 117:  6.24 118:  7.12 119:  9.40 120:  7.00
 121:  8.55 122:  4.58 123:  7.94 124:  8.01 125:  7.57 126:  5.28 127:  5.94 128:  6.19
 129:  4.94 130:  5.32 131:  3.60 132:  4.71 133:  5.12 134:  2.39 135:  5.31 136:  5.30
 137:  4.75 138:  5.75 139:  4.41 140:  5.67 141:  4.29 142:  3.53 143:  5.54 144:  2.24
 145:  4.41 146:  4.85 147:  4.80 148:  9.91 149:  5.75 150:  6.60 151:  5.13 152:  9.83
 153: 11.07 154:  5.31 155:  3.29 156:  2.59 157:  4.97 158:  9.38 159:  7.97 160:  3.17
 161:  8.69 162:  8.88 163:  3.17 164:  6.98 165: 11.32 166:  1.56 167:  2.08 168:  1.73
 169:  2.18 170:  1.68 171:  2.30 172:  3.38 173:  9.17 174:  1.84 175:  1.53 176:  1.72
 177: 10.11 178:  2.17 179:  2.06 180:  2.19 181: 11.34 182: 11.51 183: 11.65 184: 11.53
 185: 11.64 186: 11.61 187: 13.13 188: 13.26 189:  1.74 190:  1.74 191:  1.89 192:  1.95
 193:  1.93 194:  1.84 195:  1.54 196:  1.44 197:  1.86 198:  1.56 199:  1.58 200:  1.62
 201:  1.78 202:  1.94 203:  1.94 204:  1.79 205:  1.73 206:  1.28 207:  1.52 208:  1.87
 209:  1.81 210:  1.81 211:  1.75 212:  1.80 213:  1.71 214:  1.86 215:  1.85 216:  1.90
 217:  1.84 218:  1.83 219:  1.88 220:  1.91 221:  1.83 222:  1.84 223:  1.84 224:  1.86
 225:  1.81 226:  1.86 227:  1.84 228:  1.84
 IR intensities (km·mol⁻¹)
   1:  0.03   2:  0.02   3:  0.04   4:  0.00   5:  0.03   6:  0.03   7:  0.54   8:  0.95
   9:  1.34  10:  3.70  11:  7.14  12:  4.39  13:  2.43  14:  0.82  15:  0.34  16:  1.02
  17:  3.90  18:  2.48  19:  2.17  20:  0.52  21:  0.27  22:  2.01  23: 42.79  24:  0.25
  25:  1.24  26:  9.20  27: 16.91  28:  1.81  29:  0.74  30:  0.79  31:  5.26  32:  5.48
  33: 51.55  34: 15.30  35:  1.95  36:  4.09  37:  4.30  38:  1.95  39:  8.32  40: 94.70
  41: 26.20  42: 15.98  43:  2.24  44:  0.22  45:  7.22  46:  7.58  47:147.67  48: 18.30
  49:  9.40  50: 13.38  51:  6.74  52:  5.77  53:  4.20  54:120.08  55:  5.56  56:  4.20
  57:  1.23  58:  7.84  59:  1.80  60:  2.55  61: 12.73  62: 14.02  63:105.25  64:  2.39
  65: 22.02  66: 36.57  67: 47.64  68:  1.02  69: 12.52  70: 49.73  71: 41.61  72:  6.57
  73: 39.53  74:136.43  75: 93.90  76: 12.62  77:  4.79  78:  9.55  79: 41.66  80:  0.37
  81:  5.78  82:  8.81  83: 74.36  84: 79.62  85:  1.59  86:  1.12  87: 28.74  88: 18.82
  89:173.21  90: 25.08  91: 21.39  92:  1.71  93: 15.54  94: 12.25  95:  0.16  96:  0.94
  97:  0.33  98:  0.04  99:  1.23 100:  1.76 101:  0.28 102:  4.12 103:  0.01 104:  0.99
 105:  3.58 106:  0.95 107:  4.01 108: 10.71 109:  1.83 110:  9.69 111: 37.63 112:  8.13
 113:  2.74 114: 11.38 115:  7.85 116:  6.75 117:  0.09 118: 38.65 119:  1.24 120:  9.46
 121: 10.75 122:  6.31 123:  7.47 124: 33.81 125:  0.54 126:  2.11 127:  5.52 128:  7.75
 129:  4.49 130:  5.55 131:  3.57 132:  4.00 133:  6.45 134:  8.98 135: 34.32 136: 22.95
 137:  1.36 138: 13.46 139: 51.66 140: 39.38 141:  9.63 142:  3.14 143: 28.10 144:  3.20
 145: 11.67 146:  3.48 147:  8.68 148: 41.09 149:  6.86 150: 21.02 151: 19.52 152: 31.79
 153: 20.42 154:  0.25 155: 43.29 156:  3.25 157:  7.41 158:187.16 159: 13.08 160:  0.46
 161:201.31 162:169.44 163: 32.03 164: 59.39 165: 58.60 166: 12.19 167: 10.59 168:  2.17
 169:  0.14 170:  5.70 171: 20.54 172:  1.61 173: 10.17 174:  1.17 175:  2.25 176:  3.15
 177:300.01 178:114.38 179: 81.14 180:179.95 181:  2.74 182:  0.25 183:  7.21 184:111.92
 185: 20.24 186:127.66 187:591.38 188:475.90 189: 21.19 190:  7.67 191:  4.71 192: 28.90
 193: 58.59 194: 28.99 195:  8.93 196: 46.26 197: 23.94 198: 58.12 199: 29.14 200: 20.88
 201:  0.84 202: 49.16 203: 58.17 204: 43.16 205:  2.65 206: 35.22 207: 14.34 208:  2.93
 209: 61.71 210: 33.06 211:  7.89 212: 13.58 213:  1.72 214: 87.93 215: 13.41 216:117.25
 217: 13.02 218: 16.75 219:578.92 220:450.03 221: 38.87 222:  6.49 223:  7.33 224:  9.59
 225: 90.07 226:128.33 227:  8.03 228:  3.81
 Raman intensities (Ä⁴*amu⁻¹)
   1:  0.00   2:  0.00   3:  0.00   4:  0.00   5:  0.00   6:  0.00   7:  0.00   8:  0.00
   9:  0.00  10:  0.00  11:  0.00  12:  0.00  13:  0.00  14:  0.00  15:  0.00  16:  0.00
  17:  0.00  18:  0.00  19:  0.00  20:  0.00  21:  0.00  22:  0.00  23:  0.00  24:  0.00
  25:  0.00  26:  0.00  27:  0.00  28:  0.00  29:  0.00  30:  0.00  31:  0.00  32:  0.00
  33:  0.00  34:  0.00  35:  0.00  36:  0.00  37:  0.00  38:  0.00  39:  0.00  40:  0.00
  41:  0.00  42:  0.00  43:  0.00  44:  0.00  45:  0.00  46:  0.00  47:  0.00  48:  0.00
  49:  0.00  50:  0.00  51:  0.00  52:  0.00  53:  0.00  54:  0.00  55:  0.00  56:  0.00
  57:  0.00  58:  0.00  59:  0.00  60:  0.00  61:  0.00  62:  0.00  63:  0.00  64:  0.00
  65:  0.00  66:  0.00  67:  0.00  68:  0.00  69:  0.00  70:  0.00  71:  0.00  72:  0.00
  73:  0.00  74:  0.00  75:  0.00  76:  0.00  77:  0.00  78:  0.00  79:  0.00  80:  0.00
  81:  0.00  82:  0.00  83:  0.00  84:  0.00  85:  0.00  86:  0.00  87:  0.00  88:  0.00
  89:  0.00  90:  0.00  91:  0.00  92:  0.00  93:  0.00  94:  0.00  95:  0.00  96:  0.00
  97:  0.00  98:  0.00  99:  0.00 100:  0.00 101:  0.00 102:  0.00 103:  0.00 104:  0.00
 105:  0.00 106:  0.00 107:  0.00 108:  0.00 109:  0.00 110:  0.00 111:  0.00 112:  0.00
 113:  0.00 114:  0.00 115:  0.00 116:  0.00 117:  0.00 118:  0.00 119:  0.00 120:  0.00
 121:  0.00 122:  0.00 123:  0.00 124:  0.00 125:  0.00 126:  0.00 127:  0.00 128:  0.00
 129:  0.00 130:  0.00 131:  0.00 132:  0.00 133:  0.00 134:  0.00 135:  0.00 136:  0.00
 137:  0.00 138:  0.00 139:  0.00 140:  0.00 141:  0.00 142:  0.00 143:  0.00 144:  0.00
 145:  0.00 146:  0.00 147:  0.00 148:  0.00 149:  0.00 150:  0.00 151:  0.00 152:  0.00
 153:  0.00 154:  0.00 155:  0.00 156:  0.00 157:  0.00 158:  0.00 159:  0.00 160:  0.00
 161:  0.00 162:  0.00 163:  0.00 164:  0.00 165:  0.00 166:  0.00 167:  0.00 168:  0.00
 169:  0.00 170:  0.00 171:  0.00 172:  0.00 173:  0.00 174:  0.00 175:  0.00 176:  0.00
 177:  0.00 178:  0.00 179:  0.00 180:  0.00 181:  0.00 182:  0.00 183:  0.00 184:  0.00
 185:  0.00 186:  0.00 187:  0.00 188:  0.00 189:  0.00 190:  0.00 191:  0.00 192:  0.00
 193:  0.00 194:  0.00 195:  0.00 196:  0.00 197:  0.00 198:  0.00 199:  0.00 200:  0.00
 201:  0.00 202:  0.00 203:  0.00 204:  0.00 205:  0.00 206:  0.00 207:  0.00 208:  0.00
 209:  0.00 210:  0.00 211:  0.00 212:  0.00 213:  0.00 214:  0.00 215:  0.00 216:  0.00
 217:  0.00 218:  0.00 219:  0.00 220:  0.00 221:  0.00 222:  0.00 223:  0.00 224:  0.00
 225:  0.00 226:  0.00 227:  0.00 228:  0.00
 output can be read by thermo (or use thermo option).
 writing <g98.out> molden fake output.
 recommended (thermochemical) frequency scaling factor: 1.0
           -------------------------------------------------
          |             Thermodynamic Functions             |
           -------------------------------------------------

Refinement of some symmetry elements was terminated before convergence was reached.
Some symmetry elements may remain unidentified.
Molecule has no symmetry elements
It seems to be the C1 point group
c1  symmetry found (for desy threshold:  0.10E+00) used in thermo
 inverting freq            1   5.63443318040791     

          ...................................................
          :                      SETUP                      :
          :.................................................:
          :  # frequencies                         222      :
          :  # imaginary freq.                       0      :
          :  linear?                             false      :
          :  only rotor calc.                    false      :
          :  symmetry                               c1      :
          :  rotational number                       1      :
          :  scaling factor                  1.0000000      :
          :  rotor cutoff                   50.0000000 cm⁻¹ :
          :  imag. cutoff                  -20.0000000 cm⁻¹ :
          :.................................................:

    mode    ω/cm⁻¹     T·S(HO)/kcal·mol⁻¹    T·S(FR)/kcal·mol⁻¹   T·S(vib)
   ------------------------------------------------------------------------
       1      5.63    -2.72835 (  0.02%)    -1.70318 ( 99.98%)    -1.70334
       2      9.14    -2.44166 (  0.11%)    -1.55986 ( 99.89%)    -1.56084
       3     10.59    -2.35434 (  0.20%)    -1.51620 ( 99.80%)    -1.51789
       4     14.31    -2.17631 (  0.67%)    -1.42717 ( 99.33%)    -1.43216
       5     16.23    -2.10151 (  1.10%)    -1.38976 ( 98.90%)    -1.39758
       6     26.54    -1.81043 (  7.36%)    -1.24411 ( 92.64%)    -1.28578
       7     28.57    -1.76686 (  9.64%)    -1.22229 ( 90.36%)    -1.27477
       8     31.86    -1.70239 ( 14.16%)    -1.19000 ( 85.84%)    -1.26255
       9     38.75    -1.58679 ( 26.51%)    -1.13206 ( 73.49%)    -1.25259
      10     43.85    -1.51374 ( 37.17%)    -1.09542 ( 62.83%)    -1.25090
      11     51.90    -1.41435 ( 53.72%)    -1.04551 ( 46.28%)    -1.24364
      12     58.16    -1.34729 ( 64.67%)    -1.01178 ( 35.33%)    -1.22874
      13     59.84    -1.33047 ( 67.23%)    -1.00331 ( 32.77%)    -1.22327
      14     64.22    -1.28892 ( 73.13%)    -0.98239 ( 26.87%)    -1.20656
      15     69.99    -1.23840 ( 79.34%)    -0.95690 ( 20.66%)    -1.18023
      16     71.77    -1.22371 ( 80.93%)    -0.94949 ( 19.07%)    -1.17142
      17     83.44    -1.13547 ( 88.58%)    -0.90485 ( 11.42%)    -1.10912
      18     85.86    -1.11877 ( 89.68%)    -0.89638 ( 10.32%)    -1.09582
      19     95.75    -1.05516 ( 93.08%)    -0.86407 (  6.92%)    -1.04194
      20     96.06    -1.05329 ( 93.16%)    -0.86312 (  6.84%)    -1.04028
      21     96.37    -1.05142 ( 93.24%)    -0.86217 (  6.76%)    -1.03863
      22    107.87    -0.98595 ( 95.59%)    -0.82876 (  4.41%)    -0.97901
      23    112.80    -0.96010 ( 96.28%)    -0.81553 (  3.72%)    -0.95472
      24    114.92    -0.94934 ( 96.54%)    -0.81002 (  3.46%)    -0.94452
      25    122.32    -0.91334 ( 97.28%)    -0.79152 (  2.72%)    -0.91003
      26    126.38    -0.89458 ( 97.61%)    -0.78185 (  2.39%)    -0.89188
      27    128.78    -0.88376 ( 97.78%)    -0.77627 (  2.22%)    -0.88137
      28    129.76    -0.87944 ( 97.84%)    -0.77404 (  2.16%)    -0.87717
      29    136.18    -0.85178 ( 98.22%)    -0.75973 (  1.78%)    -0.85014
      30    151.59    -0.79076 ( 98.83%)    -0.72798 (  1.17%)    -0.79003
      31    155.29    -0.77711 ( 98.94%)    -0.72083 (  1.06%)    -0.77651
      32    167.40    -0.73477 ( 99.21%)    -0.69857 (  0.79%)    -0.73449
      33    172.90    -0.71665 ( 99.31%)    -0.68899 (  0.69%)    -0.71646
      34    184.05    -0.68186 ( 99.46%)    -0.67049 (  0.54%)    -0.68180
      35    202.45    -0.62932 ( 99.63%)    -0.64227 (  0.37%)    -0.62936
      36    218.08    -0.58883 ( 99.72%)    -0.62023 (  0.28%)    -0.58892
      37    229.73    -0.56084 ( 99.78%)    -0.60482 (  0.22%)    -0.56094
      38    234.62    -0.54959 ( 99.79%)    -0.59858 (  0.21%)    -0.54969
      39    244.11    -0.52853 ( 99.82%)    -0.58682 (  0.18%)    -0.52863
      40    257.51    -0.50046 ( 99.86%)    -0.57099 (  0.14%)    -0.50056
      41    265.00    -0.48556 ( 99.87%)    -0.56250 (  0.13%)    -0.48566
      42    269.37    -0.47711 ( 99.88%)    -0.55766 (  0.12%)    -0.47721
      43    272.52    -0.47113 ( 99.89%)    -0.55422 (  0.11%)    -0.47123
      44    290.50    -0.43859 ( 99.91%)    -0.53528 (  0.09%)    -0.43867
      45    292.19    -0.43567 ( 99.91%)    -0.53357 (  0.09%)    -0.43575
      46    296.63    -0.42810 ( 99.92%)    -0.52910 (  0.08%)    -0.42818
   ------------------------------------------------------------------------

   temp. (K)  partition function   enthalpy   heat capacity  entropy
                                   cal/mol     cal/K/mol   cal/K/mol   J/K/mol
 298.15  VIB  0.155E+25            26541.915    143.484    176.398
         ROT  0.438E+08              888.752      2.981     37.946
         INT  0.678E+32            27430.667    146.465    214.344
         TR   0.108E+29             1481.254      4.968     44.499
         TOT                       28911.9210   151.4331   258.8426  1082.9974

       T/K    H(0)-H(T)+PV         H(T)/Eh          T*S/Eh         G(T)/Eh
   ------------------------------------------------------------------------
    298.15    0.460741E-01    0.668632E+00    0.122984E+00    0.545647E+00
   ------------------------------------------------------------------------

         :::::::::::::::::::::::::::::::::::::::::::::::::::::
         ::                  THERMODYNAMIC                  ::
         :::::::::::::::::::::::::::::::::::::::::::::::::::::
         :: total free energy        -109.727712992602 Eh   ::
         ::.................................................::
         :: total energy             -110.273360118244 Eh   ::
         :: zero point energy           0.622557510200 Eh   ::
         :: G(RRHO) w/o ZPVE           -0.076910384558 Eh   ::
         :: G(RRHO) contrib.            0.545647125642 Eh   ::
         :::::::::::::::::::::::::::::::::::::::::::::::::::::
imag cut-off (cm-1) :    5.00
 found            1  significant imaginary frequency
 writing imag mode distorted coords to xtbhess.xyz
 for further optimization.

           -------------------------------------------------
          | TOTAL ENERGY             -110.273360118244 Eh   |
          | TOTAL ENTHALPY           -109.604728529227 Eh   |
          | TOTAL FREE ENERGY        -109.727712992602 Eh   |
          | GRADIENT NORM               0.000240806287 Eh/α |
          | HOMO-LUMO GAP               2.968022742236 eV   |
           -------------------------------------------------

------------------------------------------------------------------------
 * finished run on 2026/08/20 at 20:28:40.876     
------------------------------------------------------------------------
 total:
 * wall-time:     0 d,  0 h,  0 min, 12.010 sec
 *  cpu-time:     0 d,  0 h,  1 min, 20.953 sec
 * ratio c/w:     6.740 speedup
 SCF:
 * wall-time:     0 d,  0 h,  0 min,  0.115 sec
 *  cpu-time:     0 d,  0 h,  0 min,  0.094 sec
 * ratio c/w:     0.815 speedup
 analytical hessian:
 * wall-time:     0 d,  0 h,  0 min, 11.835 sec
 *  cpu-time:     0 d,  0 h,  1 min, 20.766 sec
 * ratio c/w:     6.824 speedup



===== STDERR =====

normal termination of xtb
