76
 xtb: 6.7.1pre (5071a88)
N            0.22669718471256        0.48130523687841       -0.47569996100412
C            1.56167011829240        0.19591171704332       -0.25394629338115
C            2.29801637819665        0.74965684814349        0.79486504607820
C            3.64822852958401        0.49233066386986        0.90917588548843
C            4.29739529716960       -0.35363491007346        0.01925997102701
C            3.53459687622662       -1.00499654298312       -0.94306571683975
C            2.18897393728513       -0.73970722685444       -1.08015687162505
C            5.79467248808317       -0.41766363062945       -0.02230120865847
C            6.27343122709151        0.71467668503254       -0.95158640243260
C           -0.43086354066975        1.67205809067130       -0.22965558502490
C            0.07662135982436        2.85171456347625        0.12963760449174
C           -0.80720894894519        4.03988529591424        0.40637917020402
C           -0.03062211029307        5.36483105673187        0.36759310224010
C            0.50322531193044        5.69584049408808       -1.02432175152948
C            1.16853911885525        7.06647389798588       -1.05304802985647
O            0.31214764022334        0.13548268477290       -3.49455051710256
N           -1.99245266810687        3.55346838346063        3.88912750462304
C           -3.19308898430820        3.79415242451965        3.28388720436065
C           -2.93280672077200        4.00511429086171        1.90626118230420
C           -1.51799184381073        3.87865305399187        1.72373453547416
C           -4.47722706819630        3.85934390864978        3.80726453573829
C           -4.00064438635922        4.27905477315327        1.04841756258621
C           -0.98574534660752        3.60273536014478        2.95530096803649
C           -5.50935319139900        4.13728396422830        2.93575121139471
C           -5.27215979664572        4.34287843720407        1.57360008357698
C            0.41469104496968        3.36090535740302        3.39423920193793
O            1.49928707543049        2.50574972597357       -2.82530545149262
H           -0.17768031164595       -0.09481858648808       -1.17785139450547
H           -0.21492908665870        0.29548585676161       -4.24606265559084
H            1.82810212701054        1.38511615792887        1.52791776933146
H            4.23636895947590        0.97891502831760        1.69545903237517
H            4.01440376395460       -1.72009859288064       -1.59768472688435
H            1.62065567568403       -1.23080592259904       -1.83518252669607
H            6.16590063747040       -1.36515309766770       -0.41650389276569
H            6.25536017046647       -0.25150935573415        0.95353013146469
H            5.88834802900079        1.67713980982974       -0.59400217581405
H            6.00642521278455       -0.29767123549095       -2.77221829450849
H            7.54737816884079        2.50616856396243       -2.13629682003964
H           -1.49276242358558        1.57474537182881       -0.35639599505381
H            1.14500923960110        2.98588542980763        0.27728481209638
H           -1.56896556713349        4.07760107565832       -0.36857222144147
H           -0.68860539923592        6.16292140941749        0.69846259693800
H            0.79892956218360        5.31616044058431        1.10310367666115
H            1.26075448048661        4.93334260196575       -1.30120555278567
H           -0.28325694690217        5.66923043333593       -1.72809060305003
H            1.57645868444315        7.28398790844766       -2.01383144396694
H            0.48400805307567        7.83087809855886       -0.73850776188810
H            2.02732799980266        7.08908999189894       -0.31912931635048
H           -1.90326253495316        3.34313751449659        4.85878006163390
H           -2.52439443100505        6.22831855978138        2.22108846525157
H           -4.69628790293182        3.70932156172751        4.82864732877934
H           -3.81787723791318        4.47390705121782       -0.02425846285051
H           -6.53836052324400        4.23977019964751        3.26439490875030
H           -6.10025609379420        4.60859617423302        0.88603524680204
H            1.08962703280312        3.55721733775715        2.61581819789709
H            0.62240538777347        3.92682638992180        4.27900311727400
H            0.50638473054758        2.27017444368327        3.67716970104210
H            2.42773208247011        2.43453833996719       -2.56275492721897
H            1.01796345181197        2.77719773652945       -2.02035220249067
O           -2.68326632536155        7.16660576102199        2.33196320750224
H            0.76208418835443        0.95749402414353       -3.25177398032667
H           -3.62457808230167        7.29183219897230        2.37730269708960
N            5.73517835798757        0.54703860933442       -2.28795298315882
C            7.80366424480390        0.78095201209064       -1.04106302868874
O            8.53780104540565       -0.05045875201674       -0.54722941250017
C            4.04616287203197        0.68547211963918       -4.00765831142696
C            4.62682547157635        1.19243480386584       -2.71340178391261
O            4.15520666191773        2.14340185559880       -2.10910458723634
H            3.17427015159728        0.05029824863489       -3.76042238563325
H            4.74800190445152        0.09961396195399       -4.58055083719129
H            3.66667978782777        1.51346863551018       -4.59569864562188
N            8.23307945234211        1.84839436870585       -1.73985736958607
C            9.62913690117969        2.11945667854889       -1.98311936468451
H            9.91190659603410        3.09453849227355       -1.58917748517357
H            9.82899055276101        2.14600323096787       -3.09141351759894
H           10.19982282316109        1.33968792861276       -1.54856278996792
