      -----------------------------------------------------------      
     |                   =====================                   |     
     |                           x T B                           |     
     |                   =====================                   |     
     |                         S. Grimme                         |     
     |          Mulliken Center for Theoretical Chemistry        |     
     |                    University of Bonn                     |     
      -----------------------------------------------------------      

   * xtb version 6.7.1pre (5071a88) compiled by 'Marcel@Raven' on 2024-07-23

   xtb is free software: you can redistribute it and/or modify it under
   the terms of the GNU Lesser General Public License as published by
   the Free Software Foundation, either version 3 of the License, or
   (at your option) any later version.
   
   xtb is distributed in the hope that it will be useful,
   but WITHOUT ANY WARRANTY; without even the implied warranty of
   MERCHANTABILITY or FITNESS FOR A PARTICULAR PURPOSE.  See the
   GNU Lesser General Public License for more details.
   
   Cite this work as:
   * C. Bannwarth, E. Caldeweyher, S. Ehlert, A. Hansen, P. Pracht,
     J. Seibert, S. Spicher, S. Grimme, WIREs Comput. Mol. Sci., 2020, 11,
     e01493. DOI: 10.1002/wcms.1493
   
   for GFN2-xTB:
   * C. Bannwarth, S. Ehlert and S. Grimme., J. Chem. Theory Comput., 2019,
     15, 1652-1671. DOI: 10.1021/acs.jctc.8b01176
   for GFN1-xTB:
   * S. Grimme, C. Bannwarth, P. Shushkov, J. Chem. Theory Comput., 2017,
     13, 1989-2009. DOI: 10.1021/acs.jctc.7b00118
   for GFN0-xTB:
   * P. Pracht, E. Caldeweyher, S. Ehlert, S. Grimme, ChemRxiv, 2019, preprint.
     DOI: 10.26434/chemrxiv.8326202.v1
   for GFN-FF:
   * S. Spicher and S. Grimme, Angew. Chem. Int. Ed., 2020, 59, 15665-15673.
     DOI: 10.1002/anie.202004239
   
   for ALPB and GBSA implicit solvation:
   * S. Ehlert, M. Stahn, S. Spicher, S. Grimme, J. Chem. Theory Comput.,
     2021, 17, 4250-4261. DOI: 10.1021/acs.jctc.1c00471
   
   for ddCOSMO and CPCM-X implicit solvation:
   * M. Stahn, S. Ehlert, S. Grimme, J. Phys. Chem. A,
     2023, XX, XXXX-XXXX. DOI: 10.1021/acs.jpca.3c04382
   
   for DFT-D4:
   * E. Caldeweyher, C. Bannwarth and S. Grimme, J. Chem. Phys., 2017,
     147, 034112. DOI: 10.1063/1.4993215
   * E. Caldeweyher, S. Ehlert, A. Hansen, H. Neugebauer, S. Spicher,
     C. Bannwarth and S. Grimme, J. Chem. Phys., 2019, 150, 154122.
     DOI: 10.1063/1.5090222
   * E. Caldeweyher, J.-M. Mewes, S. Ehlert and S. Grimme, Phys. Chem. Chem. Phys.
     2020, 22, 8499-8512. DOI: 10.1039/D0CP00502A
   
   for sTDA-xTB:
   * S. Grimme and C. Bannwarth, J. Chem. Phys., 2016, 145, 054103.
     DOI: 10.1063/1.4959605
   
   in the mass-spec context:
   * V. Asgeirsson, C. Bauer and S. Grimme, Chem. Sci., 2017, 8, 4879.
     DOI: 10.1039/c7sc00601b
   * J. Koopman and S. Grimme, ACS Omega 2019, 4, 12, 15120-15133.
     DOI: 10.1021/acsomega.9b02011
   
   for metadynamics refer to:
   * S. Grimme, J. Chem. Theory Comput., 2019, 155, 2847-2862
     DOI: 10.1021/acs.jctc.9b00143
   
   for SPH calculations refer to:
   * S. Spicher and S. Grimme, J. Chem. Theory Comput., 2021, 17, 1701-1714
     DOI: 10.1021/acs.jctc.0c01306
   
   for ONIOM refer to:
   * C. Plett, A. Katbashev, S. Ehlert, S. Grimme, M. Bursch,
     Phys. Chem. Chem. Phys., 2023, 25, 17860-17868. DOI: 10.1039/D3CP02178E
   
   for DIPRO refer to:
   * J. Kohn, N. Gildemeister, S. Grimme, D. Fazzi, A. Hansen,
     J. Chem. Phys., 2023, just accepted.
   
   for PTB refer to:
   * S. Grimme, M. Mueller, A. Hansen, J. Chem. Phys., 2023, 158, 124111.
     DOI: 10.1063/5.0137838
   
   with help from (in alphabetical order)
   P. Atkinson, C. Bannwarth, F. Bohle, G. Brandenburg, E. Caldeweyher
   M. Checinski, S. Dohm, S. Ehlert, S. Ehrlich, I. Gerasimov, C. Hölzer
   A. Katbashev, J. Kohn, J. Koopman, C. Lavigne, S. Lehtola, F. März, M. Müller,
   F. Musil, H. Neugebauer, J. Pisarek, C. Plett, P. Pracht, F. Pultar,
   J. Seibert, P. Shushkov, S. Spicher, M. Stahn, M. Steiner, T. Strunk,
   J. Stückrath, T. Rose, and J. Unsleber
   
 * started run on 2026/08/20 at 00:57:55.132     
   ID    Z sym.   atoms
    1    7 N      1, 44, 53
    2    6 C      2-15, 45, 47, 48, 54
    3    8 O      16, 17, 41, 46, 49
    4    1 H      18-40, 42, 43, 50-52, 55-57

           -------------------------------------------------
          |                Calculation Setup                |
           -------------------------------------------------

          program call               : C:\Users\Nayanika\Downloads\xtb-6.7.1pre-windows-x86_64\xtb-6.7.1\bin\xtb.exe D:\PhD_Thesis\LmrR_EVB\charges\fast_lmrr_evb_qm\pdb_preserving_xtb_qm_inputs\RS1_2b_to_PS1_3\RS1_2b_to_PS1_3_TS_xtbopt.xyz --gfn 2 --hess --chrg 0 --uhf 0 --temper 298 --scf normal --etemp 500
          coordinate file            : D:\PhD_Thesis\LmrR_EVB\charges\fast_lmrr_evb_qm\pdb_preserving_xtb_qm_inputs\RS1_2b_to_PS1_3\RS1_2b_to_PS1_3_TS_xtbopt.xyz
          omp threads                :                     1


molecular fragmentation (1/2 indicates fragments):
111111111111111222211111111111111111112222211111111111111
# atoms in fragment 1/2:    48     9
 fragment masses (1/2) :      315.41       54.05
CMA distance (Bohr)    :  12.027
constraining FC (au)   :  0.0500
########################################################################
[WARNING] Please study the warnings concerning your input carefully
-2- prog_main_parseArguments: Unknown option '--scf' provided
-1- prog_main_parseArguments: Unknown option '--temper' provided
########################################################################

           -------------------------------------------------
          |                 G F N 2 - x T B                 |
           -------------------------------------------------

        Reference                      10.1021/acs.jctc.8b01176
      * Hamiltonian:
        H0-scaling (s, p, d)           1.850000    2.230000    2.230000
        zeta-weighting                 0.500000
      * Dispersion:
        s8                             2.700000
        a1                             0.520000
        a2                             5.000000
        s9                             5.000000
      * Repulsion:
        kExp                           1.500000    1.000000
        rExp                           1.000000
      * Coulomb:
        alpha                          2.000000
        third order                    shell-resolved
        anisotropic                    true
        a3                             3.000000
        a5                             4.000000
        cn-shift                       1.200000
        cn-exp                         4.000000
        max-rad                        5.000000

q/qsh data taken from xtbrestart
CAMM data taken from xtbrestart

          ...................................................
          :                      SETUP                      :
          :.................................................:
          :  # basis functions                 135          :
          :  # atomic orbitals                 135          :
          :  # shells                           83          :
          :  # electrons                       148          :
          :  max. iterations                   250          :
          :  Hamiltonian                  GFN2-xTB          :
          :  restarted?                       true          :
          :  GBSA solvation                  false          :
          :  PC potential                    false          :
          :  electronic temp.          500.0000000     K    :
          :  accuracy                    1.0000000          :
          :  -> integral cutoff          0.2500000E+02      :
          :  -> integral neglect         0.1000000E-07      :
          :  -> SCF convergence          0.1000000E-05 Eh   :
          :  -> wf. convergence          0.1000000E-03 e    :
          :  Broyden damping             0.4000000          :
          :  net charge                          0          :
          :  unpaired electrons                  0          :
          ...................................................

 iter      E             dE          RMSdq      gap      omega  full diag
   1    -84.5036654 -0.845037E+02  0.289E+00    2.20       0.0  T
   2    -84.5275690 -0.239036E-01  0.181E+00    2.73       1.0  T
   3    -84.5191202  0.844887E-02  0.101E+00    2.22       1.0  T
   4    -84.5439114 -0.247912E-01  0.141E-01    2.48       1.0  T
   5    -84.5442124 -0.301022E-03  0.695E-02    2.45       1.0  T
   6    -84.5443728 -0.160435E-03  0.319E-02    2.45       1.0  T
   7    -84.5443975 -0.246717E-04  0.158E-02    2.45       1.0  T
   8    -84.5444015 -0.404393E-05  0.649E-03    2.45       2.0  T
   9    -84.5444027 -0.120776E-05  0.210E-03    2.45       6.3  T
  10    -84.5444028 -0.516904E-07  0.109E-03    2.45      12.2  T
  11    -84.5444028 -0.185012E-07  0.349E-04    2.45      38.0  T
  12    -84.5444028 -0.244967E-08  0.118E-04    2.45     111.8  T

   *** convergence criteria satisfied after 12 iterations ***

         #    Occupation            Energy/Eh            Energy/eV
      -------------------------------------------------------------
         1        2.0000           -0.7068965             -19.2356
       ...           ...                  ...                  ...
        68        2.0000           -0.4148319             -11.2882
        69        2.0000           -0.4077602             -11.0957
        70        2.0000           -0.4053384             -11.0298
        71        2.0000           -0.3971083             -10.8059
        72        2.0000           -0.3965737             -10.7913
        73        2.0000           -0.3838557             -10.4452
        74        2.0000           -0.3688282             -10.0363 (HOMO)
        75                         -0.2787830              -7.5861 (LUMO)
        76                         -0.2251105              -6.1256
        77                         -0.2173617              -5.9147
        78                         -0.2166628              -5.8957
        79                         -0.2051548              -5.5825
       ...                                ...                  ...
       135                          0.6715474              18.2737
      -------------------------------------------------------------
                  HL-Gap            0.0900452 Eh            2.4503 eV
             Fermi-level           -0.3238056 Eh           -8.8112 eV

 SCC (total)                   0 d,  0 h,  0 min,  0.044 sec
 SCC setup                      ...        0 min,  0.002 sec (  4.546%)
 Dispersion                     ...        0 min,  0.000 sec (  0.000%)
 classical contributions        ...        0 min,  0.000 sec (  0.000%)
 integral evaluation            ...        0 min,  0.005 sec ( 11.364%)
 iterations                     ...        0 min,  0.030 sec ( 68.182%)
 molecular gradient             ...        0 min,  0.007 sec ( 15.909%)
 printout                       ...        0 min,  0.000 sec (  0.000%)

         :::::::::::::::::::::::::::::::::::::::::::::::::::::
         ::                     SUMMARY                     ::
         :::::::::::::::::::::::::::::::::::::::::::::::::::::
         :: total energy             -83.439183085018 Eh    ::
         :: gradient norm              0.000794327673 Eh/a0 ::
         :: HOMO-LUMO gap              2.450255798590 eV    ::
         ::.................................................::
         :: SCC energy               -84.543720968007 Eh    ::
         :: -> isotropic ES            0.184866765711 Eh    ::
         :: -> anisotropic ES         -0.005963663749 Eh    ::
         :: -> anisotropic XC          0.033914680545 Eh    ::
         :: -> dispersion             -0.051255596525 Eh    ::
         :: repulsion energy           1.104537882989 Eh    ::
         :: add. restraining           0.000000000000 Eh    ::
         :: total charge              -0.000000000000 e     ::
         :::::::::::::::::::::::::::::::::::::::::::::::::::::

           ------------------------------------------------- 
          |                Numerical Hessian                |
           ------------------------------------------------- 
step length          :   0.00500
SCC accuracy         :   0.30000
Hessian scale factor :   1.00000
frozen atoms in %    :   0.00000    0
RMS gradient         :   0.00080
estimated CPU  time      0.22 min
estimated wall time      0.22 min

writing file <hessian>.

 projected vibrational frequencies (cm⁻¹)
eigval :       -0.00    -0.00     0.00     0.00     0.00     0.00
eigval :        9.62    13.80    18.91    22.04    26.63    29.01
eigval :       34.77    39.25    43.48    51.80    55.46    61.15
eigval :       68.11    68.40    81.99    88.09    89.03    98.65
eigval :      119.14   125.92   151.56   158.92   165.45   168.97
eigval :      177.43   189.08   198.77   210.51   218.02   233.12
eigval :      240.52   251.46   256.07   282.26   292.02   292.85
eigval :      313.96   332.10   352.30   356.62   378.10   394.12
eigval :      405.56   416.27   419.55   439.77   441.15   465.48
eigval :      507.73   515.81   553.33   579.10   600.65   610.12
eigval :      624.78   645.86   659.54   689.12   698.60   708.12
eigval :      726.78   733.96   771.10   779.05   789.61   819.60
eigval :      866.44   875.59   875.97   893.88   901.71   915.55
eigval :      928.27   934.61   937.15   975.18   992.41  1004.02
eigval :     1008.36  1015.73  1036.35  1038.11  1077.66  1089.07
eigval :     1104.84  1109.03  1118.81  1130.60  1139.03  1139.79
eigval :     1160.74  1164.62  1189.07  1208.74  1210.69  1212.34
eigval :     1221.43  1232.24  1246.11  1259.14  1264.86  1273.16
eigval :     1282.14  1286.47  1294.41  1312.75  1328.68  1347.19
eigval :     1364.56  1372.79  1392.94  1413.39  1416.63  1421.60
eigval :     1434.87  1457.75  1462.73  1467.75  1468.54  1477.84
eigval :     1483.38  1484.71  1494.95  1502.34  1504.74  1533.66
eigval :     1545.16  1564.79  1567.49  1598.70  1649.88  1679.19
eigval :     1718.40  1758.85  2914.21  2944.96  2970.36  2971.23
eigval :     2982.77  2988.93  2990.16  2990.89  3001.01  3022.70
eigval :     3025.68  3029.08  3031.43  3033.23  3035.49  3040.56
eigval :     3054.07  3056.89  3066.99  3067.28  3076.55  3085.84
eigval :     3095.23  3109.45  3262.06  3316.43  3396.77  3455.78
eigval :     3648.74  3652.98  3663.98
           -------------------------------------------------
          |                Property Printout                |
           -------------------------------------------------

    * Orbital Energies and Occupations

         #    Occupation            Energy/Eh            Energy/eV
      -------------------------------------------------------------
         1        2.0000           -0.7068956             -19.2356
       ...           ...                  ...                  ...
        62        2.0000           -0.4393727             -11.9559
        63        2.0000           -0.4340260             -11.8104
        64        2.0000           -0.4335795             -11.7983
        65        2.0000           -0.4284591             -11.6590
        66        2.0000           -0.4263992             -11.6029
        67        2.0000           -0.4160259             -11.3206
        68        2.0000           -0.4148324             -11.2882
        69        2.0000           -0.4077603             -11.0957
        70        2.0000           -0.4053377             -11.0298
        71        2.0000           -0.3971091             -10.8059
        72        2.0000           -0.3965736             -10.7913
        73        2.0000           -0.3838551             -10.4452
        74        2.0000           -0.3688292             -10.0364 (HOMO)
        75                         -0.2787841              -7.5861 (LUMO)
        76                         -0.2251107              -6.1256
        77                         -0.2173610              -5.9147
        78                         -0.2166636              -5.8957
        79                         -0.2051542              -5.5825
        80                         -0.1608595              -4.3772
        81                         -0.0931421              -2.5345
        82                          0.0021297               0.0580
        83                          0.0106046               0.2886
        84                          0.0417524               1.1361
        85                          0.0757155               2.0603
       ...                                ...                  ...
       135                          0.6715467              18.2737
      -------------------------------------------------------------
                  HL-Gap            0.0900451 Eh            2.4503 eV
             Fermi-level           -0.3238066 Eh           -8.8112 eV

     #   Z          covCN         q      C6AA      α(0)
     1   7 N        1.835    -0.237    27.041     7.706
     2   6 C        2.931     0.078    26.252     8.403
     3   6 C        2.920    -0.050    29.244     8.868
     4   6 C        2.924    -0.039    28.959     8.825
     5   6 C        2.970     0.003    27.965     8.674
     6   6 C        2.924    -0.044    29.085     8.844
     7   6 C        2.922    -0.051    29.260     8.871
     8   6 C        3.812    -0.070    21.821     6.649
     9   6 C        3.797     0.020    20.237     6.405
    10   6 C        2.856     0.081    26.184     8.387
    11   6 C        2.893    -0.050    29.233     8.865
    12   6 C        2.899    -0.015    28.375     8.734
    13   6 C        3.807    -0.061    21.671     6.627
    14   6 C        3.802    -0.050    21.471     6.597
    15   6 C        3.752    -0.105    22.557     6.773
    16   8 O        1.609    -0.607    25.346     6.795
    17   8 O        1.608    -0.609    25.412     6.804
    18   1 H        0.803     0.315     0.678     1.294
    19   1 H        0.804     0.309     0.694     1.309
    20   1 H        0.926     0.054     2.270     2.356
    21   1 H        0.926     0.034     2.531     2.488
    22   1 H        0.925     0.025     2.661     2.551
    23   1 H        0.926     0.032     2.556     2.500
    24   1 H        0.924     0.061     2.184     2.311
    25   1 H        0.924     0.060     2.202     2.321
    26   1 H        0.924     0.061     2.182     2.310
    27   1 H        0.860     0.181     1.209     1.723
    28   1 H        0.860     0.206     1.074     1.623
    29   1 H        0.925     0.064     2.154     2.295
    30   1 H        0.925     0.044     2.400     2.422
    31   1 H        0.925     0.052     2.291     2.367
    32   1 H        0.924     0.058     2.225     2.333
    33   1 H        0.924     0.044     2.397     2.421
    34   1 H        0.924     0.031     2.568     2.506
    35   1 H        0.924     0.036     2.507     2.476
    36   1 H        0.925     0.037     2.491     2.468
    37   1 H        0.925     0.038     2.481     2.463
    38   1 H        0.925     0.037     2.485     2.465
    39   1 H        0.806     0.276     0.799     1.404
    40   1 H        0.803     0.321     0.661     1.277
    41   8 O        1.608    -0.602    25.242     6.781
    42   1 H        0.805     0.273     0.809     1.413
    43   1 H        0.805     0.278     0.789     1.396
    44   7 N        2.692    -0.183    24.974     7.422
    45   6 C        2.753     0.264    22.553     7.777
    46   8 O        0.858    -0.436    22.407     6.346
    47   6 C        3.757    -0.143    23.306     6.883
    48   6 C        2.749     0.277    22.311     7.734
    49   8 O        0.859    -0.455    22.808     6.403
    50   1 H        0.925     0.057     2.230     2.335
    51   1 H        0.925     0.059     2.217     2.328
    52   1 H        0.925     0.073     2.053     2.240
    53   7 N        2.686    -0.177    24.823     7.400
    54   6 C        3.690    -0.042    21.523     6.639
    55   1 H        0.924     0.053     2.287     2.365
    56   1 H        0.924     0.049     2.329     2.386
    57   1 H        0.925     0.082     1.957     2.188

 Mol. C6AA /au·bohr⁶  :      29498.853091
 Mol. C8AA /au·bohr⁸  :     658243.911414
 Mol. α(0) /au        :        262.545927


Wiberg/Mayer (AO) data.
largest (>0.10) Wiberg bond orders for each atom

 ---------------------------------------------------------------------------
     #   Z sym  total        # sym  WBO       # sym  WBO       # sym  WBO
 ---------------------------------------------------------------------------
     1   7 N    3.199 --    10 C    1.741     2 C    1.109    12 C    0.111
     2   6 C    3.977 --     7 C    1.358     3 C    1.343     1 N    1.109
     3   6 C    3.988 --     4 C    1.466     2 C    1.343    20 H    0.965
                             6 C    0.102
     4   6 C    3.991 --     3 C    1.466     5 C    1.398    21 H    0.968
                             7 C    0.104
     5   6 C    3.982 --     6 C    1.404     4 C    1.398     8 C    1.011
     6   6 C    3.990 --     7 C    1.456     5 C    1.404    22 H    0.967
                             3 C    0.102
     7   6 C    3.981 --     6 C    1.456     2 C    1.358    23 H    0.970
                             4 C    0.104
     8   6 C    3.991 --     5 C    1.011     9 C    0.980    24 H    0.970
                            25 H    0.965
     9   6 C    3.962 --     8 C    0.980    44 N    0.974    26 H    0.952
                            45 C    0.914
    10   6 C    3.963 --     1 N    1.741    11 C    1.132    29 H    0.950
    11   6 C    3.990 --    12 C    1.796    10 C    1.132    30 H    0.959
    12   6 C    3.969 --    11 C    1.796    13 C    1.043    31 H    0.962
                             1 N    0.111
    13   6 C    3.996 --    12 C    1.043    14 C    0.986    33 H    0.974
                            32 H    0.949
    14   6 C    3.991 --    15 C    1.019    13 C    0.986    34 H    0.980
                            35 H    0.978
    15   6 C    3.995 --    14 C    1.019    38 H    0.988    37 H    0.988
                            36 H    0.986
    16   8 O    1.820 --    42 H    0.924    19 H    0.864
    17   8 O    1.850 --    39 H    0.922    40 H    0.840
    18   1 H    0.901 --    41 O    0.832
    19   1 H    0.904 --    16 O    0.864
    20   1 H    0.997 --     3 C    0.965
    21   1 H    0.998 --     4 C    0.968
    22   1 H    0.998 --     6 C    0.967
    23   1 H    0.999 --     7 C    0.970
    24   1 H    0.996 --     8 C    0.970
    25   1 H    0.995 --     8 C    0.965
    26   1 H    0.996 --     9 C    0.952
    27   1 H    0.967 --    44 N    0.934
    28   1 H    0.957 --    53 N    0.906
    29   1 H    0.995 --    10 C    0.950
    30   1 H    0.998 --    11 C    0.959
    31   1 H    0.997 --    12 C    0.962
    32   1 H    0.990 --    13 C    0.949
    33   1 H    0.998 --    13 C    0.974
    34   1 H    0.999 --    14 C    0.980
    35   1 H    0.999 --    14 C    0.978
    36   1 H    0.998 --    15 C    0.986
    37   1 H    0.999 --    15 C    0.988
    38   1 H    0.999 --    15 C    0.988
    39   1 H    0.924 --    17 O    0.922
    40   1 H    0.897 --    17 O    0.840
    41   8 O    1.867 --    43 H    0.919    18 H    0.832
    42   1 H    0.926 --    16 O    0.924
    43   1 H    0.922 --    41 O    0.919
    44   7 N    3.451 --    48 C    1.271     9 C    0.974    27 H    0.934
                            49 O    0.192
    45   6 C    3.956 --    46 O    1.679    53 N    1.292     9 C    0.914
    46   8 O    2.010 --    45 C    1.679    53 N    0.212
    47   6 C    3.993 --    52 H    0.983    48 C    0.983    50 H    0.971
                            51 H    0.970
    48   6 C    3.950 --    49 O    1.649    44 N    1.271    47 C    0.983
    49   8 O    1.993 --    48 C    1.649    44 N    0.192
    50   1 H    0.997 --    47 C    0.971
    51   1 H    0.996 --    47 C    0.970
    52   1 H    0.994 --    47 C    0.983
    53   7 N    3.466 --    45 C    1.292    54 C    1.006    28 H    0.906
                            46 O    0.212
    54   6 C    3.965 --    53 N    1.006    55 H    0.977    57 H    0.977
                            56 H    0.976
    55   1 H    0.997 --    54 C    0.977
    56   1 H    0.997 --    54 C    0.976
    57   1 H    0.993 --    54 C    0.977
 ---------------------------------------------------------------------------

Topologies differ in total number of bonds
Writing topology from bond orders to xtbtopo.mol

molecular dipole:
                 x           y           z       tot (Debye)
 q only:       -1.068       0.208      -0.988
   full:       -1.417       0.079      -1.243       4.795
molecular quadrupole (traceless):
                xx          xy          yy          xz          yz          zz
 q only:      -10.135       8.437       1.816      -5.778      -5.639       8.319
  q+dip:      -15.903      10.439       2.009      -8.720      -2.944      13.895
   full:      -17.207      10.934       0.971      -8.487      -4.830      16.235

           -------------------------------------------------
          |               Frequency Printout                |
           -------------------------------------------------
 projected vibrational frequencies (cm⁻¹)
eigval :       -0.00    -0.00     0.00     0.00     0.00     0.00
eigval :        9.62    13.80    18.91    22.04    26.63    29.01
eigval :       34.77    39.25    43.48    51.80    55.46    61.15
eigval :       68.11    68.40    81.99    88.09    89.03    98.65
eigval :      119.14   125.92   151.56   158.92   165.45   168.97
eigval :      177.43   189.08   198.77   210.51   218.02   233.12
eigval :      240.52   251.46   256.07   282.26   292.02   292.85
eigval :      313.96   332.10   352.30   356.62   378.10   394.12
eigval :      405.56   416.27   419.55   439.77   441.15   465.48
eigval :      507.73   515.81   553.33   579.10   600.65   610.12
eigval :      624.78   645.86   659.54   689.12   698.60   708.12
eigval :      726.78   733.96   771.10   779.05   789.61   819.60
eigval :      866.44   875.59   875.97   893.88   901.71   915.55
eigval :      928.27   934.61   937.15   975.18   992.41  1004.02
eigval :     1008.36  1015.73  1036.35  1038.11  1077.66  1089.07
eigval :     1104.84  1109.03  1118.81  1130.60  1139.03  1139.79
eigval :     1160.74  1164.62  1189.07  1208.74  1210.69  1212.34
eigval :     1221.43  1232.24  1246.11  1259.14  1264.86  1273.16
eigval :     1282.14  1286.47  1294.41  1312.75  1328.68  1347.19
eigval :     1364.56  1372.79  1392.94  1413.39  1416.63  1421.60
eigval :     1434.87  1457.75  1462.73  1467.75  1468.54  1477.84
eigval :     1483.38  1484.71  1494.95  1502.34  1504.74  1533.66
eigval :     1545.16  1564.79  1567.49  1598.70  1649.88  1679.19
eigval :     1718.40  1758.85  2914.21  2944.96  2970.36  2971.23
eigval :     2982.77  2988.93  2990.16  2990.89  3001.01  3022.70
eigval :     3025.68  3029.08  3031.43  3033.23  3035.49  3040.56
eigval :     3054.07  3056.89  3066.99  3067.28  3076.55  3085.84
eigval :     3095.23  3109.45  3262.06  3316.43  3396.77  3455.78
eigval :     3648.74  3652.98  3663.98
 reduced masses (amu)
   1: 12.11   2: 11.94   3: 12.57   4: 12.27   5: 11.14   6: 12.49   7: 11.32   8: 11.59
   9: 11.81  10: 11.97  11: 13.56  12: 13.52  13: 13.08  14: 11.23  15:  9.30  16: 13.58
  17: 12.11  18: 10.03  19:  8.78  20:  8.65  21: 12.15  22:  7.23  23:  8.62  24: 10.78
  25: 10.83  26:  1.76  27: 10.90  28:  8.56  29:  8.96  30:  6.90  31: 11.80  32: 11.85
  33:  9.30  34:  9.23  35:  5.12  36:  2.74  37: 12.21  38:  8.20  39:  8.40  40:  9.70
  41: 11.95  42:  9.80  43: 11.03  44:  9.70  45:  8.36  46:  2.57  47:  8.96  48:  3.58
  49:  9.08  50:  9.13  51:  2.38  52: 10.61  53:  4.85  54:  9.80  55:  9.92  56: 10.98
  57: 10.41  58:  8.35  59: 10.74  60: 10.72  61:  1.74  62:  9.14  63: 10.36  64:  5.91
  65:  7.36  66:  5.72  67: 11.05  68:  1.81  69:  4.81  70: 10.60  71:  3.38  72:  5.95
  73:  9.57  74:  3.58  75:  8.67  76:  3.73  77:  4.37  78:  2.99  79:  8.87  80:  3.75
  81:  6.10  82: 10.78  83:  5.72  84:  5.43  85:  1.94  86:  8.62  87:  8.31  88:  4.70
  89:  6.94  90:  8.88  91:  3.82  92:  7.36  93:  7.92  94:  6.86  95:  4.26  96:  8.70
  97:  8.45  98:  6.25  99:  2.95 100:  5.39 101:  5.06 102:  4.80 103:  4.61 104:  3.60
 105:  5.70 106:  7.06 107:  2.72 108:  3.61 109:  4.72 110:  3.08 111:  3.87 112:  7.61
 113:  9.17 114:  4.87 115:  5.36 116:  3.28 117:  2.63 118:  9.87 119:  3.15 120:  9.99
 121:  8.58 122:  1.67 123:  1.57 124:  1.77 125:  1.83 126:  2.32 127:  9.33 128:  2.51
 129:  1.86 130:  1.53 131:  1.63 132:  2.11 133:  2.05 134: 11.49 135:  2.21 136: 11.54
 137: 11.92 138: 12.22 139: 13.14 140: 13.19 141:  1.74 142:  1.78 143:  1.91 144:  1.93
 145:  1.55 146:  1.65 147:  1.48 148:  1.98 149:  1.50 150:  1.78 151:  1.94 152:  1.47
 153:  1.73 154:  1.96 155:  1.89 156:  1.30 157:  1.81 158:  1.80 159:  1.84 160:  1.75
 161:  1.80 162:  1.85 163:  1.87 164:  1.90 165:  1.86 166:  1.88 167:  1.87 168:  1.85
 169:  1.83 170:  1.84 171:  1.84
 IR intensities (km·mol⁻¹)
   1:  0.00   2:  0.16   3:  0.04   4:  0.02   5:  0.01   6:  0.16   7:  0.25   8:  0.25
   9:  0.34  10:  2.49  11:  0.49  12:  3.29  13:  0.43  14:  2.22  15:  2.05  16:  2.81
  17:  3.24  18:  1.58  19:  3.16  20: 16.30  21:  2.32  22:  1.38  23:  0.49  24:  6.68
  25: 11.29  26:  0.56  27:  7.66  28: 32.48  29: 37.03  30: 31.36  31: 15.58  32:  6.44
  33: 14.11  34:  7.50  35: 46.52  36:  0.97  37:  0.68  38: 86.81  39: 29.13  40: 97.45
  41:  3.33  42:  5.30  43:  4.55  44:  6.72  45:  4.26  46: 11.71  47:  3.74  48: 36.84
  49: 45.39  50:  5.51  51:103.70  52: 11.78  53:121.97  54:  0.56  55:  8.19  56: 13.69
  57: 13.62  58:  4.17  59: 26.17  60:  4.68  61:299.00  62: 43.74  63: 33.30  64: 93.25
  65: 51.74  66:132.31  67:  2.57  68:249.19  69:  4.96  70: 25.47  71: 12.25  72: 32.85
  73:  2.08  74:  3.15  75: 10.74  76: 13.73  77:  3.01  78:  0.64  79:  1.10  80:  2.31
  81:  3.79  82: 18.08  83:  2.75  84: 22.91  85: 14.68  86:  2.12  87: 22.71  88: 22.73
  89: 25.95  90:  0.28  91:  0.44  92: 20.63  93: 27.98  94: 20.27  95:  4.95  96:  5.34
  97: 23.48  98:  1.81  99: 18.20 100: 16.37 101: 11.16 102:  9.33 103:  8.90 104:  0.93
 105: 36.11 106:  7.18 107:  0.34 108:  1.99 109: 21.28 110:  0.48 111:  6.44 112:  2.18
 113:  1.53 114: 12.32 115:  8.53 116: 19.75 117:  2.79 118: 13.82 119:  1.59 120:221.17
 121:228.23 122:  5.77 123:  9.90 124:  2.90 125:  9.96 126:  1.22 127: 52.14 128: 27.73
 129:  0.62 130:  2.86 131:  1.78 132:110.41 133:103.21 134:  5.67 135:223.98 136: 27.19
 137:360.26 138:  1.65 139:308.03 140:593.40 141: 14.49 142: 10.53 143: 29.73 144: 34.14
 145: 16.04 146: 45.04 147: 44.90 148: 14.91 149: 17.96 150:  6.77 151: 16.97 152:  7.38
 153:  8.68 154: 49.54 155: 45.29 156: 35.89 157:  5.10 158: 46.90 159: 48.65 160:  6.64
 161: 29.62 162: 35.52 163: 10.28 164:****** 165:567.13 166:136.43 167:354.85 168: 17.61
 169:  8.47 170: 10.88 171:  7.65
 Raman intensities (Ä⁴*amu⁻¹)
   1:  0.00   2:  0.00   3:  0.00   4:  0.00   5:  0.00   6:  0.00   7:  0.00   8:  0.00
   9:  0.00  10:  0.00  11:  0.00  12:  0.00  13:  0.00  14:  0.00  15:  0.00  16:  0.00
  17:  0.00  18:  0.00  19:  0.00  20:  0.00  21:  0.00  22:  0.00  23:  0.00  24:  0.00
  25:  0.00  26:  0.00  27:  0.00  28:  0.00  29:  0.00  30:  0.00  31:  0.00  32:  0.00
  33:  0.00  34:  0.00  35:  0.00  36:  0.00  37:  0.00  38:  0.00  39:  0.00  40:  0.00
  41:  0.00  42:  0.00  43:  0.00  44:  0.00  45:  0.00  46:  0.00  47:  0.00  48:  0.00
  49:  0.00  50:  0.00  51:  0.00  52:  0.00  53:  0.00  54:  0.00  55:  0.00  56:  0.00
  57:  0.00  58:  0.00  59:  0.00  60:  0.00  61:  0.00  62:  0.00  63:  0.00  64:  0.00
  65:  0.00  66:  0.00  67:  0.00  68:  0.00  69:  0.00  70:  0.00  71:  0.00  72:  0.00
  73:  0.00  74:  0.00  75:  0.00  76:  0.00  77:  0.00  78:  0.00  79:  0.00  80:  0.00
  81:  0.00  82:  0.00  83:  0.00  84:  0.00  85:  0.00  86:  0.00  87:  0.00  88:  0.00
  89:  0.00  90:  0.00  91:  0.00  92:  0.00  93:  0.00  94:  0.00  95:  0.00  96:  0.00
  97:  0.00  98:  0.00  99:  0.00 100:  0.00 101:  0.00 102:  0.00 103:  0.00 104:  0.00
 105:  0.00 106:  0.00 107:  0.00 108:  0.00 109:  0.00 110:  0.00 111:  0.00 112:  0.00
 113:  0.00 114:  0.00 115:  0.00 116:  0.00 117:  0.00 118:  0.00 119:  0.00 120:  0.00
 121:  0.00 122:  0.00 123:  0.00 124:  0.00 125:  0.00 126:  0.00 127:  0.00 128:  0.00
 129:  0.00 130:  0.00 131:  0.00 132:  0.00 133:  0.00 134:  0.00 135:  0.00 136:  0.00
 137:  0.00 138:  0.00 139:  0.00 140:  0.00 141:  0.00 142:  0.00 143:  0.00 144:  0.00
 145:  0.00 146:  0.00 147:  0.00 148:  0.00 149:  0.00 150:  0.00 151:  0.00 152:  0.00
 153:  0.00 154:  0.00 155:  0.00 156:  0.00 157:  0.00 158:  0.00 159:  0.00 160:  0.00
 161:  0.00 162:  0.00 163:  0.00 164:  0.00 165:  0.00 166:  0.00 167:  0.00 168:  0.00
 169:  0.00 170:  0.00 171:  0.00
 output can be read by thermo (or use thermo option).
 writing <g98.out> molden fake output.
 recommended (thermochemical) frequency scaling factor: 1.0
           -------------------------------------------------
          |             Thermodynamic Functions             |
           -------------------------------------------------

Refinement of some symmetry elements was terminated before convergence was reached.
Some symmetry elements may remain unidentified.
Molecule has no symmetry elements
It seems to be the C1 point group
c1  symmetry found (for desy threshold:  0.10E+00) used in thermo

          ...................................................
          :                      SETUP                      :
          :.................................................:
          :  # frequencies                         165      :
          :  # imaginary freq.                       0      :
          :  linear?                             false      :
          :  only rotor calc.                    false      :
          :  symmetry                               c1      :
          :  rotational number                       1      :
          :  scaling factor                  1.0000000      :
          :  rotor cutoff                   50.0000000 cm⁻¹ :
          :  imag. cutoff                  -20.0000000 cm⁻¹ :
          :.................................................:

    mode    ω/cm⁻¹     T·S(HO)/kcal·mol⁻¹    T·S(FR)/kcal·mol⁻¹   T·S(vib)
   ------------------------------------------------------------------------
       1      9.62    -2.41160 (  0.14%)    -1.54479 ( 99.86%)    -1.54597
       2     13.80    -2.19771 (  0.58%)    -1.43785 ( 99.42%)    -1.44223
       3     18.91    -2.01123 (  2.00%)    -1.34458 ( 98.00%)    -1.35794
       4     22.04    -1.92036 (  3.64%)    -1.29911 ( 96.36%)    -1.32173
       5     26.63    -1.80851 (  7.45%)    -1.24313 ( 92.55%)    -1.28524
       6     29.01    -1.75784 ( 10.18%)    -1.21776 ( 89.82%)    -1.27275
       7     34.77    -1.65082 ( 18.95%)    -1.16415 ( 81.05%)    -1.25638
       8     39.25    -1.57918 ( 27.52%)    -1.12824 ( 72.48%)    -1.25235
       9     43.48    -1.51873 ( 36.38%)    -1.09792 ( 63.62%)    -1.25101
      10     51.80    -1.41542 ( 53.54%)    -1.04604 ( 46.46%)    -1.24379
      11     55.46    -1.37525 ( 60.21%)    -1.02584 ( 39.79%)    -1.23623
      12     61.15    -1.31776 ( 69.11%)    -0.99691 ( 30.89%)    -1.21864
      13     68.11    -1.25438 ( 77.49%)    -0.96497 ( 22.51%)    -1.18925
      14     68.40    -1.25193 ( 77.78%)    -0.96373 ( 22.22%)    -1.18790
      15     81.99    -1.14572 ( 87.85%)    -0.91004 ( 12.15%)    -1.11708
      16     88.09    -1.10378 ( 90.60%)    -0.88878 (  9.40%)    -1.08356
      17     89.03    -1.09757 ( 90.95%)    -0.88562 (  9.05%)    -1.07839
      18     98.65    -1.03780 ( 93.81%)    -0.85523 (  6.19%)    -1.02650
      19    119.14    -0.92850 ( 96.99%)    -0.79931 (  3.01%)    -0.92462
      20    125.92    -0.89667 ( 97.57%)    -0.78293 (  2.43%)    -0.89391
      21    151.56    -0.79085 ( 98.83%)    -0.72802 (  1.17%)    -0.79012
      22    158.92    -0.76403 ( 99.03%)    -0.71397 (  0.97%)    -0.76354
      23    165.45    -0.74135 ( 99.17%)    -0.70204 (  0.83%)    -0.74103
      24    168.97    -0.72954 ( 99.24%)    -0.69581 (  0.76%)    -0.72928
      25    177.43    -0.70223 ( 99.37%)    -0.68134 (  0.63%)    -0.70210
      26    189.08    -0.66689 ( 99.51%)    -0.66249 (  0.49%)    -0.66687
      27    198.77    -0.63936 ( 99.60%)    -0.64769 (  0.40%)    -0.63940
      28    210.51    -0.60800 ( 99.68%)    -0.63070 (  0.32%)    -0.60807
      29    218.02    -0.58898 ( 99.72%)    -0.62030 (  0.28%)    -0.58906
      30    233.12    -0.55301 ( 99.79%)    -0.60048 (  0.21%)    -0.55311
      31    240.52    -0.53639 ( 99.81%)    -0.59122 (  0.19%)    -0.53649
      32    251.46    -0.51292 ( 99.84%)    -0.57804 (  0.16%)    -0.51302
      33    256.07    -0.50341 ( 99.85%)    -0.57266 (  0.15%)    -0.50351
      34    282.26    -0.45317 ( 99.90%)    -0.54381 (  0.10%)    -0.45326
      35    292.02    -0.43597 ( 99.91%)    -0.53374 (  0.09%)    -0.43605
      36    292.85    -0.43454 ( 99.92%)    -0.53290 (  0.08%)    -0.43462
   ------------------------------------------------------------------------

   temp. (K)  partition function   enthalpy   heat capacity  entropy
                                   cal/mol     cal/K/mol   cal/K/mol   J/K/mol
 298.15  VIB  0.473E+19            20420.907    106.830    135.511
         ROT  0.234E+08              888.752      2.981     36.703
         INT  0.111E+27            21309.659    109.811    172.213
         TR   0.687E+28             1481.254      4.968     43.594
         TOT                       22790.9130   114.7788   215.8071   902.9369

       T/K    H(0)-H(T)+PV         H(T)/Eh          T*S/Eh         G(T)/Eh
   ------------------------------------------------------------------------
    298.15    0.363196E-01    0.501481E+00    0.102537E+00    0.398944E+00
   ------------------------------------------------------------------------

         :::::::::::::::::::::::::::::::::::::::::::::::::::::
         ::                  THERMODYNAMIC                  ::
         :::::::::::::::::::::::::::::::::::::::::::::::::::::
         :: total free energy         -83.040238630697 Eh   ::
         ::.................................................::
         :: total energy              -83.439183085236 Eh   ::
         :: zero point energy           0.465161736984 Eh   ::
         :: G(RRHO) w/o ZPVE           -0.066217282444 Eh   ::
         :: G(RRHO) contrib.            0.398944454540 Eh   ::
         :::::::::::::::::::::::::::::::::::::::::::::::::::::

           -------------------------------------------------
          | TOTAL ENERGY              -83.439183085236 Eh   |
          | TOTAL ENTHALPY            -82.937701716509 Eh   |
          | TOTAL FREE ENERGY         -83.040238630697 Eh   |
          | GRADIENT NORM               0.000795111992 Eh/α |
          | HOMO-LUMO GAP               2.450253108121 eV   |
           -------------------------------------------------

------------------------------------------------------------------------
 * finished run on 2026/08/20 at 00:58:08.083     
------------------------------------------------------------------------
 total:
 * wall-time:     0 d,  0 h,  0 min, 12.951 sec
 *  cpu-time:     0 d,  0 h,  0 min, 12.641 sec
 * ratio c/w:     0.976 speedup
 SCF:
 * wall-time:     0 d,  0 h,  0 min,  0.044 sec
 *  cpu-time:     0 d,  0 h,  0 min,  0.062 sec
 * ratio c/w:     1.420 speedup
 analytical hessian:
 * wall-time:     0 d,  0 h,  0 min, 12.866 sec
 *  cpu-time:     0 d,  0 h,  0 min, 12.531 sec
 * ratio c/w:     0.974 speedup

