%nprocshared=8
%mem=16GB
#p B3PW91/def2TZVPP EmpiricalDispersion=GD3BJ Opt Freq

RS1_2b_to_PS1_3_PS B3PW91-D3BJ min

0 1
N      0.00000000     0.00000000     0.00000000
C      1.46000000     0.00000000     0.00000000
C      2.15500000     0.77400000     0.92200000
C      3.54500000     0.77400000     0.92200000
C      4.24000000    -0.00000000    -0.00000000
C      3.54500000    -0.77400000    -0.92200000
C      2.15500000    -0.77400000    -0.92200000
C      5.74000000    -0.00000000    -0.00000000
C      6.24000000     1.08300000    -0.90900000
C     -0.68400000     1.12500000     0.00000000
C      0.06900000     2.42300000     0.00000000
C     -0.57800000     3.59700000     0.00000000
C      0.17500000     4.89500000     0.00000000
C      0.42500000     5.32800000    -1.41400000
C      1.17700000     6.62500000    -1.41400000
O     -0.68400000     1.12500000    -2.80000000
O     -0.68400000     1.12500000    -5.50000000
H     -0.47000000    -0.90500000     0.00000000
H     -0.68400000     1.12500000    -3.77000000
H      1.61400000     1.37600000     1.64000000
H      4.08600000     1.37600000     1.64000000
H      4.08600000    -1.37600000    -1.64000000
H      1.61400000    -1.37600000    -1.64000000
H      6.10300000    -0.96600000    -0.35100000
H      6.10300000     0.17800000     1.01200000
H      5.87600000     2.04900000    -0.55800000
H      6.37400000     0.46000000    -2.96300000
H      7.93000000     3.09600000    -1.26500000
H     -1.76200000     1.07500000     0.00000000
H      1.14800000     2.38000000     0.00000000
H     -1.65700000     3.64000000     0.00000000
H     -0.41300000     5.65600000     0.51400000
H      1.12700000     4.76300000     0.51400000
H      1.01300000     4.56700000    -1.92800000
H     -0.52700000     5.46000000    -1.92800000
H      1.36000000     6.94000000    -2.44200000
H      0.59000000     7.38600000    -0.90000000
H      2.13000000     6.49400000    -0.90000000
H     -1.40300000     0.85400000    -6.09200000
H     -0.03300000     1.54400000    -6.08500000
O     -3.47300000    -1.39700000     0.79600000
H     -0.21300000     1.93700000    -2.55700000
H     -4.09900000    -2.11400000     0.61100000
N      5.75400000     0.84400000    -2.26500000
C      7.76000000     1.08300000    -0.90900000
O      8.37500000     0.03400000    -0.72400000
C      3.97200000     0.88900000    -3.98700000
C      4.47500000     1.13700000    -2.58500000
O      3.72000000     1.60500000    -1.73400000
H      4.30500000    -0.09200000    -4.32400000
H      4.36600000     1.65600000    -4.65500000
H      2.88300000     0.92600000    -3.99400000
N      8.43500000     2.23400000    -1.11200000
C      9.88500000     2.23400000    -1.11200000
H     10.24800000     3.26200000    -1.11200000
H     10.24800000     1.72000000    -2.00200000
H     10.24800000     1.72000000    -0.22200000

