      -----------------------------------------------------------      
     |                   =====================                   |     
     |                           x T B                           |     
     |                   =====================                   |     
     |                         S. Grimme                         |     
     |          Mulliken Center for Theoretical Chemistry        |     
     |                    University of Bonn                     |     
      -----------------------------------------------------------      

   * xtb version 6.7.1pre (5071a88) compiled by 'Marcel@Raven' on 2024-07-23

   xtb is free software: you can redistribute it and/or modify it under
   the terms of the GNU Lesser General Public License as published by
   the Free Software Foundation, either version 3 of the License, or
   (at your option) any later version.
   
   xtb is distributed in the hope that it will be useful,
   but WITHOUT ANY WARRANTY; without even the implied warranty of
   MERCHANTABILITY or FITNESS FOR A PARTICULAR PURPOSE.  See the
   GNU Lesser General Public License for more details.
   
   Cite this work as:
   * C. Bannwarth, E. Caldeweyher, S. Ehlert, A. Hansen, P. Pracht,
     J. Seibert, S. Spicher, S. Grimme, WIREs Comput. Mol. Sci., 2020, 11,
     e01493. DOI: 10.1002/wcms.1493
   
   for GFN2-xTB:
   * C. Bannwarth, S. Ehlert and S. Grimme., J. Chem. Theory Comput., 2019,
     15, 1652-1671. DOI: 10.1021/acs.jctc.8b01176
   for GFN1-xTB:
   * S. Grimme, C. Bannwarth, P. Shushkov, J. Chem. Theory Comput., 2017,
     13, 1989-2009. DOI: 10.1021/acs.jctc.7b00118
   for GFN0-xTB:
   * P. Pracht, E. Caldeweyher, S. Ehlert, S. Grimme, ChemRxiv, 2019, preprint.
     DOI: 10.26434/chemrxiv.8326202.v1
   for GFN-FF:
   * S. Spicher and S. Grimme, Angew. Chem. Int. Ed., 2020, 59, 15665-15673.
     DOI: 10.1002/anie.202004239
   
   for ALPB and GBSA implicit solvation:
   * S. Ehlert, M. Stahn, S. Spicher, S. Grimme, J. Chem. Theory Comput.,
     2021, 17, 4250-4261. DOI: 10.1021/acs.jctc.1c00471
   
   for ddCOSMO and CPCM-X implicit solvation:
   * M. Stahn, S. Ehlert, S. Grimme, J. Phys. Chem. A,
     2023, XX, XXXX-XXXX. DOI: 10.1021/acs.jpca.3c04382
   
   for DFT-D4:
   * E. Caldeweyher, C. Bannwarth and S. Grimme, J. Chem. Phys., 2017,
     147, 034112. DOI: 10.1063/1.4993215
   * E. Caldeweyher, S. Ehlert, A. Hansen, H. Neugebauer, S. Spicher,
     C. Bannwarth and S. Grimme, J. Chem. Phys., 2019, 150, 154122.
     DOI: 10.1063/1.5090222
   * E. Caldeweyher, J.-M. Mewes, S. Ehlert and S. Grimme, Phys. Chem. Chem. Phys.
     2020, 22, 8499-8512. DOI: 10.1039/D0CP00502A
   
   for sTDA-xTB:
   * S. Grimme and C. Bannwarth, J. Chem. Phys., 2016, 145, 054103.
     DOI: 10.1063/1.4959605
   
   in the mass-spec context:
   * V. Asgeirsson, C. Bauer and S. Grimme, Chem. Sci., 2017, 8, 4879.
     DOI: 10.1039/c7sc00601b
   * J. Koopman and S. Grimme, ACS Omega 2019, 4, 12, 15120-15133.
     DOI: 10.1021/acsomega.9b02011
   
   for metadynamics refer to:
   * S. Grimme, J. Chem. Theory Comput., 2019, 155, 2847-2862
     DOI: 10.1021/acs.jctc.9b00143
   
   for SPH calculations refer to:
   * S. Spicher and S. Grimme, J. Chem. Theory Comput., 2021, 17, 1701-1714
     DOI: 10.1021/acs.jctc.0c01306
   
   for ONIOM refer to:
   * C. Plett, A. Katbashev, S. Ehlert, S. Grimme, M. Bursch,
     Phys. Chem. Chem. Phys., 2023, 25, 17860-17868. DOI: 10.1039/D3CP02178E
   
   for DIPRO refer to:
   * J. Kohn, N. Gildemeister, S. Grimme, D. Fazzi, A. Hansen,
     J. Chem. Phys., 2023, just accepted.
   
   for PTB refer to:
   * S. Grimme, M. Mueller, A. Hansen, J. Chem. Phys., 2023, 158, 124111.
     DOI: 10.1063/5.0137838
   
   with help from (in alphabetical order)
   P. Atkinson, C. Bannwarth, F. Bohle, G. Brandenburg, E. Caldeweyher
   M. Checinski, S. Dohm, S. Ehlert, S. Ehrlich, I. Gerasimov, C. Hölzer
   A. Katbashev, J. Kohn, J. Koopman, C. Lavigne, S. Lehtola, F. März, M. Müller,
   F. Musil, H. Neugebauer, J. Pisarek, C. Plett, P. Pracht, F. Pultar,
   J. Seibert, P. Shushkov, S. Spicher, M. Stahn, M. Steiner, T. Strunk,
   J. Stückrath, T. Rose, and J. Unsleber
   
 * started run on 2026/08/20 at 00:57:41.550     
   ID    Z sym.   atoms
    1    7 N      1, 44, 53
    2    6 C      2-15, 45, 47, 48, 54
    3    8 O      16, 17, 41, 46, 49
    4    1 H      18-40, 42, 43, 50-52, 55-57

           -------------------------------------------------
          |                Calculation Setup                |
           -------------------------------------------------

          program call               : C:\Users\Nayanika\Downloads\xtb-6.7.1pre-windows-x86_64\xtb-6.7.1\bin\xtb.exe D:\PhD_Thesis\LmrR_EVB\charges\fast_lmrr_evb_qm\pdb_preserving_xtb_qm_inputs\RS1_2b_to_PS1_3\RS1_2b_to_PS1_3_RS_xtbopt.xyz --gfn 2 --hess --chrg 0 --uhf 0 --temper 298 --scf normal --etemp 500
          coordinate file            : D:\PhD_Thesis\LmrR_EVB\charges\fast_lmrr_evb_qm\pdb_preserving_xtb_qm_inputs\RS1_2b_to_PS1_3\RS1_2b_to_PS1_3_RS_xtbopt.xyz
          omp threads                :                     1


molecular fragmentation (1/2 indicates fragments):
111111111111111121211111111111111111112221211111111111111
# atoms in fragment 1/2:    51     6
 fragment masses (1/2) :      333.43       36.03
CMA distance (Bohr)    :  10.228
constraining FC (au)   :  0.0500
########################################################################
[WARNING] Please study the warnings concerning your input carefully
-2- prog_main_parseArguments: Unknown option '--scf' provided
-1- prog_main_parseArguments: Unknown option '--temper' provided
########################################################################

           -------------------------------------------------
          |                 G F N 2 - x T B                 |
           -------------------------------------------------

        Reference                      10.1021/acs.jctc.8b01176
      * Hamiltonian:
        H0-scaling (s, p, d)           1.850000    2.230000    2.230000
        zeta-weighting                 0.500000
      * Dispersion:
        s8                             2.700000
        a1                             0.520000
        a2                             5.000000
        s9                             5.000000
      * Repulsion:
        kExp                           1.500000    1.000000
        rExp                           1.000000
      * Coulomb:
        alpha                          2.000000
        third order                    shell-resolved
        anisotropic                    true
        a3                             3.000000
        a5                             4.000000
        cn-shift                       1.200000
        cn-exp                         4.000000
        max-rad                        5.000000

q/qsh data taken from xtbrestart
CAMM data taken from xtbrestart

          ...................................................
          :                      SETUP                      :
          :.................................................:
          :  # basis functions                 135          :
          :  # atomic orbitals                 135          :
          :  # shells                           83          :
          :  # electrons                       148          :
          :  max. iterations                   250          :
          :  Hamiltonian                  GFN2-xTB          :
          :  restarted?                       true          :
          :  GBSA solvation                  false          :
          :  PC potential                    false          :
          :  electronic temp.          500.0000000     K    :
          :  accuracy                    1.0000000          :
          :  -> integral cutoff          0.2500000E+02      :
          :  -> integral neglect         0.1000000E-07      :
          :  -> SCF convergence          0.1000000E-05 Eh   :
          :  -> wf. convergence          0.1000000E-03 e    :
          :  Broyden damping             0.4000000          :
          :  net charge                          0          :
          :  unpaired electrons                  0          :
          ...................................................

 iter      E             dE          RMSdq      gap      omega  full diag
   1    -84.5051691 -0.845052E+02  0.318E+00    3.32       0.0  T
   2    -84.5331137 -0.279445E-01  0.190E+00    3.83       1.0  T
   3    -84.5203301  0.127835E-01  0.668E-01    3.74       1.0  T
   4    -84.5391045 -0.187744E-01  0.185E-01    3.81       1.0  T
   5    -84.5401101 -0.100566E-02  0.848E-02    3.80       1.0  T
   6    -84.5401986 -0.884220E-04  0.443E-02    3.80       1.0  T
   7    -84.5402366 -0.380513E-04  0.191E-02    3.80       1.0  T
   8    -84.5402441 -0.750403E-05  0.440E-03    3.80       3.0  T
   9    -84.5402443 -0.152712E-06  0.219E-03    3.80       6.1  T
  10    -84.5402443 -0.597464E-07  0.813E-04    3.80      16.3  T
  11    -84.5402443 -0.744504E-08  0.209E-04    3.80      63.3  T

   *** convergence criteria satisfied after 11 iterations ***

         #    Occupation            Energy/Eh            Energy/eV
      -------------------------------------------------------------
         1        2.0000           -0.7045056             -19.1706
       ...           ...                  ...                  ...
        68        2.0000           -0.4149676             -11.2918
        69        2.0000           -0.4051512             -11.0247
        70        2.0000           -0.4032618             -10.9733
        71        2.0000           -0.3969597             -10.8018
        72        2.0000           -0.3944012             -10.7322
        73        2.0000           -0.3815071             -10.3813
        74        2.0000           -0.3621718              -9.8552 (HOMO)
        75                         -0.2225134              -6.0549 (LUMO)
        76                         -0.2151343              -5.8541
        77                         -0.2135391              -5.8107
        78                         -0.2081801              -5.6649
        79                         -0.2029333              -5.5221
       ...                                ...                  ...
       135                          0.6610853              17.9890
      -------------------------------------------------------------
                  HL-Gap            0.1396583 Eh            3.8003 eV
             Fermi-level           -0.2923426 Eh           -7.9550 eV

 SCC (total)                   0 d,  0 h,  0 min,  0.055 sec
 SCC setup                      ...        0 min,  0.000 sec (  0.000%)
 Dispersion                     ...        0 min,  0.000 sec (  0.000%)
 classical contributions        ...        0 min,  0.000 sec (  0.000%)
 integral evaluation            ...        0 min,  0.011 sec ( 20.000%)
 iterations                     ...        0 min,  0.009 sec ( 16.364%)
 molecular gradient             ...        0 min,  0.033 sec ( 60.000%)
 printout                       ...        0 min,  0.002 sec (  3.637%)

         :::::::::::::::::::::::::::::::::::::::::::::::::::::
         ::                     SUMMARY                     ::
         :::::::::::::::::::::::::::::::::::::::::::::::::::::
         :: total energy             -83.460578607564 Eh    ::
         :: gradient norm              0.000156408658 Eh/a0 ::
         :: HOMO-LUMO gap              3.800295914424 eV    ::
         ::.................................................::
         :: SCC energy               -84.539022997587 Eh    ::
         :: -> isotropic ES            0.172799100016 Eh    ::
         :: -> anisotropic ES          0.000513533515 Eh    ::
         :: -> anisotropic XC          0.027156006408 Eh    ::
         :: -> dispersion             -0.053320341482 Eh    ::
         :: repulsion energy           1.078444390023 Eh    ::
         :: add. restraining           0.000000000000 Eh    ::
         :: total charge               0.000000000000 e     ::
         :::::::::::::::::::::::::::::::::::::::::::::::::::::

           ------------------------------------------------- 
          |                Numerical Hessian                |
           ------------------------------------------------- 
step length          :   0.00500
SCC accuracy         :   0.30000
Hessian scale factor :   1.00000
frozen atoms in %    :   0.00000    0
RMS gradient         :   0.00016
estimated CPU  time      0.23 min
estimated wall time      0.23 min

writing file <hessian>.

 projected vibrational frequencies (cm⁻¹)
eigval :       -0.00    -0.00    -0.00    -0.00     0.00     0.00
eigval :       -9.50    11.46    17.31    21.58    26.76    32.41
eigval :       38.20    43.57    51.47    58.99    67.13    72.46
eigval :       79.38    85.45    90.62    95.53   111.15   125.14
eigval :      130.93   149.23   159.55   169.32   173.70   184.57
eigval :      193.56   212.20   227.33   231.93   237.41   270.36
eigval :      284.90   291.59   294.55   306.17   307.34   321.46
eigval :      359.63   368.06   379.99   391.35   410.23   416.13
eigval :      441.40   449.51   468.89   490.73   499.27   524.14
eigval :      535.11   567.17   579.05   593.04   603.11   623.95
eigval :      648.40   672.36   680.79   695.24   726.59   758.18
eigval :      771.67   781.68   803.58   805.91   860.64   863.56
eigval :      870.90   892.35   907.48   922.23   932.67   938.39
eigval :      945.41   975.58   992.70  1004.72  1010.43  1013.57
eigval :     1036.21  1044.96  1077.58  1080.17  1090.27  1104.88
eigval :     1114.64  1120.10  1125.70  1132.13  1146.86  1149.28
eigval :     1165.64  1201.25  1211.95  1215.01  1221.00  1222.59
eigval :     1234.38  1251.94  1254.38  1266.19  1270.84  1283.20
eigval :     1285.32  1295.26  1300.41  1310.68  1327.00  1343.30
eigval :     1347.59  1359.85  1371.75  1381.76  1392.81  1416.49
eigval :     1421.63  1435.29  1437.83  1457.39  1463.02  1467.87
eigval :     1476.00  1477.65  1485.00  1496.18  1503.06  1505.90
eigval :     1508.00  1527.33  1549.45  1576.95  1616.56  1717.86
eigval :     1733.86  1758.60  2784.59  2913.08  2947.23  2969.30
eigval :     2970.77  2981.80  2987.14  2988.76  2990.22  2998.92
eigval :     3024.72  3030.57  3031.24  3031.38  3033.94  3038.87
eigval :     3052.89  3054.99  3067.29  3068.26  3078.29  3084.21
eigval :     3138.63  3148.43  3311.55  3374.69  3450.29  3450.84
eigval :     3456.46  3640.33  3660.79
           -------------------------------------------------
          |                Property Printout                |
           -------------------------------------------------

    * Orbital Energies and Occupations

         #    Occupation            Energy/Eh            Energy/eV
      -------------------------------------------------------------
         1        2.0000           -0.7045054             -19.1706
       ...           ...                  ...                  ...
        62        2.0000           -0.4395860             -11.9617
        63        2.0000           -0.4360537             -11.8656
        64        2.0000           -0.4345691             -11.8252
        65        2.0000           -0.4292436             -11.6803
        66        2.0000           -0.4254085             -11.5760
        67        2.0000           -0.4206303             -11.4459
        68        2.0000           -0.4149651             -11.2918
        69        2.0000           -0.4051487             -11.0247
        70        2.0000           -0.4032607             -10.9733
        71        2.0000           -0.3969578             -10.8018
        72        2.0000           -0.3944004             -10.7322
        73        2.0000           -0.3815058             -10.3813
        74        2.0000           -0.3621686              -9.8551 (HOMO)
        75                         -0.2225105              -6.0548 (LUMO)
        76                         -0.2151343              -5.8541
        77                         -0.2135370              -5.8106
        78                         -0.2081784              -5.6648
        79                         -0.2029324              -5.5221
        80                         -0.0917457              -2.4965
        81                          0.0056044               0.1525
        82                          0.0112684               0.3066
        83                          0.0146083               0.3975
        84                          0.0181343               0.4935
        85                          0.0660564               1.7975
       ...                                ...                  ...
       135                          0.6610877              17.9891
      -------------------------------------------------------------
                  HL-Gap            0.1396581 Eh            3.8003 eV
             Fermi-level           -0.2923395 Eh           -7.9550 eV

     #   Z          covCN         q      C6AA      α(0)
     1   7 N        2.690    -0.223    25.867     7.554
     2   6 C        2.903     0.069    26.446     8.432
     3   6 C        2.921    -0.065    29.608     8.923
     4   6 C        2.925    -0.041    29.013     8.833
     5   6 C        2.969    -0.007    28.182     8.708
     6   6 C        2.924    -0.045    29.111     8.848
     7   6 C        2.924    -0.067    29.675     8.933
     8   6 C        3.811    -0.070    21.834     6.651
     9   6 C        3.797     0.020    20.248     6.407
    10   6 C        3.664     0.187    17.858     6.061
    11   6 C        2.890    -0.065    29.611     8.922
    12   6 C        2.890    -0.029    28.721     8.787
    13   6 C        3.807    -0.061    21.664     6.626
    14   6 C        3.802    -0.051    21.481     6.599
    15   6 C        3.752    -0.104    22.543     6.771
    16   8 O        1.654    -0.483    22.532     6.408
    17   8 O        1.610    -0.593    25.011     6.750
    18   1 H        0.860     0.152     1.391     1.847
    19   1 H        0.804     0.318     0.670     1.286
    20   1 H        0.926     0.055     2.262     2.352
    21   1 H        0.926     0.034     2.532     2.489
    22   1 H        0.925     0.024     2.675     2.558
    23   1 H        0.925     0.019     2.748     2.592
    24   1 H        0.924     0.062     2.174     2.306
    25   1 H        0.924     0.056     2.241     2.341
    26   1 H        0.924     0.060     2.197     2.318
    27   1 H        0.860     0.181     1.208     1.721
    28   1 H        0.860     0.207     1.072     1.622
    29   1 H        0.922     0.018     2.765     2.600
    30   1 H        0.925     0.027     2.628     2.535
    31   1 H        0.926     0.050     2.318     2.381
    32   1 H        0.924     0.049     2.336     2.390
    33   1 H        0.924     0.036     2.503     2.474
    34   1 H        0.924     0.031     2.577     2.511
    35   1 H        0.924     0.034     2.531     2.488
    36   1 H        0.925     0.035     2.516     2.480
    37   1 H        0.925     0.037     2.486     2.466
    38   1 H        0.925     0.035     2.521     2.483
    39   1 H        0.804     0.319     0.666     1.282
    40   1 H        0.805     0.282     0.777     1.384
    41   8 O        1.609    -0.595    25.078     6.759
    42   1 H        0.802     0.341     0.611     1.228
    43   1 H        0.805     0.285     0.768     1.376
    44   7 N        2.692    -0.183    24.969     7.421
    45   6 C        2.753     0.264    22.547     7.775
    46   8 O        0.858    -0.437    22.424     6.349
    47   6 C        3.757    -0.143    23.308     6.883
    48   6 C        2.749     0.277    22.309     7.734
    49   8 O        0.859    -0.455    22.817     6.404
    50   1 H        0.925     0.058     2.224     2.332
    51   1 H        0.925     0.057     2.232     2.336
    52   1 H        0.925     0.073     2.055     2.242
    53   7 N        2.686    -0.177    24.836     7.402
    54   6 C        3.690    -0.042    21.519     6.639
    55   1 H        0.924     0.052     2.294     2.369
    56   1 H        0.924     0.049     2.335     2.390
    57   1 H        0.925     0.082     1.961     2.190

 Mol. C6AA /au·bohr⁶  :      29329.143377
 Mol. C8AA /au·bohr⁸  :     652516.791048
 Mol. α(0) /au        :        260.946312


Wiberg/Mayer (AO) data.
largest (>0.10) Wiberg bond orders for each atom

 ---------------------------------------------------------------------------
     #   Z sym  total        # sym  WBO       # sym  WBO       # sym  WBO
 ---------------------------------------------------------------------------
     1   7 N    3.298 --     2 C    1.130    10 C    0.976    18 H    0.949
     2   6 C    3.970 --     7 C    1.350     3 C    1.346     1 N    1.130
     3   6 C    3.987 --     4 C    1.467     2 C    1.346    20 H    0.963
                             6 C    0.101
     4   6 C    3.992 --     3 C    1.467     5 C    1.398    21 H    0.969
                             7 C    0.103
     5   6 C    3.986 --     6 C    1.402     4 C    1.398     8 C    1.009
     6   6 C    3.990 --     7 C    1.458     5 C    1.402    22 H    0.968
                             3 C    0.101
     7   6 C    3.986 --     6 C    1.458     2 C    1.350    23 H    0.968
                             4 C    0.103
     8   6 C    3.990 --     5 C    1.009     9 C    0.981    24 H    0.970
                            25 H    0.965
     9   6 C    3.962 --     8 C    0.981    44 N    0.973    26 H    0.952
                            45 C    0.915
    10   6 C    3.953 --    16 O    0.992    11 C    0.988     1 N    0.976
                            29 H    0.944
    11   6 C    3.986 --    12 C    1.927    10 C    0.988    30 H    0.964
    12   6 C    3.989 --    11 C    1.927    13 C    1.028    31 H    0.961
    13   6 C    3.997 --    12 C    1.028    14 C    0.992    33 H    0.975
                            32 H    0.958
    14   6 C    3.997 --    15 C    1.019    13 C    0.992    34 H    0.980
                            35 H    0.979
    15   6 C    3.996 --    14 C    1.019    38 H    0.988    37 H    0.988
                            36 H    0.987
    16   8 O    1.958 --    10 C    0.992    42 H    0.814
    17   8 O    1.859 --    40 H    0.919    19 H    0.868
    18   1 H    0.976 --     1 N    0.949
    19   1 H    0.899 --    17 O    0.868
    20   1 H    0.997 --     3 C    0.963
    21   1 H    0.998 --     4 C    0.969
    22   1 H    0.999 --     6 C    0.968
    23   1 H    0.999 --     7 C    0.968
    24   1 H    0.996 --     8 C    0.970
    25   1 H    0.995 --     8 C    0.965
    26   1 H    0.996 --     9 C    0.952
    27   1 H    0.967 --    44 N    0.933
    28   1 H    0.957 --    53 N    0.904
    29   1 H    0.999 --    10 C    0.944
    30   1 H    0.999 --    11 C    0.964
    31   1 H    0.997 --    12 C    0.961
    32   1 H    0.998 --    13 C    0.958
    33   1 H    0.999 --    13 C    0.975
    34   1 H    0.999 --    14 C    0.980
    35   1 H    0.999 --    14 C    0.979
    36   1 H    0.998 --    15 C    0.987
    37   1 H    0.999 --    15 C    0.988
    38   1 H    0.999 --    15 C    0.988
    39   1 H    0.898 --    41 O    0.861
    40   1 H    0.920 --    17 O    0.919
    41   8 O    1.871 --    43 H    0.915    39 H    0.861
    42   1 H    0.884 --    16 O    0.814
    43   1 H    0.919 --    41 O    0.915
    44   7 N    3.451 --    48 C    1.273     9 C    0.973    27 H    0.933
                            49 O    0.192
    45   6 C    3.956 --    46 O    1.678    53 N    1.292     9 C    0.915
    46   8 O    2.009 --    45 C    1.678    53 N    0.212
    47   6 C    3.993 --    52 H    0.983    48 C    0.982    51 H    0.971
                            50 H    0.970
    48   6 C    3.951 --    49 O    1.647    44 N    1.273    47 C    0.982
    49   8 O    1.993 --    48 C    1.647    44 N    0.192
    50   1 H    0.996 --    47 C    0.970
    51   1 H    0.997 --    47 C    0.971
    52   1 H    0.994 --    47 C    0.983
    53   7 N    3.466 --    45 C    1.292    54 C    1.006    28 H    0.904
                            46 O    0.212
    54   6 C    3.966 --    53 N    1.006    55 H    0.977    57 H    0.977
                            56 H    0.976
    55   1 H    0.997 --    54 C    0.977
    56   1 H    0.998 --    54 C    0.976
    57   1 H    0.993 --    54 C    0.977
 ---------------------------------------------------------------------------

Topologies differ in total number of bonds
Writing topology from bond orders to xtbtopo.mol

molecular dipole:
                 x           y           z       tot (Debye)
 q only:       -0.946       0.542      -0.647
   full:       -1.267       0.590      -1.212       4.702
molecular quadrupole (traceless):
                xx          xy          yy          xz          yz          zz
 q only:      -14.655       6.128       0.036      -5.768       2.271      14.619
  q+dip:      -23.773       5.749       0.048      -7.713       7.041      23.725
   full:      -23.674       5.680      -0.186      -8.551       4.810      23.860

           -------------------------------------------------
          |               Frequency Printout                |
           -------------------------------------------------
 projected vibrational frequencies (cm⁻¹)
eigval :       -0.00    -0.00    -0.00    -0.00     0.00     0.00
eigval :       -9.50    11.46    17.31    21.58    26.76    32.41
eigval :       38.20    43.57    51.47    58.99    67.13    72.46
eigval :       79.38    85.45    90.62    95.53   111.15   125.14
eigval :      130.93   149.23   159.55   169.32   173.70   184.57
eigval :      193.56   212.20   227.33   231.93   237.41   270.36
eigval :      284.90   291.59   294.55   306.17   307.34   321.46
eigval :      359.63   368.06   379.99   391.35   410.23   416.13
eigval :      441.40   449.51   468.89   490.73   499.27   524.14
eigval :      535.11   567.17   579.05   593.04   603.11   623.95
eigval :      648.40   672.36   680.79   695.24   726.59   758.18
eigval :      771.67   781.68   803.58   805.91   860.64   863.56
eigval :      870.90   892.35   907.48   922.23   932.67   938.39
eigval :      945.41   975.58   992.70  1004.72  1010.43  1013.57
eigval :     1036.21  1044.96  1077.58  1080.17  1090.27  1104.88
eigval :     1114.64  1120.10  1125.70  1132.13  1146.86  1149.28
eigval :     1165.64  1201.25  1211.95  1215.01  1221.00  1222.59
eigval :     1234.38  1251.94  1254.38  1266.19  1270.84  1283.20
eigval :     1285.32  1295.26  1300.41  1310.68  1327.00  1343.30
eigval :     1347.59  1359.85  1371.75  1381.76  1392.81  1416.49
eigval :     1421.63  1435.29  1437.83  1457.39  1463.02  1467.87
eigval :     1476.00  1477.65  1485.00  1496.18  1503.06  1505.90
eigval :     1508.00  1527.33  1549.45  1576.95  1616.56  1717.86
eigval :     1733.86  1758.60  2784.59  2913.08  2947.23  2969.30
eigval :     2970.77  2981.80  2987.14  2988.76  2990.22  2998.92
eigval :     3024.72  3030.57  3031.24  3031.38  3033.94  3038.87
eigval :     3052.89  3054.99  3067.29  3068.26  3078.29  3084.21
eigval :     3138.63  3148.43  3311.55  3374.69  3450.29  3450.84
eigval :     3456.46  3640.33  3660.79
 reduced masses (amu)
   1: 12.42   2: 11.73   3: 12.26   4: 11.79   5: 11.71   6: 12.52   7: 11.00   8: 11.50
   9: 12.60  10: 11.34  11: 11.25  12: 10.16  13: 12.52  14: 12.07  15: 12.50  16: 10.78
  17:  8.24  18:  9.54  19: 10.25  20:  7.96  21:  6.95  22: 11.62  23: 10.92  24:  1.78
  25: 10.99  26: 11.35  27: 11.30  28: 10.97  29: 11.10  30: 11.12  31:  8.38  32: 10.49
  33:  9.88  34:  2.35  35: 12.26  36:  9.79  37:  8.36  38: 11.99  39:  4.44  40: 10.17
  41:  3.90  42: 11.23  43:  9.75  44: 10.04  45:  8.73  46:  2.88  47:  9.72  48: 10.12
  49:  7.36  50:  4.77  51:  8.87  52:  9.46  53: 10.68  54:  2.78  55:  9.90  56:  1.80
  57:  8.38  58: 10.38  59: 10.32  60: 10.15  61:  9.30  62:  9.82  63:  8.62  64:  6.29
  65: 11.13  66:  6.54  67:  5.26  68:  4.08  69:  7.08  70:  7.05  71:  9.33  72:  4.45
  73:  8.42  74:  4.39  75:  2.68  76:  3.98  77:  8.80  78:  6.57  79:  8.76  80: 10.70
  81:  5.76  82:  5.48  83:  6.03  84:  4.75  85:  8.53  86:  5.96  87:  8.48  88:  7.08
  89:  8.89  90:  3.79  91:  7.75  92:  8.00  93: 10.12  94:  7.65  95:  8.39  96:  4.27
  97:  5.68  98:  1.90  99:  5.36 100:  4.46 101:  5.52 102:  4.56 103:  3.41 104:  3.53
 105:  3.81 106:  4.36 107:  2.78 108:  4.40 109:  4.36 110:  3.84 111:  3.88 112:  4.95
 113:  5.02 114:  8.23 115:  5.81 116:  5.26 117:  3.29 118:  8.32 119:  2.63 120:  3.17
 121: 10.06 122:  8.59 123:  8.83 124:  1.67 125:  1.57 126:  1.58 127:  2.00 128:  2.11
 129:  2.51 130:  1.85 131:  1.54 132:  1.63 133:  9.93 134:  2.16 135:  2.16 136: 11.45
 137: 11.54 138: 13.13 139: 11.57 140: 13.19 141:  1.70 142:  1.75 143:  1.81 144:  1.90
 145:  1.91 146:  1.60 147:  1.59 148:  1.98 149:  1.49 150:  1.50 151:  1.83 152:  1.58
 153:  1.73 154:  1.96 155:  1.91 156:  1.29 157:  1.81 158:  1.77 159:  1.76 160:  1.87
 161:  1.83 162:  1.82 163:  1.84 164:  1.90 165:  1.89 166:  1.87 167:  1.86 168:  1.85
 169:  1.84 170:  1.83 171:  1.84
 IR intensities (km·mol⁻¹)
   1:  0.01   2:  0.18   3:  0.03   4:  0.07   5:  0.01   6:  0.15   7:  0.08   8:  0.60
   9:  0.15  10:  0.10  11:  0.14  12:  0.23  13:  0.23  14:  0.05  15:  2.83  16:  2.87
  17: 13.25  18:  1.33  19:  0.65  20:  1.51  21:  1.84  22:  0.74  23: 12.81  24:  0.39
  25:  5.02  26:  4.69  27:  6.39  28:  0.86  29: 10.53  30:  9.66  31: 40.36  32:  7.44
  33: 83.83  34:  0.05  35:  2.15  36:  4.98  37: 17.16  38:  2.70  39: 83.83  40:  8.33
  41: 78.93  42: 16.73  43:  6.36  44:  9.32  45: 13.31  46:122.40  47: 20.36  48:  5.78
  49: 69.61  50:117.98  51: 13.66  52: 12.44  53: 19.35  54:363.41  55:  8.60  56:230.58
  57:  3.53  58: 58.24  59: 34.17  60: 56.49  61: 47.45  62: 28.35  63: 14.15  64: 34.34
  65:  5.24  66: 58.11  67: 94.26  68:  5.68  69: 17.94  70:  4.19  71:  1.05  72:  1.05
  73:  2.95  74:  4.31  75:  0.44  76:  0.49  77:  1.35  78:  7.27  79:  7.00  80: 18.74
  81:  3.29  82: 23.59  83: 12.61  84: 11.31  85: 24.22  86: 21.67  87: 30.11  88: 20.32
  89:  2.85  90:  0.62  91: 17.38  92: 36.97  93:110.58  94: 17.31  95: 26.14  96:  4.70
  97:  1.55  98:  6.56  99:  2.88 100:  7.97 101: 30.06 102:  5.57 103: 33.16 104: 33.58
 105: 27.85 106:  1.98 107:  0.49 108: 27.95 109: 34.80 110: 11.81 111:  2.14 112: 64.83
 113:  6.02 114: 46.42 115: 46.19 116:  9.53 117: 16.99 118:116.43 119:  2.95 120:  2.14
 121:228.61 122:231.79 123: 26.33 124:  5.61 125: 10.02 126: 10.41 127:  1.01 128:  0.36
 129: 26.25 130:  0.89 131:  3.20 132:  1.47 133:174.76 134: 36.53 135:303.25 136:  2.81
 137: 99.52 138:296.71 139:  8.48 140:589.71 141: 92.69 142: 14.30 143: 13.07 144: 30.75
 145: 32.72 146: 21.55 147: 53.50 148: 16.96 149: 45.99 150: 14.83 151: 16.75 152:  9.27
 153:  9.45 154: 51.16 155: 49.60 156: 31.80 157: 33.55 158: 23.06 159:  5.17 160: 74.00
 161: 42.36 162: 19.90 163:  9.17 164:473.85 165:148.12 166:278.93 167:288.66 168: 20.13
 169:  3.02 170: 13.51 171: 13.52
 Raman intensities (Ä⁴*amu⁻¹)
   1:  0.00   2:  0.00   3:  0.00   4:  0.00   5:  0.00   6:  0.00   7:  0.00   8:  0.00
   9:  0.00  10:  0.00  11:  0.00  12:  0.00  13:  0.00  14:  0.00  15:  0.00  16:  0.00
  17:  0.00  18:  0.00  19:  0.00  20:  0.00  21:  0.00  22:  0.00  23:  0.00  24:  0.00
  25:  0.00  26:  0.00  27:  0.00  28:  0.00  29:  0.00  30:  0.00  31:  0.00  32:  0.00
  33:  0.00  34:  0.00  35:  0.00  36:  0.00  37:  0.00  38:  0.00  39:  0.00  40:  0.00
  41:  0.00  42:  0.00  43:  0.00  44:  0.00  45:  0.00  46:  0.00  47:  0.00  48:  0.00
  49:  0.00  50:  0.00  51:  0.00  52:  0.00  53:  0.00  54:  0.00  55:  0.00  56:  0.00
  57:  0.00  58:  0.00  59:  0.00  60:  0.00  61:  0.00  62:  0.00  63:  0.00  64:  0.00
  65:  0.00  66:  0.00  67:  0.00  68:  0.00  69:  0.00  70:  0.00  71:  0.00  72:  0.00
  73:  0.00  74:  0.00  75:  0.00  76:  0.00  77:  0.00  78:  0.00  79:  0.00  80:  0.00
  81:  0.00  82:  0.00  83:  0.00  84:  0.00  85:  0.00  86:  0.00  87:  0.00  88:  0.00
  89:  0.00  90:  0.00  91:  0.00  92:  0.00  93:  0.00  94:  0.00  95:  0.00  96:  0.00
  97:  0.00  98:  0.00  99:  0.00 100:  0.00 101:  0.00 102:  0.00 103:  0.00 104:  0.00
 105:  0.00 106:  0.00 107:  0.00 108:  0.00 109:  0.00 110:  0.00 111:  0.00 112:  0.00
 113:  0.00 114:  0.00 115:  0.00 116:  0.00 117:  0.00 118:  0.00 119:  0.00 120:  0.00
 121:  0.00 122:  0.00 123:  0.00 124:  0.00 125:  0.00 126:  0.00 127:  0.00 128:  0.00
 129:  0.00 130:  0.00 131:  0.00 132:  0.00 133:  0.00 134:  0.00 135:  0.00 136:  0.00
 137:  0.00 138:  0.00 139:  0.00 140:  0.00 141:  0.00 142:  0.00 143:  0.00 144:  0.00
 145:  0.00 146:  0.00 147:  0.00 148:  0.00 149:  0.00 150:  0.00 151:  0.00 152:  0.00
 153:  0.00 154:  0.00 155:  0.00 156:  0.00 157:  0.00 158:  0.00 159:  0.00 160:  0.00
 161:  0.00 162:  0.00 163:  0.00 164:  0.00 165:  0.00 166:  0.00 167:  0.00 168:  0.00
 169:  0.00 170:  0.00 171:  0.00
 output can be read by thermo (or use thermo option).
 writing <g98.out> molden fake output.
 recommended (thermochemical) frequency scaling factor: 1.0
           -------------------------------------------------
          |             Thermodynamic Functions             |
           -------------------------------------------------

Refinement of some symmetry elements was terminated before convergence was reached.
Some symmetry elements may remain unidentified.
Molecule has no symmetry elements
It seems to be the C1 point group
c1  symmetry found (for desy threshold:  0.10E+00) used in thermo
 inverting freq            1   9.49554594205998     

          ...................................................
          :                      SETUP                      :
          :.................................................:
          :  # frequencies                         165      :
          :  # imaginary freq.                       0      :
          :  linear?                             false      :
          :  only rotor calc.                    false      :
          :  symmetry                               c1      :
          :  rotational number                       1      :
          :  scaling factor                  1.0000000      :
          :  rotor cutoff                   50.0000000 cm⁻¹ :
          :  imag. cutoff                  -20.0000000 cm⁻¹ :
          :.................................................:

    mode    ω/cm⁻¹     T·S(HO)/kcal·mol⁻¹    T·S(FR)/kcal·mol⁻¹   T·S(vib)
   ------------------------------------------------------------------------
       1      9.50    -2.41915 (  0.13%)    -1.54855 ( 99.87%)    -1.54968
       2     11.46    -2.30761 (  0.28%)    -1.49279 ( 99.72%)    -1.49503
       3     17.31    -2.06344 (  1.42%)    -1.37069 ( 98.58%)    -1.38050
       4     21.58    -1.93299 (  3.35%)    -1.30543 ( 96.65%)    -1.32647
       5     26.76    -1.80571 (  7.58%)    -1.24172 ( 92.42%)    -1.28447
       6     32.41    -1.69238 ( 15.00%)    -1.18497 ( 85.00%)    -1.26109
       7     38.20    -1.59524 ( 25.41%)    -1.13629 ( 74.59%)    -1.25289
       8     43.57    -1.51748 ( 36.58%)    -1.09728 ( 63.42%)    -1.25098
       9     51.47    -1.41920 ( 52.90%)    -1.04794 ( 47.10%)    -1.24433
      10     58.99    -1.33890 ( 65.96%)    -1.00755 ( 34.04%)    -1.22610
      11     67.13    -1.26286 ( 76.47%)    -0.96924 ( 23.53%)    -1.19378
      12     72.46    -1.21809 ( 81.51%)    -0.94664 ( 18.49%)    -1.16791
      13     79.38    -1.16464 ( 86.40%)    -0.91962 ( 13.60%)    -1.13131
      14     85.45    -1.12151 ( 89.51%)    -0.89777 ( 10.49%)    -1.09804
      15     90.62    -1.08727 ( 91.52%)    -0.88039 (  8.48%)    -1.06972
      16     95.53    -1.05650 ( 93.02%)    -0.86474 (  6.98%)    -1.04311
      17    111.15    -0.96859 ( 96.07%)    -0.81988 (  3.93%)    -0.96274
      18    125.14    -0.90022 ( 97.52%)    -0.78476 (  2.48%)    -0.89735
      19    130.93    -0.87428 ( 97.92%)    -0.77137 (  2.08%)    -0.87213
      20    149.23    -0.79964 ( 98.76%)    -0.73261 (  1.24%)    -0.79880
      21    159.55    -0.76182 ( 99.04%)    -0.71281 (  0.96%)    -0.76136
      22    169.32    -0.72839 ( 99.25%)    -0.69520 (  0.75%)    -0.72814
      23    173.70    -0.71410 ( 99.32%)    -0.68764 (  0.68%)    -0.71392
      24    184.57    -0.68028 ( 99.46%)    -0.66965 (  0.54%)    -0.68022
      25    193.56    -0.65398 ( 99.56%)    -0.65556 (  0.44%)    -0.65399
      26    212.20    -0.60366 ( 99.69%)    -0.62833 (  0.31%)    -0.60373
      27    227.33    -0.56646 ( 99.77%)    -0.60792 (  0.23%)    -0.56656
      28    231.93    -0.55573 ( 99.78%)    -0.60198 (  0.22%)    -0.55583
      29    237.41    -0.54330 ( 99.80%)    -0.59507 (  0.20%)    -0.54340
      30    270.36    -0.47523 ( 99.88%)    -0.55657 (  0.12%)    -0.47532
      31    284.90    -0.44843 ( 99.91%)    -0.54105 (  0.09%)    -0.44852
      32    291.59    -0.43671 ( 99.91%)    -0.53418 (  0.09%)    -0.43679
      33    294.55    -0.43163 ( 99.92%)    -0.53118 (  0.08%)    -0.43171
   ------------------------------------------------------------------------

   temp. (K)  partition function   enthalpy   heat capacity  entropy
                                   cal/mol     cal/K/mol   cal/K/mol   J/K/mol
 298.15  VIB  0.255E+18            19397.316    104.586    127.805
         ROT  0.194E+08              888.752      2.981     36.333
         INT  0.495E+25            20286.068    107.567    164.138
         TR   0.687E+28             1481.254      4.968     43.594
         TOT                       21767.3222   112.5352   207.7322   869.1514

       T/K    H(0)-H(T)+PV         H(T)/Eh          T*S/Eh         G(T)/Eh
   ------------------------------------------------------------------------
    298.15    0.346884E-01    0.503739E+00    0.987003E-01    0.405038E+00
   ------------------------------------------------------------------------

         :::::::::::::::::::::::::::::::::::::::::::::::::::::
         ::                  THERMODYNAMIC                  ::
         :::::::::::::::::::::::::::::::::::::::::::::::::::::
         :: total free energy         -83.055540253370 Eh   ::
         ::.................................................::
         :: total energy              -83.460578607853 Eh   ::
         :: zero point energy           0.469050181136 Eh   ::
         :: G(RRHO) w/o ZPVE           -0.064011826653 Eh   ::
         :: G(RRHO) contrib.            0.405038354482 Eh   ::
         :::::::::::::::::::::::::::::::::::::::::::::::::::::
imag cut-off (cm-1) :    5.00
 found            1  significant imaginary frequency
 writing imag mode distorted coords to xtbhess.xyz
 for further optimization.

           -------------------------------------------------
          | TOTAL ENERGY              -83.460578607853 Eh   |
          | TOTAL ENTHALPY            -82.956839990856 Eh   |
          | TOTAL FREE ENERGY         -83.055540253370 Eh   |
          | GRADIENT NORM               0.000158050402 Eh/α |
          | HOMO-LUMO GAP               3.800290994377 eV   |
           -------------------------------------------------

------------------------------------------------------------------------
 * finished run on 2026/08/20 at 00:57:55.067     
------------------------------------------------------------------------
 total:
 * wall-time:     0 d,  0 h,  0 min, 13.517 sec
 *  cpu-time:     0 d,  0 h,  0 min, 13.328 sec
 * ratio c/w:     0.986 speedup
 SCF:
 * wall-time:     0 d,  0 h,  0 min,  0.055 sec
 *  cpu-time:     0 d,  0 h,  0 min,  0.047 sec
 * ratio c/w:     0.852 speedup
 analytical hessian:
 * wall-time:     0 d,  0 h,  0 min, 13.413 sec
 *  cpu-time:     0 d,  0 h,  0 min, 13.234 sec
 * ratio c/w:     0.987 speedup

