57
 energy: -83.460581947488 gnorm: 0.000134498254 xtb: 6.7.1pre (5071a88)
N           -0.50008286938773       -0.04011493132028       -0.96624469235514
C            0.85693172188009       -0.14178037992885       -0.71046974524703
C            1.47590968333101        0.57480185754701        0.31558285229121
C            2.82227701998937        0.41000414225624        0.56770229385790
C            3.59687552404107       -0.47047232253862       -0.17792613552501
C            2.97407602856143       -1.19679669022344       -1.18538453320331
C            1.62761796239871       -1.04053548525669       -1.44902399471020
C            5.07817373078501       -0.57108148047159        0.04952011315080
C            5.78352580729016        0.69631640501631       -0.44267393818585
C           -1.27922858831079        1.14401085211222       -0.65465510770317
C           -0.59358288763234        2.40325574023844       -1.12448671095601
C           -0.33716957032851        3.46395285779720       -0.37946817414588
C            0.35711391704111        4.69303231347648       -0.86329103368968
C           -0.49667569850307        5.94423013724088       -0.63884086275143
C            0.21474682355887        7.20240479587176       -1.11959841888977
O           -1.57609406616044        1.20160702189784        0.71346148372057
O           -0.55181537146415        1.43221025049402        3.31251742520271
H           -0.80169438917816       -0.54898220692140       -1.78216543681170
H           -0.85262657951863        1.67328110609695        2.42242962862930
H            0.90546221052881        1.26557605862848        0.91188164015238
H            3.27871832699799        0.97732090003687        1.36535771637572
H            3.54851347684457       -1.90062411037057       -1.77275598990772
H            1.16193922205588       -1.61567416646672       -2.23781025706639
H            5.49671731317851       -1.42781384054156       -0.48179107775184
H            5.30292486159471       -0.69593202202863        1.10985162727843
H            5.55648336127202        1.54757502374404        0.21114402188948
H            4.86676623367389        0.30233637404181       -2.29758169606306
H            7.41674310601091        2.50911785032788       -0.81130042025373
H           -2.22659845425754        1.03642954361839       -1.21780625192250
H           -0.29739775509500        2.36809904157468       -2.16499797368650
H           -0.65142061146599        3.47802037359632        0.65476324969688
H            1.29776492546990        4.80559739946150       -0.31593017574171
H            0.59537494311437        4.59426067385789       -1.92419047704280
H           -1.44294222023836        5.83107724255615       -1.17263381815854
H           -0.72463541675734        6.03844052045282        0.42504214967117
H           -0.40367144191053        8.08036149963829       -0.94819527992617
H            1.15519659704412        7.33521748859691       -0.58922539646834
H            0.42969304323634        7.13688697094859       -2.18401385035712
H           -0.68589744365294       -0.37536642636881        2.77632136116734
H           -1.24166266183902        1.71064537180693        3.91713275181249
O           -0.95057339243903       -1.05224081385721        2.12871674504475
H           -1.58426370990251        0.27966907455175        1.05812955425992
H           -0.13739358403271       -1.37727271722959        1.73593275702097
N            5.30676383342251        1.04142094299318       -1.77196521553999
C            7.31655157516927        0.50798295832318       -0.47292839319726
O            7.85230650838824       -0.57481960549077       -0.35572792833297
C            4.54814179063279        2.46310632377065       -3.54902940210030
C            5.26945422800020        2.30550728155489       -2.23042097185224
O            5.78391346519454        3.23343893845029       -1.62873152387847
H            3.50570847635016        2.17386784270272       -3.43100796425869
H            5.00478020945661        1.82938579545441       -4.30588033991372
H            4.60014872661477        3.50005114153076       -3.86713923931422
N            7.96453165408101        1.66968395122907       -0.64618803122558
C            9.39875726445211        1.75042913484377       -0.76948038263219
H            9.80371805741941        2.44076443993953       -0.02795830668825
H            9.68405098206216        2.09262042217799       -1.76645147698102
H            9.80505410092674        0.75450913857844       -0.59911674662613
