57
 energy: -83.440814200565 gnorm: 0.000325559240 xtb: 6.7.1pre (5071a88)
N           -0.26554002062455       -0.14801982606925       -1.00413617063437
C            1.04438555422975        0.05063470504576       -0.63661545998912
C            1.48383252396273        1.28375207271892       -0.14991913852402
C            2.82957463614739        1.51842051318973        0.04929030881838
C            3.77574337251980        0.53222273148965       -0.19872003394249
C            3.33123477876618       -0.71597775277167       -0.62000665318583
C            1.99206771963263       -0.95569751384016       -0.83918009040897
C            5.24397315463880        0.83229330470511       -0.11687862992941
C            5.74304931131415        1.24665475446784       -1.51943643111921
C            2.26846134039075        0.57603161272566       -3.65226632066494
C            2.72298729204111        1.93467418506158       -3.48864031920257
C            1.94220592793671        2.88843576512445       -2.96866737636489
C            2.37472557071051        4.27999108213902       -2.70236316155876
C            1.45247314800433        5.30314962017981       -3.37873000103528
C            1.88296484475031        6.72835970435890       -3.05896426730879
O            2.98548433009663       -0.35846258994733       -3.96692314984460
O           -0.57756075696469       -2.83458743539263       -2.20406316526868
H           -0.52304595787119       -1.10554917111379       -1.21146079333715
H           -0.96390131181119        0.39017186543875       -0.51810134869952
H            0.76006157635678        2.05981863691181        0.05901089920646
H            3.15501706316362        2.48628631202192        0.40485929044378
H            4.04753808864031       -1.51032537620442       -0.77399855901230
H            1.65318999593963       -1.92669716608097       -1.16435225566146
H            5.80310954668223       -0.04107098586629        0.21854949672090
H            5.43137637812149        1.65816294392044        0.57098109512517
H            5.06338198410639        2.01432876118140       -1.90247461457656
H            4.98084193818803        0.19657157138560       -3.17577655987475
H            7.93370436753075        0.14145998577180       -0.92475959962054
H            1.19612460702406        0.41559193527254       -3.46135666286808
H            3.74633108834334        2.14994378865171       -3.76799834981295
H            0.92087324534745        2.64460328393485       -2.70399029642059
H            2.33621509364009        4.44553016727968       -1.62126073882749
H            3.40413474503800        4.43242271096086       -3.03057237803905
H            1.47868112032763        5.14641320546764       -4.45897133689503
H            0.42572298669183        5.14495123317385       -3.04243270630704
H            1.23151396235039        7.44209844797298       -3.55712061509154
H            1.83807175988753        6.91130492723491       -1.98776283178207
H            2.90285465539113        6.90323530027434       -3.39306879254551
H            0.19189877121190       -2.82722020190671       -2.80364634605338
H           -1.28450787616923       -3.26386494950396       -2.68751755731879
O            1.67333505972007       -2.84334597339524       -3.82400678420988
H            2.11127798163407       -1.98069207584206       -3.92596264259842
H            2.33943460755308       -3.44487918581054       -3.48555495719445
N            5.69305212842931        0.13657288701305       -2.46163709760748
C            7.11985166297738        1.93154042536960       -1.42884045537404
O            7.22883874501031        3.12083387198360       -1.66879173618617
C            5.88448743234261       -2.06211626430050       -3.38870747442159
C            6.26913837289828       -1.07111571700339       -2.31361871472466
O            7.06453045793169       -1.35138283151323       -1.42839464122559
H            6.02857237852679       -3.07235057487813       -3.01535347699734
H            6.54139611059251       -1.91876735391751       -4.24515343389291
H            4.85733718404269       -1.91732431201160       -3.70921380330212
N            8.11699869880940        1.13953930013001       -1.02584534154555
C            9.46990783842303        1.61272867956167       -0.87611254253457
H           10.13413416718789        1.11244075400499       -1.58355848329283
H            9.82479960340173        1.42250851126514        0.13823486500770
H            9.47665701503969        2.68476769961551       -1.06904165833394
