      -----------------------------------------------------------      
     |                   =====================                   |     
     |                           x T B                           |     
     |                   =====================                   |     
     |                         S. Grimme                         |     
     |          Mulliken Center for Theoretical Chemistry        |     
     |                    University of Bonn                     |     
      -----------------------------------------------------------      

   * xtb version 6.7.1pre (5071a88) compiled by 'Marcel@Raven' on 2024-07-23

   xtb is free software: you can redistribute it and/or modify it under
   the terms of the GNU Lesser General Public License as published by
   the Free Software Foundation, either version 3 of the License, or
   (at your option) any later version.
   
   xtb is distributed in the hope that it will be useful,
   but WITHOUT ANY WARRANTY; without even the implied warranty of
   MERCHANTABILITY or FITNESS FOR A PARTICULAR PURPOSE.  See the
   GNU Lesser General Public License for more details.
   
   Cite this work as:
   * C. Bannwarth, E. Caldeweyher, S. Ehlert, A. Hansen, P. Pracht,
     J. Seibert, S. Spicher, S. Grimme, WIREs Comput. Mol. Sci., 2020, 11,
     e01493. DOI: 10.1002/wcms.1493
   
   for GFN2-xTB:
   * C. Bannwarth, S. Ehlert and S. Grimme., J. Chem. Theory Comput., 2019,
     15, 1652-1671. DOI: 10.1021/acs.jctc.8b01176
   for GFN1-xTB:
   * S. Grimme, C. Bannwarth, P. Shushkov, J. Chem. Theory Comput., 2017,
     13, 1989-2009. DOI: 10.1021/acs.jctc.7b00118
   for GFN0-xTB:
   * P. Pracht, E. Caldeweyher, S. Ehlert, S. Grimme, ChemRxiv, 2019, preprint.
     DOI: 10.26434/chemrxiv.8326202.v1
   for GFN-FF:
   * S. Spicher and S. Grimme, Angew. Chem. Int. Ed., 2020, 59, 15665-15673.
     DOI: 10.1002/anie.202004239
   
   for ALPB and GBSA implicit solvation:
   * S. Ehlert, M. Stahn, S. Spicher, S. Grimme, J. Chem. Theory Comput.,
     2021, 17, 4250-4261. DOI: 10.1021/acs.jctc.1c00471
   
   for ddCOSMO and CPCM-X implicit solvation:
   * M. Stahn, S. Ehlert, S. Grimme, J. Phys. Chem. A,
     2023, XX, XXXX-XXXX. DOI: 10.1021/acs.jpca.3c04382
   
   for DFT-D4:
   * E. Caldeweyher, C. Bannwarth and S. Grimme, J. Chem. Phys., 2017,
     147, 034112. DOI: 10.1063/1.4993215
   * E. Caldeweyher, S. Ehlert, A. Hansen, H. Neugebauer, S. Spicher,
     C. Bannwarth and S. Grimme, J. Chem. Phys., 2019, 150, 154122.
     DOI: 10.1063/1.5090222
   * E. Caldeweyher, J.-M. Mewes, S. Ehlert and S. Grimme, Phys. Chem. Chem. Phys.
     2020, 22, 8499-8512. DOI: 10.1039/D0CP00502A
   
   for sTDA-xTB:
   * S. Grimme and C. Bannwarth, J. Chem. Phys., 2016, 145, 054103.
     DOI: 10.1063/1.4959605
   
   in the mass-spec context:
   * V. Asgeirsson, C. Bauer and S. Grimme, Chem. Sci., 2017, 8, 4879.
     DOI: 10.1039/c7sc00601b
   * J. Koopman and S. Grimme, ACS Omega 2019, 4, 12, 15120-15133.
     DOI: 10.1021/acsomega.9b02011
   
   for metadynamics refer to:
   * S. Grimme, J. Chem. Theory Comput., 2019, 155, 2847-2862
     DOI: 10.1021/acs.jctc.9b00143
   
   for SPH calculations refer to:
   * S. Spicher and S. Grimme, J. Chem. Theory Comput., 2021, 17, 1701-1714
     DOI: 10.1021/acs.jctc.0c01306
   
   for ONIOM refer to:
   * C. Plett, A. Katbashev, S. Ehlert, S. Grimme, M. Bursch,
     Phys. Chem. Chem. Phys., 2023, 25, 17860-17868. DOI: 10.1039/D3CP02178E
   
   for DIPRO refer to:
   * J. Kohn, N. Gildemeister, S. Grimme, D. Fazzi, A. Hansen,
     J. Chem. Phys., 2023, just accepted.
   
   for PTB refer to:
   * S. Grimme, M. Mueller, A. Hansen, J. Chem. Phys., 2023, 158, 124111.
     DOI: 10.1063/5.0137838
   
   with help from (in alphabetical order)
   P. Atkinson, C. Bannwarth, F. Bohle, G. Brandenburg, E. Caldeweyher
   M. Checinski, S. Dohm, S. Ehlert, S. Ehrlich, I. Gerasimov, C. Hölzer
   A. Katbashev, J. Kohn, J. Koopman, C. Lavigne, S. Lehtola, F. März, M. Müller,
   F. Musil, H. Neugebauer, J. Pisarek, C. Plett, P. Pracht, F. Pultar,
   J. Seibert, P. Shushkov, S. Spicher, M. Stahn, M. Steiner, T. Strunk,
   J. Stückrath, T. Rose, and J. Unsleber
   
 * started run on 2026/08/31 at 13:16:22.686     
   ID    Z sym.   atoms
    1    7 N      1, 17, 63, 72
    2    6 C      2-15, 18-26, 64, 66, 67, 73
    3    8 O      16, 27, 60, 65, 68
    4    1 H      28-59, 61, 62, 69-71, 74-76

           -------------------------------------------------
          |                Calculation Setup                |
           -------------------------------------------------

          program call               : C:\Users\Nayanika\Downloads\xtb-6.7.1pre-windows-x86_64\xtb-6.7.1\bin\xtb.exe D:\PhD_Thesis\LmrR_EVB\charges\fast_lmrr_5QM\xtb_preparation\RS2_1_to_TS2_1a\RS2_1_to_TS2_1a_PS.xyz --gfn 2 --opt tight --chrg 0 --uhf 0 --etemp 0
          coordinate file            : D:\PhD_Thesis\LmrR_EVB\charges\fast_lmrr_5QM\xtb_preparation\RS2_1_to_TS2_1a\RS2_1_to_TS2_1a_PS.xyz
          omp threads                :                     1


molecular fragmentation (1/2 indicates fragments):
111111111111111211111111112121111111111111111111111111111222221111111111
1111
# atoms in fragment 1/2:    68     8
 fragment masses (1/2) :      447.59       53.04
CMA distance (Bohr)    :   6.152
constraining FC (au)   :  0.0500

           -------------------------------------------------
          |                 G F N 2 - x T B                 |
           -------------------------------------------------

        Reference                      10.1021/acs.jctc.8b01176
      * Hamiltonian:
        H0-scaling (s, p, d)           1.850000    2.230000    2.230000
        zeta-weighting                 0.500000
      * Dispersion:
        s8                             2.700000
        a1                             0.520000
        a2                             5.000000
        s9                             5.000000
      * Repulsion:
        kExp                           1.500000    1.000000
        rExp                           1.000000
      * Coulomb:
        alpha                          2.000000
        third order                    shell-resolved
        anisotropic                    true
        a3                             3.000000
        a5                             4.000000
        cn-shift                       1.200000
        cn-exp                         4.000000
        max-rad                        5.000000


          ...................................................
          :                      SETUP                      :
          :.................................................:
          :  # basis functions                 184          :
          :  # atomic orbitals                 184          :
          :  # shells                          112          :
          :  # electrons                       198          :
          :  max. iterations                   250          :
          :  Hamiltonian                  GFN2-xTB          :
          :  restarted?                      false          :
          :  GBSA solvation                  false          :
          :  PC potential                    false          :
          :  electronic temp.            0.0000000     K    :
          :  accuracy                    1.0000000          :
          :  -> integral cutoff          0.2500000E+02      :
          :  -> integral neglect         0.1000000E-07      :
          :  -> SCF convergence          0.1000000E-05 Eh   :
          :  -> wf. convergence          0.1000000E-03 e    :
          :  Broyden damping             0.4000000          :
          :  net charge                          0          :
          :  unpaired electrons                  0          :
          ...................................................

 iter      E             dE          RMSdq      gap      omega  full diag
   1   -111.1002243 -0.111100E+03  0.407E+00    2.21       0.0  T
   2   -110.4610452  0.639179E+00  0.353E+00    0.00       1.0  T
   3   -111.2092441 -0.748199E+00  0.239E+00    2.19       1.0  T
   4   -111.3507002 -0.141456E+00  0.139E+00    1.42       1.0  T
   5   -111.3481874  0.251278E-02  0.100E+00    1.19       1.0  T
   6   -110.6206011  0.727586E+00  0.248E+00    0.00       1.0  T
   7   -111.3725324 -0.751931E+00  0.846E-01    1.13       1.0  T
   8   -111.3756164 -0.308404E-02  0.752E-01    0.75       1.0  T
   9   -111.3796691 -0.405272E-02  0.678E-01    0.09       1.0  T
  10   -110.5920223  0.787647E+00  0.258E+00    0.06       1.0  T
  11   -111.3782890 -0.786267E+00  0.687E-01    0.13       1.0  T
  12   -111.3792677 -0.978689E-03  0.673E-01    0.02       1.0  T
  13   -110.6065131  0.772755E+00  0.252E+00    0.06       1.0  T
  14   -111.3783098 -0.771797E+00  0.688E-01    0.13       1.0  T
  15   -111.3793347 -0.102488E-02  0.673E-01    0.02       1.0  T
  16   -111.3799441 -0.609426E-03  0.669E-01    0.01       1.0  T
  17   -110.6065832  0.773361E+00  0.252E+00    0.06       1.0  T
  18   -111.3783849 -0.771802E+00  0.690E-01    0.15       1.0  T
  19   -111.3784063 -0.214272E-04  0.687E-01    0.12       1.0  T
  20   -111.3795775 -0.117117E-02  0.671E-01    0.01       1.0  T
  21   -110.6067304  0.772847E+00  0.252E+00    0.07       1.0  T
  22   -111.3761436 -0.769413E+00  0.732E-01    0.52       1.0  T
  23   -111.3785108 -0.236717E-02  0.685E-01    0.10       1.0  T
  24   -111.3789056 -0.394784E-03  0.678E-01    0.04       1.0  T
  25   -110.6070111  0.771894E+00  0.252E+00    0.04       1.0  T
  26   -111.3749545 -0.767943E+00  0.752E-01    0.69       1.0  T
  27   -111.3783582 -0.340373E-02  0.688E-01    0.13       1.0  T
  28   -111.3789229 -0.564616E-03  0.677E-01    0.04       1.0  T
  29   -111.4210479 -0.421250E-01  0.392E-01    0.00       1.0  T
  30   -111.3782064  0.428415E-01  0.691E-01    0.15       1.0  T
  31   -111.3789516 -0.745135E-03  0.677E-01    0.04       1.0  T
  32   -111.3790787 -0.127132E-03  0.675E-01    0.02       1.0  T
  33   -111.3794510 -0.372335E-03  0.672E-01    0.01       1.0  T
  34   -111.3793920  0.590079E-04  0.672E-01    0.01       1.0  T
  35   -110.6082277  0.771164E+00  0.252E+00    0.01       1.0  T
  36   -111.3724129 -0.764185E+00  0.797E-01    1.07       1.0  T
  37   -110.6059028  0.766510E+00  0.253E+00    0.07       1.0  T
  38   -111.3744108 -0.768508E+00  0.762E-01    0.77       1.0  T
  39   -110.6044833  0.769928E+00  0.254E+00    0.07       1.0  T
  40   -111.3765104 -0.772027E+00  0.724E-01    0.44       1.0  T
  41   -110.6065174  0.769993E+00  0.252E+00    0.06       1.0  T
  42   -111.3774195 -0.770902E+00  0.706E-01    0.29       1.0  T
  43   -111.3767020  0.717548E-03  0.719E-01    0.41       1.0  T
  44   -111.3760683  0.633687E-03  0.731E-01    0.51       1.0  T
  45   -111.3761928 -0.124484E-03  0.728E-01    0.49       1.0  T
  46   -111.3762867 -0.938794E-04  0.727E-01    0.48       1.0  T
  47   -111.3751853  0.110134E-02  0.746E-01    0.65       1.0  T
  48   -111.3739704  0.121494E-02  0.768E-01    0.83       1.0  T
  49   -111.3742073 -0.236916E-03  0.763E-01    0.79       1.0  T
  50   -111.3779140 -0.370667E-02  0.696E-01    0.20       1.0  T
  51   -110.5954170  0.782497E+00  0.260E+00    0.06       1.0  T
  52   -111.3455687 -0.750152E+00  0.119E+00    1.48       1.0  T
  53   -107.3089156  0.403665E+01  0.538E+00    0.28       1.0  T
  54   -107.3018044  0.711126E-02  0.540E+00    0.27       1.0  T
  55   -107.2963413  0.546303E-02  0.541E+00    0.27       1.0  T
  56   -107.2991629 -0.282154E-02  0.541E+00    0.27       1.0  T
  57   -107.3500960 -0.509332E-01  0.524E+00    0.27       1.0  T
  58   -107.3499321  0.163915E-03  0.525E+00    0.27       1.0  T
  59   -107.3491868  0.745277E-03  0.525E+00    0.27       1.0  T
  60   -102.0457658  0.530342E+01  0.739E+00    0.66       1.0  T
  61   -102.0382985  0.746731E-02  0.741E+00    0.49       1.0  T
  62   -102.0485460 -0.102476E-01  0.739E+00    0.70       1.0  T
  63   -102.0468588  0.168723E-02  0.739E+00    0.66       1.0  T
  64   -102.0454872  0.137154E-02  0.740E+00    0.61       1.0  T
  65   -102.2118501 -0.166363E+00  0.705E+00    0.82       1.0  T
  66   -102.2119940 -0.143946E-03  0.705E+00    0.82       1.0  T
  67   -102.1544194  0.575746E-01  0.717E+00    1.29       1.0  T
  68   -102.1269167  0.275027E-01  0.725E+00    1.40       1.0  T
  69   -102.0508448  0.760720E-01  0.743E+00    0.82       1.0  T
  70    -95.8742987  0.617655E+01  0.828E+00    0.13       1.0  T
  71    -95.8842303 -0.993161E-02  0.828E+00    0.12       1.0  T
  72    -95.8669382  0.172921E-01  0.829E+00    0.13       1.0  T
  73    -95.9116692 -0.447310E-01  0.829E+00    0.11       1.0  T
  74    -95.9212834 -0.961419E-02  0.830E+00    0.10       1.0  T
  75    -95.9158258  0.545755E-02  0.830E+00    0.10       1.0  T
  76    -95.9158613 -0.355143E-04  0.830E+00    0.10       1.0  T
  77    -95.8614388  0.544225E-01  0.832E+00    0.12       1.0  T
  78    -95.8154816  0.459573E-01  0.827E+00    0.21       1.0  T
  79   -101.9744402 -0.615896E+01  0.766E+00    0.00       1.0  T
  80    -95.7454855  0.622895E+01  0.840E+00    0.34       1.0  T
  81    -95.7559264 -0.104409E-01  0.836E+00    0.20       1.0  T
  82    -95.7518861  0.404025E-02  0.836E+00    0.21       1.0  T
  83   -101.9790880 -0.622720E+01  0.769E+00    0.19       1.0  T
  84   -101.9808054 -0.171744E-02  0.771E+00    0.47       1.0  T
  85    -95.6585508  0.632225E+01  0.863E+00    0.55       1.0  T
  86    -95.6799807 -0.214299E-01  0.858E+00    0.35       1.0  T
  87    -95.6395318  0.404489E-01  0.872E+00    0.93       1.0  T
  88   -102.7411247 -0.710159E+01  0.818E+00    0.27       1.0  T
  89   -102.7413943 -0.269550E-03  0.818E+00    0.26       1.0  T
  90   -102.7345641  0.683022E-02  0.819E+00    0.28       1.0  T
  91   -102.7530143 -0.184503E-01  0.814E+00    0.43       1.0  T
  92   -102.6528863  0.100128E+00  0.839E+00    0.23       1.0  T
  93   -102.6744283 -0.215421E-01  0.834E+00    0.31       1.0  T
  94   -102.6722770  0.215129E-02  0.834E+00    0.32       1.0  T
  95    -95.6495701  0.702271E+01  0.877E+00    0.21       1.0  T
  96    -95.5366698  0.112900E+00  0.910E+00    0.75       1.0  T
  97    -95.5923513 -0.556815E-01  0.893E+00    0.78       1.0  T
  98    -95.6416577 -0.493065E-01  0.876E+00    0.40       1.0  T
  99   -102.7072861 -0.706563E+01  0.827E+00    0.09       1.0  T
 100   -102.7190547 -0.117686E-01  0.824E+00    0.14       1.0  T
 101   -102.8221148 -0.103060E+00  0.800E+00    0.44       1.0  T
 102   -110.1679906 -0.734588E+01  0.392E+00    0.47       1.0  T
 103   -107.0965943  0.307140E+01  0.647E+00    0.14       1.0  T
 104   -110.7263211 -0.362973E+01  0.353E+00    0.66       1.0  T
 105   -110.3073393  0.418982E+00  0.344E+00    0.41       1.0  T
 106   -110.9351541 -0.627815E+00  0.304E+00    0.53       1.0  T
 107   -111.1822635 -0.247109E+00  0.232E+00    0.47       1.0  T
 108   -111.3294774 -0.147214E+00  0.168E+00    1.14       1.0  T
 109   -111.2273470  0.102130E+00  0.239E+00    1.83       1.0  T
 110   -111.1994878  0.278593E-01  0.256E+00    1.67       1.0  T
 111   -111.1999215 -0.433768E-03  0.255E+00    1.60       1.0  T
 112   -111.2373321 -0.374106E-01  0.221E+00    1.84       1.0  T
 113   -111.2751478 -0.378157E-01  0.186E+00    1.56       1.0  T
 114   -111.2825381 -0.739026E-02  0.179E+00    1.48       1.0  T
 115   -111.3354975 -0.529595E-01  0.130E+00    1.19       1.0  T
 116   -111.3408862 -0.538865E-02  0.123E+00    1.16       1.0  T
 117   -111.3506487 -0.976249E-02  0.111E+00    1.09       1.0  T
 118   -111.3628216 -0.121729E-01  0.949E-01    0.97       1.0  T
 119   -111.3773924 -0.145709E-01  0.722E-01    0.78       1.0  T
 120   -107.3748892  0.400250E+01  0.511E+00    0.05       1.0  T
 121   -111.3172856 -0.394240E+01  0.164E+00    0.81       1.0  T
 122   -111.3793476 -0.620620E-01  0.691E-01    0.20       1.0  T
 123   -111.3758688  0.347882E-02  0.756E-01    1.01       1.0  T
 124   -111.3729730  0.289581E-02  0.812E-01    1.05       1.0  T
 125   -111.3747058 -0.173278E-02  0.785E-01    1.02       1.0  T
 126   -111.3809417 -0.623590E-02  0.673E-01    0.60       1.0  T
 127   -110.5652825  0.815659E+00  0.274E+00    0.01       1.0  T
 128   -111.3726213 -0.807339E+00  0.847E-01    1.07       1.0  T
 129   -110.5724431  0.800178E+00  0.266E+00    0.02       1.0  T
 130   -111.3652809 -0.792838E+00  0.960E-01    1.17       1.0  T
 131   -110.5640564  0.801225E+00  0.270E+00    0.03       1.0  T
 132   -111.3576608 -0.793604E+00  0.107E+00    1.32       1.0  T
 133   -107.3803658  0.397730E+01  0.511E+00    0.14       1.0  T
 134   -111.2951240 -0.391476E+01  0.185E+00    1.13       1.0  T
 135   -111.3686843 -0.735602E-01  0.943E-01    1.10       1.0  T
 136   -111.3726720 -0.398770E-02  0.847E-01    1.07       1.0  T
 137   -111.3831952 -0.105233E-01  0.645E-01    0.15       1.0  T
 138   -107.3677379  0.401546E+01  0.517E+00    0.21       1.0  T
 139   -111.2763900 -0.390865E+01  0.199E+00    0.70       1.0  T
 140   -111.3715893 -0.951993E-01  0.918E-01    1.07       1.0  T
 141   -111.3816335 -0.100442E-01  0.680E-01    0.47       1.0  T
 142   -107.3769419  0.400469E+01  0.515E+00    0.21       1.0  T
 143   -111.2696945 -0.389275E+01  0.205E+00    0.42       1.0  T
 144   -111.3707892 -0.101095E+00  0.918E-01    1.10       1.0  T
 145   -111.3823874 -0.115982E-01  0.653E-01    0.30       1.0  T
 146   -110.5483480  0.834039E+00  0.278E+00    0.03       1.0  T
 147   -107.3286149  0.321973E+01  0.532E+00    0.19       1.0  T
 148   -111.2739220 -0.394531E+01  0.202E+00    0.50       1.0  T
 149   -111.3624187 -0.884967E-01  0.102E+00    1.21       1.0  T
 150   -111.3762948 -0.138761E-01  0.744E-01    1.06       1.0  T
 151   -111.3827269 -0.643213E-02  0.604E-01    0.19       1.0  T
 152   -110.5613791  0.821348E+00  0.275E+00    0.02       1.0  T
 153   -111.3766724 -0.815293E+00  0.748E-01    0.99       1.0  T
 154   -110.5766395  0.800033E+00  0.269E+00    0.02       1.0  T
 155   -111.3824253 -0.805786E+00  0.650E-01    0.21       1.0  T
 156   -110.5808974  0.801528E+00  0.272E+00    0.02       1.0  T
 157   -107.3557044  0.322519E+01  0.522E+00    0.18       1.0  T
 158   -111.2817543 -0.392605E+01  0.195E+00    0.81       1.0  T
 159   -111.3678517 -0.860975E-01  0.897E-01    1.15       1.0  T
 160   -111.3779588 -0.101070E-01  0.682E-01    0.95       1.0  T
 161   -111.3800392 -0.208044E-02  0.623E-01    0.42       1.0  T
 162   -110.5791710  0.800868E+00  0.275E+00    0.00       1.0  T
 163   -111.3673454 -0.788174E+00  0.882E-01    1.16       1.0  T
 164   -110.5796210  0.787724E+00  0.286E+00    0.01       1.0  T
 165   -111.3523287 -0.772708E+00  0.129E+00    1.08       1.0  T
 166   -111.3820637 -0.297351E-01  0.640E-01    0.22       1.0  T
 167   -107.3724862  0.400958E+01  0.519E+00    0.27       1.0  T
 168   -111.3001973 -0.392771E+01  0.175E+00    1.06       1.0  T
 169   -111.3702030 -0.700057E-01  0.815E-01    1.18       1.0  T
 170   -111.3779816 -0.777858E-02  0.651E-01    0.78       1.0  T
 171   -111.3818324 -0.385083E-02  0.571E-01    0.01       1.0  T
 172   -110.5798117  0.802021E+00  0.274E+00    0.01       1.0  T
 173   -111.3023995 -0.722588E+00  0.159E+00    1.87       1.0  T
 174   -111.3599670 -0.575675E-01  0.917E-01    1.34       1.0  T
 175   -111.3766787 -0.167117E-01  0.648E-01    0.54       1.0  T
 176   -110.5970536  0.779625E+00  0.265E+00    0.03       1.0  T
 177   -111.2957488 -0.698695E+00  0.167E+00    1.99       1.0  T
 178   -111.3619892 -0.662404E-01  0.887E-01    1.32       1.0  T
 179   -111.3755478 -0.135585E-01  0.670E-01    0.72       1.0  T
 180   -111.3787542 -0.320645E-02  0.612E-01    0.25       1.0  T
 181   -110.5928348  0.785919E+00  0.267E+00    0.03       1.0  T
 182   -111.2934023 -0.700567E+00  0.169E+00    1.98       1.0  T
 183   -111.3614222 -0.680199E-01  0.897E-01    1.34       1.0  T
 184   -111.3748346 -0.134124E-01  0.684E-01    0.88       1.0  T
 185   -111.3784891 -0.365443E-02  0.619E-01    0.34       1.0  T
 186   -110.5937551  0.784734E+00  0.265E+00    0.03       1.0  T
 187   -111.2888293 -0.695074E+00  0.173E+00    1.97       1.0  T
 188   -111.3605196 -0.716903E-01  0.911E-01    1.36       1.0  T
 189   -111.3738942 -0.133746E-01  0.702E-01    1.04       1.0  T
 190   -111.3773599 -0.346571E-02  0.640E-01    0.55       1.0  T
 191   -111.3792766 -0.191667E-02  0.605E-01    0.25       1.0  T
 192   -111.3801811 -0.904537E-03  0.588E-01    0.07       1.0  T
 193   -111.3808789 -0.697727E-03  0.580E-01    0.01       1.0  T
 194   -111.4124102 -0.315313E-01  0.391E-01    0.00       1.0  T
 195   -111.3758365  0.365736E-01  0.667E-01    0.70       1.0  T
 196   -111.3778490 -0.201249E-02  0.631E-01    0.45       1.0  T
 197   -111.3786256 -0.776568E-03  0.617E-01    0.32       1.0  T
 198   -111.3788009 -0.175289E-03  0.613E-01    0.28       1.0  T
 199   -111.3788045 -0.359070E-05  0.613E-01    0.28       1.0  T
 200   -111.3784387  0.365789E-03  0.620E-01    0.33       1.0  T
 201   -111.3779514  0.487249E-03  0.628E-01    0.41       1.0  T
 202   -111.3775388  0.412598E-03  0.634E-01    0.46       1.0  T
 203   -111.3774195  0.119333E-03  0.633E-01    0.42       1.0  T
 204   -111.3779026 -0.483055E-03  0.622E-01    0.26       1.0  T
 205   -111.3790260 -0.112339E-02  0.602E-01    0.02       1.0  T
 206   -110.5897677  0.789258E+00  0.265E+00    0.04       1.0  T
 207   -111.2892260 -0.699458E+00  0.172E+00    1.92       1.0  T
 208   -111.3614465 -0.722205E-01  0.900E-01    1.35       1.0  T
 209   -111.3763444 -0.148979E-01  0.655E-01    0.42       1.0  T
 210   -110.5942391  0.782105E+00  0.263E+00    0.04       1.0  T
 211   -111.2897443 -0.695505E+00  0.172E+00    1.94       1.0  T
 212   -111.3612908 -0.715464E-01  0.904E-01    1.36       1.0  T
 213   -111.3758448 -0.145540E-01  0.665E-01    0.51       1.0  T
 214   -111.3786714 -0.282663E-02  0.612E-01    0.02       1.0  T
 215   -110.5910447  0.787627E+00  0.264E+00    0.04       1.0  T
 216   -111.2893721 -0.698327E+00  0.172E+00    1.93       1.0  T
 217   -111.3619305 -0.725584E-01  0.895E-01    1.36       1.0  T
 218   -111.3764614 -0.145308E-01  0.655E-01    0.38       1.0  T
 219   -110.5948885  0.781573E+00  0.262E+00    0.04       1.0  T
 220   -111.2901135 -0.695225E+00  0.172E+00    1.94       1.0  T
 221   -111.3618407 -0.717272E-01  0.897E-01    1.36       1.0  T
 222   -111.3759289 -0.140882E-01  0.665E-01    0.46       1.0  T
 223   -111.3783710 -0.244208E-02  0.619E-01    0.04       1.0  T
 224   -110.5926629  0.785708E+00  0.263E+00    0.04       1.0  T
 225   -111.2900246 -0.697362E+00  0.172E+00    1.94       1.0  T
 226   -111.3622707 -0.722461E-01  0.892E-01    1.36       1.0  T
 227   -111.3763921 -0.141214E-01  0.658E-01    0.37       1.0  T
 228   -110.5959952  0.780397E+00  0.261E+00    0.05       1.0  T
 229   -111.2906811 -0.694686E+00  0.171E+00    1.95       1.0  T
 230   -111.3621417 -0.714606E-01  0.894E-01    1.36       1.0  T
 231   -111.3758715 -0.137298E-01  0.668E-01    0.46       1.0  T
 232   -111.3782256 -0.235408E-02  0.624E-01    0.04       1.0  T
 233   -110.5937246  0.784501E+00  0.263E+00    0.04       1.0  T
 234   -111.2910088 -0.697284E+00  0.171E+00    1.95       1.0  T
 235   -111.3625535 -0.715448E-01  0.888E-01    1.36       1.0  T
 236   -111.3763403 -0.137868E-01  0.660E-01    0.37       1.0  T
 237   -110.5967734  0.779567E+00  0.261E+00    0.05       1.0  T
 238   -111.2914778 -0.694704E+00  0.171E+00    1.93       1.0  T
 239   -111.3623773 -0.708995E-01  0.891E-01    1.36       1.0  T
 240   -111.3758495 -0.134722E-01  0.669E-01    0.45       1.0  T
 241   -111.3783255 -0.247601E-02  0.624E-01    0.02       1.0  T
 242   -110.5940947  0.784231E+00  0.262E+00    0.04       1.0  T
 243   -111.2922259 -0.698131E+00  0.170E+00    1.92       1.0  T
 244   -111.3628409 -0.706150E-01  0.885E-01    1.35       1.0  T
 245   -111.3763568 -0.135159E-01  0.661E-01    0.35       1.0  T
 246   -110.5971302  0.779227E+00  0.261E+00    0.05       1.0  T
 247   -111.2924294 -0.695299E+00  0.170E+00    1.90       1.0  T
 248   -111.3625967 -0.701673E-01  0.889E-01    1.36       1.0  T
 249   -111.3758875 -0.132908E-01  0.670E-01    0.42       1.0  T
 250   -110.5990943  0.776793E+00  0.260E+00    0.02       1.0  T

   *** convergence criteria cannot be satisfied within 250 iterations ***

         #    Occupation            Energy/Eh            Energy/eV
      -------------------------------------------------------------
         1        2.0000           -0.7178382             -19.5334
       ...           ...                  ...                  ...
        93        2.0000           -0.3760999             -10.2342
        94        2.0000           -0.3738549             -10.1731
        95        2.0000           -0.3596943              -9.7878
        96        2.0000           -0.3475573              -9.4575
        97        2.0000           -0.3164427              -8.6108
        98        2.0000           -0.2750769              -7.4852
        99        2.0000           -0.2741674              -7.4605 (HOMO)
       100                         -0.2733122              -7.4372 (LUMO)
       101                         -0.2347325              -6.3874
       102                         -0.2321401              -6.3169
       103                         -0.2216487              -6.0314
       104                         -0.2062248              -5.6117
       ...                                ...                  ...
       184                          0.6729283              18.3113
      -------------------------------------------------------------
                  HL-Gap            0.0008552 Eh            0.0233 eV
             Fermi-level            0.0000000 Eh            0.0000 eV

 SCC (total)                   0 d,  0 h,  0 min,  4.002 sec
 SCC setup                      ...        0 min,  0.001 sec (  0.025%)
 Dispersion                     ...        0 min,  0.001 sec (  0.025%)
 classical contributions        ...        0 min,  0.001 sec (  0.025%)
 integral evaluation            ...        0 min,  0.030 sec (  0.750%)
 iterations                     ...        0 min,  3.837 sec ( 95.877%)
 molecular gradient             ...        0 min,  0.130 sec (  3.248%)
 printout                       ...        0 min,  0.002 sec (  0.050%)

########################################################################
[ERROR] Program stopped due to fatal error
-3- Single point calculation terminated
-2- xtb_calculator_singlepoint: Electronic structure method terminated
-1- scf: Self consistent charge iterator did not converge
########################################################################


===== STDERR =====

abnormal termination of xtb
