      -----------------------------------------------------------      
     |                   =====================                   |     
     |                           x T B                           |     
     |                   =====================                   |     
     |                         S. Grimme                         |     
     |          Mulliken Center for Theoretical Chemistry        |     
     |                    University of Bonn                     |     
      -----------------------------------------------------------      

   * xtb version 6.7.1pre (5071a88) compiled by 'Marcel@Raven' on 2024-07-23

   xtb is free software: you can redistribute it and/or modify it under
   the terms of the GNU Lesser General Public License as published by
   the Free Software Foundation, either version 3 of the License, or
   (at your option) any later version.
   
   xtb is distributed in the hope that it will be useful,
   but WITHOUT ANY WARRANTY; without even the implied warranty of
   MERCHANTABILITY or FITNESS FOR A PARTICULAR PURPOSE.  See the
   GNU Lesser General Public License for more details.
   
   Cite this work as:
   * C. Bannwarth, E. Caldeweyher, S. Ehlert, A. Hansen, P. Pracht,
     J. Seibert, S. Spicher, S. Grimme, WIREs Comput. Mol. Sci., 2020, 11,
     e01493. DOI: 10.1002/wcms.1493
   
   for GFN2-xTB:
   * C. Bannwarth, S. Ehlert and S. Grimme., J. Chem. Theory Comput., 2019,
     15, 1652-1671. DOI: 10.1021/acs.jctc.8b01176
   for GFN1-xTB:
   * S. Grimme, C. Bannwarth, P. Shushkov, J. Chem. Theory Comput., 2017,
     13, 1989-2009. DOI: 10.1021/acs.jctc.7b00118
   for GFN0-xTB:
   * P. Pracht, E. Caldeweyher, S. Ehlert, S. Grimme, ChemRxiv, 2019, preprint.
     DOI: 10.26434/chemrxiv.8326202.v1
   for GFN-FF:
   * S. Spicher and S. Grimme, Angew. Chem. Int. Ed., 2020, 59, 15665-15673.
     DOI: 10.1002/anie.202004239
   
   for ALPB and GBSA implicit solvation:
   * S. Ehlert, M. Stahn, S. Spicher, S. Grimme, J. Chem. Theory Comput.,
     2021, 17, 4250-4261. DOI: 10.1021/acs.jctc.1c00471
   
   for ddCOSMO and CPCM-X implicit solvation:
   * M. Stahn, S. Ehlert, S. Grimme, J. Phys. Chem. A,
     2023, XX, XXXX-XXXX. DOI: 10.1021/acs.jpca.3c04382
   
   for DFT-D4:
   * E. Caldeweyher, C. Bannwarth and S. Grimme, J. Chem. Phys., 2017,
     147, 034112. DOI: 10.1063/1.4993215
   * E. Caldeweyher, S. Ehlert, A. Hansen, H. Neugebauer, S. Spicher,
     C. Bannwarth and S. Grimme, J. Chem. Phys., 2019, 150, 154122.
     DOI: 10.1063/1.5090222
   * E. Caldeweyher, J.-M. Mewes, S. Ehlert and S. Grimme, Phys. Chem. Chem. Phys.
     2020, 22, 8499-8512. DOI: 10.1039/D0CP00502A
   
   for sTDA-xTB:
   * S. Grimme and C. Bannwarth, J. Chem. Phys., 2016, 145, 054103.
     DOI: 10.1063/1.4959605
   
   in the mass-spec context:
   * V. Asgeirsson, C. Bauer and S. Grimme, Chem. Sci., 2017, 8, 4879.
     DOI: 10.1039/c7sc00601b
   * J. Koopman and S. Grimme, ACS Omega 2019, 4, 12, 15120-15133.
     DOI: 10.1021/acsomega.9b02011
   
   for metadynamics refer to:
   * S. Grimme, J. Chem. Theory Comput., 2019, 155, 2847-2862
     DOI: 10.1021/acs.jctc.9b00143
   
   for SPH calculations refer to:
   * S. Spicher and S. Grimme, J. Chem. Theory Comput., 2021, 17, 1701-1714
     DOI: 10.1021/acs.jctc.0c01306
   
   for ONIOM refer to:
   * C. Plett, A. Katbashev, S. Ehlert, S. Grimme, M. Bursch,
     Phys. Chem. Chem. Phys., 2023, 25, 17860-17868. DOI: 10.1039/D3CP02178E
   
   for DIPRO refer to:
   * J. Kohn, N. Gildemeister, S. Grimme, D. Fazzi, A. Hansen,
     J. Chem. Phys., 2023, just accepted.
   
   for PTB refer to:
   * S. Grimme, M. Mueller, A. Hansen, J. Chem. Phys., 2023, 158, 124111.
     DOI: 10.1063/5.0137838
   
   with help from (in alphabetical order)
   P. Atkinson, C. Bannwarth, F. Bohle, G. Brandenburg, E. Caldeweyher
   M. Checinski, S. Dohm, S. Ehlert, S. Ehrlich, I. Gerasimov, C. Hölzer
   A. Katbashev, J. Kohn, J. Koopman, C. Lavigne, S. Lehtola, F. März, M. Müller,
   F. Musil, H. Neugebauer, J. Pisarek, C. Plett, P. Pracht, F. Pultar,
   J. Seibert, P. Shushkov, S. Spicher, M. Stahn, M. Steiner, T. Strunk,
   J. Stückrath, T. Rose, and J. Unsleber
   
 * started run on 2026/08/31 at 13:14:38.055     
   ID    Z sym.   atoms
    1    7 N      1, 44, 53
    2    6 C      2-15, 45, 47, 48, 54
    3    8 O      16, 17, 41, 46, 49
    4    1 H      18-40, 42, 43, 50-52, 55-57

           -------------------------------------------------
          |                Calculation Setup                |
           -------------------------------------------------

          program call               : C:\Users\Nayanika\Downloads\xtb-6.7.1pre-windows-x86_64\xtb-6.7.1\bin\xtb.exe D:\PhD_Thesis\LmrR_EVB\charges\fast_lmrr_5QM\xtb_preparation\RS1_1_to_TS1_2\RS1_1_to_TS1_2_RS_xtbopt.xyz --gfn 2 --chrg 0 --uhf 0 --hess --etemp 0
          coordinate file            : D:\PhD_Thesis\LmrR_EVB\charges\fast_lmrr_5QM\xtb_preparation\RS1_1_to_TS1_2\RS1_1_to_TS1_2_RS_xtbopt.xyz
          omp threads                :                     1


molecular fragmentation (1/2 indicates fragments):
111111111222222221111111111122222222222222211111111111111
# atoms in fragment 1/2:    34    23
 fragment masses (1/2) :      235.28      134.17
CMA distance (Bohr)    :   7.322
constraining FC (au)   :  0.0500

           -------------------------------------------------
          |                 G F N 2 - x T B                 |
           -------------------------------------------------

        Reference                      10.1021/acs.jctc.8b01176
      * Hamiltonian:
        H0-scaling (s, p, d)           1.850000    2.230000    2.230000
        zeta-weighting                 0.500000
      * Dispersion:
        s8                             2.700000
        a1                             0.520000
        a2                             5.000000
        s9                             5.000000
      * Repulsion:
        kExp                           1.500000    1.000000
        rExp                           1.000000
      * Coulomb:
        alpha                          2.000000
        third order                    shell-resolved
        anisotropic                    true
        a3                             3.000000
        a5                             4.000000
        cn-shift                       1.200000
        cn-exp                         4.000000
        max-rad                        5.000000

q/qsh data taken from xtbrestart
CAMM data taken from xtbrestart

          ...................................................
          :                      SETUP                      :
          :.................................................:
          :  # basis functions                 135          :
          :  # atomic orbitals                 135          :
          :  # shells                           83          :
          :  # electrons                       148          :
          :  max. iterations                   250          :
          :  Hamiltonian                  GFN2-xTB          :
          :  restarted?                       true          :
          :  GBSA solvation                  false          :
          :  PC potential                    false          :
          :  electronic temp.            0.0000000     K    :
          :  accuracy                    1.0000000          :
          :  -> integral cutoff          0.2500000E+02      :
          :  -> integral neglect         0.1000000E-07      :
          :  -> SCF convergence          0.1000000E-05 Eh   :
          :  -> wf. convergence          0.1000000E-03 e    :
          :  Broyden damping             0.4000000          :
          :  net charge                          0          :
          :  unpaired electrons                  0          :
          ...................................................

 iter      E             dE          RMSdq      gap      omega  full diag
   1    -84.5444821 -0.845445E+02  0.284E-06    1.05       0.0  T
   2    -84.5444821  0.710543E-13  0.214E-06    1.05    6189.5  T
   3    -84.5444821 -0.170530E-12  0.117E-06    1.05   11359.8  T

   *** convergence criteria satisfied after 3 iterations ***

         #    Occupation            Energy/Eh            Energy/eV
      -------------------------------------------------------------
         1        2.0000           -0.7300008             -19.8643
       ...           ...                  ...                  ...
        68        2.0000           -0.4140832             -11.2678
        69        2.0000           -0.4104936             -11.1701
        70        2.0000           -0.3960489             -10.7770
        71        2.0000           -0.3940729             -10.7233
        72        2.0000           -0.3873036             -10.5391
        73        2.0000           -0.3762840             -10.2392
        74        2.0000           -0.3495461              -9.5116 (HOMO)
        75                         -0.3109062              -8.4602 (LUMO)
        76                         -0.2121786              -5.7737
        77                         -0.2113804              -5.7520
        78                         -0.2039900              -5.5508
        79                         -0.1935064              -5.2656
       ...                                ...                  ...
       135                          0.6704872              18.2449
      -------------------------------------------------------------
                  HL-Gap            0.0386399 Eh            1.0514 eV
             Fermi-level            0.0000000 Eh            0.0000 eV

 SCC (total)                   0 d,  0 h,  0 min,  0.152 sec
 SCC setup                      ...        0 min,  0.002 sec (  1.316%)
 Dispersion                     ...        0 min,  0.002 sec (  1.316%)
 classical contributions        ...        0 min,  0.000 sec (  0.000%)
 integral evaluation            ...        0 min,  0.028 sec ( 18.421%)
 iterations                     ...        0 min,  0.032 sec ( 21.053%)
 molecular gradient             ...        0 min,  0.088 sec ( 57.895%)
 printout                       ...        0 min,  0.000 sec (  0.000%)

         :::::::::::::::::::::::::::::::::::::::::::::::::::::
         ::                     SUMMARY                     ::
         :::::::::::::::::::::::::::::::::::::::::::::::::::::
         :: total energy             -83.440819384224 Eh    ::
         :: gradient norm              0.000157899950 Eh/a0 ::
         :: HOMO-LUMO gap              1.051444835716 eV    ::
         ::.................................................::
         :: SCC energy               -84.542699262559 Eh    ::
         :: -> isotropic ES            0.177269566582 Eh    ::
         :: -> anisotropic ES         -0.004723492855 Eh    ::
         :: -> anisotropic XC          0.030272400204 Eh    ::
         :: -> dispersion             -0.058786010247 Eh    ::
         :: repulsion energy           1.101879878335 Eh    ::
         :: add. restraining           0.000000000000 Eh    ::
         :: total charge               0.000000000000 e     ::
         :::::::::::::::::::::::::::::::::::::::::::::::::::::

           ------------------------------------------------- 
          |                Numerical Hessian                |
           ------------------------------------------------- 
step length          :   0.00500
SCC accuracy         :   0.30000
Hessian scale factor :   1.00000
frozen atoms in %    :   0.00000    0
RMS gradient         :   0.00016
estimated CPU  time      0.81 min
estimated wall time      0.97 min

writing file <hessian>.

 projected vibrational frequencies (cm⁻¹)
eigval :       -0.00    -0.00    -0.00    -0.00     0.00     0.00
eigval :        2.56    10.34    22.58    28.79    32.69    36.07
eigval :       46.02    48.21    55.06    60.04    68.62    72.24
eigval :       79.15    85.77    88.35   104.91   107.00   108.85
eigval :      120.48   122.45   125.77   143.93   159.21   168.35
eigval :      176.38   182.99   190.95   200.83   209.23   230.80
eigval :      233.52   245.47   263.13   293.58   309.83   311.62
eigval :      349.74   365.74   372.09   377.37   386.41   396.77
eigval :      412.10   419.59   433.91   470.93   484.59   506.66
eigval :      518.10   537.55   577.74   586.34   598.04   615.03
eigval :      632.09   647.61   652.81   687.64   706.08   721.13
eigval :      736.11   759.42   785.63   788.72   808.91   852.42
eigval :      865.97   883.79   889.84   904.61   916.18   921.31
eigval :      923.87   936.18   937.43  1000.86  1004.43  1010.25
eigval :     1019.89  1033.79  1035.26  1053.45  1088.61  1089.62
eigval :     1105.19  1105.80  1113.88  1132.23  1142.94  1146.62
eigval :     1163.50  1166.38  1199.02  1207.46  1216.37  1223.79
eigval :     1225.82  1245.50  1258.50  1265.28  1280.69  1291.57
eigval :     1293.83  1305.68  1324.77  1331.71  1345.74  1348.80
eigval :     1376.83  1383.37  1392.49  1417.57  1429.85  1432.92
eigval :     1441.43  1455.98  1457.17  1464.01  1467.11  1467.65
eigval :     1486.36  1487.32  1492.70  1499.70  1502.34  1526.04
eigval :     1542.69  1559.50  1576.04  1623.43  1652.93  1691.93
eigval :     1708.03  1746.46  2848.36  2945.01  2957.03  2969.99
eigval :     2975.30  2988.09  2988.30  2990.77  2997.36  3008.84
eigval :     3019.73  3028.15  3037.07  3041.12  3045.10  3052.52
eigval :     3054.85  3056.37  3061.98  3068.20  3070.78  3077.02
eigval :     3107.43  3228.71  3328.61  3383.58  3390.21  3414.24
eigval :     3494.53  3652.39  3669.40
           -------------------------------------------------
          |                Property Printout                |
           -------------------------------------------------

    * Orbital Energies and Occupations

         #    Occupation            Energy/Eh            Energy/eV
      -------------------------------------------------------------
         1        2.0000           -0.7300009             -19.8643
       ...           ...                  ...                  ...
        62        2.0000           -0.4448873             -12.1060
        63        2.0000           -0.4359636             -11.8632
        64        2.0000           -0.4307426             -11.7211
        65        2.0000           -0.4281521             -11.6506
        66        2.0000           -0.4265937             -11.6082
        67        2.0000           -0.4202097             -11.4345
        68        2.0000           -0.4140832             -11.2678
        69        2.0000           -0.4104936             -11.1701
        70        2.0000           -0.3960489             -10.7770
        71        2.0000           -0.3940729             -10.7233
        72        2.0000           -0.3873036             -10.5391
        73        2.0000           -0.3762840             -10.2392
        74        2.0000           -0.3495460              -9.5116 (HOMO)
        75                         -0.3109062              -8.4602 (LUMO)
        76                         -0.2121786              -5.7737
        77                         -0.2113803              -5.7520
        78                         -0.2039899              -5.5508
        79                         -0.1935064              -5.2656
        80                         -0.1917388              -5.2175
        81                         -0.0808306              -2.1995
        82                         -0.0012978              -0.0353
        83                          0.0265444               0.7223
        84                          0.0313707               0.8536
        85                          0.0581491               1.5823
       ...                                ...                  ...
       135                          0.6704872              18.2449
      -------------------------------------------------------------
                  HL-Gap            0.0386399 Eh            1.0514 eV
             Fermi-level            0.0000000 Eh            0.0000 eV

     #   Z          covCN         q      C6AA      α(0)
     1   7 N        2.641    -0.293    27.561     7.797
     2   6 C        2.899     0.075    26.322     8.412
     3   6 C        2.922    -0.070    29.746     8.944
     4   6 C        2.924    -0.045    29.128     8.851
     5   6 C        2.972    -0.011    28.292     8.725
     6   6 C        2.924    -0.042    29.039     8.837
     7   6 C        2.924    -0.071    29.765     8.947
     8   6 C        3.809    -0.069    21.812     6.648
     9   6 C        3.792     0.019    20.266     6.411
    10   6 C        2.768     0.208    23.579     7.953
    11   6 C        2.891    -0.070    29.751     8.943
    12   6 C        2.899     0.003    27.957     8.669
    13   6 C        3.807    -0.063    21.712     6.633
    14   6 C        3.802    -0.050    21.469     6.597
    15   6 C        3.753    -0.107    22.607     6.780
    16   8 O        0.857    -0.388    21.436     6.207
    17   8 O        1.609    -0.604    25.272     6.785
    18   1 H        0.860     0.200     1.105     1.647
    19   1 H        0.860     0.150     1.398     1.852
    20   1 H        0.925     0.017     2.781     2.608
    21   1 H        0.925     0.022     2.709     2.574
    22   1 H        0.926     0.026     2.640     2.541
    23   1 H        0.926     0.046     2.364     2.404
    24   1 H        0.925     0.060     2.202     2.320
    25   1 H        0.924     0.043     2.404     2.424
    26   1 H        0.924     0.056     2.243     2.342
    27   1 H        0.860     0.195     1.134     1.668
    28   1 H        0.860     0.220     1.008     1.573
    29   1 H        0.923     0.037     2.490     2.468
    30   1 H        0.925     0.066     2.127     2.281
    31   1 H        0.925     0.064     2.152     2.294
    32   1 H        0.924     0.073     2.054     2.241
    33   1 H        0.924     0.059     2.214     2.327
    34   1 H        0.924     0.037     2.491     2.468
    35   1 H        0.924     0.038     2.473     2.459
    36   1 H        0.925     0.041     2.430     2.438
    37   1 H        0.925     0.041     2.440     2.443
    38   1 H        0.925     0.043     2.407     2.426
    39   1 H        0.804     0.316     0.674     1.289
    40   1 H        0.806     0.271     0.814     1.417
    41   8 O        1.609    -0.597    25.124     6.765
    42   1 H        0.804     0.317     0.671     1.287
    43   1 H        0.805     0.283     0.773     1.381
    44   7 N        2.688    -0.188    25.082     7.438
    45   6 C        2.753     0.264    22.540     7.774
    46   8 O        0.858    -0.456    22.822     6.405
    47   6 C        3.758    -0.148    23.404     6.897
    48   6 C        2.745     0.282    22.229     7.720
    49   8 O        0.858    -0.459    22.886     6.414
    50   1 H        0.925     0.068     2.106     2.270
    51   1 H        0.925     0.065     2.137     2.286
    52   1 H        0.925     0.067     2.123     2.279
    53   7 N        2.684    -0.180    24.902     7.411
    54   6 C        3.691    -0.041    21.488     6.633
    55   1 H        0.924     0.048     2.348     2.396
    56   1 H        0.924     0.050     2.320     2.382
    57   1 H        0.925     0.078     1.995     2.209

 Mol. C6AA /au·bohr⁶  :      29502.738091
 Mol. C8AA /au·bohr⁸  :     657499.185546
 Mol. α(0) /au        :        262.592329


Wiberg/Mayer (AO) data.
largest (>0.10) Wiberg bond orders for each atom

 ---------------------------------------------------------------------------
     #   Z sym  total        # sym  WBO       # sym  WBO       # sym  WBO
 ---------------------------------------------------------------------------
     1   7 N    3.255 --     2 C    1.175    19 H    0.956    18 H    0.920
     2   6 C    3.973 --     3 C    1.340     7 C    1.333     1 N    1.175
     3   6 C    3.985 --     4 C    1.462     2 C    1.340    20 H    0.969
     4   6 C    3.991 --     3 C    1.462     5 C    1.401    21 H    0.969
                             7 C    0.100
     5   6 C    3.986 --     4 C    1.401     6 C    1.393     8 C    1.011
     6   6 C    3.991 --     7 C    1.470     5 C    1.393    22 H    0.968
     7   6 C    3.987 --     6 C    1.470     2 C    1.333    23 H    0.964
                             4 C    0.100
     8   6 C    3.992 --     5 C    1.011    25 H    0.971    24 H    0.967
                             9 C    0.956
     9   6 C    3.962 --    44 N    0.977    26 H    0.963     8 C    0.956
                            45 C    0.924
    10   6 C    3.918 --    16 O    1.770    11 C    1.131    29 H    0.934
    11   6 C    3.987 --    12 C    1.772    10 C    1.131    30 H    0.954
    12   6 C    3.971 --    11 C    1.772    13 C    1.056    31 H    0.959
                            16 O    0.101
    13   6 C    3.994 --    12 C    1.056    14 C    0.979    33 H    0.972
                            32 H    0.937
    14   6 C    3.990 --    15 C    1.019    13 C    0.979    34 H    0.979
                            35 H    0.978
    15   6 C    3.994 --    14 C    1.019    37 H    0.987    38 H    0.987
                            36 H    0.985
    16   8 O    2.054 --    10 C    1.770    12 C    0.101
    17   8 O    1.836 --    40 H    0.923    39 H    0.853
    18   1 H    0.959 --     1 N    0.920
    19   1 H    0.977 --     1 N    0.956
    20   1 H    0.999 --     3 C    0.969
    21   1 H    0.999 --     4 C    0.969
    22   1 H    0.999 --     6 C    0.968
    23   1 H    0.998 --     7 C    0.964
    24   1 H    0.996 --     8 C    0.967
    25   1 H    0.997 --     8 C    0.971
    26   1 H    0.997 --     9 C    0.963
    27   1 H    0.962 --    44 N    0.922
    28   1 H    0.951 --    53 N    0.878
    29   1 H    0.998 --    10 C    0.934
    30   1 H    0.996 --    11 C    0.954
    31   1 H    0.996 --    12 C    0.959
    32   1 H    0.989 --    13 C    0.937
    33   1 H    0.997 --    13 C    0.972
    34   1 H    0.998 --    14 C    0.979
    35   1 H    0.999 --    14 C    0.978
    36   1 H    0.997 --    15 C    0.985
    37   1 H    0.998 --    15 C    0.987
    38   1 H    0.998 --    15 C    0.987
    39   1 H    0.900 --    17 O    0.853
    40   1 H    0.926 --    17 O    0.923
    41   8 O    1.861 --    43 H    0.917    42 H    0.858
    42   1 H    0.899 --    41 O    0.858
    43   1 H    0.920 --    41 O    0.917
    44   7 N    3.453 --    48 C    1.280     9 C    0.977    27 H    0.922
                            49 O    0.188
    45   6 C    3.958 --    46 O    1.654    53 N    1.311     9 C    0.924
    46   8 O    1.984 --    45 C    1.654    53 N    0.213
    47   6 C    3.992 --    48 C    0.986    50 H    0.980    52 H    0.974
                            51 H    0.962
    48   6 C    3.948 --    49 O    1.630    44 N    1.280    47 C    0.986
    49   8 O    2.002 --    48 C    1.630    44 N    0.188
    50   1 H    0.995 --    47 C    0.980
    51   1 H    0.995 --    47 C    0.962
    52   1 H    0.995 --    47 C    0.974
    53   7 N    3.473 --    45 C    1.311    54 C    1.007    28 H    0.878
                            46 O    0.213
    54   6 C    3.968 --    53 N    1.007    57 H    0.977    56 H    0.977
                            55 H    0.977
    55   1 H    0.998 --    54 C    0.977
    56   1 H    0.997 --    54 C    0.977
    57   1 H    0.994 --    54 C    0.977
 ---------------------------------------------------------------------------

Topologies differ in total number of bonds
Writing topology from bond orders to xtbtopo.mol

molecular dipole:
                 x           y           z       tot (Debye)
 q only:       -1.322       0.658      -0.617
   full:       -1.594       0.363      -0.730       4.552
molecular quadrupole (traceless):
                xx          xy          yy          xz          yz          zz
 q only:      -17.469      -8.724       8.609       2.757      -3.185       8.860
  q+dip:      -20.396     -15.302       9.951       0.090       1.474      10.445
   full:      -21.923     -14.689       8.093       0.323       0.285      13.829

           -------------------------------------------------
          |               Frequency Printout                |
           -------------------------------------------------
 projected vibrational frequencies (cm⁻¹)
eigval :       -0.00    -0.00    -0.00    -0.00     0.00     0.00
eigval :        2.56    10.34    22.58    28.79    32.69    36.07
eigval :       46.02    48.21    55.06    60.04    68.62    72.24
eigval :       79.15    85.77    88.35   104.91   107.00   108.85
eigval :      120.48   122.45   125.77   143.93   159.21   168.35
eigval :      176.38   182.99   190.95   200.83   209.23   230.80
eigval :      233.52   245.47   263.13   293.58   309.83   311.62
eigval :      349.74   365.74   372.09   377.37   386.41   396.77
eigval :      412.10   419.59   433.91   470.93   484.59   506.66
eigval :      518.10   537.55   577.74   586.34   598.04   615.03
eigval :      632.09   647.61   652.81   687.64   706.08   721.13
eigval :      736.11   759.42   785.63   788.72   808.91   852.42
eigval :      865.97   883.79   889.84   904.61   916.18   921.31
eigval :      923.87   936.18   937.43  1000.86  1004.43  1010.25
eigval :     1019.89  1033.79  1035.26  1053.45  1088.61  1089.62
eigval :     1105.19  1105.80  1113.88  1132.23  1142.94  1146.62
eigval :     1163.50  1166.38  1199.02  1207.46  1216.37  1223.79
eigval :     1225.82  1245.50  1258.50  1265.28  1280.69  1291.57
eigval :     1293.83  1305.68  1324.77  1331.71  1345.74  1348.80
eigval :     1376.83  1383.37  1392.49  1417.57  1429.85  1432.92
eigval :     1441.43  1455.98  1457.17  1464.01  1467.11  1467.65
eigval :     1486.36  1487.32  1492.70  1499.70  1502.34  1526.04
eigval :     1542.69  1559.50  1576.04  1623.43  1652.93  1691.93
eigval :     1708.03  1746.46  2848.36  2945.01  2957.03  2969.99
eigval :     2975.30  2988.09  2988.30  2990.77  2997.36  3008.84
eigval :     3019.73  3028.15  3037.07  3041.12  3045.10  3052.52
eigval :     3054.85  3056.37  3061.98  3068.20  3070.78  3077.02
eigval :     3107.43  3228.71  3328.61  3383.58  3390.21  3414.24
eigval :     3494.53  3652.39  3669.40
 reduced masses (amu)
   1: 10.93   2: 11.74   3: 12.65   4: 12.10   5: 12.51   6: 12.34   7: 11.55   8: 11.46
   9: 10.49  10: 12.44  11: 12.76  12: 10.69  13: 10.29  14: 11.35  15: 12.92  16: 12.20
  17: 10.71  18: 10.07  19: 11.32  20: 10.82  21: 10.32  22: 10.57  23: 10.54  24:  5.83
  25:  7.56  26:  5.49  27:  7.85  28:  9.85  29: 10.29  30: 10.53  31: 11.53  32: 11.13
  33:  6.04  34: 10.13  35:  8.32  36: 11.47  37:  3.86  38: 11.26  39:  9.54  40: 10.58
  41:  9.86  42: 10.46  43: 10.36  44: 11.70  45:  9.60  46:  7.68  47:  2.52  48:  6.02
  49:  8.26  50:  7.12  51:  3.64  52: 10.59  53:  8.98  54: 10.32  55:  7.81  56:  8.43
  57: 10.75  58:  7.63  59:  3.35  60: 10.70  61:  3.85  62:  9.77  63: 10.58  64: 10.47
  65:  3.00  66:  6.07  67:  7.62  68:  4.32  69:  9.38  70:  3.00  71:  6.11  72: 10.63
  73:  3.35  74: 10.86  75:  3.54  76:  2.73  77:  6.25  78:  6.49  79:  5.09  80:  9.27
  81:  6.22  82:  5.60  83:  1.97  84:  5.84  85:  8.39  86:  4.46  87:  7.59  88:  4.36
  89:  8.95  90:  9.49  91:  4.76  92:  7.36  93:  7.68  94:  8.11  95:  3.59  96:  7.98
  97:  7.32  98:  5.02  99:  1.74 100:  4.94 101:  4.65 102:  3.59 103:  6.16 104:  4.72
 105:  3.76 106:  4.83 107:  3.50 108:  3.30 109:  3.56 110:  4.49 111:  4.79 112:  8.58
 113: 11.19 114:  4.75 115:  3.30 116:  3.52 117:  2.63 118:  3.13 119:  8.67 120:  9.69
 121:  8.56 122:  1.76 123:  2.05 124:  1.58 125:  2.04 126:  1.76 127:  2.91 128:  4.30
 129:  1.86 130:  1.53 131:  1.62 132:  8.90 133:  2.21 134:  2.10 135: 11.51 136: 11.51
 137: 11.48 138: 13.21 139: 13.05 140: 13.07 141:  1.72 142:  1.77 143:  1.75 144:  1.94
 145:  1.93 146:  1.45 147:  1.52 148:  1.79 149:  1.70 150:  1.70 151:  1.77 152:  1.73
 153:  1.90 154:  1.94 155:  1.32 156:  1.43 157:  1.81 158:  1.78 159:  1.97 160:  1.84
 161:  1.87 162:  1.81 163:  1.84 164:  1.91 165:  1.87 166:  1.83 167:  1.67 168:  1.86
 169:  2.00 170:  1.83 171:  1.84
 IR intensities (km·mol⁻¹)
   1:  0.08   2:  0.05   3:  0.03   4:  0.06   5:  0.15   6:  0.14   7:  1.16   8:  0.99
   9:  0.43  10:  0.43  11:  1.74  12:  0.81  13:  1.04  14:  2.00  15:  2.25  16:  4.24
  17:  1.26  18:  0.27  19:  1.83  20:  1.69  21:  2.36  22:  8.69  23:  4.78  24:  1.82
  25:  1.80  26:  0.05  27: 32.98  28: 14.20  29: 58.64  30:  8.93  31:  7.86  32:  2.06
  33: 60.14  34:  7.01  35: 49.45  36:  5.06  37:  4.89  38: 35.21  39: 20.34  40:  7.44
  41:  7.40  42: 10.79  43:  5.96  44: 12.46  45:  1.79  46:  5.92  47: 50.86  48: 26.60
  49: 18.85  50: 39.96  51:113.40  52:  7.64  53:  6.32  54: 18.83  55: 23.64  56: 79.39
  57:  8.72  58: 18.76  59:193.85  60:  3.04  61:208.46  62: 26.54  63: 35.34  64: 17.75
  65:347.72  66: 70.08  67: 35.95  68:  1.48  69: 24.20  70: 17.45  71: 29.30  72:  3.82
  73:  3.52  74:  0.21  75: 12.01  76:  0.58  77: 15.07  78:  4.62  79:  1.41  80:  7.53
  81:  4.73  82: 30.15  83: 21.83  84:  6.50  85:  1.53  86: 18.07  87:  3.11  88:  4.53
  89:  1.57  90: 35.17  91: 17.28  92: 32.49  93: 30.99  94: 15.48  95:  3.85  96:  7.41
  97: 25.75  98: 42.51  99:  7.76 100:  5.36 101:  9.33 102:  4.54 103: 16.34 104: 15.84
 105:  9.00 106: 23.30 107: 10.11 108:  0.32 109:  1.45 110:  6.56 111: 30.06 112: 48.63
 113: 10.00 114: 15.84 115: 42.23 116: 12.68 117:  4.38 118:  2.07 119:189.94 120:  1.34
 121:265.72 122:  7.24 123:  3.05 124:  9.69 125:  8.05 126:  2.84 127: 43.39 128:  7.82
 129:  0.51 130:  4.22 131:  2.65 132:182.73 133:124.03 134:233.95 135:  2.41 136:135.66
 137:436.22 138:334.81 139:231.93 140:663.50 141: 45.24 142:  4.88 143: 17.35 144: 29.70
 145: 25.90 146: 62.70 147: 13.27 148: 20.82 149: 22.87 150: 12.84 151:  8.77 152: 14.38
 153: 45.23 154: 40.80 155: 28.18 156:  3.78 157:  2.62 158: 25.62 159:  7.31 160: 34.92
 161: 60.97 162: 18.36 163: 12.97 164:351.49 165:474.54 166:624.40 167:134.65 168:114.82
 169: 19.99 170: 11.86 171:  3.47
 Raman intensities (Ä⁴*amu⁻¹)
   1:  0.00   2:  0.00   3:  0.00   4:  0.00   5:  0.00   6:  0.00   7:  0.00   8:  0.00
   9:  0.00  10:  0.00  11:  0.00  12:  0.00  13:  0.00  14:  0.00  15:  0.00  16:  0.00
  17:  0.00  18:  0.00  19:  0.00  20:  0.00  21:  0.00  22:  0.00  23:  0.00  24:  0.00
  25:  0.00  26:  0.00  27:  0.00  28:  0.00  29:  0.00  30:  0.00  31:  0.00  32:  0.00
  33:  0.00  34:  0.00  35:  0.00  36:  0.00  37:  0.00  38:  0.00  39:  0.00  40:  0.00
  41:  0.00  42:  0.00  43:  0.00  44:  0.00  45:  0.00  46:  0.00  47:  0.00  48:  0.00
  49:  0.00  50:  0.00  51:  0.00  52:  0.00  53:  0.00  54:  0.00  55:  0.00  56:  0.00
  57:  0.00  58:  0.00  59:  0.00  60:  0.00  61:  0.00  62:  0.00  63:  0.00  64:  0.00
  65:  0.00  66:  0.00  67:  0.00  68:  0.00  69:  0.00  70:  0.00  71:  0.00  72:  0.00
  73:  0.00  74:  0.00  75:  0.00  76:  0.00  77:  0.00  78:  0.00  79:  0.00  80:  0.00
  81:  0.00  82:  0.00  83:  0.00  84:  0.00  85:  0.00  86:  0.00  87:  0.00  88:  0.00
  89:  0.00  90:  0.00  91:  0.00  92:  0.00  93:  0.00  94:  0.00  95:  0.00  96:  0.00
  97:  0.00  98:  0.00  99:  0.00 100:  0.00 101:  0.00 102:  0.00 103:  0.00 104:  0.00
 105:  0.00 106:  0.00 107:  0.00 108:  0.00 109:  0.00 110:  0.00 111:  0.00 112:  0.00
 113:  0.00 114:  0.00 115:  0.00 116:  0.00 117:  0.00 118:  0.00 119:  0.00 120:  0.00
 121:  0.00 122:  0.00 123:  0.00 124:  0.00 125:  0.00 126:  0.00 127:  0.00 128:  0.00
 129:  0.00 130:  0.00 131:  0.00 132:  0.00 133:  0.00 134:  0.00 135:  0.00 136:  0.00
 137:  0.00 138:  0.00 139:  0.00 140:  0.00 141:  0.00 142:  0.00 143:  0.00 144:  0.00
 145:  0.00 146:  0.00 147:  0.00 148:  0.00 149:  0.00 150:  0.00 151:  0.00 152:  0.00
 153:  0.00 154:  0.00 155:  0.00 156:  0.00 157:  0.00 158:  0.00 159:  0.00 160:  0.00
 161:  0.00 162:  0.00 163:  0.00 164:  0.00 165:  0.00 166:  0.00 167:  0.00 168:  0.00
 169:  0.00 170:  0.00 171:  0.00
 output can be read by thermo (or use thermo option).
 writing <g98.out> molden fake output.
 recommended (thermochemical) frequency scaling factor: 1.0
           -------------------------------------------------
          |             Thermodynamic Functions             |
           -------------------------------------------------

Refinement of some symmetry elements was terminated before convergence was reached.
Some symmetry elements may remain unidentified.
Molecule has no symmetry elements
It seems to be the C1 point group
c1  symmetry found (for desy threshold:  0.10E+00) used in thermo

          ...................................................
          :                      SETUP                      :
          :.................................................:
          :  # frequencies                         165      :
          :  # imaginary freq.                       0      :
          :  linear?                             false      :
          :  only rotor calc.                    false      :
          :  symmetry                               c1      :
          :  rotational number                       1      :
          :  scaling factor                  1.0000000      :
          :  rotor cutoff                   50.0000000 cm⁻¹ :
          :  imag. cutoff                  -20.0000000 cm⁻¹ :
          :.................................................:

    mode    ω/cm⁻¹     T·S(HO)/kcal·mol⁻¹    T·S(FR)/kcal·mol⁻¹   T·S(vib)
   ------------------------------------------------------------------------
       1      2.56    -3.19658 (  0.00%)    -1.93686 (100.00%)    -1.93687
       2     10.34    -2.36849 (  0.18%)    -1.52320 ( 99.82%)    -1.52474
       3     22.58    -1.90604 (  4.00%)    -1.29193 ( 96.00%)    -1.31647
       4     28.79    -1.76249 (  9.90%)    -1.22008 ( 90.10%)    -1.27376
       5     32.69    -1.68724 ( 15.45%)    -1.18239 ( 84.55%)    -1.26039
       6     36.07    -1.62909 ( 21.31%)    -1.15325 ( 78.69%)    -1.25466
       7     46.02    -1.48520 ( 41.79%)    -1.08108 ( 58.21%)    -1.24994
       8     48.21    -1.45777 ( 46.37%)    -1.06731 ( 53.63%)    -1.24835
       9     55.06    -1.37946 ( 59.53%)    -1.02795 ( 40.47%)    -1.23720
      10     60.04    -1.32847 ( 67.53%)    -1.00229 ( 32.47%)    -1.22256
      11     68.62    -1.24999 ( 78.01%)    -0.96274 ( 21.99%)    -1.18683
      12     72.24    -1.21982 ( 81.34%)    -0.94751 ( 18.66%)    -1.16900
      13     79.15    -1.16633 ( 86.26%)    -0.92047 ( 13.74%)    -1.13255
      14     85.77    -1.11936 ( 89.65%)    -0.89668 ( 10.35%)    -1.09631
      15     88.35    -1.10201 ( 90.70%)    -0.88788 (  9.30%)    -1.08210
      16    104.91    -1.00209 ( 95.09%)    -0.83701 (  4.91%)    -0.99399
      17    107.00    -0.99063 ( 95.45%)    -0.83115 (  4.55%)    -0.98338
      18    108.85    -0.98073 ( 95.74%)    -0.82609 (  4.26%)    -0.97414
      19    120.48    -0.92206 ( 97.12%)    -0.79600 (  2.88%)    -0.91843
      20    122.45    -0.91273 ( 97.30%)    -0.79120 (  2.70%)    -0.90945
      21    125.77    -0.89735 ( 97.56%)    -0.78328 (  2.44%)    -0.89457
      22    143.93    -0.82019 ( 98.56%)    -0.74332 (  1.44%)    -0.81908
      23    159.21    -0.76300 ( 99.04%)    -0.71343 (  0.96%)    -0.76252
      24    168.35    -0.73161 ( 99.23%)    -0.69690 (  0.77%)    -0.73134
      25    176.38    -0.70553 ( 99.36%)    -0.68309 (  0.64%)    -0.70538
      26    182.99    -0.68506 ( 99.45%)    -0.67220 (  0.55%)    -0.68499
      27    190.95    -0.66148 ( 99.53%)    -0.65959 (  0.47%)    -0.66147
      28    200.83    -0.63370 ( 99.62%)    -0.64463 (  0.38%)    -0.63374
      29    209.23    -0.61132 ( 99.67%)    -0.63250 (  0.33%)    -0.61139
      30    230.80    -0.55836 ( 99.78%)    -0.60344 (  0.22%)    -0.55845
      31    233.52    -0.55208 ( 99.79%)    -0.59996 (  0.21%)    -0.55218
      32    245.47    -0.52559 ( 99.83%)    -0.58517 (  0.17%)    -0.52570
      33    263.13    -0.48924 ( 99.87%)    -0.56460 (  0.13%)    -0.48933
      34    293.58    -0.43328 ( 99.92%)    -0.53216 (  0.08%)    -0.43337
   ------------------------------------------------------------------------

   temp. (K)  partition function   enthalpy   heat capacity  entropy
                                   cal/mol     cal/K/mol   cal/K/mol   J/K/mol
 298.15  VIB  0.168E+19            20047.835    107.210    134.208
         ROT  0.157E+08              888.752      2.981     35.907
         INT  0.264E+26            20936.587    110.191    170.115
         TR   0.687E+28             1481.254      4.968     43.594
         TOT                       22417.8411   115.1595   213.7087   894.1572

       T/K    H(0)-H(T)+PV         H(T)/Eh          T*S/Eh         G(T)/Eh
   ------------------------------------------------------------------------
    298.15    0.357251E-01    0.503028E+00    0.101540E+00    0.401488E+00
   ------------------------------------------------------------------------

         :::::::::::::::::::::::::::::::::::::::::::::::::::::
         ::                  THERMODYNAMIC                  ::
         :::::::::::::::::::::::::::::::::::::::::::::::::::::
         :: total free energy         -83.039330999332 Eh   ::
         ::.................................................::
         :: total energy              -83.440819384224 Eh   ::
         :: zero point energy           0.467303182324 Eh   ::
         :: G(RRHO) w/o ZPVE           -0.065814797432 Eh   ::
         :: G(RRHO) contrib.            0.401488384892 Eh   ::
         :::::::::::::::::::::::::::::::::::::::::::::::::::::

           -------------------------------------------------
          | TOTAL ENERGY              -83.440819384224 Eh   |
          | TOTAL ENTHALPY            -82.937791098179 Eh   |
          | TOTAL FREE ENERGY         -83.039330999332 Eh   |
          | GRADIENT NORM               0.000157895961 Eh/α |
          | HOMO-LUMO GAP               1.051444063476 eV   |
           -------------------------------------------------

------------------------------------------------------------------------
 * finished run on 2026/08/31 at 13:15:17.920     
------------------------------------------------------------------------
 total:
 * wall-time:     0 d,  0 h,  0 min, 39.857 sec
 *  cpu-time:     0 d,  0 h,  0 min, 36.766 sec
 * ratio c/w:     0.922 speedup
 SCF:
 * wall-time:     0 d,  0 h,  0 min,  0.154 sec
 *  cpu-time:     0 d,  0 h,  0 min,  0.125 sec
 * ratio c/w:     0.812 speedup
 analytical hessian:
 * wall-time:     0 d,  0 h,  0 min, 39.559 sec
 *  cpu-time:     0 d,  0 h,  0 min, 36.578 sec
 * ratio c/w:     0.925 speedup



================ STDERR ================

normal termination of xtb
