      -----------------------------------------------------------      
     |                   =====================                   |     
     |                           x T B                           |     
     |                   =====================                   |     
     |                         S. Grimme                         |     
     |          Mulliken Center for Theoretical Chemistry        |     
     |                    University of Bonn                     |     
      -----------------------------------------------------------      

   * xtb version 6.7.1pre (5071a88) compiled by 'Marcel@Raven' on 2024-07-23

   xtb is free software: you can redistribute it and/or modify it under
   the terms of the GNU Lesser General Public License as published by
   the Free Software Foundation, either version 3 of the License, or
   (at your option) any later version.
   
   xtb is distributed in the hope that it will be useful,
   but WITHOUT ANY WARRANTY; without even the implied warranty of
   MERCHANTABILITY or FITNESS FOR A PARTICULAR PURPOSE.  See the
   GNU Lesser General Public License for more details.
   
   Cite this work as:
   * C. Bannwarth, E. Caldeweyher, S. Ehlert, A. Hansen, P. Pracht,
     J. Seibert, S. Spicher, S. Grimme, WIREs Comput. Mol. Sci., 2020, 11,
     e01493. DOI: 10.1002/wcms.1493
   
   for GFN2-xTB:
   * C. Bannwarth, S. Ehlert and S. Grimme., J. Chem. Theory Comput., 2019,
     15, 1652-1671. DOI: 10.1021/acs.jctc.8b01176
   for GFN1-xTB:
   * S. Grimme, C. Bannwarth, P. Shushkov, J. Chem. Theory Comput., 2017,
     13, 1989-2009. DOI: 10.1021/acs.jctc.7b00118
   for GFN0-xTB:
   * P. Pracht, E. Caldeweyher, S. Ehlert, S. Grimme, ChemRxiv, 2019, preprint.
     DOI: 10.26434/chemrxiv.8326202.v1
   for GFN-FF:
   * S. Spicher and S. Grimme, Angew. Chem. Int. Ed., 2020, 59, 15665-15673.
     DOI: 10.1002/anie.202004239
   
   for ALPB and GBSA implicit solvation:
   * S. Ehlert, M. Stahn, S. Spicher, S. Grimme, J. Chem. Theory Comput.,
     2021, 17, 4250-4261. DOI: 10.1021/acs.jctc.1c00471
   
   for ddCOSMO and CPCM-X implicit solvation:
   * M. Stahn, S. Ehlert, S. Grimme, J. Phys. Chem. A,
     2023, XX, XXXX-XXXX. DOI: 10.1021/acs.jpca.3c04382
   
   for DFT-D4:
   * E. Caldeweyher, C. Bannwarth and S. Grimme, J. Chem. Phys., 2017,
     147, 034112. DOI: 10.1063/1.4993215
   * E. Caldeweyher, S. Ehlert, A. Hansen, H. Neugebauer, S. Spicher,
     C. Bannwarth and S. Grimme, J. Chem. Phys., 2019, 150, 154122.
     DOI: 10.1063/1.5090222
   * E. Caldeweyher, J.-M. Mewes, S. Ehlert and S. Grimme, Phys. Chem. Chem. Phys.
     2020, 22, 8499-8512. DOI: 10.1039/D0CP00502A
   
   for sTDA-xTB:
   * S. Grimme and C. Bannwarth, J. Chem. Phys., 2016, 145, 054103.
     DOI: 10.1063/1.4959605
   
   in the mass-spec context:
   * V. Asgeirsson, C. Bauer and S. Grimme, Chem. Sci., 2017, 8, 4879.
     DOI: 10.1039/c7sc00601b
   * J. Koopman and S. Grimme, ACS Omega 2019, 4, 12, 15120-15133.
     DOI: 10.1021/acsomega.9b02011
   
   for metadynamics refer to:
   * S. Grimme, J. Chem. Theory Comput., 2019, 155, 2847-2862
     DOI: 10.1021/acs.jctc.9b00143
   
   for SPH calculations refer to:
   * S. Spicher and S. Grimme, J. Chem. Theory Comput., 2021, 17, 1701-1714
     DOI: 10.1021/acs.jctc.0c01306
   
   for ONIOM refer to:
   * C. Plett, A. Katbashev, S. Ehlert, S. Grimme, M. Bursch,
     Phys. Chem. Chem. Phys., 2023, 25, 17860-17868. DOI: 10.1039/D3CP02178E
   
   for DIPRO refer to:
   * J. Kohn, N. Gildemeister, S. Grimme, D. Fazzi, A. Hansen,
     J. Chem. Phys., 2023, just accepted.
   
   for PTB refer to:
   * S. Grimme, M. Mueller, A. Hansen, J. Chem. Phys., 2023, 158, 124111.
     DOI: 10.1063/5.0137838
   
   with help from (in alphabetical order)
   P. Atkinson, C. Bannwarth, F. Bohle, G. Brandenburg, E. Caldeweyher
   M. Checinski, S. Dohm, S. Ehlert, S. Ehrlich, I. Gerasimov, C. Hölzer
   A. Katbashev, J. Kohn, J. Koopman, C. Lavigne, S. Lehtola, F. März, M. Müller,
   F. Musil, H. Neugebauer, J. Pisarek, C. Plett, P. Pracht, F. Pultar,
   J. Seibert, P. Shushkov, S. Spicher, M. Stahn, M. Steiner, T. Strunk,
   J. Stückrath, T. Rose, and J. Unsleber
   
 * started run on 2026/08/20 at 18:17:16.906     
   ID    Z sym.   atoms
    1    7 N      1, 44, 53
    2    6 C      2-15, 45, 47, 48, 54
    3    8 O      16, 17, 41, 46, 49
    4    1 H      18-40, 42, 43, 50-52, 55-57

           -------------------------------------------------
          |                Calculation Setup                |
           -------------------------------------------------

          program call               : C:\Users\Nayanika\Downloads\xtb-6.7.1pre-windows-x86_64\xtb-6.7.1\bin\xtb.exe D:\PhD_Thesis\LmrR_EVB\charges\fast_lmrr_5QM\xtb_preparation\RS1_1_to_TS1_2\RS1_1_to_TS1_2_PS_xtbopt.xyz --gfn 2 --chrg 0 --uhf 0 --etemp 0
          coordinate file            : D:\PhD_Thesis\LmrR_EVB\charges\fast_lmrr_5QM\xtb_preparation\RS1_1_to_TS1_2\RS1_1_to_TS1_2_PS_xtbopt.xyz
          omp threads                :                     1


molecular fragmentation (1/2 indicates fragments):
111111111222222221111111111122222222222222211111111111111
# atoms in fragment 1/2:    34    23
 fragment masses (1/2) :      235.28      134.17
CMA distance (Bohr)    :   9.621
constraining FC (au)   :  0.0500

           -------------------------------------------------
          |                 G F N 2 - x T B                 |
           -------------------------------------------------

        Reference                      10.1021/acs.jctc.8b01176
      * Hamiltonian:
        H0-scaling (s, p, d)           1.850000    2.230000    2.230000
        zeta-weighting                 0.500000
      * Dispersion:
        s8                             2.700000
        a1                             0.520000
        a2                             5.000000
        s9                             5.000000
      * Repulsion:
        kExp                           1.500000    1.000000
        rExp                           1.000000
      * Coulomb:
        alpha                          2.000000
        third order                    shell-resolved
        anisotropic                    true
        a3                             3.000000
        a5                             4.000000
        cn-shift                       1.200000
        cn-exp                         4.000000
        max-rad                        5.000000

q/qsh data taken from xtbrestart
CAMM data taken from xtbrestart

          ...................................................
          :                      SETUP                      :
          :.................................................:
          :  # basis functions                 135          :
          :  # atomic orbitals                 135          :
          :  # shells                           83          :
          :  # electrons                       148          :
          :  max. iterations                   250          :
          :  Hamiltonian                  GFN2-xTB          :
          :  restarted?                       true          :
          :  GBSA solvation                  false          :
          :  PC potential                    false          :
          :  electronic temp.            0.0000000     K    :
          :  accuracy                    1.0000000          :
          :  -> integral cutoff          0.2500000E+02      :
          :  -> integral neglect         0.1000000E-07      :
          :  -> SCF convergence          0.1000000E-05 Eh   :
          :  -> wf. convergence          0.1000000E-03 e    :
          :  Broyden damping             0.4000000          :
          :  net charge                          0          :
          :  unpaired electrons                  0          :
          ...................................................

 iter      E             dE          RMSdq      gap      omega  full diag
   1    -84.5406281 -0.845406E+02  0.301E-06    2.21       0.0  T
   2    -84.5406281 -0.284217E-13  0.188E-06    2.21    7046.8  T
   3    -84.5406281 -0.227374E-12  0.123E-06    2.21   10801.1  T

   *** convergence criteria satisfied after 3 iterations ***

         #    Occupation            Energy/Eh            Energy/eV
      -------------------------------------------------------------
         1        2.0000           -0.7129366             -19.4000
       ...           ...                  ...                  ...
        68        2.0000           -0.4184332             -11.3861
        69        2.0000           -0.4114189             -11.1953
        70        2.0000           -0.4080393             -11.1033
        71        2.0000           -0.4009325             -10.9099
        72        2.0000           -0.4006842             -10.9032
        73        2.0000           -0.3882130             -10.5638
        74        2.0000           -0.3679089             -10.0113 (HOMO)
        75                         -0.2867666              -7.8033 (LUMO)
        76                         -0.2259239              -6.1477
        77                         -0.2235989              -6.0844
        78                         -0.2164011              -5.8886
        79                         -0.2089964              -5.6871
       ...                                ...                  ...
       135                          0.6569846              17.8775
      -------------------------------------------------------------
                  HL-Gap            0.0811423 Eh            2.2080 eV
             Fermi-level            0.0000000 Eh            0.0000 eV

 SCC (total)                   0 d,  0 h,  0 min,  0.076 sec
 SCC setup                      ...        0 min,  0.001 sec (  1.316%)
 Dispersion                     ...        0 min,  0.001 sec (  1.316%)
 classical contributions        ...        0 min,  0.000 sec (  0.000%)
 integral evaluation            ...        0 min,  0.011 sec ( 14.474%)
 iterations                     ...        0 min,  0.014 sec ( 18.421%)
 molecular gradient             ...        0 min,  0.048 sec ( 63.158%)
 printout                       ...        0 min,  0.001 sec (  1.316%)

         :::::::::::::::::::::::::::::::::::::::::::::::::::::
         ::                     SUMMARY                     ::
         :::::::::::::::::::::::::::::::::::::::::::::::::::::
         :: total energy             -83.437247632136 Eh    ::
         :: gradient norm              0.000168220424 Eh/a0 ::
         :: HOMO-LUMO gap              2.207994446800 eV    ::
         ::.................................................::
         :: SCC energy               -84.538722693315 Eh    ::
         :: -> isotropic ES            0.177427787164 Eh    ::
         :: -> anisotropic ES         -0.001866831351 Eh    ::
         :: -> anisotropic XC          0.029719622617 Eh    ::
         :: -> dispersion             -0.057706937189 Eh    ::
         :: repulsion energy           1.101475061179 Eh    ::
         :: add. restraining           0.000000000000 Eh    ::
         :: total charge               0.000000000000 e     ::
         :::::::::::::::::::::::::::::::::::::::::::::::::::::

           -------------------------------------------------
          |                Property Printout                |
           -------------------------------------------------

    * Orbital Energies and Occupations

         #    Occupation            Energy/Eh            Energy/eV
      -------------------------------------------------------------
         1        2.0000           -0.7129366             -19.4000
       ...           ...                  ...                  ...
        62        2.0000           -0.4405323             -11.9875
        63        2.0000           -0.4378429             -11.9143
        64        2.0000           -0.4347923             -11.8313
        65        2.0000           -0.4288441             -11.6694
        66        2.0000           -0.4258305             -11.5874
        67        2.0000           -0.4225809             -11.4990
        68        2.0000           -0.4184332             -11.3861
        69        2.0000           -0.4114189             -11.1953
        70        2.0000           -0.4080393             -11.1033
        71        2.0000           -0.4009325             -10.9099
        72        2.0000           -0.4006842             -10.9032
        73        2.0000           -0.3882130             -10.5638
        74        2.0000           -0.3679089             -10.0113 (HOMO)
        75                         -0.2867666              -7.8033 (LUMO)
        76                         -0.2259239              -6.1477
        77                         -0.2235989              -6.0844
        78                         -0.2164011              -5.8886
        79                         -0.2089964              -5.6871
        80                         -0.1716863              -4.6718
        81                         -0.0939414              -2.5563
        82                         -0.0025275              -0.0688
        83                          0.0060061               0.1634
        84                          0.0174361               0.4745
        85                          0.0730612               1.9881
       ...                                ...                  ...
       135                          0.6569846              17.8775
      -------------------------------------------------------------
                  HL-Gap            0.0811423 Eh            2.2080 eV
             Fermi-level            0.0000000 Eh            0.0000 eV

     #   Z          covCN         q      C6AA      α(0)
     1   7 N        2.650    -0.267    26.916     7.705
     2   6 C        2.900     0.076    26.311     8.410
     3   6 C        2.923    -0.059    29.470     8.902
     4   6 C        2.924    -0.038    28.950     8.824
     5   6 C        2.971    -0.004    28.131     8.700
     6   6 C        2.924    -0.043    29.069     8.842
     7   6 C        2.922    -0.062    29.544     8.914
     8   6 C        3.811    -0.070    21.823     6.649
     9   6 C        3.797     0.020    20.245     6.407
    10   6 C        2.774     0.209    23.566     7.951
    11   6 C        2.890    -0.065    29.610     8.921
    12   6 C        2.896    -0.002    28.081     8.688
    13   6 C        3.808    -0.061    21.674     6.627
    14   6 C        3.802    -0.046    21.388     6.584
    15   6 C        3.753    -0.111    22.677     6.791
    16   8 O        0.856    -0.428    22.253     6.325
    17   8 O        1.610    -0.600    25.195     6.775
    18   1 H        0.860     0.199     1.111     1.651
    19   1 H        0.860     0.195     1.130     1.665
    20   1 H        0.926     0.032     2.556     2.500
    21   1 H        0.926     0.032     2.562     2.503
    22   1 H        0.925     0.026     2.645     2.543
    23   1 H        0.926     0.030     2.582     2.513
    24   1 H        0.924     0.061     2.188     2.313
    25   1 H        0.924     0.059     2.214     2.327
    26   1 H        0.924     0.062     2.175     2.306
    27   1 H        0.860     0.182     1.205     1.720
    28   1 H        0.860     0.204     1.087     1.633
    29   1 H        0.923     0.015     2.808     2.621
    30   1 H        0.926     0.037     2.484     2.465
    31   1 H        0.925     0.062     2.171     2.304
    32   1 H        0.924     0.054     2.276     2.359
    33   1 H        0.924     0.048     2.345     2.395
    34   1 H        0.924     0.031     2.573     2.509
    35   1 H        0.924     0.032     2.556     2.500
    36   1 H        0.925     0.035     2.512     2.478
    37   1 H        0.925     0.034     2.534     2.489
    38   1 H        0.925     0.063     2.167     2.302
    39   1 H        0.805     0.294     0.740     1.351
    40   1 H        0.805     0.297     0.730     1.342
    41   8 O        1.609    -0.607    25.366     6.798
    42   1 H        0.806     0.277     0.794     1.400
    43   1 H        0.804     0.320     0.663     1.279
    44   7 N        2.692    -0.181    24.921     7.414
    45   6 C        2.753     0.264    22.556     7.777
    46   8 O        0.858    -0.433    22.359     6.340
    47   6 C        3.757    -0.141    23.277     6.879
    48   6 C        2.749     0.277    22.313     7.735
    49   8 O        0.859    -0.462    22.961     6.425
    50   1 H        0.925     0.052     2.293     2.368
    51   1 H        0.925     0.063     2.160     2.299
    52   1 H        0.925     0.074     2.038     2.232
    53   7 N        2.686    -0.176    24.821     7.399
    54   6 C        3.690    -0.043    21.531     6.640
    55   1 H        0.924     0.053     2.285     2.364
    56   1 H        0.924     0.049     2.326     2.385
    57   1 H        0.925     0.083     1.949     2.183

 Mol. C6AA /au·bohr⁶  :      29533.124831
 Mol. C8AA /au·bohr⁸  :     657675.951396
 Mol. α(0) /au        :        262.721327


Wiberg/Mayer (AO) data.
largest (>0.10) Wiberg bond orders for each atom

 ---------------------------------------------------------------------------
     #   Z sym  total        # sym  WBO       # sym  WBO       # sym  WBO
 ---------------------------------------------------------------------------
     1   7 N    3.364 --     2 C    1.153    19 H    0.932    18 H    0.931
                            10 C    0.108
     2   6 C    3.971 --     7 C    1.351     3 C    1.340     1 N    1.153
     3   6 C    3.989 --     4 C    1.472     2 C    1.340    20 H    0.968
                             6 C    0.101
     4   6 C    3.992 --     3 C    1.472     5 C    1.395    21 H    0.969
                             7 C    0.102
     5   6 C    3.982 --     6 C    1.405     4 C    1.395     8 C    1.009
     6   6 C    3.991 --     7 C    1.458     5 C    1.405    22 H    0.968
                             3 C    0.101
     7   6 C    3.987 --     6 C    1.458     2 C    1.351    23 H    0.969
                             4 C    0.102
     8   6 C    3.990 --     5 C    1.009     9 C    0.981    24 H    0.970
                            25 H    0.965
     9   6 C    3.961 --     8 C    0.981    44 N    0.973    26 H    0.952
                            45 C    0.914
    10   6 C    3.930 --    16 O    1.701    11 C    1.094    29 H    0.939
                             1 N    0.108
    11   6 C    3.989 --    12 C    1.809    10 C    1.094    30 H    0.964
    12   6 C    3.979 --    11 C    1.809    13 C    1.046    31 H    0.962
    13   6 C    3.996 --    12 C    1.046    14 C    0.976    33 H    0.972
                            32 H    0.956
    14   6 C    3.994 --    15 C    1.018    34 H    0.980    35 H    0.979
                            13 C    0.976
    15   6 C    3.993 --    14 C    1.018    37 H    0.988    36 H    0.986
                            38 H    0.981
    16   8 O    2.013 --    10 C    1.701
    17   8 O    1.832 --    39 H    0.900    40 H    0.896
    18   1 H    0.960 --     1 N    0.931
    19   1 H    0.961 --     1 N    0.932
    20   1 H    0.999 --     3 C    0.968
    21   1 H    0.999 --     4 C    0.969
    22   1 H    0.999 --     6 C    0.968
    23   1 H    0.999 --     7 C    0.969
    24   1 H    0.996 --     8 C    0.970
    25   1 H    0.995 --     8 C    0.965
    26   1 H    0.996 --     9 C    0.952
    27   1 H    0.967 --    44 N    0.934
    28   1 H    0.958 --    53 N    0.909
    29   1 H    0.999 --    10 C    0.939
    30   1 H    0.999 --    11 C    0.964
    31   1 H    0.996 --    12 C    0.962
    32   1 H    0.997 --    13 C    0.956
    33   1 H    0.998 --    13 C    0.972
    34   1 H    0.999 --    14 C    0.980
    35   1 H    0.999 --    14 C    0.979
    36   1 H    0.997 --    15 C    0.986
    37   1 H    0.999 --    15 C    0.988
    38   1 H    0.996 --    15 C    0.981
    39   1 H    0.914 --    17 O    0.900
    40   1 H    0.912 --    17 O    0.896
    41   8 O    1.830 --    42 H    0.919    43 H    0.854
    42   1 H    0.923 --    41 O    0.919
    43   1 H    0.897 --    41 O    0.854
    44   7 N    3.458 --    48 C    1.278     9 C    0.973    27 H    0.934
                            49 O    0.192
    45   6 C    3.956 --    46 O    1.681    53 N    1.289     9 C    0.914
    46   8 O    2.013 --    45 C    1.681    53 N    0.212
    47   6 C    3.993 --    48 C    0.984    52 H    0.981    50 H    0.975
                            51 H    0.965
    48   6 C    3.950 --    49 O    1.636    44 N    1.278    47 C    0.984
    49   8 O    1.984 --    48 C    1.636    44 N    0.192
    50   1 H    0.997 --    47 C    0.975
    51   1 H    0.996 --    47 C    0.965
    52   1 H    0.994 --    47 C    0.981
    53   7 N    3.465 --    45 C    1.289    54 C    1.005    28 H    0.909
                            46 O    0.212
    54   6 C    3.965 --    53 N    1.005    55 H    0.977    57 H    0.977
                            56 H    0.976
    55   1 H    0.997 --    54 C    0.977
    56   1 H    0.997 --    54 C    0.976
    57   1 H    0.993 --    54 C    0.977
 ---------------------------------------------------------------------------

Topologies differ in total number of bonds
Writing topology from bond orders to xtbtopo.mol

molecular dipole:
                 x           y           z       tot (Debye)
 q only:        0.160       0.948      -0.450
   full:       -0.246       1.052      -0.666       3.225
molecular quadrupole (traceless):
                xx          xy          yy          xz          yz          zz
 q only:      -16.732       3.655       6.375     -12.431       2.350      10.357
  q+dip:      -23.770      -2.651       8.463     -17.176       8.520      15.307
   full:      -24.884      -2.255       6.961     -16.614       5.532      17.923


           -------------------------------------------------
          | TOTAL ENERGY              -83.437247632136 Eh   |
          | GRADIENT NORM               0.000168220424 Eh/α |
          | HOMO-LUMO GAP               2.207994446800 eV   |
           -------------------------------------------------

------------------------------------------------------------------------
 * finished run on 2026/08/20 at 18:17:17.068     
------------------------------------------------------------------------
 total:
 * wall-time:     0 d,  0 h,  0 min,  0.156 sec
 *  cpu-time:     0 d,  0 h,  0 min,  0.109 sec
 * ratio c/w:     0.701 speedup
 SCF:
 * wall-time:     0 d,  0 h,  0 min,  0.076 sec
 *  cpu-time:     0 d,  0 h,  0 min,  0.078 sec
 * ratio c/w:     1.028 speedup



================ STDERR ================

normal termination of xtb
