57
 energy: -83.437247632131 gnorm: 0.000168249090 xtb: 6.7.1pre (5071a88)
N           -0.15027729850214       -0.61396815783774        0.67366543249524
C            1.22126228898719       -0.49806194695224        0.75192712667028
C            1.79616176766163        0.56582417074397        1.45022619394331
C            3.15679131423300        0.78050756730306        1.40317138299970
C            3.98923629600802       -0.05468496933512        0.66599162826670
C            3.41953177399676       -1.13360213064676        0.00157151364470
C            2.05755281910039       -1.36047985770216        0.04379099630821
C            5.45221601953572        0.25852265611284        0.53285911764019
C            5.64985312835063        1.46890100973799       -0.38363174739339
C           -0.88722615074370        0.54376187730628       -1.25751506731946
C            0.23601701311996        1.46641115222760       -1.18663919556775
C            0.15574207755103        2.68065581228827       -0.63795733231578
C            1.28579014959095        3.63904623519661       -0.55183075292148
C            1.06846181148516        4.84265783480173       -1.48000427565131
C            2.26209675802423        5.78703661249025       -1.43366914641411
O           -2.03374780555715        0.78730817824745       -0.90122346532129
O           -2.79218774627352       -1.74307920757890        0.34614967319258
H           -0.67852685719489       -0.11131472311313        1.37463643121910
H           -0.54315222202776       -1.52221521457549        0.46268339039625
H            1.15743631282492        1.22497429952514        2.01920224809939
H            3.58337900040874        1.61249049112287        1.94457972609937
H            4.05104236773583       -1.81298190937473       -0.55513372673792
H            1.62826396513754       -2.20064632150031       -0.48282265079278
H            5.99991660861769       -0.58806853912572        0.11543341572697
H            5.89229711117872        0.49231095783937        1.50328521646249
H            5.22210169039748        2.37136322441421        0.07008928378024
H            4.80569711657446        0.29931373230909       -1.92079438371149
H            6.55460981415934        3.50296089138599       -1.46084324552498
H           -0.67737033584863       -0.38047771222168       -1.82147592114627
H            1.17428015869639        1.10687841099186       -1.58294116761582
H           -0.79874030590163        3.01788272035696       -0.25345080418347
H            1.37202884661403        4.00336426598484        0.47498842406877
H            2.22004660666709        3.14458087003833       -0.82129802453709
H            0.92862635156298        4.48012186188395       -2.50059468593283
H            0.15902400334690        5.37166748345430       -1.18612436203044
H            2.11685283930132        6.61731515399782       -2.12066095914001
H            2.39277869566172        6.18917726262093       -0.43129361826873
H            3.16995915821569        5.25829457260702       -1.71402094889239
H           -2.92246139025491       -1.23220319778082        1.15288730643668
H           -2.81731197063386       -1.09030069857912       -0.36344021929367
O           -2.59203450091315        0.82958248078265        1.77448539989594
H           -3.33604756426321        1.36066225848835        2.06240185827432
H           -2.49062179703968        0.99037682817647        0.81968522244193
N            4.94967725183999        1.25618776149943       -1.63933052824333
C            7.14682512664469        1.72836616963802       -0.66161615839455
O            8.01618430578798        0.92251522854643       -0.40391466142334
C            3.68336966366732        1.82533587247537       -3.60133465725272
C            4.46658994915009        2.26331675538777       -2.38655107081981
O            4.66204291231389        3.43476597921049       -2.10188991847243
H            2.98409914734188        1.03248766165661       -3.34753248308178
H            4.37141106598271        1.45466919158694       -4.35909461088713
H            3.14260955531344        2.67562816580391       -4.00669466338324
N            7.35713348002542        2.93046750645716       -1.22079703802165
C            8.66522625615140        3.38132224565978       -1.62760891195996
H            8.90235032710769        4.33376915145611       -1.15130603258085
H            8.71368317650811        3.50411935142598       -2.71149492348342
H            9.38844986258507        2.62918267293084       -1.31617962930938
