57
 energy: -83.440819416023 gnorm: 0.000158068755 xtb: 6.7.1pre (5071a88)
N           -0.25284591039839       -0.12713523264615       -0.95581214858831
C            1.05935725139613        0.08312949850914       -0.60389572601605
C            1.49755417676280        1.32606294828363       -0.14137460384990
C            2.84393445199423        1.57010619346894        0.04123977253514
C            3.79256030034189        0.58433107509652       -0.19922937937291
C            3.35002064222777       -0.67249028857467       -0.59589570564896
C            2.00999216996616       -0.92177049407714       -0.79930096540116
C            5.26003238818191        0.89229881070372       -0.13483305037486
C            5.74843530450681        1.27664183189643       -1.54965367708143
C            2.25946010953095        0.51095991848210       -3.64520038104732
C            2.71116661359622        1.87386892424543       -3.51201438976320
C            1.93609700876098        2.83285847225692       -2.99303276950284
C            2.36813481069274        4.22974252599961       -2.75535683909985
C            1.41047316034999        5.24182654447563       -3.39746436509302
C            1.84802104926213        6.67215444976491       -3.11162359349048
O            2.97492519096033       -0.42624121267019       -3.95565041527410
O           -0.57931969411098       -2.83613150471757       -2.09641170469630
H           -0.50918063835303       -1.08897020725918       -1.14416500944278
H           -0.94890291731917        0.41740194210260       -0.47358149141814
H            0.77200125670623        2.10201141358069        0.06175884038860
H            3.16823728444395        2.54498448103772        0.37819095543247
H            4.06819284849364       -1.46639045693066       -0.74316532680924
H            1.67326438616441       -1.89950583465298       -1.10607308769023
H            5.82546120628524        0.02936282007315        0.21670485719620
H            5.44828723598989        1.73448188239054        0.53271425473805
H            5.06230031383108        2.03136634037192       -1.94659518019428
H            4.98535512455840        0.18628723623346       -3.17885930952632
H            7.94994452628994        0.19626715353598       -0.94777050285584
H            1.19077132006353        0.35035878537660       -3.43506100851383
H            3.72820318841920        2.08873544424642       -3.81393886692038
H            0.92110683788105        2.58910930312305       -2.70520825835807
H            2.37461896597748        4.40166476787036       -1.67446851636290
H            3.38198952412994        4.38746190336009       -3.12679371696379
H            1.38677309321314        5.07502513740523       -4.47628831892391
H            0.40141809978626        5.08208750621426       -3.01191818379117
H            1.16909534212013        7.37804675112338       -3.58357588800296
H            1.85452705122419        6.86445751436528       -2.04114437165421
H            2.84940276200903        6.84926263628302       -3.49666651640631
H            0.18547198347700       -2.84906899658677       -2.70161977333568
H           -1.29460921012394       -3.26669680510003       -2.56635606589490
O            1.65404394390432       -2.89990105981193       -3.74058949405218
H            2.09864347992327       -2.04413185052809       -3.86897504901974
H            2.32221487209123       -3.50323877882441       -3.40962005887398
N            5.69939016084242        0.14471814317044       -2.46552068685068
C            7.12161280112491        1.97126273237134       -1.48174589410717
O            7.22166823345265        3.15641224215069       -1.74495944566395
C            5.89798870921115       -2.07274901171969       -3.34543505218521
C            6.28346593880141       -1.05615314295554       -2.29491522419286
O            7.08567688785053       -1.31229140455370       -1.40852768134322
H            6.04564282965358       -3.07366446866527       -2.94891600367655
H            6.55234425564680       -1.94814106620838       -4.20682929732162
H            4.86952130866943       -1.93814977972671       -3.66627064018925
N            8.12662678293572        1.19316142872615       -1.07110446997277
C            9.47711927740719        1.67820388683855       -0.93948080190671
H           10.14082200793212        1.16714759594479       -1.63972643544150
H            9.83916901200868        1.51282188719636        0.07663414141842
H            9.47532088929479        2.74573946753147       -1.15562747942387
