      -----------------------------------------------------------      
     |                   =====================                   |     
     |                           x T B                           |     
     |                   =====================                   |     
     |                         S. Grimme                         |     
     |          Mulliken Center for Theoretical Chemistry        |     
     |                    University of Bonn                     |     
      -----------------------------------------------------------      

   * xtb version 6.7.1pre (5071a88) compiled by 'Marcel@Raven' on 2024-07-23

   xtb is free software: you can redistribute it and/or modify it under
   the terms of the GNU Lesser General Public License as published by
   the Free Software Foundation, either version 3 of the License, or
   (at your option) any later version.
   
   xtb is distributed in the hope that it will be useful,
   but WITHOUT ANY WARRANTY; without even the implied warranty of
   MERCHANTABILITY or FITNESS FOR A PARTICULAR PURPOSE.  See the
   GNU Lesser General Public License for more details.
   
   Cite this work as:
   * C. Bannwarth, E. Caldeweyher, S. Ehlert, A. Hansen, P. Pracht,
     J. Seibert, S. Spicher, S. Grimme, WIREs Comput. Mol. Sci., 2020, 11,
     e01493. DOI: 10.1002/wcms.1493
   
   for GFN2-xTB:
   * C. Bannwarth, S. Ehlert and S. Grimme., J. Chem. Theory Comput., 2019,
     15, 1652-1671. DOI: 10.1021/acs.jctc.8b01176
   for GFN1-xTB:
   * S. Grimme, C. Bannwarth, P. Shushkov, J. Chem. Theory Comput., 2017,
     13, 1989-2009. DOI: 10.1021/acs.jctc.7b00118
   for GFN0-xTB:
   * P. Pracht, E. Caldeweyher, S. Ehlert, S. Grimme, ChemRxiv, 2019, preprint.
     DOI: 10.26434/chemrxiv.8326202.v1
   for GFN-FF:
   * S. Spicher and S. Grimme, Angew. Chem. Int. Ed., 2020, 59, 15665-15673.
     DOI: 10.1002/anie.202004239
   
   for ALPB and GBSA implicit solvation:
   * S. Ehlert, M. Stahn, S. Spicher, S. Grimme, J. Chem. Theory Comput.,
     2021, 17, 4250-4261. DOI: 10.1021/acs.jctc.1c00471
   
   for ddCOSMO and CPCM-X implicit solvation:
   * M. Stahn, S. Ehlert, S. Grimme, J. Phys. Chem. A,
     2023, XX, XXXX-XXXX. DOI: 10.1021/acs.jpca.3c04382
   
   for DFT-D4:
   * E. Caldeweyher, C. Bannwarth and S. Grimme, J. Chem. Phys., 2017,
     147, 034112. DOI: 10.1063/1.4993215
   * E. Caldeweyher, S. Ehlert, A. Hansen, H. Neugebauer, S. Spicher,
     C. Bannwarth and S. Grimme, J. Chem. Phys., 2019, 150, 154122.
     DOI: 10.1063/1.5090222
   * E. Caldeweyher, J.-M. Mewes, S. Ehlert and S. Grimme, Phys. Chem. Chem. Phys.
     2020, 22, 8499-8512. DOI: 10.1039/D0CP00502A
   
   for sTDA-xTB:
   * S. Grimme and C. Bannwarth, J. Chem. Phys., 2016, 145, 054103.
     DOI: 10.1063/1.4959605
   
   in the mass-spec context:
   * V. Asgeirsson, C. Bauer and S. Grimme, Chem. Sci., 2017, 8, 4879.
     DOI: 10.1039/c7sc00601b
   * J. Koopman and S. Grimme, ACS Omega 2019, 4, 12, 15120-15133.
     DOI: 10.1021/acsomega.9b02011
   
   for metadynamics refer to:
   * S. Grimme, J. Chem. Theory Comput., 2019, 155, 2847-2862
     DOI: 10.1021/acs.jctc.9b00143
   
   for SPH calculations refer to:
   * S. Spicher and S. Grimme, J. Chem. Theory Comput., 2021, 17, 1701-1714
     DOI: 10.1021/acs.jctc.0c01306
   
   for ONIOM refer to:
   * C. Plett, A. Katbashev, S. Ehlert, S. Grimme, M. Bursch,
     Phys. Chem. Chem. Phys., 2023, 25, 17860-17868. DOI: 10.1039/D3CP02178E
   
   for DIPRO refer to:
   * J. Kohn, N. Gildemeister, S. Grimme, D. Fazzi, A. Hansen,
     J. Chem. Phys., 2023, just accepted.
   
   for PTB refer to:
   * S. Grimme, M. Mueller, A. Hansen, J. Chem. Phys., 2023, 158, 124111.
     DOI: 10.1063/5.0137838
   
   with help from (in alphabetical order)
   P. Atkinson, C. Bannwarth, F. Bohle, G. Brandenburg, E. Caldeweyher
   M. Checinski, S. Dohm, S. Ehlert, S. Ehrlich, I. Gerasimov, C. Hölzer
   A. Katbashev, J. Kohn, J. Koopman, C. Lavigne, S. Lehtola, F. März, M. Müller,
   F. Musil, H. Neugebauer, J. Pisarek, C. Plett, P. Pracht, F. Pultar,
   J. Seibert, P. Shushkov, S. Spicher, M. Stahn, M. Steiner, T. Strunk,
   J. Stückrath, T. Rose, and J. Unsleber
   
 * started run on 2026/08/20 at 18:17:17.117     
   ID    Z sym.   atoms
    1    7 N      1, 44, 53
    2    6 C      2-15, 45, 47, 48, 54
    3    8 O      16, 17, 41, 46, 49
    4    1 H      18-40, 42, 43, 50-52, 55-57

           -------------------------------------------------
          |                Calculation Setup                |
           -------------------------------------------------

          program call               : C:\Users\Nayanika\Downloads\xtb-6.7.1pre-windows-x86_64\xtb-6.7.1\bin\xtb.exe D:\PhD_Thesis\LmrR_EVB\charges\fast_lmrr_5QM\xtb_preparation\RS1_1_to_TS1_2\RS1_1_to_TS1_2_PS_xtbopt.xyz --gfn 2 --chrg 0 --uhf 0 --hess --etemp 0
          coordinate file            : D:\PhD_Thesis\LmrR_EVB\charges\fast_lmrr_5QM\xtb_preparation\RS1_1_to_TS1_2\RS1_1_to_TS1_2_PS_xtbopt.xyz
          omp threads                :                     1


molecular fragmentation (1/2 indicates fragments):
111111111222222221111111111122222222222222211111111111111
# atoms in fragment 1/2:    34    23
 fragment masses (1/2) :      235.28      134.17
CMA distance (Bohr)    :   9.621
constraining FC (au)   :  0.0500

           -------------------------------------------------
          |                 G F N 2 - x T B                 |
           -------------------------------------------------

        Reference                      10.1021/acs.jctc.8b01176
      * Hamiltonian:
        H0-scaling (s, p, d)           1.850000    2.230000    2.230000
        zeta-weighting                 0.500000
      * Dispersion:
        s8                             2.700000
        a1                             0.520000
        a2                             5.000000
        s9                             5.000000
      * Repulsion:
        kExp                           1.500000    1.000000
        rExp                           1.000000
      * Coulomb:
        alpha                          2.000000
        third order                    shell-resolved
        anisotropic                    true
        a3                             3.000000
        a5                             4.000000
        cn-shift                       1.200000
        cn-exp                         4.000000
        max-rad                        5.000000

q/qsh data taken from xtbrestart
CAMM data taken from xtbrestart

          ...................................................
          :                      SETUP                      :
          :.................................................:
          :  # basis functions                 135          :
          :  # atomic orbitals                 135          :
          :  # shells                           83          :
          :  # electrons                       148          :
          :  max. iterations                   250          :
          :  Hamiltonian                  GFN2-xTB          :
          :  restarted?                       true          :
          :  GBSA solvation                  false          :
          :  PC potential                    false          :
          :  electronic temp.            0.0000000     K    :
          :  accuracy                    1.0000000          :
          :  -> integral cutoff          0.2500000E+02      :
          :  -> integral neglect         0.1000000E-07      :
          :  -> SCF convergence          0.1000000E-05 Eh   :
          :  -> wf. convergence          0.1000000E-03 e    :
          :  Broyden damping             0.4000000          :
          :  net charge                          0          :
          :  unpaired electrons                  0          :
          ...................................................

 iter      E             dE          RMSdq      gap      omega  full diag
   1    -84.5406281 -0.845406E+02  0.498E-07    2.21       0.0  T
   2    -84.5406281 -0.710543E-13  0.401E-07    2.21   33056.3  T
   3    -84.5406281  0.198952E-12  0.169E-07    2.21   78435.1  T

   *** convergence criteria satisfied after 3 iterations ***

         #    Occupation            Energy/Eh            Energy/eV
      -------------------------------------------------------------
         1        2.0000           -0.7129366             -19.4000
       ...           ...                  ...                  ...
        68        2.0000           -0.4184332             -11.3861
        69        2.0000           -0.4114189             -11.1953
        70        2.0000           -0.4080393             -11.1033
        71        2.0000           -0.4009325             -10.9099
        72        2.0000           -0.4006842             -10.9032
        73        2.0000           -0.3882130             -10.5638
        74        2.0000           -0.3679089             -10.0113 (HOMO)
        75                         -0.2867666              -7.8033 (LUMO)
        76                         -0.2259239              -6.1477
        77                         -0.2235988              -6.0844
        78                         -0.2164011              -5.8886
        79                         -0.2089964              -5.6871
       ...                                ...                  ...
       135                          0.6569846              17.8775
      -------------------------------------------------------------
                  HL-Gap            0.0811423 Eh            2.2080 eV
             Fermi-level            0.0000000 Eh            0.0000 eV

 SCC (total)                   0 d,  0 h,  0 min,  0.071 sec
 SCC setup                      ...        0 min,  0.001 sec (  1.409%)
 Dispersion                     ...        0 min,  0.001 sec (  1.408%)
 classical contributions        ...        0 min,  0.000 sec (  0.000%)
 integral evaluation            ...        0 min,  0.011 sec ( 15.493%)
 iterations                     ...        0 min,  0.016 sec ( 22.535%)
 molecular gradient             ...        0 min,  0.042 sec ( 59.155%)
 printout                       ...        0 min,  0.000 sec (  0.000%)

         :::::::::::::::::::::::::::::::::::::::::::::::::::::
         ::                     SUMMARY                     ::
         :::::::::::::::::::::::::::::::::::::::::::::::::::::
         :: total energy             -83.437247632136 Eh    ::
         :: gradient norm              0.000168217288 Eh/a0 ::
         :: HOMO-LUMO gap              2.207994513327 eV    ::
         ::.................................................::
         :: SCC energy               -84.538722693315 Eh    ::
         :: -> isotropic ES            0.177427790583 Eh    ::
         :: -> anisotropic ES         -0.001866832067 Eh    ::
         :: -> anisotropic XC          0.029719622288 Eh    ::
         :: -> dispersion             -0.057706937290 Eh    ::
         :: repulsion energy           1.101475061179 Eh    ::
         :: add. restraining           0.000000000000 Eh    ::
         :: total charge              -0.000000000000 e     ::
         :::::::::::::::::::::::::::::::::::::::::::::::::::::

           ------------------------------------------------- 
          |                Numerical Hessian                |
           ------------------------------------------------- 
step length          :   0.00500
SCC accuracy         :   0.30000
Hessian scale factor :   1.00000
frozen atoms in %    :   0.00000    0
RMS gradient         :   0.00017
estimated CPU  time      0.39 min
estimated wall time      0.40 min

writing file <hessian>.

 projected vibrational frequencies (cm⁻¹)
eigval :       -0.00    -0.00    -0.00     0.00     0.00     0.00
eigval :       10.76    17.14    23.09    25.80    33.86    39.34
eigval :       52.35    54.24    60.02    63.77    64.58    71.63
eigval :       77.12    82.53    84.26    95.49   100.52   107.42
eigval :      118.30   125.68   131.52   140.92   157.45   159.67
eigval :      169.41   176.44   192.85   200.30   233.66   238.73
eigval :      244.95   261.89   290.44   293.69   300.83   324.26
eigval :      344.30   353.96   376.51   380.12   387.41   392.25
eigval :      406.79   415.48   446.91   448.94   476.56   490.45
eigval :      525.47   532.81   560.57   578.68   601.53   614.02
eigval :      615.65   640.55   671.91   690.12   720.72   728.23
eigval :      761.67   766.93   791.93   798.13   808.59   862.78
eigval :      871.73   882.41   893.73   906.84   920.93   922.22
eigval :      929.30   939.37   976.41   991.69   996.01  1001.86
eigval :     1010.00  1015.13  1018.83  1037.09  1074.03  1078.02
eigval :     1089.70  1104.67  1108.93  1117.72  1130.13  1144.00
eigval :     1157.34  1163.87  1195.99  1208.46  1218.87  1220.43
eigval :     1222.21  1240.71  1253.66  1266.29  1280.77  1284.36
eigval :     1285.87  1296.10  1313.36  1321.18  1342.74  1347.38
eigval :     1374.66  1384.49  1393.15  1419.44  1424.10  1428.70
eigval :     1433.76  1455.95  1462.52  1465.28  1475.49  1477.73
eigval :     1484.30  1486.41  1495.24  1500.79  1504.25  1516.37
eigval :     1549.70  1559.74  1577.31  1615.38  1637.66  1678.52
eigval :     1710.13  1759.56  2807.24  2917.52  2958.84  2969.88
eigval :     2970.62  2983.87  2990.82  2990.92  3001.00  3003.33
eigval :     3021.56  3032.57  3032.77  3033.28  3038.74  3054.32
eigval :     3058.01  3059.27  3064.64  3074.87  3079.72  3083.24
eigval :     3088.27  3333.69  3371.42  3406.39  3447.74  3456.36
eigval :     3548.59  3574.45  3663.17
           -------------------------------------------------
          |                Property Printout                |
           -------------------------------------------------

    * Orbital Energies and Occupations

         #    Occupation            Energy/Eh            Energy/eV
      -------------------------------------------------------------
         1        2.0000           -0.7129366             -19.4000
       ...           ...                  ...                  ...
        62        2.0000           -0.4405323             -11.9875
        63        2.0000           -0.4378429             -11.9143
        64        2.0000           -0.4347923             -11.8313
        65        2.0000           -0.4288441             -11.6694
        66        2.0000           -0.4258305             -11.5874
        67        2.0000           -0.4225809             -11.4990
        68        2.0000           -0.4184332             -11.3861
        69        2.0000           -0.4114189             -11.1953
        70        2.0000           -0.4080393             -11.1033
        71        2.0000           -0.4009325             -10.9099
        72        2.0000           -0.4006842             -10.9032
        73        2.0000           -0.3882130             -10.5638
        74        2.0000           -0.3679089             -10.0113 (HOMO)
        75                         -0.2867666              -7.8033 (LUMO)
        76                         -0.2259239              -6.1477
        77                         -0.2235989              -6.0844
        78                         -0.2164011              -5.8886
        79                         -0.2089964              -5.6871
        80                         -0.1716863              -4.6718
        81                         -0.0939414              -2.5563
        82                         -0.0025275              -0.0688
        83                          0.0060061               0.1634
        84                          0.0174361               0.4745
        85                          0.0730612               1.9881
       ...                                ...                  ...
       135                          0.6569846              17.8775
      -------------------------------------------------------------
                  HL-Gap            0.0811423 Eh            2.2080 eV
             Fermi-level            0.0000000 Eh            0.0000 eV

     #   Z          covCN         q      C6AA      α(0)
     1   7 N        2.650    -0.267    26.916     7.705
     2   6 C        2.900     0.076    26.311     8.410
     3   6 C        2.923    -0.059    29.470     8.902
     4   6 C        2.924    -0.038    28.950     8.824
     5   6 C        2.971    -0.004    28.131     8.700
     6   6 C        2.924    -0.043    29.069     8.842
     7   6 C        2.922    -0.062    29.544     8.914
     8   6 C        3.811    -0.070    21.823     6.649
     9   6 C        3.797     0.020    20.245     6.407
    10   6 C        2.774     0.209    23.566     7.951
    11   6 C        2.890    -0.065    29.610     8.921
    12   6 C        2.896    -0.002    28.081     8.688
    13   6 C        3.808    -0.061    21.674     6.627
    14   6 C        3.802    -0.046    21.388     6.584
    15   6 C        3.753    -0.111    22.677     6.791
    16   8 O        0.856    -0.428    22.253     6.325
    17   8 O        1.610    -0.600    25.195     6.775
    18   1 H        0.860     0.199     1.111     1.651
    19   1 H        0.860     0.195     1.130     1.665
    20   1 H        0.926     0.032     2.556     2.500
    21   1 H        0.926     0.032     2.562     2.503
    22   1 H        0.925     0.026     2.645     2.543
    23   1 H        0.926     0.030     2.582     2.513
    24   1 H        0.924     0.061     2.188     2.313
    25   1 H        0.924     0.059     2.214     2.327
    26   1 H        0.924     0.062     2.175     2.306
    27   1 H        0.860     0.182     1.205     1.720
    28   1 H        0.860     0.204     1.087     1.633
    29   1 H        0.923     0.015     2.808     2.621
    30   1 H        0.926     0.037     2.484     2.465
    31   1 H        0.925     0.062     2.171     2.304
    32   1 H        0.924     0.054     2.276     2.359
    33   1 H        0.924     0.048     2.345     2.395
    34   1 H        0.924     0.031     2.573     2.509
    35   1 H        0.924     0.032     2.556     2.500
    36   1 H        0.925     0.035     2.512     2.478
    37   1 H        0.925     0.034     2.534     2.489
    38   1 H        0.925     0.063     2.167     2.302
    39   1 H        0.805     0.294     0.740     1.351
    40   1 H        0.805     0.297     0.730     1.342
    41   8 O        1.609    -0.607    25.366     6.798
    42   1 H        0.806     0.277     0.794     1.400
    43   1 H        0.804     0.320     0.663     1.279
    44   7 N        2.692    -0.181    24.921     7.414
    45   6 C        2.753     0.264    22.556     7.777
    46   8 O        0.858    -0.433    22.359     6.340
    47   6 C        3.757    -0.141    23.277     6.879
    48   6 C        2.749     0.277    22.313     7.735
    49   8 O        0.859    -0.462    22.961     6.425
    50   1 H        0.925     0.052     2.293     2.368
    51   1 H        0.925     0.063     2.160     2.299
    52   1 H        0.925     0.074     2.038     2.232
    53   7 N        2.686    -0.176    24.821     7.399
    54   6 C        3.690    -0.043    21.531     6.640
    55   1 H        0.924     0.053     2.285     2.364
    56   1 H        0.924     0.049     2.326     2.385
    57   1 H        0.925     0.083     1.949     2.183

 Mol. C6AA /au·bohr⁶  :      29533.124857
 Mol. C8AA /au·bohr⁸  :     657675.951634
 Mol. α(0) /au        :        262.721327


Wiberg/Mayer (AO) data.
largest (>0.10) Wiberg bond orders for each atom

 ---------------------------------------------------------------------------
     #   Z sym  total        # sym  WBO       # sym  WBO       # sym  WBO
 ---------------------------------------------------------------------------
     1   7 N    3.364 --     2 C    1.153    19 H    0.932    18 H    0.931
                            10 C    0.108
     2   6 C    3.971 --     7 C    1.351     3 C    1.340     1 N    1.153
     3   6 C    3.989 --     4 C    1.472     2 C    1.340    20 H    0.968
                             6 C    0.101
     4   6 C    3.992 --     3 C    1.472     5 C    1.395    21 H    0.969
                             7 C    0.102
     5   6 C    3.982 --     6 C    1.405     4 C    1.395     8 C    1.009
     6   6 C    3.991 --     7 C    1.458     5 C    1.405    22 H    0.968
                             3 C    0.101
     7   6 C    3.987 --     6 C    1.458     2 C    1.351    23 H    0.969
                             4 C    0.102
     8   6 C    3.990 --     5 C    1.009     9 C    0.981    24 H    0.970
                            25 H    0.965
     9   6 C    3.961 --     8 C    0.981    44 N    0.973    26 H    0.952
                            45 C    0.914
    10   6 C    3.930 --    16 O    1.701    11 C    1.094    29 H    0.939
                             1 N    0.108
    11   6 C    3.989 --    12 C    1.809    10 C    1.094    30 H    0.964
    12   6 C    3.979 --    11 C    1.809    13 C    1.046    31 H    0.962
    13   6 C    3.996 --    12 C    1.046    14 C    0.976    33 H    0.972
                            32 H    0.956
    14   6 C    3.994 --    15 C    1.018    34 H    0.980    35 H    0.979
                            13 C    0.976
    15   6 C    3.993 --    14 C    1.018    37 H    0.988    36 H    0.986
                            38 H    0.981
    16   8 O    2.013 --    10 C    1.701
    17   8 O    1.832 --    39 H    0.900    40 H    0.896
    18   1 H    0.960 --     1 N    0.931
    19   1 H    0.961 --     1 N    0.932
    20   1 H    0.999 --     3 C    0.968
    21   1 H    0.999 --     4 C    0.969
    22   1 H    0.999 --     6 C    0.968
    23   1 H    0.999 --     7 C    0.969
    24   1 H    0.996 --     8 C    0.970
    25   1 H    0.995 --     8 C    0.965
    26   1 H    0.996 --     9 C    0.952
    27   1 H    0.967 --    44 N    0.934
    28   1 H    0.958 --    53 N    0.909
    29   1 H    0.999 --    10 C    0.939
    30   1 H    0.999 --    11 C    0.964
    31   1 H    0.996 --    12 C    0.962
    32   1 H    0.997 --    13 C    0.956
    33   1 H    0.998 --    13 C    0.972
    34   1 H    0.999 --    14 C    0.980
    35   1 H    0.999 --    14 C    0.979
    36   1 H    0.997 --    15 C    0.986
    37   1 H    0.999 --    15 C    0.988
    38   1 H    0.996 --    15 C    0.981
    39   1 H    0.914 --    17 O    0.900
    40   1 H    0.912 --    17 O    0.896
    41   8 O    1.830 --    42 H    0.919    43 H    0.854
    42   1 H    0.923 --    41 O    0.919
    43   1 H    0.897 --    41 O    0.854
    44   7 N    3.458 --    48 C    1.278     9 C    0.973    27 H    0.934
                            49 O    0.192
    45   6 C    3.956 --    46 O    1.681    53 N    1.289     9 C    0.914
    46   8 O    2.013 --    45 C    1.681    53 N    0.212
    47   6 C    3.993 --    48 C    0.984    52 H    0.981    50 H    0.975
                            51 H    0.965
    48   6 C    3.950 --    49 O    1.636    44 N    1.278    47 C    0.984
    49   8 O    1.984 --    48 C    1.636    44 N    0.192
    50   1 H    0.997 --    47 C    0.975
    51   1 H    0.996 --    47 C    0.965
    52   1 H    0.994 --    47 C    0.981
    53   7 N    3.465 --    45 C    1.289    54 C    1.005    28 H    0.909
                            46 O    0.212
    54   6 C    3.965 --    53 N    1.005    55 H    0.977    57 H    0.977
                            56 H    0.976
    55   1 H    0.997 --    54 C    0.977
    56   1 H    0.997 --    54 C    0.976
    57   1 H    0.993 --    54 C    0.977
 ---------------------------------------------------------------------------

Topologies differ in total number of bonds
Writing topology from bond orders to xtbtopo.mol

molecular dipole:
                 x           y           z       tot (Debye)
 q only:        0.160       0.948      -0.450
   full:       -0.246       1.052      -0.666       3.225
molecular quadrupole (traceless):
                xx          xy          yy          xz          yz          zz
 q only:      -16.732       3.655       6.375     -12.430       2.350      10.357
  q+dip:      -23.770      -2.651       8.463     -17.176       8.521      15.307
   full:      -24.884      -2.255       6.961     -16.614       5.532      17.923

           -------------------------------------------------
          |               Frequency Printout                |
           -------------------------------------------------
 projected vibrational frequencies (cm⁻¹)
eigval :       -0.00    -0.00    -0.00     0.00     0.00     0.00
eigval :       10.76    17.14    23.09    25.80    33.86    39.34
eigval :       52.35    54.24    60.02    63.77    64.58    71.63
eigval :       77.12    82.53    84.26    95.49   100.52   107.42
eigval :      118.30   125.68   131.52   140.92   157.45   159.67
eigval :      169.41   176.44   192.85   200.30   233.66   238.73
eigval :      244.95   261.89   290.44   293.69   300.83   324.26
eigval :      344.30   353.96   376.51   380.12   387.41   392.25
eigval :      406.79   415.48   446.91   448.94   476.56   490.45
eigval :      525.47   532.81   560.57   578.68   601.53   614.02
eigval :      615.65   640.55   671.91   690.12   720.72   728.23
eigval :      761.67   766.93   791.93   798.13   808.59   862.78
eigval :      871.73   882.41   893.73   906.84   920.93   922.22
eigval :      929.30   939.37   976.41   991.69   996.01  1001.86
eigval :     1010.00  1015.13  1018.83  1037.09  1074.03  1078.02
eigval :     1089.70  1104.67  1108.93  1117.72  1130.13  1144.00
eigval :     1157.34  1163.87  1195.99  1208.46  1218.87  1220.43
eigval :     1222.21  1240.71  1253.66  1266.29  1280.77  1284.36
eigval :     1285.87  1296.10  1313.36  1321.18  1342.74  1347.38
eigval :     1374.66  1384.49  1393.15  1419.44  1424.10  1428.70
eigval :     1433.76  1455.95  1462.52  1465.28  1475.49  1477.73
eigval :     1484.30  1486.41  1495.24  1500.79  1504.25  1516.37
eigval :     1549.70  1559.74  1577.31  1615.38  1637.66  1678.52
eigval :     1710.13  1759.56  2807.24  2917.52  2958.84  2969.88
eigval :     2970.62  2983.87  2990.82  2990.92  3001.00  3003.33
eigval :     3021.56  3032.57  3032.77  3033.28  3038.74  3054.32
eigval :     3058.01  3059.27  3064.64  3074.87  3079.72  3083.24
eigval :     3088.27  3333.69  3371.42  3406.39  3447.74  3456.36
eigval :     3548.59  3574.45  3663.17
 reduced masses (amu)
   1: 12.73   2: 12.37   3: 12.33   4: 12.17   5: 11.49   6: 11.99   7: 11.28   8: 12.39
   9: 12.93  10: 11.37  11: 11.39  12: 12.13  13:  9.32  14: 12.60  15:  9.63  16:  9.26
  17:  8.67  18: 10.15  19: 11.71  20:  7.97  21: 11.07  22: 11.28  23: 11.72  24:  9.90
  25: 11.76  26:  2.22  27: 11.19  28: 10.58  29: 10.97  30:  8.19  31: 11.09  32: 10.95
  33: 11.50  34: 11.41  35: 11.53  36: 12.09  37:  3.25  38:  2.11  39: 12.03  40:  9.32
  41: 10.02  42: 10.46  43:  8.80  44: 10.83  45:  6.61  46:  5.43  47:  5.74  48:  5.51
  49:  8.43  50:  9.65  51:  4.63  52:  9.47  53: 10.17  54: 10.76  55:  3.70  56:  8.61
  57:  2.48  58:  8.05  59: 10.01  60: 10.58  61:  2.61  62:  8.02  63:  9.69  64:  8.24
  65:  9.93  66: 11.42  67:  6.24  68:  6.41  69:  2.46  70:  6.49  71:  5.89  72:  3.35
  73:  8.36  74: 10.31  75:  3.72  76:  2.78  77:  4.19  78:  5.07  79:  8.66  80:  6.12
  81: 10.89  82:  5.65  83:  6.16  84:  5.30  85:  2.71  86:  4.30  87:  7.88  88:  8.24
  89:  5.42  90:  6.84  91:  8.83  92:  3.86  93:  7.24  94:  7.91  95:  7.32  96:  3.58
  97:  8.47  98:  6.05  99:  1.79 100:  5.30 101:  4.73 102:  4.99 103:  5.85 104:  3.39
 105:  4.59 106:  2.41 107:  4.27 108:  3.88 109:  3.46 110:  3.84 111:  6.26 112:  9.46
 113: 10.93 114:  4.88 115:  3.28 116:  3.33 117:  2.62 118:  3.32 119:  9.83 120:  9.74
 121:  8.61 122:  1.68 123:  1.57 124:  1.66 125:  2.12 126:  2.14 127:  2.47 128:  4.46
 129:  1.86 130:  1.52 131:  1.64 132:  8.61 133:  2.16 134:  2.68 135: 11.53 136: 11.56
 137: 12.08 138: 11.97 139: 13.12 140: 13.20 141:  1.71 142:  1.74 143:  1.81 144:  1.87
 145:  1.91 146:  1.54 147:  1.49 148:  1.97 149:  1.50 150:  1.70 151:  1.80 152:  1.85
 153:  1.73 154:  1.62 155:  1.61 156:  1.71 157:  1.81 158:  1.79 159:  1.75 160:  1.78
 161:  1.86 162:  1.83 163:  1.88 164:  1.88 165:  1.86 166:  1.53 167:  2.11 168:  1.85
 169:  2.07 170:  1.63 171:  1.84
 IR intensities (km·mol⁻¹)
   1:  0.04   2:  0.01   3:  0.04   4:  0.01   5:  0.18   6:  0.03   7:  0.43   8:  0.64
   9:  1.48  10:  0.32  11:  1.12  12:  3.74  13:  3.03  14:  8.43  15:  0.07  16:  2.02
  17:  5.53  18:  1.19  19:  2.42  20:  5.81  21:  2.42  22:  6.18  23:  7.59  24: 15.95
  25: 10.99  26:  0.79  27: 11.68  28: 27.42  29: 20.72  30: 39.26  31: 26.46  32:  3.00
  33: 14.29  34: 25.12  35: 14.82  36:  3.77  37: 43.51  38:  0.28  39:  6.88  40: 15.22
  41:  2.49  42: 10.69  43: 36.21  44: 25.69  45:  7.57  46:  2.62  47: 45.11  48: 52.59
  49: 26.99  50: 13.80  51:154.94  52:  3.29  53: 23.71  54:  3.33  55:564.47  56: 88.42
  57: 74.65  58:  5.54  59: 39.39  60:  7.03  61:163.15  62: 62.99  63: 19.93  64: 17.53
  65: 45.81  66:  9.81  67: 10.16  68: 85.13  69: 19.02  70: 83.13  71: 51.85  72:  0.60
  73:  2.81  74:  2.11  75:  8.69  76:  0.27  77:  1.03  78: 52.26  79:  1.59  80:  3.24
  81: 19.89  82:  3.59  83: 23.04  84: 22.19  85: 21.76  86:  0.88  87:  0.22  88: 22.79
  89:  9.11  90: 20.24  91:  0.02  92:  0.48  93: 14.33  94: 29.04  95: 22.56  96:  1.46
  97:  0.53  98:  1.40  99:  4.64 100:  3.16 101:  7.54 102:  2.44 103:  9.09 104: 10.23
 105: 35.21 106:  0.81 107: 15.84 108:  6.36 109:  1.83 110:  2.16 111: 19.31 112: 28.21
 113:  7.43 114:  6.52 115: 19.07 116: 27.37 117:  2.99 118:  6.73 119:201.15 120: 18.81
 121:224.71 122:  3.86 123: 10.48 124:  8.98 125:  3.72 126:  0.73 127: 27.00 128: 15.77
 129:  0.66 130:  3.95 131:  3.72 132:233.72 133:161.59 134:222.32 135:  3.61 136: 16.74
 137:559.87 138:173.36 139:317.50 140:567.66 141: 95.56 142: 12.55 143:  3.63 144: 41.12
 145: 34.22 146: 31.06 147: 39.85 148: 17.78 149: 19.74 150: 23.12 151: 10.34 152: 49.62
 153:  8.17 154:  7.60 155: 43.81 156:  2.81 157: 11.19 158: 34.68 159:  5.72 160: 18.05
 161: 50.34 162: 36.56 163: 28.26 164:113.88 165:248.47 166:145.60 167: 43.86 168: 17.02
 169: 97.95 170: 55.94 171:  8.78
 Raman intensities (Ä⁴*amu⁻¹)
   1:  0.00   2:  0.00   3:  0.00   4:  0.00   5:  0.00   6:  0.00   7:  0.00   8:  0.00
   9:  0.00  10:  0.00  11:  0.00  12:  0.00  13:  0.00  14:  0.00  15:  0.00  16:  0.00
  17:  0.00  18:  0.00  19:  0.00  20:  0.00  21:  0.00  22:  0.00  23:  0.00  24:  0.00
  25:  0.00  26:  0.00  27:  0.00  28:  0.00  29:  0.00  30:  0.00  31:  0.00  32:  0.00
  33:  0.00  34:  0.00  35:  0.00  36:  0.00  37:  0.00  38:  0.00  39:  0.00  40:  0.00
  41:  0.00  42:  0.00  43:  0.00  44:  0.00  45:  0.00  46:  0.00  47:  0.00  48:  0.00
  49:  0.00  50:  0.00  51:  0.00  52:  0.00  53:  0.00  54:  0.00  55:  0.00  56:  0.00
  57:  0.00  58:  0.00  59:  0.00  60:  0.00  61:  0.00  62:  0.00  63:  0.00  64:  0.00
  65:  0.00  66:  0.00  67:  0.00  68:  0.00  69:  0.00  70:  0.00  71:  0.00  72:  0.00
  73:  0.00  74:  0.00  75:  0.00  76:  0.00  77:  0.00  78:  0.00  79:  0.00  80:  0.00
  81:  0.00  82:  0.00  83:  0.00  84:  0.00  85:  0.00  86:  0.00  87:  0.00  88:  0.00
  89:  0.00  90:  0.00  91:  0.00  92:  0.00  93:  0.00  94:  0.00  95:  0.00  96:  0.00
  97:  0.00  98:  0.00  99:  0.00 100:  0.00 101:  0.00 102:  0.00 103:  0.00 104:  0.00
 105:  0.00 106:  0.00 107:  0.00 108:  0.00 109:  0.00 110:  0.00 111:  0.00 112:  0.00
 113:  0.00 114:  0.00 115:  0.00 116:  0.00 117:  0.00 118:  0.00 119:  0.00 120:  0.00
 121:  0.00 122:  0.00 123:  0.00 124:  0.00 125:  0.00 126:  0.00 127:  0.00 128:  0.00
 129:  0.00 130:  0.00 131:  0.00 132:  0.00 133:  0.00 134:  0.00 135:  0.00 136:  0.00
 137:  0.00 138:  0.00 139:  0.00 140:  0.00 141:  0.00 142:  0.00 143:  0.00 144:  0.00
 145:  0.00 146:  0.00 147:  0.00 148:  0.00 149:  0.00 150:  0.00 151:  0.00 152:  0.00
 153:  0.00 154:  0.00 155:  0.00 156:  0.00 157:  0.00 158:  0.00 159:  0.00 160:  0.00
 161:  0.00 162:  0.00 163:  0.00 164:  0.00 165:  0.00 166:  0.00 167:  0.00 168:  0.00
 169:  0.00 170:  0.00 171:  0.00
 output can be read by thermo (or use thermo option).
 writing <g98.out> molden fake output.
 recommended (thermochemical) frequency scaling factor: 1.0
           -------------------------------------------------
          |             Thermodynamic Functions             |
           -------------------------------------------------

Refinement of some symmetry elements was terminated before convergence was reached.
Some symmetry elements may remain unidentified.
Molecule has no symmetry elements
It seems to be the C1 point group
c1  symmetry found (for desy threshold:  0.10E+00) used in thermo

          ...................................................
          :                      SETUP                      :
          :.................................................:
          :  # frequencies                         165      :
          :  # imaginary freq.                       0      :
          :  linear?                             false      :
          :  only rotor calc.                    false      :
          :  symmetry                               c1      :
          :  rotational number                       1      :
          :  scaling factor                  1.0000000      :
          :  rotor cutoff                   50.0000000 cm⁻¹ :
          :  imag. cutoff                  -20.0000000 cm⁻¹ :
          :.................................................:

    mode    ω/cm⁻¹     T·S(HO)/kcal·mol⁻¹    T·S(FR)/kcal·mol⁻¹   T·S(vib)
   ------------------------------------------------------------------------
       1     10.76    -2.34526 (  0.21%)    -1.51159 ( 99.79%)    -1.51338
       2     17.14    -2.06946 (  1.36%)    -1.37369 ( 98.64%)    -1.38316
       3     23.09    -1.89285 (  4.35%)    -1.28533 ( 95.65%)    -1.31178
       4     25.80    -1.82733 (  6.62%)    -1.25254 ( 93.38%)    -1.29058
       5     33.86    -1.66642 ( 17.38%)    -1.17196 ( 82.62%)    -1.25790
       6     39.34    -1.57781 ( 27.71%)    -1.12755 ( 72.29%)    -1.25230
       7     52.35    -1.40919 ( 54.59%)    -1.04290 ( 45.41%)    -1.24284
       8     54.24    -1.38832 ( 58.07%)    -1.03241 ( 41.93%)    -1.23909
       9     60.02    -1.32869 ( 67.50%)    -1.00241 ( 32.50%)    -1.22264
      10     63.77    -1.29310 ( 72.57%)    -0.98448 ( 27.43%)    -1.20844
      11     64.58    -1.28567 ( 73.56%)    -0.98074 ( 26.44%)    -1.20506
      12     71.63    -1.22480 ( 80.82%)    -0.95003 ( 19.18%)    -1.17209
      13     77.12    -1.18149 ( 84.99%)    -0.92814 ( 15.01%)    -1.14346
      14     82.53    -1.14188 ( 88.13%)    -0.90809 ( 11.87%)    -1.11412
      15     84.26    -1.12973 ( 88.97%)    -0.90193 ( 11.03%)    -1.10460
      16     95.49    -1.05677 ( 93.01%)    -0.86488 (  6.99%)    -1.04335
      17    100.52    -1.02688 ( 94.23%)    -0.84966 (  5.77%)    -1.01666
      18    107.42    -0.98840 ( 95.52%)    -0.83001 (  4.48%)    -0.98129
      19    118.30    -0.93262 ( 96.91%)    -0.80143 (  3.09%)    -0.92856
      20    125.68    -0.89778 ( 97.56%)    -0.78350 (  2.44%)    -0.89499
      21    131.52    -0.87171 ( 97.95%)    -0.77004 (  2.05%)    -0.86963
      22    140.92    -0.83225 ( 98.44%)    -0.74959 (  1.56%)    -0.83096
      23    157.45    -0.76929 ( 98.99%)    -0.71673 (  1.01%)    -0.76876
      24    159.67    -0.76137 ( 99.05%)    -0.71257 (  0.95%)    -0.76091
      25    169.41    -0.72810 ( 99.25%)    -0.69504 (  0.75%)    -0.72785
      26    176.44    -0.70533 ( 99.36%)    -0.68299 (  0.64%)    -0.70519
      27    192.85    -0.65600 ( 99.55%)    -0.65665 (  0.45%)    -0.65600
      28    200.30    -0.63517 ( 99.61%)    -0.64542 (  0.39%)    -0.63520
      29    233.66    -0.55177 ( 99.79%)    -0.59979 (  0.21%)    -0.55187
      30    238.73    -0.54035 ( 99.81%)    -0.59343 (  0.19%)    -0.54045
      31    244.95    -0.52672 ( 99.83%)    -0.58581 (  0.17%)    -0.52682
      32    261.89    -0.49169 ( 99.87%)    -0.56600 (  0.13%)    -0.49179
      33    290.44    -0.43869 ( 99.91%)    -0.53534 (  0.09%)    -0.43878
      34    293.69    -0.43310 ( 99.92%)    -0.53205 (  0.08%)    -0.43318
   ------------------------------------------------------------------------

   temp. (K)  partition function   enthalpy   heat capacity  entropy
                                   cal/mol     cal/K/mol   cal/K/mol   J/K/mol
 298.15  VIB  0.209E+18            20003.946    107.555    132.452
         ROT  0.158E+08              888.752      2.981     35.919
         INT  0.329E+25            20892.699    110.536    168.371
         TR   0.687E+28             1481.254      4.968     43.594
         TOT                       22373.9524   115.5039   211.9643   886.8588

       T/K    H(0)-H(T)+PV         H(T)/Eh          T*S/Eh         G(T)/Eh
   ------------------------------------------------------------------------
    298.15    0.356552E-01    0.503096E+00    0.100711E+00    0.402385E+00
   ------------------------------------------------------------------------

         :::::::::::::::::::::::::::::::::::::::::::::::::::::
         ::                  THERMODYNAMIC                  ::
         :::::::::::::::::::::::::::::::::::::::::::::::::::::
         :: total free energy         -83.034862340201 Eh   ::
         ::.................................................::
         :: total energy              -83.437247632141 Eh   ::
         :: zero point energy           0.467441224410 Eh   ::
         :: G(RRHO) w/o ZPVE           -0.065055932470 Eh   ::
         :: G(RRHO) contrib.            0.402385291940 Eh   ::
         :::::::::::::::::::::::::::::::::::::::::::::::::::::

           -------------------------------------------------
          | TOTAL ENERGY              -83.437247632141 Eh   |
          | TOTAL ENTHALPY            -82.934151244976 Eh   |
          | TOTAL FREE ENERGY         -83.034862340201 Eh   |
          | GRADIENT NORM               0.000168215397 Eh/α |
          | HOMO-LUMO GAP               2.207994418967 eV   |
           -------------------------------------------------

------------------------------------------------------------------------
 * finished run on 2026/08/20 at 18:17:50.857     
------------------------------------------------------------------------
 total:
 * wall-time:     0 d,  0 h,  0 min, 33.733 sec
 *  cpu-time:     0 d,  0 h,  0 min, 30.391 sec
 * ratio c/w:     0.901 speedup
 SCF:
 * wall-time:     0 d,  0 h,  0 min,  0.071 sec
 *  cpu-time:     0 d,  0 h,  0 min,  0.078 sec
 * ratio c/w:     1.100 speedup
 analytical hessian:
 * wall-time:     0 d,  0 h,  0 min, 33.228 sec
 *  cpu-time:     0 d,  0 h,  0 min, 30.188 sec
 * ratio c/w:     0.908 speedup



================ STDERR ================

normal termination of xtb
