      -----------------------------------------------------------      
     |                   =====================                   |     
     |                           x T B                           |     
     |                   =====================                   |     
     |                         S. Grimme                         |     
     |          Mulliken Center for Theoretical Chemistry        |     
     |                    University of Bonn                     |     
      -----------------------------------------------------------      

   * xtb version 6.7.1pre (5071a88) compiled by 'Marcel@Raven' on 2024-07-23

   xtb is free software: you can redistribute it and/or modify it under
   the terms of the GNU Lesser General Public License as published by
   the Free Software Foundation, either version 3 of the License, or
   (at your option) any later version.
   
   xtb is distributed in the hope that it will be useful,
   but WITHOUT ANY WARRANTY; without even the implied warranty of
   MERCHANTABILITY or FITNESS FOR A PARTICULAR PURPOSE.  See the
   GNU Lesser General Public License for more details.
   
   Cite this work as:
   * C. Bannwarth, E. Caldeweyher, S. Ehlert, A. Hansen, P. Pracht,
     J. Seibert, S. Spicher, S. Grimme, WIREs Comput. Mol. Sci., 2020, 11,
     e01493. DOI: 10.1002/wcms.1493
   
   for GFN2-xTB:
   * C. Bannwarth, S. Ehlert and S. Grimme., J. Chem. Theory Comput., 2019,
     15, 1652-1671. DOI: 10.1021/acs.jctc.8b01176
   for GFN1-xTB:
   * S. Grimme, C. Bannwarth, P. Shushkov, J. Chem. Theory Comput., 2017,
     13, 1989-2009. DOI: 10.1021/acs.jctc.7b00118
   for GFN0-xTB:
   * P. Pracht, E. Caldeweyher, S. Ehlert, S. Grimme, ChemRxiv, 2019, preprint.
     DOI: 10.26434/chemrxiv.8326202.v1
   for GFN-FF:
   * S. Spicher and S. Grimme, Angew. Chem. Int. Ed., 2020, 59, 15665-15673.
     DOI: 10.1002/anie.202004239
   
   for ALPB and GBSA implicit solvation:
   * S. Ehlert, M. Stahn, S. Spicher, S. Grimme, J. Chem. Theory Comput.,
     2021, 17, 4250-4261. DOI: 10.1021/acs.jctc.1c00471
   
   for ddCOSMO and CPCM-X implicit solvation:
   * M. Stahn, S. Ehlert, S. Grimme, J. Phys. Chem. A,
     2023, XX, XXXX-XXXX. DOI: 10.1021/acs.jpca.3c04382
   
   for DFT-D4:
   * E. Caldeweyher, C. Bannwarth and S. Grimme, J. Chem. Phys., 2017,
     147, 034112. DOI: 10.1063/1.4993215
   * E. Caldeweyher, S. Ehlert, A. Hansen, H. Neugebauer, S. Spicher,
     C. Bannwarth and S. Grimme, J. Chem. Phys., 2019, 150, 154122.
     DOI: 10.1063/1.5090222
   * E. Caldeweyher, J.-M. Mewes, S. Ehlert and S. Grimme, Phys. Chem. Chem. Phys.
     2020, 22, 8499-8512. DOI: 10.1039/D0CP00502A
   
   for sTDA-xTB:
   * S. Grimme and C. Bannwarth, J. Chem. Phys., 2016, 145, 054103.
     DOI: 10.1063/1.4959605
   
   in the mass-spec context:
   * V. Asgeirsson, C. Bauer and S. Grimme, Chem. Sci., 2017, 8, 4879.
     DOI: 10.1039/c7sc00601b
   * J. Koopman and S. Grimme, ACS Omega 2019, 4, 12, 15120-15133.
     DOI: 10.1021/acsomega.9b02011
   
   for metadynamics refer to:
   * S. Grimme, J. Chem. Theory Comput., 2019, 155, 2847-2862
     DOI: 10.1021/acs.jctc.9b00143
   
   for SPH calculations refer to:
   * S. Spicher and S. Grimme, J. Chem. Theory Comput., 2021, 17, 1701-1714
     DOI: 10.1021/acs.jctc.0c01306
   
   for ONIOM refer to:
   * C. Plett, A. Katbashev, S. Ehlert, S. Grimme, M. Bursch,
     Phys. Chem. Chem. Phys., 2023, 25, 17860-17868. DOI: 10.1039/D3CP02178E
   
   for DIPRO refer to:
   * J. Kohn, N. Gildemeister, S. Grimme, D. Fazzi, A. Hansen,
     J. Chem. Phys., 2023, just accepted.
   
   for PTB refer to:
   * S. Grimme, M. Mueller, A. Hansen, J. Chem. Phys., 2023, 158, 124111.
     DOI: 10.1063/5.0137838
   
   with help from (in alphabetical order)
   P. Atkinson, C. Bannwarth, F. Bohle, G. Brandenburg, E. Caldeweyher
   M. Checinski, S. Dohm, S. Ehlert, S. Ehrlich, I. Gerasimov, C. Hölzer
   A. Katbashev, J. Kohn, J. Koopman, C. Lavigne, S. Lehtola, F. März, M. Müller,
   F. Musil, H. Neugebauer, J. Pisarek, C. Plett, P. Pracht, F. Pultar,
   J. Seibert, P. Shushkov, S. Spicher, M. Stahn, M. Steiner, T. Strunk,
   J. Stückrath, T. Rose, and J. Unsleber
   
 * started run on 2026/08/20 at 18:16:15.283     
   ID    Z sym.   atoms
    1    7 N      1, 44, 53
    2    6 C      2-15, 45, 47, 48, 54
    3    8 O      16, 17, 41, 46, 49
    4    1 H      18-40, 42, 43, 50-52, 55-57

           -------------------------------------------------
          |                Calculation Setup                |
           -------------------------------------------------

          program call               : C:\Users\Nayanika\Downloads\xtb-6.7.1pre-windows-x86_64\xtb-6.7.1\bin\xtb.exe D:\PhD_Thesis\LmrR_EVB\charges\fast_lmrr_5QM\xtb_preparation\RS1_1_to_TS1_2\RS1_1_to_TS1_2_TS_xtbopt.xyz --gfn 2 --chrg 0 --uhf 0 --etemp 0
          coordinate file            : D:\PhD_Thesis\LmrR_EVB\charges\fast_lmrr_5QM\xtb_preparation\RS1_1_to_TS1_2\RS1_1_to_TS1_2_TS_xtbopt.xyz
          omp threads                :                     1


molecular fragmentation (1/2 indicates fragments):
111111111222222221111111111122222222222222211111111111111
# atoms in fragment 1/2:    34    23
 fragment masses (1/2) :      235.28      134.17
CMA distance (Bohr)    :   9.700
constraining FC (au)   :  0.0500

           -------------------------------------------------
          |                 G F N 2 - x T B                 |
           -------------------------------------------------

        Reference                      10.1021/acs.jctc.8b01176
      * Hamiltonian:
        H0-scaling (s, p, d)           1.850000    2.230000    2.230000
        zeta-weighting                 0.500000
      * Dispersion:
        s8                             2.700000
        a1                             0.520000
        a2                             5.000000
        s9                             5.000000
      * Repulsion:
        kExp                           1.500000    1.000000
        rExp                           1.000000
      * Coulomb:
        alpha                          2.000000
        third order                    shell-resolved
        anisotropic                    true
        a3                             3.000000
        a5                             4.000000
        cn-shift                       1.200000
        cn-exp                         4.000000
        max-rad                        5.000000

q/qsh data taken from xtbrestart
CAMM data taken from xtbrestart

          ...................................................
          :                      SETUP                      :
          :.................................................:
          :  # basis functions                 135          :
          :  # atomic orbitals                 135          :
          :  # shells                           83          :
          :  # electrons                       148          :
          :  max. iterations                   250          :
          :  Hamiltonian                  GFN2-xTB          :
          :  restarted?                       true          :
          :  GBSA solvation                  false          :
          :  PC potential                    false          :
          :  electronic temp.            0.0000000     K    :
          :  accuracy                    1.0000000          :
          :  -> integral cutoff          0.2500000E+02      :
          :  -> integral neglect         0.1000000E-07      :
          :  -> SCF convergence          0.1000000E-05 Eh   :
          :  -> wf. convergence          0.1000000E-03 e    :
          :  Broyden damping             0.4000000          :
          :  net charge                          0          :
          :  unpaired electrons                  0          :
          ...................................................

 iter      E             dE          RMSdq      gap      omega  full diag
   1    -84.5411557 -0.845412E+02  0.626E-06    2.15       0.0  T
   2    -84.5411557 -0.540012E-12  0.460E-06    2.15    2876.6  T
   3    -84.5411557 -0.909495E-12  0.211E-06    2.15    6288.7  T

   *** convergence criteria satisfied after 3 iterations ***

         #    Occupation            Energy/Eh            Energy/eV
      -------------------------------------------------------------
         1        2.0000           -0.7096998             -19.3119
       ...           ...                  ...                  ...
        68        2.0000           -0.4123708             -11.2212
        69        2.0000           -0.4082837             -11.1100
        70        2.0000           -0.4016871             -10.9305
        71        2.0000           -0.3971255             -10.8063
        72        2.0000           -0.3947256             -10.7410
        73        2.0000           -0.3843639             -10.4591
        74        2.0000           -0.3601341              -9.7997 (HOMO)
        75                         -0.2812001              -7.6518 (LUMO)
        76                         -0.2209343              -6.0119
        77                         -0.2188759              -5.9559
        78                         -0.2102026              -5.7199
        79                         -0.2054594              -5.5908
       ...                                ...                  ...
       135                          0.6709810              18.2583
      -------------------------------------------------------------
                  HL-Gap            0.0789341 Eh            2.1479 eV
             Fermi-level            0.0000000 Eh            0.0000 eV

 SCC (total)                   0 d,  0 h,  0 min,  0.115 sec
 SCC setup                      ...        0 min,  0.000 sec (  0.000%)
 Dispersion                     ...        0 min,  0.000 sec (  0.000%)
 classical contributions        ...        0 min,  0.000 sec (  0.000%)
 integral evaluation            ...        0 min,  0.023 sec ( 20.000%)
 iterations                     ...        0 min,  0.028 sec ( 24.348%)
 molecular gradient             ...        0 min,  0.063 sec ( 54.783%)
 printout                       ...        0 min,  0.001 sec (  0.870%)

         :::::::::::::::::::::::::::::::::::::::::::::::::::::
         ::                     SUMMARY                     ::
         :::::::::::::::::::::::::::::::::::::::::::::::::::::
         :: total energy             -83.439027419831 Eh    ::
         :: gradient norm              0.000165985579 Eh/a0 ::
         :: HOMO-LUMO gap              2.147905624605 eV    ::
         ::.................................................::
         :: SCC energy               -84.539207853082 Eh    ::
         :: -> isotropic ES            0.174189728260 Eh    ::
         :: -> anisotropic ES         -0.001783589713 Eh    ::
         :: -> anisotropic XC          0.029689074279 Eh    ::
         :: -> dispersion             -0.057143032457 Eh    ::
         :: repulsion energy           1.100180433251 Eh    ::
         :: add. restraining           0.000000000000 Eh    ::
         :: total charge              -0.000000000000 e     ::
         :::::::::::::::::::::::::::::::::::::::::::::::::::::

           -------------------------------------------------
          |                Property Printout                |
           -------------------------------------------------

    * Orbital Energies and Occupations

         #    Occupation            Energy/Eh            Energy/eV
      -------------------------------------------------------------
         1        2.0000           -0.7096998             -19.3119
       ...           ...                  ...                  ...
        62        2.0000           -0.4359779             -11.8636
        63        2.0000           -0.4314162             -11.7394
        64        2.0000           -0.4310512             -11.7295
        65        2.0000           -0.4303814             -11.7113
        66        2.0000           -0.4242946             -11.5456
        67        2.0000           -0.4173555             -11.3568
        68        2.0000           -0.4123708             -11.2212
        69        2.0000           -0.4082837             -11.1100
        70        2.0000           -0.4016871             -10.9305
        71        2.0000           -0.3971255             -10.8063
        72        2.0000           -0.3947256             -10.7410
        73        2.0000           -0.3843639             -10.4591
        74        2.0000           -0.3601341              -9.7997 (HOMO)
        75                         -0.2812001              -7.6518 (LUMO)
        76                         -0.2209343              -6.0119
        77                         -0.2188759              -5.9559
        78                         -0.2102026              -5.7199
        79                         -0.2054594              -5.5908
        80                         -0.1661904              -4.5223
        81                         -0.0875141              -2.3814
        82                          0.0010322               0.0281
        83                          0.0103865               0.2826
        84                          0.0322119               0.8765
        85                          0.0713544               1.9417
       ...                                ...                  ...
       135                          0.6709810              18.2583
      -------------------------------------------------------------
                  HL-Gap            0.0789341 Eh            2.1479 eV
             Fermi-level            0.0000000 Eh            0.0000 eV

     #   Z          covCN         q      C6AA      α(0)
     1   7 N        2.642    -0.285    27.346     7.766
     2   6 C        2.899     0.078    26.267     8.403
     3   6 C        2.923    -0.060    29.487     8.905
     4   6 C        2.924    -0.039    28.959     8.825
     5   6 C        2.969    -0.007    28.193     8.709
     6   6 C        2.924    -0.045    29.110     8.848
     7   6 C        2.922    -0.065    29.608     8.923
     8   6 C        3.812    -0.070    21.826     6.650
     9   6 C        3.795     0.020    20.237     6.406
    10   6 C        2.768     0.213    23.493     7.938
    11   6 C        2.890    -0.063    29.577     8.916
    12   6 C        2.898     0.000    28.026     8.680
    13   6 C        3.807    -0.060    21.650     6.624
    14   6 C        3.802    -0.046    21.402     6.586
    15   6 C        3.752    -0.111    22.676     6.791
    16   8 O        0.856    -0.406    21.799     6.260
    17   8 O        1.609    -0.595    25.073     6.758
    18   1 H        0.860     0.215     1.031     1.590
    19   1 H        0.860     0.161     1.331     1.807
    20   1 H        0.926     0.042     2.423     2.434
    21   1 H        0.926     0.030     2.592     2.518
    22   1 H        0.925     0.021     2.721     2.579
    23   1 H        0.925     0.021     2.715     2.577
    24   1 H        0.924     0.061     2.185     2.312
    25   1 H        0.924     0.057     2.233     2.337
    26   1 H        0.924     0.059     2.208     2.324
    27   1 H        0.860     0.183     1.195     1.712
    28   1 H        0.860     0.207     1.072     1.622
    29   1 H        0.923     0.009     2.909     2.667
    30   1 H        0.926     0.036     2.509     2.477
    31   1 H        0.925     0.069     2.095     2.264
    32   1 H        0.924     0.057     2.239     2.340
    33   1 H        0.924     0.043     2.407     2.426
    34   1 H        0.924     0.032     2.565     2.504
    35   1 H        0.924     0.033     2.541     2.493
    36   1 H        0.925     0.035     2.516     2.480
    37   1 H        0.925     0.033     2.544     2.494
    38   1 H        0.925     0.063     2.169     2.303
    39   1 H        0.805     0.283     0.773     1.381
    40   1 H        0.804     0.330     0.638     1.255
    41   8 O        1.608    -0.605    25.316     6.791
    42   1 H        0.806     0.273     0.808     1.412
    43   1 H        0.803     0.320     0.664     1.280
    44   7 N        2.692    -0.181    24.926     7.415
    45   6 C        2.753     0.264    22.553     7.777
    46   8 O        0.858    -0.435    22.402     6.346
    47   6 C        3.757    -0.141    23.269     6.877
    48   6 C        2.749     0.277    22.315     7.735
    49   8 O        0.859    -0.462    22.953     6.423
    50   1 H        0.925     0.052     2.297     2.370
    51   1 H        0.925     0.062     2.172     2.305
    52   1 H        0.925     0.074     2.044     2.236
    53   7 N        2.686    -0.178    24.851     7.404
    54   6 C        3.691    -0.042    21.520     6.639
    55   1 H        0.924     0.052     2.291     2.367
    56   1 H        0.924     0.049     2.334     2.389
    57   1 H        0.925     0.082     1.959     2.189

 Mol. C6AA /au·bohr⁶  :      29556.623069
 Mol. C8AA /au·bohr⁸  :     658030.928970
 Mol. α(0) /au        :        262.838204


Wiberg/Mayer (AO) data.
largest (>0.10) Wiberg bond orders for each atom

 ---------------------------------------------------------------------------
     #   Z sym  total        # sym  WBO       # sym  WBO       # sym  WBO
 ---------------------------------------------------------------------------
     1   7 N    3.323 --     2 C    1.160    19 H    0.954    18 H    0.896
     2   6 C    3.972 --     7 C    1.350     3 C    1.336     1 N    1.160
     3   6 C    3.989 --     4 C    1.474     2 C    1.336    20 H    0.967
                             6 C    0.101
     4   6 C    3.992 --     3 C    1.474     5 C    1.393    21 H    0.969
                             7 C    0.101
     5   6 C    3.979 --     6 C    1.404     4 C    1.393     8 C    1.010
     6   6 C    3.991 --     7 C    1.457     5 C    1.404    22 H    0.968
                             3 C    0.101
     7   6 C    3.987 --     6 C    1.457     2 C    1.350    23 H    0.969
                             4 C    0.101
     8   6 C    3.990 --     5 C    1.010     9 C    0.981    24 H    0.969
                            25 H    0.966
     9   6 C    3.962 --     8 C    0.981    44 N    0.973    26 H    0.953
                            45 C    0.913
    10   6 C    3.926 --    16 O    1.743    11 C    1.096    29 H    0.938
    11   6 C    3.989 --    12 C    1.804    10 C    1.096    30 H    0.965
    12   6 C    3.977 --    11 C    1.804    13 C    1.047    31 H    0.960
    13   6 C    3.996 --    12 C    1.047    14 C    0.977    33 H    0.972
                            32 H    0.952
    14   6 C    3.994 --    15 C    1.018    34 H    0.980    35 H    0.979
                            13 C    0.977
    15   6 C    3.993 --    14 C    1.018    37 H    0.988    36 H    0.986
                            38 H    0.980
    16   8 O    2.034 --    10 C    1.743
    17   8 O    1.878 --    39 H    0.917    40 H    0.850
    18   1 H    0.953 --     1 N    0.896
    19   1 H    0.974 --     1 N    0.954
    20   1 H    0.998 --     3 C    0.967
    21   1 H    0.999 --     4 C    0.969
    22   1 H    0.999 --     6 C    0.968
    23   1 H    0.999 --     7 C    0.969
    24   1 H    0.996 --     8 C    0.969
    25   1 H    0.995 --     8 C    0.966
    26   1 H    0.996 --     9 C    0.953
    27   1 H    0.966 --    44 N    0.931
    28   1 H    0.957 --    53 N    0.904
    29   1 H    1.000 --    10 C    0.938
    30   1 H    0.999 --    11 C    0.965
    31   1 H    0.995 --    12 C    0.960
    32   1 H    0.997 --    13 C    0.952
    33   1 H    0.998 --    13 C    0.972
    34   1 H    0.999 --    14 C    0.980
    35   1 H    0.999 --    14 C    0.979
    36   1 H    0.997 --    15 C    0.986
    37   1 H    0.999 --    15 C    0.988
    38   1 H    0.996 --    15 C    0.980
    39   1 H    0.920 --    17 O    0.917
    40   1 H    0.891 --    17 O    0.850
    41   8 O    1.853 --    42 H    0.923    43 H    0.838
    42   1 H    0.925 --    41 O    0.923
    43   1 H    0.897 --    41 O    0.838
    44   7 N    3.459 --    48 C    1.281     9 C    0.973    27 H    0.931
                            49 O    0.192
    45   6 C    3.956 --    46 O    1.679    53 N    1.292     9 C    0.913
    46   8 O    2.011 --    45 C    1.679    53 N    0.212
    47   6 C    3.993 --    48 C    0.984    52 H    0.982    50 H    0.975
                            51 H    0.965
    48   6 C    3.951 --    49 O    1.632    44 N    1.281    47 C    0.984
    49   8 O    1.987 --    48 C    1.632    44 N    0.192
    50   1 H    0.997 --    47 C    0.975
    51   1 H    0.996 --    47 C    0.965
    52   1 H    0.994 --    47 C    0.982
    53   7 N    3.465 --    45 C    1.292    54 C    1.006    28 H    0.904
                            46 O    0.212
    54   6 C    3.966 --    53 N    1.006    55 H    0.977    57 H    0.977
                            56 H    0.976
    55   1 H    0.997 --    54 C    0.977
    56   1 H    0.998 --    54 C    0.976
    57   1 H    0.993 --    54 C    0.977
 ---------------------------------------------------------------------------

Topologies differ in total number of bonds
Writing topology from bond orders to xtbtopo.mol

molecular dipole:
                 x           y           z       tot (Debye)
 q only:       -0.360       0.327      -0.436
   full:       -0.783       0.105      -0.748       2.765
molecular quadrupole (traceless):
                xx          xy          yy          xz          yz          zz
 q only:      -18.000      11.959       7.355      -8.371       0.860      10.645
  q+dip:      -26.813       9.593       7.572     -13.210       5.071      19.241
   full:      -27.528       9.677       8.372     -12.667       1.575      19.156


           -------------------------------------------------
          | TOTAL ENERGY              -83.439027419831 Eh   |
          | GRADIENT NORM               0.000165985579 Eh/α |
          | HOMO-LUMO GAP               2.147905624605 eV   |
           -------------------------------------------------

------------------------------------------------------------------------
 * finished run on 2026/08/20 at 18:16:15.497     
------------------------------------------------------------------------
 total:
 * wall-time:     0 d,  0 h,  0 min,  0.211 sec
 *  cpu-time:     0 d,  0 h,  0 min,  0.156 sec
 * ratio c/w:     0.741 speedup
 SCF:
 * wall-time:     0 d,  0 h,  0 min,  0.115 sec
 *  cpu-time:     0 d,  0 h,  0 min,  0.125 sec
 * ratio c/w:     1.087 speedup



================ STDERR ================

normal termination of xtb
