57
 xtb: 6.7.1pre (5071a88)
N           -0.27935401794385       -0.18537849117804       -0.93936416827437
C            1.02592066335262        0.06151958182112       -0.58344571102795
C            1.44817252599260        1.33452400677386       -0.19247358576919
C            2.78960201797146        1.59997140257482       -0.00352950569645
C            3.74857866111602        0.60840887580464       -0.16751207109188
C            3.32138366751588       -0.67405943572327       -0.49343322821944
C            1.98646431205395       -0.94655459420583       -0.70045245605051
C            5.21242200523942        0.93328941019972       -0.10143949933129
C            5.70698504888145        1.26802465512485       -1.52656170522293
C            2.27077985385697        0.53471051457702       -3.61407114749958
C            2.75048629072726        1.89395945944820       -3.55919608113104
C            1.99883826201067        2.89596897036735       -3.08901763032287
C            2.46291498620167        4.29344120874318       -2.92556720441203
C            1.53038911771696        5.29104011091590       -3.62509620594937
C            1.99764077446288        6.72472543827981       -3.41110155394686
O            2.96720091529096       -0.42796720610181       -3.85734792343277
O           -0.56871662781423       -2.94373147670348       -1.95377109441366
H           -0.53203264520937       -1.10079802297279       -1.09350839584071
H           -0.98191104004380        0.43813936854009       -0.50685271678019
H            0.72997622166840        2.14931509751376       -0.03406244769537
H            3.12088008907284        2.61144532646865        0.29440363024612
H            4.04047362669510       -1.45077479650403       -0.60679683937327
H            1.65056771068889       -1.90639677819568       -0.97891060516155
H            5.78461929038536        0.09090367420058        0.28556008565707
H            5.40077900204224        1.80600431386986        0.53276188452914
H            5.03834924551093        2.01013716807720       -1.95739936905789
H            4.96512556139491        0.12017023343358       -3.11885570218350
H            7.91637892843096        0.21181490637185       -0.86889468860155
H            1.20223014303826        0.36695560063315       -3.41618249521538
H            3.76481703790909        2.05215348635166       -3.86324542704357
H            0.96180270529144        2.64181530810954       -2.78803942389242
H            2.42997426320653        4.48125202925305       -1.83608878609452
H            3.45171219169591        4.38292168285590       -3.27522366682157
H            1.48384043234399        5.03736616680859       -4.67760892335312
H            0.48024652666270        5.12368745611488       -3.22818888782713
H            1.28711614018244        7.38112541035622       -3.89324509872787
H            1.94420621014319        6.92912481005356       -2.31953815706906
H            2.95858903081725        6.83454104771569       -3.75850966566453
H            0.18538952753751       -2.88887341766822       -2.57768910523816
H           -1.29327896597912       -3.31644123671806       -2.45738227108741
O            1.67292797045308       -2.91705297037045       -3.58980132570495
H            2.10080220768367       -2.07209263325951       -3.74152839708832
H            2.33791031650102       -3.51266836330473       -3.23436954538053
N            5.66250936466596        0.10337744887436       -2.40102348104895
C            7.07783161448738        1.96838369909543       -1.48033075108104
O            7.17087686741296        3.14349614234135       -1.79036742050114
C            5.87005616671530       -2.14503056007377       -3.19678090274645
C            6.25046338084817       -1.08832868757594       -2.18434042198616
O            7.05210459529628       -1.30871132535912       -1.28962492871289
H            6.01132339677518       -3.12870961835316       -2.75820847858524
H            6.55185314390438       -2.06072351219897       -4.05116166589101
H            4.85961535718573       -2.01245391344232       -3.54233881286608
N            8.08202488445669        1.21059008007597       -1.03665744529424
C            9.43256647729680        1.70276490409889       -0.92112016065857
H           10.11172996376681        1.15385652398848       -1.58753202868058
H            9.80352979104228        1.56229583763718        0.11380902101823
H            9.44645910610865        2.75000154519422       -1.16427646817610
