57
 energy: -87.898604204270 gnorm: 0.000349725031 xtb: 6.7.1pre (5071a88)
N           -0.17286296998705       -1.10067467118052       -0.08974567608329
C            1.18178682825159       -0.90838259316402        0.08103686471605
C            1.63757158299316       -0.04617216463447        1.08435690575418
C            2.97963978090582        0.28091120770642        1.15904523487353
C            3.89555252994582       -0.24766990639468        0.24938705185724
C            3.44246640540378       -1.14255772018210       -0.71755951872924
C            2.10023008969923       -1.47369649375812       -0.80747579105929
C            5.31744094681413        0.25127651074555        0.22603239713191
C            5.36908139817663        1.55238732783855       -0.58475412433296
C           -1.01034536705955        0.92506087149398       -1.43646655354403
C            0.23155692734737        1.65503805536627       -1.20714197227798
C            0.32698570240286        2.58993367584531       -0.24992468388365
C            1.56521934228332        3.35186444582875        0.07142882999033
C            1.56063394588428        4.72334670979206       -0.63038343898357
C            2.74744715651897        5.56830276954096       -0.17717840923471
O           -2.04762478061410        1.12497912010481       -0.82073672761558
O           -3.01259970537226       -1.35240132940590        0.34875753436551
H           -0.74377907885037       -0.88326134831318        0.71348852875887
H           -0.46294461639314       -1.94519197736999       -0.55665055463481
H            0.92476957557375        0.38172324820670        1.78063885590161
H            3.32112028253367        0.96724618568538        1.92719806510016
H            4.14634317690478       -1.57873158469164       -1.42005518718652
H            1.75504538962982       -2.15312282892280       -1.57907095798999
H            5.99074978951959       -0.48134551394428       -0.22745845069781
H            5.68010336562663        0.46508172556550        1.23452017810782
H            4.71036459030743        2.30787601722202       -0.13696414621499
H            5.07251329693500        0.39879026124252       -2.33941822717651
H            5.97483216790932        3.79844648045609       -1.49179096685664
H           -0.97169677082509        0.18840519416097       -2.25982308892304
H            1.08757234162554        1.38143644375307       -1.81477361260685
H           -0.55728352792977        2.83592095506879        0.33405086038637
H            1.62308702459620        3.50394587606828        1.15376513733467
H            2.45075064532028        2.79633685487630       -0.24909145016659
H            1.61419067364869        4.56398388921637       -1.71122672858203
H            0.62441989848577        5.24519858869471       -0.40717018315046
H            2.73741120387243        6.52883702849238       -0.69340917701192
H            2.70450467524135        5.74928906290380        0.89813789210482
H            3.68325900790156        5.05904525821527       -0.40845809452955
H           -2.88679058232299       -0.96432663319668        1.22176026767701
H           -2.99573924280355       -0.59928949001979       -0.25518893703268
O           -1.72313614469124        0.73063480641410        1.89483076303722
H           -2.24815988358386        1.27715868572975        2.48121904020714
H           -1.89772393226755        1.04871832181547        0.99320582838491
N            4.88750832512923        1.30487046836287       -1.93955256167272
C            6.79833678415960        2.12049454859051       -0.66423637114925
O            7.77061637883255        1.49143160120698       -0.29940748457464
C            3.69393766465902        1.76773372070364       -3.97088142853891
C            4.20189145380621        2.23648277552615       -2.62527711029662
O            4.00628523323835        3.36419946673844       -2.19783026610162
H            3.02546159520972        0.91789796936270       -3.83676632723893
H            4.52787413422614        1.45863154481025       -4.59962394339816
H            3.15615681582816        2.58078146548585       -4.45281505486625
N            6.82959548952430        3.36451224637453       -1.17021930941055
C            8.08441323815683        4.05827386129744       -1.39962538966729
H            8.07470428353152        5.02297011174725       -0.88761969401333
H            8.23386443947956        4.21988238969843       -2.47024266666305
H            8.89239102454296        3.44148650703619       -1.00584596957273
