57
 energy: -87.897278444262 gnorm: 0.000199086274 xtb: 6.7.1pre (5071a88)
N            0.05383543172685       -1.51394182865586       -0.38286646827104
C            1.38402837273582       -1.15937792159744       -0.27180915640203
C            1.81161798940224       -0.36563135047319        0.79803450992659
C            3.11281521467202        0.10057018455551        0.83848401971858
C            4.01841918576823       -0.21492185366785       -0.17465896502459
C            3.59746654709729       -1.03263600466376       -1.22038898011244
C            2.29526207037184       -1.50454756381372       -1.27394446966911
C            5.38380487582715        0.42264470487308       -0.19489718004646
C            5.26721505109631        1.83492224495885       -0.78020683306524
C           -0.95478270264147        0.74268819650634       -1.72950341403287
C            0.20958497232529        1.50440169693796       -1.28629254106962
C            0.13331005367289        2.38277294801193       -0.27651605919758
C            1.28119041386960        3.17609698014135        0.24212783386422
C            1.20373404134060        4.62858587632527       -0.26442938718521
C            2.31242963987891        5.47890002887823        0.34837924409575
O           -2.08482140513307        0.90140580029105       -1.31159278732628
O           -2.93657721138189        1.28705966067854        1.30470075346210
H           -0.47543948864218       -1.43383098020769        0.47571946729966
H           -0.13134751736643       -2.35508150840174       -0.90536611450765
H            1.11230249512558       -0.10750233451218        1.58411578534328
H            3.43094262663854        0.72581583119669        1.66656207017153
H            4.29377118206983       -1.30039531937873       -2.00961066915612
H            1.97470306140281       -2.12751159821855       -2.10214796821240
H            6.08627879857557       -0.15863079054070       -0.79864633657796
H            5.79572688962557        0.50699554313934        0.81397434944680
H            4.57917825706506        2.44419666781400       -0.17946269470548
H            4.92235651694513        0.93435209979244       -2.66906569932515
H            5.62789957936716        4.25041497759783       -1.31738738686815
H           -0.73850455347511       -0.00875106434238       -2.51382891288160
H            1.15174172728982        1.30156638072139       -1.78412392925288
H           -0.82806060320456        2.55271246193535        0.20386491790908
H            1.25314955953089        3.17715593525640        1.33646359903566
H            2.22937637262021        2.73696474679266       -0.08059556379268
H            1.30431158996996        4.62596669923452       -1.35349170286696
H            0.22590165957931        5.05165121976533       -0.01227310761244
H            2.24924032375377        6.49927320964353       -0.03096123610560
H            2.22464104619292        5.50430492674293        1.43564341637491
H            3.28864644706602        5.07081367985985        0.08587787780558
H           -3.00265492848400        2.24200234150709        1.34306474862820
H           -2.80949265030054        1.07415232139876        0.36477201894947
O           -1.13799542129804       -0.63088497570297        2.27230251605655
H           -1.66275116992514       -1.11026006637594        2.91464193146367
H           -1.69608853234883        0.11335785846730        1.98879049980235
N            4.71655908378214        1.75997824410459       -2.12952489993950
C            6.63648894603901        2.53790447940528       -0.83921324403361
O            7.67954426603457        1.94749201555008       -0.64317089260577
C            3.35997354833909        2.43206004668452       -3.99312647577744
C            3.92701051553663        2.72977608751061       -2.62244461820360
O            3.68753420492086        3.76270435904222       -2.01514553656103
H            2.71878432551523        1.55260006702670       -3.94076433403335
H            4.16468518953605        2.23407063424690       -4.69975948354612
H            2.77696888119941        3.28516818257269       -4.33200078162801
N            6.53388322890057        3.84779881594130       -1.11826190734196
C            7.71160051560507        4.68055281823859       -1.28484506375985
H            7.65916624102869        5.53776613035986       -0.61003464005467
H            7.77714915388889        5.03699563749713       -2.31598277366080
H            8.59028609119590        4.08029241922542       -1.04817734509028
