57
 energy: -87.887880528984 gnorm: 0.001927426931 xtb: 6.7.1pre (5071a88)
N           -0.18271893791886        0.02585257260478       -1.03819432943937
C            1.18102839231373        0.15239091243886       -0.81828380358118
C            1.68832980531568        1.27252672059391       -0.15532808727398
C            3.05840800646846        1.44566288011416       -0.03195036400907
C            3.94832803804007        0.50898874412448       -0.55249626832092
C            3.43403977479270       -0.61747917396569       -1.19335716208080
C            2.06843012251657       -0.79714750298000       -1.33104541180490
C            5.43576506097799        0.74268535042805       -0.47732052746002
C            5.95953840613448        1.28142934909341       -1.82637110636273
C            2.61004567073119        0.43803465521148       -4.13527280263098
C            2.65402015679807        1.82024479441935       -3.68783830569705
C            1.59047591787457        2.42811196532548       -3.14631587713357
C            1.60265580121183        3.82590454283069       -2.63124274828670
C            0.63562672684556        4.71149533584351       -3.43529313318356
C            0.64053741964610        6.14490372184705       -2.91100639092764
O            3.58414830258319       -0.18020712848783       -4.52167243264305
O           -1.49808261480022       -1.47866827000372        0.94722578635608
H           -0.48008166261931       -0.92544444487109       -1.20177195936692
H           -0.75592360367581        0.46713142957556       -0.33351334247011
H            1.00646911353613        2.00705297104956        0.25929043661952
H            3.43909641435098        2.32577297328798        0.47641169139224
H            4.10844097341821       -1.36197762930024       -1.60112123110417
H            1.68836320256351       -1.67462399411859       -1.84196363988629
H            5.96228601114741       -0.17790159159860       -0.21925106239802
H            5.65902991919165        1.48831716596639        0.29061379951499
H            5.25626212322282        2.03560912839711       -2.20014573120738
H            5.43640879998340        0.38958565695980       -3.66219064940873
H            8.19167929554712        0.27635091980734       -1.07054993073695
H            1.61012633130469       -0.03531156128904       -4.09265477472022
H            3.60962876004411        2.32702560115178       -3.77363732728867
H            0.64511265198799        1.89666742067371       -3.06364743963063
H            1.28313464113072        3.81748006920001       -1.58422730182182
H            2.61279572105179        4.24210584767420       -2.67632929635687
H            0.93429645542810        4.70298876463204       -4.48760280194494
H           -0.37481017262267        4.29697251798305       -3.36976824065171
H           -0.05049858264594        6.75547013914733       -3.49222482729925
H            0.33364115563970        6.17177032737571       -1.86501420189129
H            1.63827274197247        6.57734677511059       -2.99107579580368
H           -0.71248883061563       -1.78674197916055        1.40174173392297
H           -2.12805961674139       -2.20051993094676        0.94529276571777
O            2.96452015636466       -2.89062143428210       -3.63885620052289
H            3.22975053484786       -2.09506613268816       -4.11835305268487
H            3.75263820239277       -3.21382490722905       -3.19963439597371
N            6.02652730647383        0.24852028857432       -2.85336265284748
C            7.30202921514459        2.01814938264616       -1.65266014464752
O            7.38216707588481        3.20549360295724       -1.91138137903939
C            6.51576253122282       -1.81810742840890       -3.95711488261082
C            6.66458229952186       -0.93157060890542       -2.73905673571696
O            7.33094600528804       -1.26871781637710       -1.77100367221899
H            6.82190019081206       -2.83027827069083       -3.70099999992789
H            7.16385060708527       -1.44227303431148       -4.74975892103027
H            5.48974873220050       -1.81886663510080       -4.32092416828884
N            8.30081967192103        1.28145262011940       -1.14734737789343
C            9.63227690308701        1.83896474996765       -0.99024219442518
H           10.31322138972095        1.40392805782803       -1.72681327653427
H           10.00425113947488        1.62473884481731        0.01380921190677
H            9.57425014609899        2.91722267519277       -1.13819806629810
