57
 energy: -87.898593468582 gnorm: 0.000227111926 xtb: 6.7.1pre (5071a88)
N           -0.15413671573787       -1.09967337846033        0.00288419701202
C            1.19904968083115       -0.87794799785806        0.15816198140273
C            1.64629048424258        0.02802822099238        1.12566164286754
C            2.98469444251810        0.37367450612234        1.18403262447174
C            3.90470567159324       -0.17825763058107        0.29295612330813
C            3.45954375017688       -1.11243406639173       -0.63999860045289
C            2.12118876091700       -1.46246698258798       -0.71361275512586
C            5.32563428344769        0.32242381371980        0.25804912765432
C            5.39013276056011        1.58894203236213       -0.60471365724475
C           -1.07648470430436        0.81415615823544       -1.39477400108242
C            0.16181118331039        1.57340954105066       -1.25618478078665
C            0.29898170733435        2.53095898072548       -0.32743796261971
C            1.54211711509981        3.31764343284028       -0.09931871467928
C            1.37216016400392        4.76936133605330       -0.58149509378095
C            2.62561379137379        5.58796065256299       -0.28565389436784
O           -2.09124465713573        1.03008177206033       -0.74696038569372
O           -2.97217362213559       -1.38585936789017        0.59375474551961
H           -0.72220031726782       -0.86715069210260        0.80428742591912
H           -0.42797295393939       -1.96967921303501       -0.42577985757300
H            0.93070786625619        0.47099598738463        1.80946461773855
H            3.31974833011491        1.09206939642901        1.92523353344816
H            4.16693450185726       -1.56645918241661       -1.32743720183881
H            1.78221387311676       -2.17444546138075       -1.45813437283087
H            6.00241521653110       -0.42874352401356       -0.15860112299355
H            5.68008799122922        0.57710917743628        1.25998853889303
H            4.72978391209157        2.36543216567257       -0.19720974151559
H            5.11043681740434        0.36514574668856       -2.31462784142974
H            6.02860320974955        3.80326439713819       -1.57438017914483
H           -1.06239796566702        0.04419663402301       -2.18778075980546
H            0.98541951705922        1.30033313781809       -1.90759126220065
H           -0.54781333722690        2.77370822734755        0.31091981980044
H            1.76377854518913        3.32581923879810        0.97311315544924
H            2.38696414933258        2.86242311882412       -0.62202725232604
H            1.18082509523669        4.76447330485719       -1.65864091826768
H            0.50601497308577        5.21957125893196       -0.08577112011130
H            2.49457634370720        6.61063662929740       -0.64049833793230
H            2.82355289849517        5.61358454301826        0.78703828995764
H            3.48844796582519        5.15183425695746       -0.78880763721765
H           -2.83026091455301       -0.94270913671421        1.43780212004973
H           -3.00004093862713       -0.67004563530781       -0.05357839227730
O           -1.68167912669737        0.80806151559042        1.96971885015979
H           -2.19979983069421        1.38846669836747        2.52904467139932
H           -1.88579260095648        1.05870707746356        1.05261532729756
N            4.92551852250177        1.28774496268677       -1.95473047433023
C            6.82558492236573        2.14227074283802       -0.68934800661131
O            7.78853964280459        1.51249709251538       -0.30093979244220
C            3.79794562130003        1.69246371358985       -4.03622277525009
C            4.28485661311117        2.20627131440477       -2.69937757943043
O            4.10581767767403        3.35532312154811       -2.32474084517649
H            3.07010180629612        0.89696888907995       -3.87892706543898
H            4.63042909198708        1.29324954036322       -4.61384996178819
H            3.33060246731798        2.50770887359008       -4.58349796248459
N            6.87464393786463        3.37249184566664       -1.22607590196205
C            8.13985343554819        4.04212437268459       -1.46994621794634
H            8.13619697719355        5.02626422651372       -0.99651669633592
H            8.30175423337404        4.15967814671143       -2.54450647968376
H            8.93671773381459        3.43234246752161       -1.04403119024458
