      -----------------------------------------------------------      
     |                   =====================                   |     
     |                           x T B                           |     
     |                   =====================                   |     
     |                         S. Grimme                         |     
     |          Mulliken Center for Theoretical Chemistry        |     
     |                    University of Bonn                     |     
      -----------------------------------------------------------      

   * xtb version 6.7.1pre (5071a88) compiled by 'Marcel@Raven' on 2024-07-23

   xtb is free software: you can redistribute it and/or modify it under
   the terms of the GNU Lesser General Public License as published by
   the Free Software Foundation, either version 3 of the License, or
   (at your option) any later version.
   
   xtb is distributed in the hope that it will be useful,
   but WITHOUT ANY WARRANTY; without even the implied warranty of
   MERCHANTABILITY or FITNESS FOR A PARTICULAR PURPOSE.  See the
   GNU Lesser General Public License for more details.
   
   Cite this work as:
   * C. Bannwarth, E. Caldeweyher, S. Ehlert, A. Hansen, P. Pracht,
     J. Seibert, S. Spicher, S. Grimme, WIREs Comput. Mol. Sci., 2020, 11,
     e01493. DOI: 10.1002/wcms.1493
   
   for GFN2-xTB:
   * C. Bannwarth, S. Ehlert and S. Grimme., J. Chem. Theory Comput., 2019,
     15, 1652-1671. DOI: 10.1021/acs.jctc.8b01176
   for GFN1-xTB:
   * S. Grimme, C. Bannwarth, P. Shushkov, J. Chem. Theory Comput., 2017,
     13, 1989-2009. DOI: 10.1021/acs.jctc.7b00118
   for GFN0-xTB:
   * P. Pracht, E. Caldeweyher, S. Ehlert, S. Grimme, ChemRxiv, 2019, preprint.
     DOI: 10.26434/chemrxiv.8326202.v1
   for GFN-FF:
   * S. Spicher and S. Grimme, Angew. Chem. Int. Ed., 2020, 59, 15665-15673.
     DOI: 10.1002/anie.202004239
   
   for ALPB and GBSA implicit solvation:
   * S. Ehlert, M. Stahn, S. Spicher, S. Grimme, J. Chem. Theory Comput.,
     2021, 17, 4250-4261. DOI: 10.1021/acs.jctc.1c00471
   
   for ddCOSMO and CPCM-X implicit solvation:
   * M. Stahn, S. Ehlert, S. Grimme, J. Phys. Chem. A,
     2023, XX, XXXX-XXXX. DOI: 10.1021/acs.jpca.3c04382
   
   for DFT-D4:
   * E. Caldeweyher, C. Bannwarth and S. Grimme, J. Chem. Phys., 2017,
     147, 034112. DOI: 10.1063/1.4993215
   * E. Caldeweyher, S. Ehlert, A. Hansen, H. Neugebauer, S. Spicher,
     C. Bannwarth and S. Grimme, J. Chem. Phys., 2019, 150, 154122.
     DOI: 10.1063/1.5090222
   * E. Caldeweyher, J.-M. Mewes, S. Ehlert and S. Grimme, Phys. Chem. Chem. Phys.
     2020, 22, 8499-8512. DOI: 10.1039/D0CP00502A
   
   for sTDA-xTB:
   * S. Grimme and C. Bannwarth, J. Chem. Phys., 2016, 145, 054103.
     DOI: 10.1063/1.4959605
   
   in the mass-spec context:
   * V. Asgeirsson, C. Bauer and S. Grimme, Chem. Sci., 2017, 8, 4879.
     DOI: 10.1039/c7sc00601b
   * J. Koopman and S. Grimme, ACS Omega 2019, 4, 12, 15120-15133.
     DOI: 10.1021/acsomega.9b02011
   
   for metadynamics refer to:
   * S. Grimme, J. Chem. Theory Comput., 2019, 155, 2847-2862
     DOI: 10.1021/acs.jctc.9b00143
   
   for SPH calculations refer to:
   * S. Spicher and S. Grimme, J. Chem. Theory Comput., 2021, 17, 1701-1714
     DOI: 10.1021/acs.jctc.0c01306
   
   for ONIOM refer to:
   * C. Plett, A. Katbashev, S. Ehlert, S. Grimme, M. Bursch,
     Phys. Chem. Chem. Phys., 2023, 25, 17860-17868. DOI: 10.1039/D3CP02178E
   
   for DIPRO refer to:
   * J. Kohn, N. Gildemeister, S. Grimme, D. Fazzi, A. Hansen,
     J. Chem. Phys., 2023, just accepted.
   
   for PTB refer to:
   * S. Grimme, M. Mueller, A. Hansen, J. Chem. Phys., 2023, 158, 124111.
     DOI: 10.1063/5.0137838
   
   with help from (in alphabetical order)
   P. Atkinson, C. Bannwarth, F. Bohle, G. Brandenburg, E. Caldeweyher
   M. Checinski, S. Dohm, S. Ehlert, S. Ehrlich, I. Gerasimov, C. Hölzer
   A. Katbashev, J. Kohn, J. Koopman, C. Lavigne, S. Lehtola, F. März, M. Müller,
   F. Musil, H. Neugebauer, J. Pisarek, C. Plett, P. Pracht, F. Pultar,
   J. Seibert, P. Shushkov, S. Spicher, M. Stahn, M. Steiner, T. Strunk,
   J. Stückrath, T. Rose, and J. Unsleber
   
 * started run on 2026/08/20 at 20:15:38.011     
   ID    Z sym.   atoms
    1    7 N      1, 44, 53
    2    6 C      2-15, 45, 47, 48, 54
    3    8 O      16, 17, 41, 46, 49
    4    1 H      18-40, 42, 43, 50-52, 55-57

           -------------------------------------------------
          |                Calculation Setup                |
           -------------------------------------------------

          program call               : C:\Users\Nayanika\Downloads\xtb-6.7.1pre-windows-x86_64\xtb-6.7.1\bin\xtb.exe D:\PhD_Thesis\LmrR_EVB\charges\fast_lmrr_5QM\xtb_preparation\stage2_five_xtb_protocols\GFN1_tight\RS1_1_to_TS1_2\RS1_1_to_TS1_2_PS_opt.xyz --gfn 1 --chrg 0 --uhf 0 --hess --etemp 0
          coordinate file            : D:\PhD_Thesis\LmrR_EVB\charges\fast_lmrr_5QM\xtb_preparation\stage2_five_xtb_protocols\GFN1_tight\RS1_1_to_TS1_2\RS1_1_to_TS1_2_PS_opt.xyz
          omp threads                :                     1


molecular fragmentation (1/2 indicates fragments):
111111111222222221111111111122222222222222211111111111111
# atoms in fragment 1/2:    34    23
 fragment masses (1/2) :      235.28      134.17
CMA distance (Bohr)    :   8.928
constraining FC (au)   :  0.0500

           -------------------------------------------------
          |                 G F N 1 - x T B                 |
           -------------------------------------------------

        Reference                      10.1021/acs.jctc.7b00118
      * Hamiltonian:
        H0-scaling (s, p, d)           1.850000    2.250000    2.000000
        zeta-weighting                 0.000000
      * Dispersion:
        s8                             2.400000
        a1                             0.630000
        a2                             5.000000
        s9                             0.000000
      * Repulsion:
        kExp                           1.500000
        rExp                           1.000000
      * Coulomb:
        alpha                          2.000000
        third order                    atomic
        anisotropic                    false
      * Halogen bond correction:
        rad-scale                      1.300000
        damping                        0.440000

q/qsh data taken from xtbrestart

          ...................................................
          :                      SETUP                      :
          :.................................................:
          :  # basis functions                 166          :
          :  # atomic orbitals                 166          :
          :  # shells                          114          :
          :  # electrons                       148          :
          :  # halogen bonds                     0          :
          :  max. iterations                   250          :
          :  Hamiltonian                  GFN1-xTB          :
          :  restarted?                       true          :
          :  GBSA solvation                  false          :
          :  PC potential                    false          :
          :  electronic temp.            0.0000000     K    :
          :  accuracy                    1.0000000          :
          :  -> integral cutoff          0.2500000E+02      :
          :  -> integral neglect         0.1000000E-07      :
          :  -> SCF convergence          0.1000000E-05 Eh   :
          :  -> wf. convergence          0.2000000E-04 e    :
          :  Broyden damping             0.4000000          :
          :  net charge                          0          :
          :  unpaired electrons                  0          :
          ...................................................

 iter      E             dE          RMSdq      gap      omega  full diag
   1    -88.9226632 -0.889227E+02  0.547E-08    1.93       0.0  T
   2    -88.9226632 -0.312639E-12  0.277E-08    1.93  100000.0  T
   3    -88.9226632 -0.284217E-13  0.130E-08    1.93  100000.0  T

   *** convergence criteria satisfied after 3 iterations ***

         #    Occupation            Energy/Eh            Energy/eV
      -------------------------------------------------------------
         1        2.0000           -0.8199498             -22.3120
       ...           ...                  ...                  ...
        68        2.0000           -0.4600227             -12.5179
        69        2.0000           -0.4555483             -12.3961
        70        2.0000           -0.4487570             -12.2113
        71        2.0000           -0.4383008             -11.9268
        72        2.0000           -0.4374161             -11.9027
        73        2.0000           -0.4307906             -11.7224
        74        2.0000           -0.3954811             -10.7616 (HOMO)
        75                         -0.3245108              -8.8304 (LUMO)
        76                         -0.2599579              -7.0738
        77                         -0.2566502              -6.9838
        78                         -0.2487903              -6.7699
        79                         -0.2410126              -6.5583
       ...                                ...                  ...
       166                          0.7165732              19.4990
      -------------------------------------------------------------
                  HL-Gap            0.0709703 Eh            1.9312 eV
             Fermi-level            0.0000000 Eh            0.0000 eV

 SCC (total)                   0 d,  0 h,  0 min,  0.088 sec
 SCC setup                      ...        0 min,  0.000 sec (  0.000%)
 Dispersion                     ...        0 min,  0.000 sec (  0.000%)
 classical contributions        ...        0 min,  0.000 sec (  0.000%)
 integral evaluation            ...        0 min,  0.032 sec ( 36.364%)
 iterations                     ...        0 min,  0.000 sec (  0.000%)
 molecular gradient             ...        0 min,  0.055 sec ( 62.500%)
 printout                       ...        0 min,  0.001 sec (  1.137%)

         :::::::::::::::::::::::::::::::::::::::::::::::::::::
         ::                     SUMMARY                     ::
         :::::::::::::::::::::::::::::::::::::::::::::::::::::
         :: total energy             -87.898604204270 Eh    ::
         :: gradient norm              0.000349713033 Eh/a0 ::
         :: HOMO-LUMO gap              1.931199797864 eV    ::
         ::.................................................::
         :: SCC energy               -88.922663201801 Eh    ::
         :: -> electrostatic           0.298556519392 Eh    ::
         :: repulsion energy           1.064250030407 Eh    ::
         :: dispersion energy         -0.040191032876 Eh    ::
         :: halogen bond corr.         0.000000000000 Eh    ::
         :: add. restraining           0.000000000000 Eh    ::
         :: total charge               0.000000000000 e     ::
         :::::::::::::::::::::::::::::::::::::::::::::::::::::

           ------------------------------------------------- 
          |                Numerical Hessian                |
           ------------------------------------------------- 
step length          :   0.00500
SCC accuracy         :   0.30000
Hessian scale factor :   1.00000
frozen atoms in %    :   0.00000    0
RMS gradient         :   0.00035
estimated CPU  time      0.46 min
estimated wall time      0.47 min

writing file <hessian>.

 projected vibrational frequencies (cm⁻¹)
eigval :       -0.00    -0.00    -0.00    -0.00     0.00     0.00
eigval :       14.84    18.20    28.13    31.58    32.19    41.82
eigval :       45.97    51.51    58.54    61.84    70.46    76.81
eigval :       79.82    83.60    91.22    94.37    97.47   108.47
eigval :      115.27   119.08   120.74   137.70   146.01   159.65
eigval :      173.44   174.28   189.80   204.09   211.14   224.34
eigval :      235.95   274.75   279.22   279.49   294.67   302.44
eigval :      319.53   328.08   338.25   347.69   353.80   372.05
eigval :      386.19   397.93   410.08   440.80   446.92   457.97
eigval :      470.79   480.91   512.93   525.51   541.56   569.34
eigval :      607.89   610.20   660.40   673.87   681.35   721.21
eigval :      730.61   750.31   765.35   775.90   791.77   838.32
eigval :      866.20   877.85   878.29   891.99   910.98   919.73
eigval :      927.30   933.25   971.14   984.62   985.06   991.89
eigval :      993.70  1014.25  1019.18  1039.48  1056.26  1065.58
eigval :     1068.21  1098.45  1102.59  1118.03  1119.15  1133.70
eigval :     1147.67  1160.59  1163.00  1191.49  1209.82  1215.98
eigval :     1223.52  1246.46  1250.79  1262.24  1279.89  1281.39
eigval :     1284.35  1285.88  1303.38  1315.04  1328.48  1334.52
eigval :     1347.80  1385.49  1394.61  1407.49  1423.50  1426.35
eigval :     1435.28  1436.17  1441.64  1444.70  1448.21  1455.08
eigval :     1455.91  1466.66  1467.48  1474.93  1475.75  1481.01
eigval :     1494.00  1521.36  1580.66  1608.43  1622.11  1700.27
eigval :     1714.42  1759.49  2888.39  2991.44  3008.29  3012.97
eigval :     3015.77  3022.99  3031.71  3038.60  3039.81  3048.87
eigval :     3050.20  3051.96  3073.80  3081.49  3084.35  3086.01
eigval :     3086.96  3087.41  3097.78  3103.82  3107.44  3109.43
eigval :     3114.74  3466.96  3474.58  3489.34  3519.96  3577.36
eigval :     3589.40  3685.56  3730.74
           -------------------------------------------------
          |                Property Printout                |
           -------------------------------------------------

    * Orbital Energies and Occupations

         #    Occupation            Energy/Eh            Energy/eV
      -------------------------------------------------------------
         1        2.0000           -0.8199498             -22.3120
       ...           ...                  ...                  ...
        62        2.0000           -0.4789459             -13.0328
        63        2.0000           -0.4769503             -12.9785
        64        2.0000           -0.4739938             -12.8980
        65        2.0000           -0.4736881             -12.8897
        66        2.0000           -0.4671255             -12.7111
        67        2.0000           -0.4640623             -12.6278
        68        2.0000           -0.4600227             -12.5179
        69        2.0000           -0.4555483             -12.3961
        70        2.0000           -0.4487570             -12.2113
        71        2.0000           -0.4383008             -11.9268
        72        2.0000           -0.4374161             -11.9027
        73        2.0000           -0.4307906             -11.7224
        74        2.0000           -0.3954811             -10.7616 (HOMO)
        75                         -0.3245108              -8.8304 (LUMO)
        76                         -0.2599579              -7.0738
        77                         -0.2566502              -6.9838
        78                         -0.2487903              -6.7699
        79                         -0.2410126              -6.5583
        80                         -0.2120592              -5.7704
        81                         -0.1604202              -4.3653
        82                         -0.1494039              -4.0655
        83                         -0.1444173              -3.9298
        84                         -0.1389949              -3.7822
        85                         -0.1341734              -3.6510
       ...                                ...                  ...
       166                          0.7165732              19.4990
      -------------------------------------------------------------
                  HL-Gap            0.0709703 Eh            1.9312 eV
             Fermi-level            0.0000000 Eh            0.0000 eV

  Mulliken/CM5 charges         n(s)   n(p)   n(d)
     1N    -0.42758 -0.89740   1.437  3.990  0.000
     2C     0.15048  0.20131   1.042  2.807  0.000
     3C    -0.07339 -0.12237   1.059  3.015  0.000
     4C    -0.03724 -0.09115   1.059  2.978  0.000
     5C    -0.02326 -0.03708   1.078  2.945  0.000
     6C    -0.04146 -0.09439   1.058  2.984  0.000
     7C    -0.08189 -0.13054   1.054  3.028  0.000
     8C    -0.05230 -0.14758   1.033  3.019  0.000
     9C     0.08593  0.08985   1.050  2.864  0.000
    10C     0.38534  0.37114   1.038  2.577  0.000
    11C    -0.09170 -0.14634   1.066  3.026  0.000
    12C     0.04360 -0.01745   1.092  2.864  0.000
    13C    -0.04692 -0.15394   1.032  3.015  0.000
    14C    -0.02336 -0.13512   1.029  2.995  0.000
    15C    -0.08177 -0.23314   1.007  3.075  0.000
    16O    -0.53168 -0.61972   1.733  4.799  0.000
    17O    -0.68819 -1.02806   1.707  4.981  0.000
    18H     0.23900  0.44440   0.761  0.000  0.000
    19H     0.22127  0.41457   0.779  0.000  0.000
    20H     0.04177  0.10417   0.958  0.000  0.000
    21H     0.02650  0.08364   0.974  0.000  0.000
    22H     0.01898  0.07701   0.981  0.000  0.000
    23H     0.02829  0.08728   0.972  0.000  0.000
    24H     0.04595  0.10742   0.954  0.000  0.000
    25H     0.04906  0.10778   0.951  0.000  0.000
    26H     0.05106  0.12996   0.949  0.000  0.000
    27H     0.23054  0.42902   0.769  0.000  0.000
    28H     0.24424  0.45045   0.756  0.000  0.000
    29H     0.01092  0.07605   0.989  0.000  0.000
    30H     0.03433  0.09372   0.966  0.000  0.000
    31H     0.04414  0.10571   0.956  0.000  0.000
    32H     0.03472  0.09060   0.965  0.000  0.000
    33H     0.04051  0.10225   0.959  0.000  0.000
    34H     0.03583  0.09328   0.964  0.000  0.000
    35H     0.01976  0.07476   0.980  0.000  0.000
    36H     0.03121  0.08268   0.969  0.000  0.000
    37H     0.02190  0.07369   0.978  0.000  0.000
    38H     0.03857  0.09483   0.961  0.000  0.000
    39H     0.33116  0.50763   0.669  0.000  0.000
    40H     0.33929  0.51976   0.661  0.000  0.000
    41O    -0.68930 -1.04105   1.707  4.982  0.000
    42H     0.33692  0.50579   0.663  0.000  0.000
    43H     0.35401  0.54177   0.646  0.000  0.000
    44N    -0.34477 -0.70922   1.424  3.921  0.000
    45C     0.46163  0.56508   0.991  2.547  0.000
    46O    -0.55572 -0.60320   1.724  4.832  0.000
    47C    -0.13270 -0.27080   1.021  3.112  0.000
    48C     0.47649  0.56831   0.991  2.532  0.000
    49O    -0.56874 -0.63291   1.725  4.844  0.000
    50H     0.04942  0.10476   0.951  0.000  0.000
    51H     0.05160  0.10675   0.948  0.000  0.000
    52H     0.06333  0.11911   0.937  0.000  0.000
    53N    -0.34112 -0.70866   1.424  3.917  0.000
    54C     0.06674 -0.02222   0.979  2.954  0.000
    55H     0.03268  0.09336   0.967  0.000  0.000
    56H     0.03183  0.09247   0.968  0.000  0.000
    57H     0.06410  0.13197   0.936  0.000  0.000

Wiberg/Mayer (AO) data.
largest (>0.10) Wiberg bond orders for each atom

 ---------------------------------------------------------------------------
     #   Z sym  total        # sym  WBO       # sym  WBO       # sym  WBO
 ---------------------------------------------------------------------------
     1   7 N    3.211 --     2 C    1.127    19 H    0.925    18 H    0.906
     2   6 C    3.959 --     7 C    1.353     3 C    1.345     1 N    1.127
     3   6 C    3.991 --     4 C    1.470     2 C    1.345    20 H    0.970
                             6 C    0.101
     4   6 C    3.995 --     3 C    1.470     5 C    1.397    21 H    0.973
                             7 C    0.100
     5   6 C    3.982 --     6 C    1.406     4 C    1.397     8 C    1.009
     6   6 C    3.995 --     7 C    1.459     5 C    1.406    22 H    0.971
                             3 C    0.101
     7   6 C    3.990 --     6 C    1.459     2 C    1.353    23 H    0.973
                             4 C    0.100
     8   6 C    3.993 --     5 C    1.009     9 C    0.981    24 H    0.973
                            25 H    0.971
     9   6 C    3.936 --     8 C    0.981    26 H    0.960    44 N    0.930
                            45 C    0.924
    10   6 C    3.860 --    16 O    1.677    11 C    1.101    29 H    0.949
    11   6 C    3.990 --    12 C    1.795    10 C    1.101    30 H    0.972
    12   6 C    3.971 --    11 C    1.795    13 C    1.043    31 H    0.968
    13   6 C    3.995 --    12 C    1.043    33 H    0.968    32 H    0.967
                            14 C    0.967
    14   6 C    3.993 --    15 C    1.017    35 H    0.982    34 H    0.979
                            13 C    0.967
    15   6 C    3.995 --    14 C    1.017    37 H    0.988    36 H    0.985
                            38 H    0.984
    16   8 O    1.991 --    10 C    1.677
    17   8 O    1.803 --    39 H    0.880    40 H    0.871
    18   1 H    0.968 --     1 N    0.906
    19   1 H    0.964 --     1 N    0.925
    20   1 H    1.010 --     3 C    0.970
    21   1 H    1.002 --     4 C    0.973
    22   1 H    1.004 --     6 C    0.971
    23   1 H    1.000 --     7 C    0.973
    24   1 H    1.006 --     8 C    0.973
    25   1 H    1.005 --     8 C    0.971
    26   1 H    1.015 --     9 C    0.960
    27   1 H    0.957 --    44 N    0.912
    28   1 H    0.957 --    53 N    0.895
    29   1 H    1.024 --    10 C    0.949
    30   1 H    1.006 --    11 C    0.972
    31   1 H    1.011 --    12 C    0.968
    32   1 H    1.008 --    13 C    0.967
    33   1 H    1.018 --    13 C    0.968
    34   1 H    1.013 --    14 C    0.979
    35   1 H    1.006 --    14 C    0.982
    36   1 H    1.004 --    15 C    0.985
    37   1 H    1.005 --    15 C    0.988
    38   1 H    1.015 --    15 C    0.984
    39   1 H    0.911 --    17 O    0.880
    40   1 H    0.905 --    17 O    0.871
    41   8 O    1.820 --    42 H    0.888    43 H    0.834
    42   1 H    0.893 --    41 O    0.888
    43   1 H    0.897 --    41 O    0.834
    44   7 N    3.334 --    48 C    1.264     9 C    0.930    27 H    0.912
                            49 O    0.162
    45   6 C    3.906 --    46 O    1.632    53 N    1.275     9 C    0.924
    46   8 O    1.935 --    45 C    1.632    53 N    0.177
    47   6 C    3.994 --    52 H    0.984    48 C    0.983    51 H    0.973
                            50 H    0.973
    48   6 C    3.895 --    49 O    1.587    44 N    1.264    47 C    0.983
    49   8 O    1.935 --    48 C    1.587    44 N    0.162
    50   1 H    1.003 --    47 C    0.973
    51   1 H    1.001 --    47 C    0.973
    52   1 H    1.004 --    47 C    0.984
    53   7 N    3.339 --    45 C    1.275    54 C    0.955    28 H    0.895
                            46 O    0.177
    54   6 C    3.948 --    55 H    0.986    56 H    0.985    57 H    0.982
                            53 N    0.955
    55   1 H    1.006 --    54 C    0.986
    56   1 H    1.005 --    54 C    0.985
    57   1 H    1.008 --    54 C    0.982
 ---------------------------------------------------------------------------

Topologies differ in total number of bonds
Writing topology from bond orders to xtbtopo.mol

 dipole moment from electron density (au)
     X       Y       Z   
  -0.0121   1.1676  -1.2620  total (Debye):    4.370

           -------------------------------------------------
          |               Frequency Printout                |
           -------------------------------------------------
 projected vibrational frequencies (cm⁻¹)
eigval :       -0.00    -0.00    -0.00    -0.00     0.00     0.00
eigval :       14.84    18.20    28.13    31.58    32.19    41.82
eigval :       45.97    51.51    58.54    61.84    70.46    76.81
eigval :       79.82    83.60    91.22    94.37    97.47   108.47
eigval :      115.27   119.08   120.74   137.70   146.01   159.65
eigval :      173.44   174.28   189.80   204.09   211.14   224.34
eigval :      235.95   274.75   279.22   279.49   294.67   302.44
eigval :      319.53   328.08   338.25   347.69   353.80   372.05
eigval :      386.19   397.93   410.08   440.80   446.92   457.97
eigval :      470.79   480.91   512.93   525.51   541.56   569.34
eigval :      607.89   610.20   660.40   673.87   681.35   721.21
eigval :      730.61   750.31   765.35   775.90   791.77   838.32
eigval :      866.20   877.85   878.29   891.99   910.98   919.73
eigval :      927.30   933.25   971.14   984.62   985.06   991.89
eigval :      993.70  1014.25  1019.18  1039.48  1056.26  1065.58
eigval :     1068.21  1098.45  1102.59  1118.03  1119.15  1133.70
eigval :     1147.67  1160.59  1163.00  1191.49  1209.82  1215.98
eigval :     1223.52  1246.46  1250.79  1262.24  1279.89  1281.39
eigval :     1284.35  1285.88  1303.38  1315.04  1328.48  1334.52
eigval :     1347.80  1385.49  1394.61  1407.49  1423.50  1426.35
eigval :     1435.28  1436.17  1441.64  1444.70  1448.21  1455.08
eigval :     1455.91  1466.66  1467.48  1474.93  1475.75  1481.01
eigval :     1494.00  1521.36  1580.66  1608.43  1622.11  1700.27
eigval :     1714.42  1759.49  2888.39  2991.44  3008.29  3012.97
eigval :     3015.77  3022.99  3031.71  3038.60  3039.81  3048.87
eigval :     3050.20  3051.96  3073.80  3081.49  3084.35  3086.01
eigval :     3086.96  3087.41  3097.78  3103.82  3107.44  3109.43
eigval :     3114.74  3466.96  3474.58  3489.34  3519.96  3577.36
eigval :     3589.40  3685.56  3730.74
 reduced masses (amu)
   1: 12.20   2: 12.36   3: 12.12   4: 12.51   5: 12.42   6: 11.40   7: 12.18   8: 12.00
   9: 12.38  10: 10.99  11: 11.78  12: 12.30  13: 12.55  14:  6.41  15:  5.00  16:  8.89
  17:  9.51  18: 12.68  19: 11.25  20: 10.22  21:  9.12  22: 10.27  23: 10.61  24: 11.90
  25: 10.23  26: 11.17  27: 10.04  28: 11.49  29: 11.75  30: 12.32  31: 10.34  32:  4.15
  33: 11.33  34: 12.52  35:  3.29  36: 10.92  37: 12.26  38:  9.45  39:  4.28  40:  6.07
  41:  9.09  42:  8.17  43:  6.90  44: 10.07  45:  3.04  46:  8.67  47: 10.34  48:  8.96
  49:  7.42  50:  7.24  51:  6.25  52:  2.71  53:  8.13  54:  5.39  55:  9.37  56: 10.35
  57:  3.82  58:  9.16  59:  1.64  60:  8.53  61: 10.81  62: 11.00  63:  9.80  64:  8.59
  65:  7.19  66:  9.80  67: 11.32  68:  3.71  69:  5.63  70:  8.69  71:  6.99  72:  3.33
  73:  7.36  74:  6.48  75:  7.79  76:  2.98  77:  3.82  78:  5.93  79:  9.45  80:  5.72
  81: 10.32  82:  6.47  83:  6.11  84:  2.78  85:  5.62  86:  8.21  87:  8.27  88:  4.54
  89:  5.74  90:  6.28  91:  7.32  92:  7.42  93:  8.63  94:  3.41  95:  2.85  96:  6.57
  97:  7.72  98:  2.44  99:  5.44 100:  5.15 101:  6.12 102:  4.65 103:  4.91 104:  5.42
 105:  3.47 106:  2.66 107:  3.54 108:  3.82 109:  4.94 110:  4.02 111:  8.52 112:  7.90
 113: 10.84 114:  5.16 115:  3.59 116:  3.10 117:  3.47 118:  3.66 119:  9.48 120:  9.79
 121:  5.98 122:  3.49 123:  1.76 124:  1.54 125:  1.49 126:  2.16 127:  2.30 128:  2.13
 129:  1.96 130:  3.20 131:  1.54 132:  1.70 133:  6.82 134:  5.91 135: 11.48 136: 11.50
 137: 11.87 138: 12.60 139: 13.14 140: 13.27 141:  1.74 142:  1.78 143:  1.54 144:  1.60
 145:  1.28 146:  1.54 147:  1.33 148:  1.88 149:  1.29 150:  1.98 151:  1.97 152:  2.01
 153:  1.99 154:  1.85 155:  1.99 156:  1.98 157:  1.97 158:  1.82 159:  1.82 160:  1.86
 161:  1.88 162:  1.99 163:  1.89 164:  1.77 165:  1.89 166:  1.51 167:  1.87 168:  2.14
 169:  1.62 170:  2.10 171:  1.97
 IR intensities (km·mol⁻¹)
   1:  0.06   2:  0.04   3:  0.13   4:  0.06   5:  0.02   6:  0.36   7:  2.60   8:  0.35
   9:  0.46  10:  1.08  11:  1.56  12:  2.89  13:  2.45  14: 12.04  15:  0.91  16:  3.73
  17:  2.90  18:  0.85  19:  8.91  20:  1.00  21:  3.52  22:  8.14  23: 12.53  24:  5.62
  25:  0.70  26:  7.66  27:  7.43  28: 10.27  29: 13.74  30: 17.46  31: 19.29  32:100.64
  33: 20.58  34:  8.13  35:  1.66  36: 19.78  37:  1.69  38: 71.14  39: 14.33  40:153.30
  41: 10.59  42: 64.54  43: 69.21  44:  1.63  45:  8.80  46:  9.72  47: 41.88  48:  0.32
  49: 17.06  50: 64.62  51:207.63  52:737.95  53:  5.19  54:153.78  55:110.71  56:  4.84
  57:119.72  58: 31.47  59:236.08  60:  2.70  61:  8.87  62:  2.16  63: 42.51  64: 48.71
  65:229.79  66: 46.23  67: 29.19  68: 13.09  69: 28.60  70: 41.18  71: 55.64  72:  3.07
  73:  4.85  74:  3.96  75:  4.46  76:  0.25  77:  0.11  78:  2.43  79:  3.90  80: 36.07
  81: 13.40  82:  2.11  83: 35.48  84: 34.43  85: 41.42  86:  3.08  87: 26.90  88:  6.04
  89:  4.21  90:  9.76  91:  1.14  92: 22.71  93:  8.37  94:  4.28  95: 12.05  96: 37.69
  97:  2.04  98:  1.87  99:  2.66 100:  8.86 101:  2.88 102:  6.65 103:  6.57 104: 44.53
 105: 50.89 106:  4.91 107:  2.19 108:  7.49 109: 28.98 110:  4.07 111: 46.51 112:  9.13
 113:  7.73 114: 11.89 115: 49.30 116:  4.91 117:  9.45 118: 28.14 119:308.88 120:  5.88
 121:233.11 122:260.87 123: 12.40 124: 15.29 125: 16.30 126:  9.83 127:  2.73 128:262.26
 129: 23.01 130: 71.63 131: 12.71 132:  9.67 133: 15.02 134:328.41 135:  4.44 136: 23.21
 137:589.34 138:307.01 139:446.35 140:650.18 141: 75.73 142:  6.00 143:  6.09 144: 25.47
 145: 25.30 146: 11.62 147: 13.89 148:  7.41 149:  0.42 150: 15.64 151: 14.41 152:  8.57
 153: 22.44 154:  9.73 155:  4.31 156: 14.65 157:  2.62 158: 17.59 159: 10.94 160: 10.52
 161: 17.88 162:  2.69 163:  2.25 164:169.22 165: 57.00 166: 83.55 167: 20.97 168: 24.00
 169:134.67 170: 89.47 171: 92.85
 Raman intensities (Ä⁴*amu⁻¹)
   1:  0.00   2:  0.00   3:  0.00   4:  0.00   5:  0.00   6:  0.00   7:  0.00   8:  0.00
   9:  0.00  10:  0.00  11:  0.00  12:  0.00  13:  0.00  14:  0.00  15:  0.00  16:  0.00
  17:  0.00  18:  0.00  19:  0.00  20:  0.00  21:  0.00  22:  0.00  23:  0.00  24:  0.00
  25:  0.00  26:  0.00  27:  0.00  28:  0.00  29:  0.00  30:  0.00  31:  0.00  32:  0.00
  33:  0.00  34:  0.00  35:  0.00  36:  0.00  37:  0.00  38:  0.00  39:  0.00  40:  0.00
  41:  0.00  42:  0.00  43:  0.00  44:  0.00  45:  0.00  46:  0.00  47:  0.00  48:  0.00
  49:  0.00  50:  0.00  51:  0.00  52:  0.00  53:  0.00  54:  0.00  55:  0.00  56:  0.00
  57:  0.00  58:  0.00  59:  0.00  60:  0.00  61:  0.00  62:  0.00  63:  0.00  64:  0.00
  65:  0.00  66:  0.00  67:  0.00  68:  0.00  69:  0.00  70:  0.00  71:  0.00  72:  0.00
  73:  0.00  74:  0.00  75:  0.00  76:  0.00  77:  0.00  78:  0.00  79:  0.00  80:  0.00
  81:  0.00  82:  0.00  83:  0.00  84:  0.00  85:  0.00  86:  0.00  87:  0.00  88:  0.00
  89:  0.00  90:  0.00  91:  0.00  92:  0.00  93:  0.00  94:  0.00  95:  0.00  96:  0.00
  97:  0.00  98:  0.00  99:  0.00 100:  0.00 101:  0.00 102:  0.00 103:  0.00 104:  0.00
 105:  0.00 106:  0.00 107:  0.00 108:  0.00 109:  0.00 110:  0.00 111:  0.00 112:  0.00
 113:  0.00 114:  0.00 115:  0.00 116:  0.00 117:  0.00 118:  0.00 119:  0.00 120:  0.00
 121:  0.00 122:  0.00 123:  0.00 124:  0.00 125:  0.00 126:  0.00 127:  0.00 128:  0.00
 129:  0.00 130:  0.00 131:  0.00 132:  0.00 133:  0.00 134:  0.00 135:  0.00 136:  0.00
 137:  0.00 138:  0.00 139:  0.00 140:  0.00 141:  0.00 142:  0.00 143:  0.00 144:  0.00
 145:  0.00 146:  0.00 147:  0.00 148:  0.00 149:  0.00 150:  0.00 151:  0.00 152:  0.00
 153:  0.00 154:  0.00 155:  0.00 156:  0.00 157:  0.00 158:  0.00 159:  0.00 160:  0.00
 161:  0.00 162:  0.00 163:  0.00 164:  0.00 165:  0.00 166:  0.00 167:  0.00 168:  0.00
 169:  0.00 170:  0.00 171:  0.00
 output can be read by thermo (or use thermo option).
 writing <g98.out> molden fake output.
 recommended (thermochemical) frequency scaling factor: 1.0
           -------------------------------------------------
          |             Thermodynamic Functions             |
           -------------------------------------------------

Refinement of some symmetry elements was terminated before convergence was reached.
Some symmetry elements may remain unidentified.
Molecule has no symmetry elements
It seems to be the C1 point group
c1  symmetry found (for desy threshold:  0.10E+00) used in thermo

          ...................................................
          :                      SETUP                      :
          :.................................................:
          :  # frequencies                         165      :
          :  # imaginary freq.                       0      :
          :  linear?                             false      :
          :  only rotor calc.                    false      :
          :  symmetry                               c1      :
          :  rotational number                       1      :
          :  scaling factor                  1.0000000      :
          :  rotor cutoff                   50.0000000 cm⁻¹ :
          :  imag. cutoff                  -20.0000000 cm⁻¹ :
          :.................................................:

    mode    ω/cm⁻¹     T·S(HO)/kcal·mol⁻¹    T·S(FR)/kcal·mol⁻¹   T·S(vib)
   ------------------------------------------------------------------------
       1     14.84    -2.15449 (  0.77%)    -1.41621 ( 99.23%)    -1.42190
       2     18.20    -2.03368 (  1.73%)    -1.35579 ( 98.27%)    -1.36749
       3     28.13    -1.77621 (  9.10%)    -1.22695 ( 90.90%)    -1.27693
       4     31.58    -1.70764 ( 13.73%)    -1.19261 ( 86.27%)    -1.26333
       5     32.19    -1.69646 ( 14.65%)    -1.18701 ( 85.35%)    -1.26166
       6     41.82    -1.54175 ( 32.85%)    -1.10946 ( 67.15%)    -1.25148
       7     45.97    -1.48586 ( 41.68%)    -1.08141 ( 58.32%)    -1.24997
       8     51.51    -1.41876 ( 52.97%)    -1.04771 ( 47.03%)    -1.24426
       9     58.54    -1.34344 ( 65.26%)    -1.00983 ( 34.74%)    -1.22755
      10     61.84    -1.31112 ( 70.06%)    -0.99356 ( 29.94%)    -1.21605
      11     70.46    -1.23451 ( 79.77%)    -0.95493 ( 20.23%)    -1.17794
      12     76.81    -1.18387 ( 84.78%)    -0.92934 ( 15.22%)    -1.14513
      13     79.82    -1.16138 ( 86.66%)    -0.91796 ( 13.34%)    -1.12890
      14     83.60    -1.13430 ( 88.66%)    -0.90425 ( 11.34%)    -1.10821
      15     91.22    -1.08339 ( 91.72%)    -0.87842 (  8.28%)    -1.06642
      16     94.37    -1.06361 ( 92.70%)    -0.86836 (  7.30%)    -1.04935
      17     97.47    -1.04482 ( 93.52%)    -0.85880 (  6.48%)    -1.03277
      18    108.47    -0.98272 ( 95.68%)    -0.82710 (  4.32%)    -0.97600
      19    115.27    -0.94757 ( 96.58%)    -0.80910 (  3.42%)    -0.94283
      20    119.08    -0.92879 ( 96.99%)    -0.79946 (  3.01%)    -0.92489
      21    120.74    -0.92081 ( 97.14%)    -0.79536 (  2.86%)    -0.91723
      22    137.70    -0.84543 ( 98.29%)    -0.75643 (  1.71%)    -0.84391
      23    146.01    -0.81204 ( 98.64%)    -0.73908 (  1.36%)    -0.81105
      24    159.65    -0.76147 ( 99.05%)    -0.71262 (  0.95%)    -0.76100
      25    173.44    -0.71493 ( 99.31%)    -0.68808 (  0.69%)    -0.71475
      26    174.28    -0.71222 ( 99.33%)    -0.68664 (  0.67%)    -0.71204
      27    189.80    -0.66482 ( 99.52%)    -0.66138 (  0.48%)    -0.66480
      28    204.09    -0.62489 ( 99.64%)    -0.63986 (  0.36%)    -0.62494
      29    211.14    -0.60637 ( 99.69%)    -0.62981 (  0.31%)    -0.60645
      30    224.34    -0.57356 ( 99.75%)    -0.61184 (  0.25%)    -0.57366
      31    235.95    -0.54657 ( 99.80%)    -0.59689 (  0.20%)    -0.54667
      32    274.75    -0.46695 ( 99.89%)    -0.55180 (  0.11%)    -0.46704
      33    279.22    -0.45868 ( 99.90%)    -0.54701 (  0.10%)    -0.45877
      34    279.49    -0.45819 ( 99.90%)    -0.54673 (  0.10%)    -0.45828
      35    294.67    -0.43142 ( 99.92%)    -0.53106 (  0.08%)    -0.43150
   ------------------------------------------------------------------------

   temp. (K)  partition function   enthalpy   heat capacity  entropy
                                   cal/mol     cal/K/mol   cal/K/mol   J/K/mol
 298.15  VIB  0.218E+18            20498.388    109.993    134.989
         ROT  0.143E+08              888.752      2.981     35.718
         INT  0.311E+25            21387.140    112.974    170.707
         TR   0.687E+28             1481.254      4.968     43.594
         TOT                       22868.3943   117.9419   214.3007   896.6339

       T/K    H(0)-H(T)+PV         H(T)/Eh          T*S/Eh         G(T)/Eh
   ------------------------------------------------------------------------
    298.15    0.364431E-01    0.503752E+00    0.101821E+00    0.401930E+00
   ------------------------------------------------------------------------

         :::::::::::::::::::::::::::::::::::::::::::::::::::::
         ::                  THERMODYNAMIC                  ::
         :::::::::::::::::::::::::::::::::::::::::::::::::::::
         :: total free energy         -87.496673811916 Eh   ::
         ::.................................................::
         :: total energy              -87.898604204270 Eh   ::
         :: zero point energy           0.467308441163 Eh   ::
         :: G(RRHO) w/o ZPVE           -0.065378048808 Eh   ::
         :: G(RRHO) contrib.            0.401930392355 Eh   ::
         :::::::::::::::::::::::::::::::::::::::::::::::::::::

           -------------------------------------------------
          | TOTAL ENERGY              -87.898604204270 Eh   |
          | TOTAL ENTHALPY            -87.394852657012 Eh   |
          | TOTAL FREE ENERGY         -87.496673811916 Eh   |
          | GRADIENT NORM               0.000349712999 Eh/α |
          | HOMO-LUMO GAP               1.931199797790 eV   |
           -------------------------------------------------

------------------------------------------------------------------------
 * finished run on 2026/08/20 at 20:16:07.282     
------------------------------------------------------------------------
 total:
 * wall-time:     0 d,  0 h,  0 min, 29.271 sec
 *  cpu-time:     0 d,  0 h,  0 min, 28.484 sec
 * ratio c/w:     0.973 speedup
 SCF:
 * wall-time:     0 d,  0 h,  0 min,  0.088 sec
 *  cpu-time:     0 d,  0 h,  0 min,  0.078 sec
 * ratio c/w:     0.888 speedup
 analytical hessian:
 * wall-time:     0 d,  0 h,  0 min, 29.126 sec
 *  cpu-time:     0 d,  0 h,  0 min, 28.344 sec
 * ratio c/w:     0.973 speedup



===== STDERR =====

normal termination of xtb
