      -----------------------------------------------------------      
     |                   =====================                   |     
     |                           x T B                           |     
     |                   =====================                   |     
     |                         S. Grimme                         |     
     |          Mulliken Center for Theoretical Chemistry        |     
     |                    University of Bonn                     |     
      -----------------------------------------------------------      

   * xtb version 6.7.1pre (5071a88) compiled by 'Marcel@Raven' on 2024-07-23

   xtb is free software: you can redistribute it and/or modify it under
   the terms of the GNU Lesser General Public License as published by
   the Free Software Foundation, either version 3 of the License, or
   (at your option) any later version.
   
   xtb is distributed in the hope that it will be useful,
   but WITHOUT ANY WARRANTY; without even the implied warranty of
   MERCHANTABILITY or FITNESS FOR A PARTICULAR PURPOSE.  See the
   GNU Lesser General Public License for more details.
   
   Cite this work as:
   * C. Bannwarth, E. Caldeweyher, S. Ehlert, A. Hansen, P. Pracht,
     J. Seibert, S. Spicher, S. Grimme, WIREs Comput. Mol. Sci., 2020, 11,
     e01493. DOI: 10.1002/wcms.1493
   
   for GFN2-xTB:
   * C. Bannwarth, S. Ehlert and S. Grimme., J. Chem. Theory Comput., 2019,
     15, 1652-1671. DOI: 10.1021/acs.jctc.8b01176
   for GFN1-xTB:
   * S. Grimme, C. Bannwarth, P. Shushkov, J. Chem. Theory Comput., 2017,
     13, 1989-2009. DOI: 10.1021/acs.jctc.7b00118
   for GFN0-xTB:
   * P. Pracht, E. Caldeweyher, S. Ehlert, S. Grimme, ChemRxiv, 2019, preprint.
     DOI: 10.26434/chemrxiv.8326202.v1
   for GFN-FF:
   * S. Spicher and S. Grimme, Angew. Chem. Int. Ed., 2020, 59, 15665-15673.
     DOI: 10.1002/anie.202004239
   
   for ALPB and GBSA implicit solvation:
   * S. Ehlert, M. Stahn, S. Spicher, S. Grimme, J. Chem. Theory Comput.,
     2021, 17, 4250-4261. DOI: 10.1021/acs.jctc.1c00471
   
   for ddCOSMO and CPCM-X implicit solvation:
   * M. Stahn, S. Ehlert, S. Grimme, J. Phys. Chem. A,
     2023, XX, XXXX-XXXX. DOI: 10.1021/acs.jpca.3c04382
   
   for DFT-D4:
   * E. Caldeweyher, C. Bannwarth and S. Grimme, J. Chem. Phys., 2017,
     147, 034112. DOI: 10.1063/1.4993215
   * E. Caldeweyher, S. Ehlert, A. Hansen, H. Neugebauer, S. Spicher,
     C. Bannwarth and S. Grimme, J. Chem. Phys., 2019, 150, 154122.
     DOI: 10.1063/1.5090222
   * E. Caldeweyher, J.-M. Mewes, S. Ehlert and S. Grimme, Phys. Chem. Chem. Phys.
     2020, 22, 8499-8512. DOI: 10.1039/D0CP00502A
   
   for sTDA-xTB:
   * S. Grimme and C. Bannwarth, J. Chem. Phys., 2016, 145, 054103.
     DOI: 10.1063/1.4959605
   
   in the mass-spec context:
   * V. Asgeirsson, C. Bauer and S. Grimme, Chem. Sci., 2017, 8, 4879.
     DOI: 10.1039/c7sc00601b
   * J. Koopman and S. Grimme, ACS Omega 2019, 4, 12, 15120-15133.
     DOI: 10.1021/acsomega.9b02011
   
   for metadynamics refer to:
   * S. Grimme, J. Chem. Theory Comput., 2019, 155, 2847-2862
     DOI: 10.1021/acs.jctc.9b00143
   
   for SPH calculations refer to:
   * S. Spicher and S. Grimme, J. Chem. Theory Comput., 2021, 17, 1701-1714
     DOI: 10.1021/acs.jctc.0c01306
   
   for ONIOM refer to:
   * C. Plett, A. Katbashev, S. Ehlert, S. Grimme, M. Bursch,
     Phys. Chem. Chem. Phys., 2023, 25, 17860-17868. DOI: 10.1039/D3CP02178E
   
   for DIPRO refer to:
   * J. Kohn, N. Gildemeister, S. Grimme, D. Fazzi, A. Hansen,
     J. Chem. Phys., 2023, just accepted.
   
   for PTB refer to:
   * S. Grimme, M. Mueller, A. Hansen, J. Chem. Phys., 2023, 158, 124111.
     DOI: 10.1063/5.0137838
   
   with help from (in alphabetical order)
   P. Atkinson, C. Bannwarth, F. Bohle, G. Brandenburg, E. Caldeweyher
   M. Checinski, S. Dohm, S. Ehlert, S. Ehrlich, I. Gerasimov, C. Hölzer
   A. Katbashev, J. Kohn, J. Koopman, C. Lavigne, S. Lehtola, F. März, M. Müller,
   F. Musil, H. Neugebauer, J. Pisarek, C. Plett, P. Pracht, F. Pultar,
   J. Seibert, P. Shushkov, S. Spicher, M. Stahn, M. Steiner, T. Strunk,
   J. Stückrath, T. Rose, and J. Unsleber
   
 * started run on 2026/08/20 at 20:13:26.864     
   ID    Z sym.   atoms
    1    7 N      1, 44, 53
    2    6 C      2-15, 45, 47, 48, 54
    3    8 O      16, 17, 41, 46, 49
    4    1 H      18-40, 42, 43, 50-52, 55-57

           -------------------------------------------------
          |                Calculation Setup                |
           -------------------------------------------------

          program call               : C:\Users\Nayanika\Downloads\xtb-6.7.1pre-windows-x86_64\xtb-6.7.1\bin\xtb.exe D:\PhD_Thesis\LmrR_EVB\charges\fast_lmrr_5QM\xtb_preparation\stage2_five_xtb_protocols\GFN1_tight\RS1_1_to_TS1_2\RS1_1_to_TS1_2_RS_opt.xyz --gfn 1 --chrg 0 --uhf 0 --hess --etemp 0
          coordinate file            : D:\PhD_Thesis\LmrR_EVB\charges\fast_lmrr_5QM\xtb_preparation\stage2_five_xtb_protocols\GFN1_tight\RS1_1_to_TS1_2\RS1_1_to_TS1_2_RS_opt.xyz
          omp threads                :                     1


molecular fragmentation (1/2 indicates fragments):
111111111222222221111111111122222222222222211111111111111
# atoms in fragment 1/2:    34    23
 fragment masses (1/2) :      235.28      134.17
CMA distance (Bohr)    :   8.078
constraining FC (au)   :  0.0500

           -------------------------------------------------
          |                 G F N 1 - x T B                 |
           -------------------------------------------------

        Reference                      10.1021/acs.jctc.7b00118
      * Hamiltonian:
        H0-scaling (s, p, d)           1.850000    2.250000    2.000000
        zeta-weighting                 0.000000
      * Dispersion:
        s8                             2.400000
        a1                             0.630000
        a2                             5.000000
        s9                             0.000000
      * Repulsion:
        kExp                           1.500000
        rExp                           1.000000
      * Coulomb:
        alpha                          2.000000
        third order                    atomic
        anisotropic                    false
      * Halogen bond correction:
        rad-scale                      1.300000
        damping                        0.440000

q/qsh data taken from xtbrestart

          ...................................................
          :                      SETUP                      :
          :.................................................:
          :  # basis functions                 166          :
          :  # atomic orbitals                 166          :
          :  # shells                          114          :
          :  # electrons                       148          :
          :  # halogen bonds                     0          :
          :  max. iterations                   250          :
          :  Hamiltonian                  GFN1-xTB          :
          :  restarted?                       true          :
          :  GBSA solvation                  false          :
          :  PC potential                    false          :
          :  electronic temp.            0.0000000     K    :
          :  accuracy                    1.0000000          :
          :  -> integral cutoff          0.2500000E+02      :
          :  -> integral neglect         0.1000000E-07      :
          :  -> SCF convergence          0.1000000E-05 Eh   :
          :  -> wf. convergence          0.2000000E-04 e    :
          :  Broyden damping             0.4000000          :
          :  net charge                          0          :
          :  unpaired electrons                  0          :
          ...................................................

 iter      E             dE          RMSdq      gap      omega  full diag
   1    -88.9130325 -0.889130E+02  0.118E-06    1.95       0.0  T
   2    -88.9130325  0.213163E-12  0.640E-07    1.95   20706.1  T
   3    -88.9130325  0.127898E-12  0.189E-07    1.95   70180.1  T

   *** convergence criteria satisfied after 3 iterations ***

         #    Occupation            Energy/Eh            Energy/eV
      -------------------------------------------------------------
         1        2.0000           -0.8042294             -21.8842
       ...           ...                  ...                  ...
        68        2.0000           -0.4543965             -12.3648
        69        2.0000           -0.4440158             -12.0823
        70        2.0000           -0.4400649             -11.9748
        71        2.0000           -0.4319790             -11.7547
        72        2.0000           -0.4236519             -11.5282
        73        2.0000           -0.4184655             -11.3870
        74        2.0000           -0.3927487             -10.6872 (HOMO)
        75                         -0.3211049              -8.7377 (LUMO)
        76                         -0.2538363              -6.9072
        77                         -0.2459331              -6.6922
        78                         -0.2392238              -6.5096
        79                         -0.2272822              -6.1847
       ...                                ...                  ...
       166                          0.7158442              19.4791
      -------------------------------------------------------------
                  HL-Gap            0.0716438 Eh            1.9495 eV
             Fermi-level            0.0000000 Eh            0.0000 eV

 SCC (total)                   0 d,  0 h,  0 min,  0.084 sec
 SCC setup                      ...        0 min,  0.001 sec (  1.191%)
 Dispersion                     ...        0 min,  0.000 sec (  0.000%)
 classical contributions        ...        0 min,  0.000 sec (  0.000%)
 integral evaluation            ...        0 min,  0.021 sec ( 25.000%)
 iterations                     ...        0 min,  0.014 sec ( 16.667%)
 molecular gradient             ...        0 min,  0.047 sec ( 55.953%)
 printout                       ...        0 min,  0.001 sec (  1.190%)

         :::::::::::::::::::::::::::::::::::::::::::::::::::::
         ::                     SUMMARY                     ::
         :::::::::::::::::::::::::::::::::::::::::::::::::::::
         :: total energy             -87.887180982401 Eh    ::
         :: gradient norm              0.001725699115 Eh/a0 ::
         :: HOMO-LUMO gap              1.949526051306 eV    ::
         ::.................................................::
         :: SCC energy               -88.913032508184 Eh    ::
         :: -> electrostatic           0.299662694522 Eh    ::
         :: repulsion energy           1.065302409426 Eh    ::
         :: dispersion energy         -0.039450883643 Eh    ::
         :: halogen bond corr.         0.000000000000 Eh    ::
         :: add. restraining           0.000000000000 Eh    ::
         :: total charge               0.000000000000 e     ::
         :::::::::::::::::::::::::::::::::::::::::::::::::::::

           ------------------------------------------------- 
          |                Numerical Hessian                |
           ------------------------------------------------- 
step length          :   0.00500
SCC accuracy         :   0.30000
Hessian scale factor :   1.00000
frozen atoms in %    :   0.00000    0
RMS gradient         :   0.00173
estimated CPU  time      0.86 min
estimated wall time      1.54 min

writing file <hessian>.

 projected vibrational frequencies (cm⁻¹)
eigval :       -0.00    -0.00    -0.00     0.00     0.00     0.00
eigval :       12.85    14.23    17.16    20.58    28.50    31.70
eigval :       41.96    44.84    50.89    54.00    58.79    64.81
eigval :       69.42    76.40    86.84    92.63    93.50    99.77
eigval :      105.45   120.80   124.00   129.05   137.99   141.42
eigval :      149.18   157.31   165.79   171.86   175.40   176.20
eigval :      193.03   205.78   206.33   217.83   274.26   289.35
eigval :      312.25   316.02   338.36   340.74   359.20   373.88
eigval :      378.82   381.27   391.83   405.82   432.76   462.69
eigval :      475.46   478.33   502.45   527.28   549.97   568.81
eigval :      573.14   610.37   648.83   661.66   687.49   715.26
eigval :      722.98   729.49   757.56   779.46   793.76   840.74
eigval :      850.17   876.65   878.63   893.95   908.30   915.66
eigval :      922.92   924.58   934.05   988.56   990.64   999.08
eigval :     1014.98  1029.71  1030.72  1060.62  1066.45  1073.11
eigval :     1100.68  1101.71  1117.70  1118.78  1119.17  1134.28
eigval :     1145.65  1160.50  1163.45  1205.53  1210.54  1212.60
eigval :     1230.10  1237.90  1245.08  1260.80  1276.46  1280.00
eigval :     1291.26  1293.54  1308.00  1315.70  1326.64  1346.61
eigval :     1348.71  1385.39  1395.43  1403.79  1425.40  1427.11
eigval :     1430.25  1436.32  1438.47  1444.81  1447.95  1449.73
eigval :     1453.12  1455.77  1469.31  1475.38  1476.34  1482.43
eigval :     1497.48  1536.44  1584.00  1608.49  1669.64  1715.25
eigval :     1718.72  1745.37  2867.11  2986.20  3002.16  3011.50
eigval :     3014.52  3015.07  3024.11  3032.57  3035.08  3041.46
eigval :     3047.87  3067.57  3072.15  3075.93  3080.86  3085.50
eigval :     3088.70  3093.50  3102.77  3106.50  3107.05  3110.85
eigval :     3124.13  3415.14  3476.83  3477.62  3521.47  3561.72
eigval :     3663.68  3726.00  3774.38
           -------------------------------------------------
          |                Property Printout                |
           -------------------------------------------------

    * Orbital Energies and Occupations

         #    Occupation            Energy/Eh            Energy/eV
      -------------------------------------------------------------
         1        2.0000           -0.8042294             -21.8842
       ...           ...                  ...                  ...
        62        2.0000           -0.4888877             -13.3033
        63        2.0000           -0.4844636             -13.1829
        64        2.0000           -0.4720881             -12.8462
        65        2.0000           -0.4659282             -12.6786
        66        2.0000           -0.4589663             -12.4891
        67        2.0000           -0.4557534             -12.4017
        68        2.0000           -0.4543965             -12.3648
        69        2.0000           -0.4440158             -12.0823
        70        2.0000           -0.4400649             -11.9748
        71        2.0000           -0.4319790             -11.7547
        72        2.0000           -0.4236519             -11.5282
        73        2.0000           -0.4184655             -11.3870
        74        2.0000           -0.3927487             -10.6872 (HOMO)
        75                         -0.3211049              -8.7377 (LUMO)
        76                         -0.2538363              -6.9072
        77                         -0.2459331              -6.6922
        78                         -0.2392238              -6.5096
        79                         -0.2272822              -6.1847
        80                         -0.2099357              -5.7126
        81                         -0.1757642              -4.7828
        82                         -0.1632374              -4.4419
        83                         -0.1410581              -3.8384
        84                         -0.1330238              -3.6198
        85                         -0.1315470              -3.5796
       ...                                ...                  ...
       166                          0.7158442              19.4791
      -------------------------------------------------------------
                  HL-Gap            0.0716438 Eh            1.9495 eV
             Fermi-level            0.0000000 Eh            0.0000 eV

  Mulliken/CM5 charges         n(s)   n(p)   n(d)
     1N    -0.43090 -0.89476   1.441  3.990  0.000
     2C     0.14442  0.19405   1.043  2.812  0.000
     3C    -0.08233 -0.13141   1.054  3.028  0.000
     4C    -0.04250 -0.09664   1.060  2.983  0.000
     5C    -0.01742 -0.03137   1.079  2.939  0.000
     6C    -0.03381 -0.08664   1.062  2.971  0.000
     7C    -0.07106 -0.12000   1.057  3.014  0.000
     8C    -0.05717 -0.15208   1.036  3.021  0.000
     9C     0.08984  0.09323   1.049  2.861  0.000
    10C     0.38894  0.37641   1.038  2.574  0.000
    11C    -0.08449 -0.13914   1.076  3.008  0.000
    12C     0.01549 -0.04621   1.087  2.897  0.000
    13C    -0.04414 -0.15112   1.033  3.012  0.000
    14C    -0.03671 -0.14883   1.029  3.007  0.000
    15C    -0.08552 -0.23716   1.008  3.077  0.000
    16O    -0.51102 -0.58315   1.732  4.779  0.000
    17O    -0.66977 -1.01333   1.693  4.976  0.000
    18H     0.22144  0.41848   0.779  0.000  0.000
    19H     0.22057  0.41599   0.779  0.000  0.000
    20H     0.02665  0.08586   0.973  0.000  0.000
    21H     0.02642  0.08339   0.974  0.000  0.000
    22H     0.04345  0.10527   0.957  0.000  0.000
    23H     0.03342  0.09580   0.967  0.000  0.000
    24H     0.05262  0.11909   0.947  0.000  0.000
    25H     0.03872  0.09690   0.961  0.000  0.000
    26H     0.04082  0.11552   0.959  0.000  0.000
    27H     0.22026  0.41763   0.780  0.000  0.000
    28H     0.25665  0.46929   0.743  0.000  0.000
    29H     0.00678  0.07251   0.993  0.000  0.000
    30H     0.05990  0.12368   0.940  0.000  0.000
    31H     0.03442  0.09186   0.966  0.000  0.000
    32H     0.04427  0.10169   0.956  0.000  0.000
    33H     0.02589  0.08394   0.974  0.000  0.000
    34H     0.02758  0.08247   0.972  0.000  0.000
    35H     0.02796  0.08281   0.972  0.000  0.000
    36H     0.03670  0.08800   0.963  0.000  0.000
    37H     0.03666  0.08857   0.963  0.000  0.000
    38H     0.03156  0.08349   0.968  0.000  0.000
    39H     0.34333  0.51173   0.657  0.000  0.000
    40H     0.34486  0.51294   0.655  0.000  0.000
    41O    -0.68875 -1.03222   1.704  4.985  0.000
    42H     0.34961  0.53010   0.650  0.000  0.000
    43H     0.33051  0.49894   0.669  0.000  0.000
    44N    -0.35336 -0.71598   1.425  3.929  0.000
    45C     0.46085  0.56407   0.990  2.549  0.000
    46O    -0.56720 -0.61383   1.725  4.842  0.000
    47C    -0.13837 -0.27642   1.024  3.115  0.000
    48C     0.48055  0.57111   0.994  2.525  0.000
    49O    -0.57034 -0.63457   1.725  4.846  0.000
    50H     0.06089  0.11677   0.939  0.000  0.000
    51H     0.03929  0.09525   0.961  0.000  0.000
    52H     0.07571  0.13686   0.924  0.000  0.000
    53N    -0.34149 -0.70871   1.427  3.915  0.000
    54C     0.06712 -0.02174   0.979  2.954  0.000
    55H     0.03125  0.09193   0.969  0.000  0.000
    56H     0.03017  0.09092   0.970  0.000  0.000
    57H     0.06078  0.12875   0.939  0.000  0.000

Wiberg/Mayer (AO) data.
largest (>0.10) Wiberg bond orders for each atom

 ---------------------------------------------------------------------------
     #   Z sym  total        # sym  WBO       # sym  WBO       # sym  WBO
 ---------------------------------------------------------------------------
     1   7 N    3.187 --     2 C    1.108    19 H    0.924    18 H    0.924
     2   6 C    3.958 --     3 C    1.360     7 C    1.357     1 N    1.108
     3   6 C    3.990 --     4 C    1.455     2 C    1.360    20 H    0.973
                             6 C    0.101
     4   6 C    3.995 --     3 C    1.455     5 C    1.405    21 H    0.972
                             7 C    0.103
     5   6 C    3.986 --     4 C    1.405     6 C    1.400     8 C    1.009
     6   6 C    3.994 --     7 C    1.466     5 C    1.400    22 H    0.970
                             3 C    0.101
     7   6 C    3.992 --     6 C    1.466     2 C    1.357    23 H    0.970
                             4 C    0.103
     8   6 C    3.993 --     5 C    1.009    25 H    0.973    24 H    0.971
                             9 C    0.964
     9   6 C    3.939 --    26 H    0.971     8 C    0.964    44 N    0.933
                            45 C    0.929
    10   6 C    3.864 --    16 O    1.726    11 C    1.082    29 H    0.944
    11   6 C    3.989 --    12 C    1.828    10 C    1.082    30 H    0.963
    12   6 C    3.984 --    11 C    1.828    13 C    1.035    31 H    0.970
    13   6 C    3.997 --    12 C    1.035    14 C    0.986    33 H    0.970
                            32 H    0.949
    14   6 C    3.993 --    15 C    1.017    13 C    0.986    34 H    0.981
                            35 H    0.980
    15   6 C    3.996 --    14 C    1.017    38 H    0.987    37 H    0.987
                            36 H    0.985
    16   8 O    1.996 --    10 C    1.726
    17   8 O    1.810 --    39 H    0.886    40 H    0.885
    18   1 H    0.972 --     1 N    0.924
    19   1 H    0.970 --     1 N    0.924
    20   1 H    1.000 --     3 C    0.973
    21   1 H    1.002 --     4 C    0.972
    22   1 H    1.005 --     6 C    0.970
    23   1 H    1.010 --     7 C    0.970
    24   1 H    1.013 --     8 C    0.971
    25   1 H    1.004 --     8 C    0.973
    26   1 H    1.015 --     9 C    0.971
    27   1 H    0.967 --    44 N    0.915
    28   1 H    0.950 --    53 N    0.873
    29   1 H    1.026 --    10 C    0.944
    30   1 H    1.009 --    11 C    0.963
    31   1 H    1.002 --    12 C    0.970
    32   1 H    1.015 --    13 C    0.949
    33   1 H    1.008 --    13 C    0.970
    34   1 H    1.006 --    14 C    0.981
    35   1 H    1.005 --    14 C    0.980
    36   1 H    1.003 --    15 C    0.985
    37   1 H    1.003 --    15 C    0.987
    38   1 H    1.003 --    15 C    0.987
    39   1 H    0.889 --    17 O    0.886
    40   1 H    0.887 --    17 O    0.885
    41   8 O    1.806 --    43 H    0.893    42 H    0.841
    42   1 H    0.901 --    41 O    0.841
    43   1 H    0.899 --    41 O    0.893
    44   7 N    3.314 --    48 C    1.242     9 C    0.933    27 H    0.915
                            49 O    0.157
    45   6 C    3.908 --    46 O    1.616    53 N    1.291     9 C    0.929
    46   8 O    1.920 --    45 C    1.616    53 N    0.179
    47   6 C    3.992 --    48 C    0.989    50 H    0.982    51 H    0.979
                            52 H    0.953
    48   6 C    3.888 --    49 O    1.594    44 N    1.242    47 C    0.989
    49   8 O    1.936 --    48 C    1.594    44 N    0.157
    50   1 H    1.004 --    47 C    0.982
    51   1 H    1.001 --    47 C    0.979
    52   1 H    1.018 --    47 C    0.953
    53   7 N    3.349 --    45 C    1.291    54 C    0.958    28 H    0.873
                            46 O    0.179
    54   6 C    3.951 --    56 H    0.987    55 H    0.985    57 H    0.982
                            53 N    0.958
    55   1 H    1.006 --    54 C    0.985
    56   1 H    1.007 --    54 C    0.987
    57   1 H    1.010 --    54 C    0.982
 ---------------------------------------------------------------------------

Topologies differ in total number of bonds
Writing topology from bond orders to xtbtopo.mol

 dipole moment from electron density (au)
     X       Y       Z   
  -2.6452  -0.9692   0.3356  total (Debye):    7.211

           -------------------------------------------------
          |               Frequency Printout                |
           -------------------------------------------------
 projected vibrational frequencies (cm⁻¹)
eigval :       -0.00    -0.00    -0.00     0.00     0.00     0.00
eigval :       12.85    14.23    17.16    20.58    28.50    31.70
eigval :       41.96    44.84    50.89    54.00    58.79    64.81
eigval :       69.42    76.40    86.84    92.63    93.50    99.77
eigval :      105.45   120.80   124.00   129.05   137.99   141.42
eigval :      149.18   157.31   165.79   171.86   175.40   176.20
eigval :      193.03   205.78   206.33   217.83   274.26   289.35
eigval :      312.25   316.02   338.36   340.74   359.20   373.88
eigval :      378.82   381.27   391.83   405.82   432.76   462.69
eigval :      475.46   478.33   502.45   527.28   549.97   568.81
eigval :      573.14   610.37   648.83   661.66   687.49   715.26
eigval :      722.98   729.49   757.56   779.46   793.76   840.74
eigval :      850.17   876.65   878.63   893.95   908.30   915.66
eigval :      922.92   924.58   934.05   988.56   990.64   999.08
eigval :     1014.98  1029.71  1030.72  1060.62  1066.45  1073.11
eigval :     1100.68  1101.71  1117.70  1118.78  1119.17  1134.28
eigval :     1145.65  1160.50  1163.45  1205.53  1210.54  1212.60
eigval :     1230.10  1237.90  1245.08  1260.80  1276.46  1280.00
eigval :     1291.26  1293.54  1308.00  1315.70  1326.64  1346.61
eigval :     1348.71  1385.39  1395.43  1403.79  1425.40  1427.11
eigval :     1430.25  1436.32  1438.47  1444.81  1447.95  1449.73
eigval :     1453.12  1455.77  1469.31  1475.38  1476.34  1482.43
eigval :     1497.48  1536.44  1584.00  1608.49  1669.64  1715.25
eigval :     1718.72  1745.37  2867.11  2986.20  3002.16  3011.50
eigval :     3014.52  3015.07  3024.11  3032.57  3035.08  3041.46
eigval :     3047.87  3067.57  3072.15  3075.93  3080.86  3085.50
eigval :     3088.70  3093.50  3102.77  3106.50  3107.05  3110.85
eigval :     3124.13  3415.14  3476.83  3477.62  3521.47  3561.72
eigval :     3663.68  3726.00  3774.38
 reduced masses (amu)
   1: 11.56   2: 12.25   3: 11.76   4: 12.48   5: 12.67   6: 12.36   7: 12.65   8: 11.95
   9: 13.26  10:  9.71  11: 11.71  12: 10.97  13: 13.00  14: 11.81  15:  8.48  16: 12.55
  17: 11.62  18: 11.69  19: 10.96  20: 11.85  21:  9.28  22: 10.01  23:  7.12  24:  6.40
  25:  6.08  26:  3.47  27:  9.53  28:  9.63  29:  7.59  30:  4.95  31:  9.41  32:  5.51
  33:  7.42  34:  7.44  35: 10.77  36: 11.45  37: 11.49  38:  3.27  39: 10.13  40: 12.43
  41:  9.08  42: 10.49  43:  9.33  44: 10.94  45:  4.59  46:  8.25  47: 12.33  48:  8.63
  49:  8.85  50:  7.47  51:  4.43  52:  8.26  53:  4.77  54: 10.52  55:  8.87  56:  2.14
  57:  9.94  58: 10.99  59:  4.01  60:  8.13  61: 11.43  62: 11.21  63: 10.75  64: 10.34
  65: 10.12  66:  5.89  67:  9.75  68:  4.08  69:  3.48  70:  9.29  71:  6.16  72:  3.38
  73: 10.42  74:  4.25  75:  9.93  76:  3.02  77:  7.33  78:  4.04  79:  9.07  80:  5.90
  81:  5.74  82:  5.88  83:  1.85  84:  6.03  85:  8.13  86:  5.72  87:  6.84  88:  4.07
  89:  8.18  90:  9.78  91:  7.49  92:  9.08  93:  2.91  94:  3.94  95:  8.85  96:  6.47
  97:  7.42  98:  1.74  99:  3.90 100:  5.62 101:  4.48 102:  6.58 103:  3.42 104:  5.77
 105:  4.52 106:  2.64 107:  3.44 108:  3.41 109:  3.98 110:  8.17 111:  7.23 112:  5.83
 113: 10.04 114:  3.48 115:  5.57 116:  3.14 117:  3.50 118:  3.49 119:  6.81 120:  9.70
 121:  2.21 122:  2.87 123:  7.43 124:  1.91 125:  2.00 126:  1.49 127:  2.17 128:  2.09
 129:  1.76 130:  1.49 131:  3.56 132:  1.81 133:  8.80 134:  3.66 135: 11.46 136: 11.49
 137: 11.37 138: 13.30 139: 13.14 140: 13.18 141:  1.73 142:  1.56 143:  1.78 144:  1.54
 145:  1.30 146:  1.90 147:  1.60 148:  1.28 149:  2.01 150:  1.28 151:  1.97 152:  1.94
 153:  1.84 154:  2.00 155:  1.99 156:  1.97 157:  1.98 158:  1.81 159:  1.85 160:  1.89
 161:  2.00 162:  1.81 163:  1.89 164:  1.91 165:  1.70 166:  1.58 167:  1.87 168:  2.13
 169:  1.57 170:  1.97 171:  2.14
 IR intensities (km·mol⁻¹)
   1:  0.02   2:  0.04   3:  0.06   4:  0.07   5:  0.41   6:  0.39   7:  2.48   8:  0.72
   9:  1.03  10:  0.65  11:  1.10  12:  1.67  13:  7.57  14:  2.29  15:  0.50  16:  5.15
  17:  0.34  18:  8.34  19:  7.22  20:  4.39  21:  8.36  22: 46.81  23:  7.69  24:  9.15
  25:  5.30  26:131.58  27: 57.18  28: 22.09  29:153.77  30:364.26  31: 11.51  32: 88.15
  33: 56.96  34: 45.72  35: 16.28  36:  8.36  37:  3.84  38:  3.35  39:  3.97  40: 16.11
  41: 27.68  42:  5.33  43:  8.86  44:  9.48  45: 87.54  46: 37.50  47:  8.68  48: 32.89
  49: 26.16  50: 15.73  51: 89.12  52: 83.57  53: 23.85  54: 12.75  55: 11.79  56:448.51
  57:  8.17  58: 20.20  59:137.80  60: 56.28  61: 18.75  62:  0.61  63:  2.48  64:  7.64
  65: 29.08  66:297.35  67: 32.30  68: 18.06  69: 19.79  70: 72.51  71:120.83  72:  0.72
  73:  2.08  74:  9.21  75:  2.54  76:  0.05  77: 12.44  78:  0.91  79:  9.69  80:  4.11
  81: 55.94  82: 35.31  83: 19.32  84: 17.99  85:  8.43  86: 27.70  87: 12.73  88:  3.43
  89:  3.46  90: 47.24  91: 16.32  92: 13.95  93:  8.71  94:  6.19  95: 16.86  96: 34.97
  97: 43.23  98:  7.91  99:  6.37 100: 21.82 101:  0.83 102:  9.13 103:  8.08 104: 41.93
 105:  7.51 106:  0.16 107:  5.13 108:  0.58 109:  4.93 110: 35.61 111: 14.68 112: 23.55
 113: 22.16 114: 63.09 115:  4.73 116:  6.49 117: 13.24 118: 12.89 119:243.44 120:  0.99
 121:272.76 122: 33.90 123:233.61 124: 26.08 125:  6.40 126: 14.86 127: 16.07 128:193.27
 129:  2.60 130: 11.77 131: 94.37 132: 13.72 133: 70.12 134:276.68 135:  3.19 136: 77.44
 137:246.04 138:467.56 139:325.77 140:732.94 141: 76.53 142:  5.86 143: 13.22 144: 16.06
 145: 32.77 146: 16.24 147: 13.20 148: 12.12 149: 23.17 150:  9.24 151: 17.48 152:  5.18
 153: 15.57 154: 22.02 155: 18.60 156:  3.56 157:  7.53 158:  8.97 159:  3.97 160: 18.63
 161:  5.48 162:  5.46 163:  4.05 164:129.67 165:200.31 166: 52.66 167: 25.62 168:  4.27
 169: 62.32 170: 76.10 171: 57.57
 Raman intensities (Ä⁴*amu⁻¹)
   1:  0.00   2:  0.00   3:  0.00   4:  0.00   5:  0.00   6:  0.00   7:  0.00   8:  0.00
   9:  0.00  10:  0.00  11:  0.00  12:  0.00  13:  0.00  14:  0.00  15:  0.00  16:  0.00
  17:  0.00  18:  0.00  19:  0.00  20:  0.00  21:  0.00  22:  0.00  23:  0.00  24:  0.00
  25:  0.00  26:  0.00  27:  0.00  28:  0.00  29:  0.00  30:  0.00  31:  0.00  32:  0.00
  33:  0.00  34:  0.00  35:  0.00  36:  0.00  37:  0.00  38:  0.00  39:  0.00  40:  0.00
  41:  0.00  42:  0.00  43:  0.00  44:  0.00  45:  0.00  46:  0.00  47:  0.00  48:  0.00
  49:  0.00  50:  0.00  51:  0.00  52:  0.00  53:  0.00  54:  0.00  55:  0.00  56:  0.00
  57:  0.00  58:  0.00  59:  0.00  60:  0.00  61:  0.00  62:  0.00  63:  0.00  64:  0.00
  65:  0.00  66:  0.00  67:  0.00  68:  0.00  69:  0.00  70:  0.00  71:  0.00  72:  0.00
  73:  0.00  74:  0.00  75:  0.00  76:  0.00  77:  0.00  78:  0.00  79:  0.00  80:  0.00
  81:  0.00  82:  0.00  83:  0.00  84:  0.00  85:  0.00  86:  0.00  87:  0.00  88:  0.00
  89:  0.00  90:  0.00  91:  0.00  92:  0.00  93:  0.00  94:  0.00  95:  0.00  96:  0.00
  97:  0.00  98:  0.00  99:  0.00 100:  0.00 101:  0.00 102:  0.00 103:  0.00 104:  0.00
 105:  0.00 106:  0.00 107:  0.00 108:  0.00 109:  0.00 110:  0.00 111:  0.00 112:  0.00
 113:  0.00 114:  0.00 115:  0.00 116:  0.00 117:  0.00 118:  0.00 119:  0.00 120:  0.00
 121:  0.00 122:  0.00 123:  0.00 124:  0.00 125:  0.00 126:  0.00 127:  0.00 128:  0.00
 129:  0.00 130:  0.00 131:  0.00 132:  0.00 133:  0.00 134:  0.00 135:  0.00 136:  0.00
 137:  0.00 138:  0.00 139:  0.00 140:  0.00 141:  0.00 142:  0.00 143:  0.00 144:  0.00
 145:  0.00 146:  0.00 147:  0.00 148:  0.00 149:  0.00 150:  0.00 151:  0.00 152:  0.00
 153:  0.00 154:  0.00 155:  0.00 156:  0.00 157:  0.00 158:  0.00 159:  0.00 160:  0.00
 161:  0.00 162:  0.00 163:  0.00 164:  0.00 165:  0.00 166:  0.00 167:  0.00 168:  0.00
 169:  0.00 170:  0.00 171:  0.00
 output can be read by thermo (or use thermo option).
 writing <g98.out> molden fake output.
 recommended (thermochemical) frequency scaling factor: 1.0
           -------------------------------------------------
          |             Thermodynamic Functions             |
           -------------------------------------------------

Refinement of some symmetry elements was terminated before convergence was reached.
Some symmetry elements may remain unidentified.
Molecule has no symmetry elements
It seems to be the C1 point group
c1  symmetry found (for desy threshold:  0.10E+00) used in thermo

          ...................................................
          :                      SETUP                      :
          :.................................................:
          :  # frequencies                         165      :
          :  # imaginary freq.                       0      :
          :  linear?                             false      :
          :  only rotor calc.                    false      :
          :  symmetry                               c1      :
          :  rotational number                       1      :
          :  scaling factor                  1.0000000      :
          :  rotor cutoff                   50.0000000 cm⁻¹ :
          :  imag. cutoff                  -20.0000000 cm⁻¹ :
          :.................................................:

    mode    ω/cm⁻¹     T·S(HO)/kcal·mol⁻¹    T·S(FR)/kcal·mol⁻¹   T·S(vib)
   ------------------------------------------------------------------------
       1     12.85    -2.23977 (  0.43%)    -1.45885 ( 99.57%)    -1.46225
       2     14.23    -2.17940 (  0.65%)    -1.42867 ( 99.35%)    -1.43356
       3     17.16    -2.06853 (  1.37%)    -1.37322 ( 98.63%)    -1.38274
       4     20.58    -1.96111 (  2.79%)    -1.31948 ( 97.21%)    -1.33738
       5     28.50    -1.76837 (  9.55%)    -1.22302 ( 90.45%)    -1.27510
       6     31.70    -1.70553 ( 13.90%)    -1.19155 ( 86.10%)    -1.26301
       7     41.96    -1.53972 ( 33.16%)    -1.10844 ( 66.84%)    -1.25144
       8     44.84    -1.50061 ( 39.27%)    -1.08882 ( 60.73%)    -1.25052
       9     50.89    -1.42593 ( 51.76%)    -1.05131 ( 48.24%)    -1.24521
      10     54.00    -1.39092 ( 57.64%)    -1.03372 ( 42.36%)    -1.23961
      11     58.79    -1.34089 ( 65.65%)    -1.00855 ( 34.35%)    -1.22674
      12     64.81    -1.28359 ( 73.84%)    -0.97969 ( 26.16%)    -1.20409
      13     69.42    -1.24324 ( 78.79%)    -0.95934 ( 21.21%)    -1.18303
      14     76.40    -1.18705 ( 84.50%)    -0.93095 ( 15.50%)    -1.14734
      15     86.84    -1.11212 ( 90.10%)    -0.89300 (  9.90%)    -1.09042
      16     92.63    -1.07445 ( 92.18%)    -0.87387 (  7.82%)    -1.05876
      17     93.50    -1.06904 ( 92.44%)    -0.87112 (  7.56%)    -1.05407
      18     99.77    -1.03125 ( 94.07%)    -0.85188 (  5.93%)    -1.02061
      19    105.45    -0.99911 ( 95.19%)    -0.83549 (  4.81%)    -0.99124
      20    120.80    -0.92057 ( 97.15%)    -0.79523 (  2.85%)    -0.91699
      21    124.00    -0.90549 ( 97.42%)    -0.78747 (  2.58%)    -0.90245
      22    129.05    -0.88255 ( 97.80%)    -0.77564 (  2.20%)    -0.88020
      23    137.99    -0.84424 ( 98.31%)    -0.75582 (  1.69%)    -0.84275
      24    141.42    -0.83021 ( 98.46%)    -0.74853 (  1.54%)    -0.82896
      25    149.18    -0.79983 ( 98.75%)    -0.73271 (  1.25%)    -0.79899
      26    157.31    -0.76979 ( 98.99%)    -0.71699 (  1.01%)    -0.76926
      27    165.79    -0.74020 ( 99.18%)    -0.70143 (  0.82%)    -0.73988
      28    171.86    -0.72004 ( 99.29%)    -0.69078 (  0.71%)    -0.71983
      29    175.40    -0.70865 ( 99.34%)    -0.68474 (  0.66%)    -0.70849
      30    176.20    -0.70611 ( 99.36%)    -0.68340 (  0.64%)    -0.70596
      31    193.03    -0.65550 ( 99.55%)    -0.65638 (  0.45%)    -0.65550
      32    205.78    -0.62040 ( 99.65%)    -0.63743 (  0.35%)    -0.62046
      33    206.33    -0.61894 ( 99.66%)    -0.63664 (  0.34%)    -0.61900
      34    217.83    -0.58947 ( 99.72%)    -0.62057 (  0.28%)    -0.58955
      35    274.26    -0.46786 ( 99.89%)    -0.55233 (  0.11%)    -0.46795
      36    289.35    -0.44060 ( 99.91%)    -0.53646 (  0.09%)    -0.44068
   ------------------------------------------------------------------------

   temp. (K)  partition function   enthalpy   heat capacity  entropy
                                   cal/mol     cal/K/mol   cal/K/mol   J/K/mol
 298.15  VIB  0.151E+20            21229.901    109.713    142.144
         ROT  0.152E+08              888.752      2.981     35.842
         INT  0.230E+27            22118.654    112.694    177.986
         TR   0.687E+28             1481.254      4.968     43.594
         TOT                       23599.9076   117.6623   221.5801   927.0911

       T/K    H(0)-H(T)+PV         H(T)/Eh          T*S/Eh         G(T)/Eh
   ------------------------------------------------------------------------
    298.15    0.376088E-01    0.503515E+00    0.105280E+00    0.398235E+00
   ------------------------------------------------------------------------

         :::::::::::::::::::::::::::::::::::::::::::::::::::::
         ::                  THERMODYNAMIC                  ::
         :::::::::::::::::::::::::::::::::::::::::::::::::::::
         :: total free energy         -87.488945967016 Eh   ::
         ::.................................................::
         :: total energy              -87.887180982402 Eh   ::
         :: zero point energy           0.465906024421 Eh   ::
         :: G(RRHO) w/o ZPVE           -0.067671009035 Eh   ::
         :: G(RRHO) contrib.            0.398235015386 Eh   ::
         :::::::::::::::::::::::::::::::::::::::::::::::::::::

           -------------------------------------------------
          | TOTAL ENERGY              -87.887180982402 Eh   |
          | TOTAL ENTHALPY            -87.383666111274 Eh   |
          | TOTAL FREE ENERGY         -87.488945967016 Eh   |
          | GRADIENT NORM               0.001725698992 Eh/α |
          | HOMO-LUMO GAP               1.949526043302 eV   |
           -------------------------------------------------

------------------------------------------------------------------------
 * finished run on 2026/08/20 at 20:14:25.403     
------------------------------------------------------------------------
 total:
 * wall-time:     0 d,  0 h,  0 min, 58.537 sec
 *  cpu-time:     0 d,  0 h,  0 min, 42.422 sec
 * ratio c/w:     0.725 speedup
 SCF:
 * wall-time:     0 d,  0 h,  0 min,  0.084 sec
 *  cpu-time:     0 d,  0 h,  0 min,  0.062 sec
 * ratio c/w:     0.744 speedup
 analytical hessian:
 * wall-time:     0 d,  0 h,  0 min, 58.360 sec
 *  cpu-time:     0 d,  0 h,  0 min, 42.281 sec
 * ratio c/w:     0.724 speedup



===== STDERR =====

normal termination of xtb
