      -----------------------------------------------------------      
     |                   =====================                   |     
     |                           x T B                           |     
     |                   =====================                   |     
     |                         S. Grimme                         |     
     |          Mulliken Center for Theoretical Chemistry        |     
     |                    University of Bonn                     |     
      -----------------------------------------------------------      

   * xtb version 6.7.1pre (5071a88) compiled by 'Marcel@Raven' on 2024-07-23

   xtb is free software: you can redistribute it and/or modify it under
   the terms of the GNU Lesser General Public License as published by
   the Free Software Foundation, either version 3 of the License, or
   (at your option) any later version.
   
   xtb is distributed in the hope that it will be useful,
   but WITHOUT ANY WARRANTY; without even the implied warranty of
   MERCHANTABILITY or FITNESS FOR A PARTICULAR PURPOSE.  See the
   GNU Lesser General Public License for more details.
   
   Cite this work as:
   * C. Bannwarth, E. Caldeweyher, S. Ehlert, A. Hansen, P. Pracht,
     J. Seibert, S. Spicher, S. Grimme, WIREs Comput. Mol. Sci., 2020, 11,
     e01493. DOI: 10.1002/wcms.1493
   
   for GFN2-xTB:
   * C. Bannwarth, S. Ehlert and S. Grimme., J. Chem. Theory Comput., 2019,
     15, 1652-1671. DOI: 10.1021/acs.jctc.8b01176
   for GFN1-xTB:
   * S. Grimme, C. Bannwarth, P. Shushkov, J. Chem. Theory Comput., 2017,
     13, 1989-2009. DOI: 10.1021/acs.jctc.7b00118
   for GFN0-xTB:
   * P. Pracht, E. Caldeweyher, S. Ehlert, S. Grimme, ChemRxiv, 2019, preprint.
     DOI: 10.26434/chemrxiv.8326202.v1
   for GFN-FF:
   * S. Spicher and S. Grimme, Angew. Chem. Int. Ed., 2020, 59, 15665-15673.
     DOI: 10.1002/anie.202004239
   
   for ALPB and GBSA implicit solvation:
   * S. Ehlert, M. Stahn, S. Spicher, S. Grimme, J. Chem. Theory Comput.,
     2021, 17, 4250-4261. DOI: 10.1021/acs.jctc.1c00471
   
   for ddCOSMO and CPCM-X implicit solvation:
   * M. Stahn, S. Ehlert, S. Grimme, J. Phys. Chem. A,
     2023, XX, XXXX-XXXX. DOI: 10.1021/acs.jpca.3c04382
   
   for DFT-D4:
   * E. Caldeweyher, C. Bannwarth and S. Grimme, J. Chem. Phys., 2017,
     147, 034112. DOI: 10.1063/1.4993215
   * E. Caldeweyher, S. Ehlert, A. Hansen, H. Neugebauer, S. Spicher,
     C. Bannwarth and S. Grimme, J. Chem. Phys., 2019, 150, 154122.
     DOI: 10.1063/1.5090222
   * E. Caldeweyher, J.-M. Mewes, S. Ehlert and S. Grimme, Phys. Chem. Chem. Phys.
     2020, 22, 8499-8512. DOI: 10.1039/D0CP00502A
   
   for sTDA-xTB:
   * S. Grimme and C. Bannwarth, J. Chem. Phys., 2016, 145, 054103.
     DOI: 10.1063/1.4959605
   
   in the mass-spec context:
   * V. Asgeirsson, C. Bauer and S. Grimme, Chem. Sci., 2017, 8, 4879.
     DOI: 10.1039/c7sc00601b
   * J. Koopman and S. Grimme, ACS Omega 2019, 4, 12, 15120-15133.
     DOI: 10.1021/acsomega.9b02011
   
   for metadynamics refer to:
   * S. Grimme, J. Chem. Theory Comput., 2019, 155, 2847-2862
     DOI: 10.1021/acs.jctc.9b00143
   
   for SPH calculations refer to:
   * S. Spicher and S. Grimme, J. Chem. Theory Comput., 2021, 17, 1701-1714
     DOI: 10.1021/acs.jctc.0c01306
   
   for ONIOM refer to:
   * C. Plett, A. Katbashev, S. Ehlert, S. Grimme, M. Bursch,
     Phys. Chem. Chem. Phys., 2023, 25, 17860-17868. DOI: 10.1039/D3CP02178E
   
   for DIPRO refer to:
   * J. Kohn, N. Gildemeister, S. Grimme, D. Fazzi, A. Hansen,
     J. Chem. Phys., 2023, just accepted.
   
   for PTB refer to:
   * S. Grimme, M. Mueller, A. Hansen, J. Chem. Phys., 2023, 158, 124111.
     DOI: 10.1063/5.0137838
   
   with help from (in alphabetical order)
   P. Atkinson, C. Bannwarth, F. Bohle, G. Brandenburg, E. Caldeweyher
   M. Checinski, S. Dohm, S. Ehlert, S. Ehrlich, I. Gerasimov, C. Hölzer
   A. Katbashev, J. Kohn, J. Koopman, C. Lavigne, S. Lehtola, F. März, M. Müller,
   F. Musil, H. Neugebauer, J. Pisarek, C. Plett, P. Pracht, F. Pultar,
   J. Seibert, P. Shushkov, S. Spicher, M. Stahn, M. Steiner, T. Strunk,
   J. Stückrath, T. Rose, and J. Unsleber
   
 * started run on 2026/08/20 at 20:40:43.096     
   ID    Z sym.   atoms
    1    7 N      1, 44, 53
    2    6 C      2-15, 45, 47, 48, 54
    3    8 O      16, 17, 41, 46, 49
    4    1 H      18-40, 42, 43, 50-52, 55-57

           -------------------------------------------------
          |                Calculation Setup                |
           -------------------------------------------------

          program call               : C:\Users\Nayanika\Downloads\xtb-6.7.1pre-windows-x86_64\xtb-6.7.1\bin\xtb.exe D:\PhD_Thesis\LmrR_EVB\charges\fast_lmrr_5QM\xtb_preparation\stage2_five_xtb_protocols\GFN2_normal\RS1_1_to_TS1_2\RS1_1_to_TS1_2_RS_xtbopt.xyz --gfn 2 --chrg 0 --uhf 0 --hess --etemp 0
          coordinate file            : D:\PhD_Thesis\LmrR_EVB\charges\fast_lmrr_5QM\xtb_preparation\stage2_five_xtb_protocols\GFN2_normal\RS1_1_to_TS1_2\RS1_1_to_TS1_2_RS_xtbopt.xyz
          omp threads                :                     8


molecular fragmentation (1/2 indicates fragments):
111111111222222221111111111122222222222222211111111111111
# atoms in fragment 1/2:    34    23
 fragment masses (1/2) :      235.28      134.17
CMA distance (Bohr)    :   7.284
constraining FC (au)   :  0.0500

           -------------------------------------------------
          |                 G F N 2 - x T B                 |
           -------------------------------------------------

        Reference                      10.1021/acs.jctc.8b01176
      * Hamiltonian:
        H0-scaling (s, p, d)           1.850000    2.230000    2.230000
        zeta-weighting                 0.500000
      * Dispersion:
        s8                             2.700000
        a1                             0.520000
        a2                             5.000000
        s9                             5.000000
      * Repulsion:
        kExp                           1.500000    1.000000
        rExp                           1.000000
      * Coulomb:
        alpha                          2.000000
        third order                    shell-resolved
        anisotropic                    true
        a3                             3.000000
        a5                             4.000000
        cn-shift                       1.200000
        cn-exp                         4.000000
        max-rad                        5.000000

q/qsh data taken from xtbrestart
CAMM data taken from xtbrestart

          ...................................................
          :                      SETUP                      :
          :.................................................:
          :  # basis functions                 135          :
          :  # atomic orbitals                 135          :
          :  # shells                           83          :
          :  # electrons                       148          :
          :  max. iterations                   250          :
          :  Hamiltonian                  GFN2-xTB          :
          :  restarted?                       true          :
          :  GBSA solvation                  false          :
          :  PC potential                    false          :
          :  electronic temp.            0.0000000     K    :
          :  accuracy                    1.0000000          :
          :  -> integral cutoff          0.2500000E+02      :
          :  -> integral neglect         0.1000000E-07      :
          :  -> SCF convergence          0.1000000E-05 Eh   :
          :  -> wf. convergence          0.1000000E-03 e    :
          :  Broyden damping             0.4000000          :
          :  net charge                          0          :
          :  unpaired electrons                  0          :
          ...................................................

 iter      E             dE          RMSdq      gap      omega  full diag
   1    -84.5444314 -0.845444E+02  0.140E-06    1.03       0.0  T
   2    -84.5444314  0.113687E-12  0.949E-07    1.03   13962.5  T
   3    -84.5444314 -0.142109E-13  0.537E-07    1.03   24666.7  T

   *** convergence criteria satisfied after 3 iterations ***

         #    Occupation            Energy/Eh            Energy/eV
      -------------------------------------------------------------
         1        2.0000           -0.7302959             -19.8724
       ...           ...                  ...                  ...
        68        2.0000           -0.4142153             -11.2714
        69        2.0000           -0.4101091             -11.1596
        70        2.0000           -0.3963165             -10.7843
        71        2.0000           -0.3937907             -10.7156
        72        2.0000           -0.3875388             -10.5455
        73        2.0000           -0.3764031             -10.2424
        74        2.0000           -0.3492127              -9.5026 (HOMO)
        75                         -0.3112097              -8.4684 (LUMO)
        76                         -0.2121810              -5.7737
        77                         -0.2112621              -5.7487
        78                         -0.2039558              -5.5499
        79                         -0.1939340              -5.2772
       ...                                ...                  ...
       135                          0.6707772              18.2528
      -------------------------------------------------------------
                  HL-Gap            0.0380030 Eh            1.0341 eV
             Fermi-level            0.0000000 Eh            0.0000 eV

 SCC (total)                   0 d,  0 h,  0 min,  0.048 sec
 SCC setup                      ...        0 min,  0.000 sec (  0.000%)
 Dispersion                     ...        0 min,  0.003 sec (  6.250%)
 classical contributions        ...        0 min,  0.000 sec (  0.000%)
 integral evaluation            ...        0 min,  0.004 sec (  8.333%)
 iterations                     ...        0 min,  0.027 sec ( 56.250%)
 molecular gradient             ...        0 min,  0.014 sec ( 29.166%)
 printout                       ...        0 min,  0.000 sec (  0.000%)

         :::::::::::::::::::::::::::::::::::::::::::::::::::::
         ::                     SUMMARY                     ::
         :::::::::::::::::::::::::::::::::::::::::::::::::::::
         :: total energy             -83.440742164038 Eh    ::
         :: gradient norm              0.000804313217 Eh/a0 ::
         :: HOMO-LUMO gap              1.034115237656 eV    ::
         ::.................................................::
         :: SCC energy               -84.542655092498 Eh    ::
         :: -> isotropic ES            0.177011917852 Eh    ::
         :: -> anisotropic ES         -0.004612807087 Eh    ::
         :: -> anisotropic XC          0.030293209300 Eh    ::
         :: -> dispersion             -0.058709262589 Eh    ::
         :: repulsion energy           1.101912928460 Eh    ::
         :: add. restraining           0.000000000000 Eh    ::
         :: total charge              -0.000000000000 e     ::
         :::::::::::::::::::::::::::::::::::::::::::::::::::::

           ------------------------------------------------- 
          |                Numerical Hessian                |
           ------------------------------------------------- 
step length          :   0.00500
SCC accuracy         :   0.30000
Hessian scale factor :   1.00000
frozen atoms in %    :   0.00000    0
RMS gradient         :   0.00080
estimated CPU  time      4.48 min
estimated wall time      0.68 min

writing file <hessian>.

 projected vibrational frequencies (cm⁻¹)
eigval :       -0.00     0.00     0.00     0.00     0.00     0.00
eigval :       -5.42     9.23    22.38    27.89    31.73    35.26
eigval :       45.06    47.71    52.71    59.42    68.77    72.30
eigval :       79.50    84.52    87.39   102.52   107.28   110.11
eigval :      119.04   121.31   126.67   142.15   158.20   168.51
eigval :      176.13   182.80   191.95   200.80   209.64   230.26
eigval :      233.32   244.64   261.40   293.85   309.83   311.62
eigval :      349.34   365.27   373.09   377.88   386.43   396.45
eigval :      411.34   420.49   435.09   470.99   486.53   506.61
eigval :      517.54   536.84   576.30   585.21   595.67   614.98
eigval :      633.19   648.02   653.05   687.77   711.89   721.77
eigval :      736.53   764.41   785.97   788.96   809.04   852.30
eigval :      866.20   883.80   891.24   904.71   916.34   921.42
eigval :      924.12   936.21   936.75  1000.55  1005.44  1009.64
eigval :     1019.78  1031.95  1035.58  1054.64  1088.73  1089.86
eigval :     1104.30  1105.65  1114.14  1132.54  1143.07  1146.55
eigval :     1162.66  1166.45  1199.10  1207.97  1216.89  1225.74
eigval :     1225.99  1245.67  1258.33  1264.85  1280.96  1291.72
eigval :     1292.80  1305.86  1324.70  1331.80  1345.80  1347.37
eigval :     1376.08  1383.10  1392.70  1417.30  1429.27  1433.09
eigval :     1441.88  1456.49  1460.40  1463.88  1466.91  1467.35
eigval :     1486.71  1487.14  1492.54  1499.31  1502.07  1525.94
eigval :     1542.80  1558.79  1575.95  1623.49  1653.91  1693.12
eigval :     1709.64  1747.20  2847.89  2950.29  2958.26  2967.64
eigval :     2975.60  2986.89  2988.42  2990.72  2998.30  3008.70
eigval :     3019.77  3027.89  3037.46  3041.06  3044.91  3052.21
eigval :     3054.86  3056.07  3061.00  3067.67  3070.62  3076.96
eigval :     3107.20  3228.45  3327.91  3380.09  3386.40  3418.88
eigval :     3493.38  3651.57  3674.71
           -------------------------------------------------
          |                Property Printout                |
           -------------------------------------------------

    * Orbital Energies and Occupations

         #    Occupation            Energy/Eh            Energy/eV
      -------------------------------------------------------------
         1        2.0000           -0.7302959             -19.8724
       ...           ...                  ...                  ...
        62        2.0000           -0.4448740             -12.1056
        63        2.0000           -0.4365439             -11.8790
        64        2.0000           -0.4307134             -11.7203
        65        2.0000           -0.4278048             -11.6412
        66        2.0000           -0.4263892             -11.6026
        67        2.0000           -0.4203468             -11.4382
        68        2.0000           -0.4142153             -11.2714
        69        2.0000           -0.4101091             -11.1596
        70        2.0000           -0.3963165             -10.7843
        71        2.0000           -0.3937907             -10.7156
        72        2.0000           -0.3875388             -10.5455
        73        2.0000           -0.3764031             -10.2424
        74        2.0000           -0.3492127              -9.5026 (HOMO)
        75                         -0.3112097              -8.4684 (LUMO)
        76                         -0.2121811              -5.7737
        77                         -0.2112621              -5.7487
        78                         -0.2039558              -5.5499
        79                         -0.1939340              -5.2772
        80                         -0.1917874              -5.2188
        81                         -0.0804695              -2.1897
        82                         -0.0014848              -0.0404
        83                          0.0264233               0.7190
        84                          0.0321939               0.8760
        85                          0.0583096               1.5867
       ...                                ...                  ...
       135                          0.6707772              18.2528
      -------------------------------------------------------------
                  HL-Gap            0.0380030 Eh            1.0341 eV
             Fermi-level            0.0000000 Eh            0.0000 eV

     #   Z          covCN         q      C6AA      α(0)
     1   7 N        2.641    -0.294    27.577     7.799
     2   6 C        2.899     0.075    26.318     8.411
     3   6 C        2.922    -0.070    29.748     8.944
     4   6 C        2.924    -0.046    29.132     8.851
     5   6 C        2.972    -0.011    28.298     8.726
     6   6 C        2.924    -0.042    29.042     8.838
     7   6 C        2.924    -0.071    29.760     8.946
     8   6 C        3.809    -0.069    21.813     6.648
     9   6 C        3.791     0.019    20.268     6.411
    10   6 C        2.768     0.209    23.577     7.952
    11   6 C        2.891    -0.070    29.751     8.943
    12   6 C        2.899     0.003    27.955     8.669
    13   6 C        3.807    -0.063    21.709     6.633
    14   6 C        3.802    -0.049    21.458     6.595
    15   6 C        3.752    -0.107    22.607     6.780
    16   8 O        0.857    -0.387    21.414     6.204
    17   8 O        1.609    -0.603    25.254     6.783
    18   1 H        0.860     0.200     1.104     1.646
    19   1 H        0.860     0.150     1.400     1.853
    20   1 H        0.925     0.017     2.784     2.609
    21   1 H        0.925     0.021     2.713     2.576
    22   1 H        0.926     0.026     2.640     2.541
    23   1 H        0.926     0.047     2.363     2.404
    24   1 H        0.925     0.060     2.201     2.320
    25   1 H        0.924     0.043     2.404     2.425
    26   1 H        0.924     0.056     2.245     2.343
    27   1 H        0.860     0.194     1.138     1.671
    28   1 H        0.860     0.220     1.009     1.573
    29   1 H        0.923     0.036     2.497     2.471
    30   1 H        0.925     0.066     2.125     2.280
    31   1 H        0.925     0.063     2.160     2.298
    32   1 H        0.924     0.071     2.073     2.252
    33   1 H        0.924     0.059     2.213     2.327
    34   1 H        0.924     0.037     2.491     2.468
    35   1 H        0.924     0.038     2.473     2.459
    36   1 H        0.925     0.042     2.428     2.437
    37   1 H        0.925     0.041     2.437     2.441
    38   1 H        0.925     0.044     2.401     2.423
    39   1 H        0.804     0.317     0.673     1.288
    40   1 H        0.806     0.272     0.813     1.416
    41   8 O        1.609    -0.597    25.119     6.764
    42   1 H        0.804     0.317     0.671     1.287
    43   1 H        0.805     0.283     0.774     1.382
    44   7 N        2.688    -0.189    25.089     7.439
    45   6 C        2.753     0.264    22.540     7.774
    46   8 O        0.858    -0.456    22.821     6.405
    47   6 C        3.758    -0.148    23.401     6.897
    48   6 C        2.745     0.282    22.225     7.719
    49   8 O        0.858    -0.458    22.869     6.412
    50   1 H        0.925     0.068     2.104     2.269
    51   1 H        0.925     0.065     2.144     2.290
    52   1 H        0.925     0.067     2.120     2.277
    53   7 N        2.684    -0.180    24.900     7.411
    54   6 C        3.691    -0.041    21.487     6.633
    55   1 H        0.924     0.048     2.350     2.397
    56   1 H        0.924     0.050     2.318     2.381
    57   1 H        0.925     0.078     1.996     2.209

 Mol. C6AA /au·bohr⁶  :      29504.454287
 Mol. C8AA /au·bohr⁸  :     657515.495342
 Mol. α(0) /au        :        262.601507


Wiberg/Mayer (AO) data.
largest (>0.10) Wiberg bond orders for each atom

 ---------------------------------------------------------------------------
     #   Z sym  total        # sym  WBO       # sym  WBO       # sym  WBO
 ---------------------------------------------------------------------------
     1   7 N    3.255 --     2 C    1.176    19 H    0.957    18 H    0.919
     2   6 C    3.973 --     3 C    1.340     7 C    1.333     1 N    1.176
     3   6 C    3.985 --     4 C    1.462     2 C    1.340    20 H    0.969
     4   6 C    3.991 --     3 C    1.462     5 C    1.401    21 H    0.969
                             7 C    0.101
     5   6 C    3.986 --     4 C    1.401     6 C    1.393     8 C    1.011
     6   6 C    3.991 --     7 C    1.470     5 C    1.393    22 H    0.968
     7   6 C    3.987 --     6 C    1.470     2 C    1.333    23 H    0.964
                             4 C    0.101
     8   6 C    3.992 --     5 C    1.011    25 H    0.971    24 H    0.967
                             9 C    0.957
     9   6 C    3.962 --    44 N    0.977    26 H    0.963     8 C    0.957
                            45 C    0.924
    10   6 C    3.918 --    16 O    1.773    11 C    1.130    29 H    0.934
    11   6 C    3.987 --    12 C    1.773    10 C    1.130    30 H    0.954
    12   6 C    3.971 --    11 C    1.773    13 C    1.056    31 H    0.959
                            16 O    0.101
    13   6 C    3.994 --    12 C    1.056    14 C    0.976    33 H    0.972
                            32 H    0.940
    14   6 C    3.990 --    15 C    1.019    34 H    0.979    35 H    0.978
                            13 C    0.976
    15   6 C    3.994 --    14 C    1.019    37 H    0.987    38 H    0.987
                            36 H    0.985
    16   8 O    2.054 --    10 C    1.773    12 C    0.101
    17   8 O    1.838 --    40 H    0.923    39 H    0.853
    18   1 H    0.959 --     1 N    0.919
    19   1 H    0.977 --     1 N    0.957
    20   1 H    0.999 --     3 C    0.969
    21   1 H    0.999 --     4 C    0.969
    22   1 H    0.999 --     6 C    0.968
    23   1 H    0.998 --     7 C    0.964
    24   1 H    0.996 --     8 C    0.967
    25   1 H    0.997 --     8 C    0.971
    26   1 H    0.997 --     9 C    0.963
    27   1 H    0.962 --    44 N    0.923
    28   1 H    0.952 --    53 N    0.878
    29   1 H    0.999 --    10 C    0.934
    30   1 H    0.996 --    11 C    0.954
    31   1 H    0.996 --    12 C    0.959
    32   1 H    0.989 --    13 C    0.940
    33   1 H    0.997 --    13 C    0.972
    34   1 H    0.999 --    14 C    0.979
    35   1 H    0.999 --    14 C    0.978
    36   1 H    0.997 --    15 C    0.985
    37   1 H    0.998 --    15 C    0.987
    38   1 H    0.998 --    15 C    0.987
    39   1 H    0.900 --    17 O    0.853
    40   1 H    0.926 --    17 O    0.923
    41   8 O    1.861 --    43 H    0.917    42 H    0.858
    42   1 H    0.899 --    41 O    0.858
    43   1 H    0.920 --    41 O    0.917
    44   7 N    3.452 --    48 C    1.279     9 C    0.977    27 H    0.923
                            49 O    0.188
    45   6 C    3.958 --    46 O    1.655    53 N    1.310     9 C    0.924
    46   8 O    1.984 --    45 C    1.655    53 N    0.213
    47   6 C    3.992 --    48 C    0.985    50 H    0.981    52 H    0.973
                            51 H    0.962
    48   6 C    3.948 --    49 O    1.631    44 N    1.279    47 C    0.985
    49   8 O    2.003 --    48 C    1.631    44 N    0.188
    50   1 H    0.995 --    47 C    0.981
    51   1 H    0.996 --    47 C    0.962
    52   1 H    0.995 --    47 C    0.973
    53   7 N    3.473 --    45 C    1.310    54 C    1.008    28 H    0.878
                            46 O    0.213
    54   6 C    3.968 --    53 N    1.008    56 H    0.977    57 H    0.977
                            55 H    0.976
    55   1 H    0.998 --    54 C    0.976
    56   1 H    0.997 --    54 C    0.977
    57   1 H    0.994 --    54 C    0.977
 ---------------------------------------------------------------------------

Topologies differ in total number of bonds
Writing topology from bond orders to xtbtopo.mol

molecular dipole:
                 x           y           z       tot (Debye)
 q only:       -1.288       0.691      -0.660
   full:       -1.566       0.415      -0.782       4.571
molecular quadrupole (traceless):
                xx          xy          yy          xz          yz          zz
 q only:      -17.055      -8.239       8.118       2.139      -3.430       8.937
  q+dip:      -19.966     -14.853       9.279      -0.709       1.252      10.687
   full:      -21.471     -14.222       7.403      -0.385       0.028      14.068

           -------------------------------------------------
          |               Frequency Printout                |
           -------------------------------------------------
 projected vibrational frequencies (cm⁻¹)
eigval :       -0.00     0.00     0.00     0.00     0.00     0.00
eigval :       -5.42     9.23    22.38    27.89    31.73    35.26
eigval :       45.06    47.71    52.71    59.42    68.77    72.30
eigval :       79.50    84.52    87.39   102.52   107.28   110.11
eigval :      119.04   121.31   126.67   142.15   158.20   168.51
eigval :      176.13   182.80   191.95   200.80   209.64   230.26
eigval :      233.32   244.64   261.40   293.85   309.83   311.62
eigval :      349.34   365.27   373.09   377.88   386.43   396.45
eigval :      411.34   420.49   435.09   470.99   486.53   506.61
eigval :      517.54   536.84   576.30   585.21   595.67   614.98
eigval :      633.19   648.02   653.05   687.77   711.89   721.77
eigval :      736.53   764.41   785.97   788.96   809.04   852.30
eigval :      866.20   883.80   891.24   904.71   916.34   921.42
eigval :      924.12   936.21   936.75  1000.55  1005.44  1009.64
eigval :     1019.78  1031.95  1035.58  1054.64  1088.73  1089.86
eigval :     1104.30  1105.65  1114.14  1132.54  1143.07  1146.55
eigval :     1162.66  1166.45  1199.10  1207.97  1216.89  1225.74
eigval :     1225.99  1245.67  1258.33  1264.85  1280.96  1291.72
eigval :     1292.80  1305.86  1324.70  1331.80  1345.80  1347.37
eigval :     1376.08  1383.10  1392.70  1417.30  1429.27  1433.09
eigval :     1441.88  1456.49  1460.40  1463.88  1466.91  1467.35
eigval :     1486.71  1487.14  1492.54  1499.31  1502.07  1525.94
eigval :     1542.80  1558.79  1575.95  1623.49  1653.91  1693.12
eigval :     1709.64  1747.20  2847.89  2950.29  2958.26  2967.64
eigval :     2975.60  2986.89  2988.42  2990.72  2998.30  3008.70
eigval :     3019.77  3027.89  3037.46  3041.06  3044.91  3052.21
eigval :     3054.86  3056.07  3061.00  3067.67  3070.62  3076.96
eigval :     3107.20  3228.45  3327.91  3380.09  3386.40  3418.88
eigval :     3493.38  3651.57  3674.71
 reduced masses (amu)
   1: 12.25   2: 12.12   3: 11.98   4: 12.00   5: 11.55   6: 12.36   7: 11.62   8: 11.36
   9: 10.51  10: 12.44  11: 12.56  12: 10.62  13: 10.67  14: 11.31  15: 12.39  16: 12.08
  17: 10.72  18: 10.09  19: 11.46  20: 10.64  21: 10.38  22: 10.05  23: 12.24  24:  4.55
  25:  6.66  26: 10.13  27:  1.96  28: 11.39  29: 11.60  30: 10.56  31: 11.44  32: 11.12
  33:  6.01  34: 10.37  35:  8.14  36: 11.33  37:  4.15  38: 10.83  39:  9.85  40: 10.60
  41: 10.67  42:  9.67  43: 10.38  44: 11.67  45:  9.46  46:  7.80  47:  2.37  48:  6.11
  49:  8.23  50:  7.21  51:  3.50  52: 10.57  53:  8.96  54: 10.29  55:  7.61  56:  8.60
  57: 10.93  58:  7.34  59:  3.47  60: 10.81  61:  4.14  62:  9.60  63: 10.53  64: 10.60
  65:  2.90  66:  6.37  67:  7.27  68:  4.56  69:  9.34  70:  2.87  71:  6.12  72: 10.62
  73:  3.35  74: 10.86  75:  3.49  76:  2.74  77:  6.28  78:  6.72  79:  4.87  80:  8.68
  81:  6.84  82:  5.67  83:  1.97  84:  5.80  85:  8.40  86:  4.23  87:  7.81  88:  4.31
  89:  8.97  90:  9.48  91:  7.34  92:  4.71  93:  7.81  94:  8.03  95:  3.62  96:  8.04
  97:  7.97  98:  4.29  99:  1.74 100:  4.97 101:  4.64 102:  3.71 103:  6.01 104:  4.76
 105:  3.90 106:  4.69 107:  3.47 108:  3.30 109:  3.52 110:  4.50 111:  4.74 112:  8.62
 113: 11.10 114:  4.78 115:  3.28 116:  3.47 117:  2.63 118:  3.12 119:  8.74 120:  9.70
 121:  8.54 122:  1.74 123:  2.08 124:  1.58 125:  1.75 126:  2.03 127:  2.96 128:  4.23
 129:  1.85 130:  1.53 131:  1.62 132:  8.92 133:  2.21 134:  2.10 135: 11.51 136: 11.51
 137: 11.47 138: 13.22 139: 13.05 140: 13.07 141:  1.72 142:  1.77 143:  1.75 144:  1.93
 145:  1.93 146:  1.46 147:  1.52 148:  1.79 149:  1.70 150:  1.70 151:  1.77 152:  1.73
 153:  1.91 154:  1.95 155:  1.30 156:  1.42 157:  1.81 158:  1.77 159:  1.98 160:  1.84
 161:  1.87 162:  1.81 163:  1.85 164:  1.91 165:  1.86 166:  1.71 167:  1.80 168:  1.86
 169:  1.99 170:  1.83 171:  1.84
 IR intensities (km·mol⁻¹)
   1:  0.00   2:  0.00   3:  0.11   4:  0.10   5:  0.05   6:  0.17   7:  1.12   8:  1.19
   9:  0.50  10:  0.24  11:  2.02  12:  1.03  13:  1.07  14:  2.82  15:  3.26  16:  5.10
  17:  1.02  18:  0.29  19:  2.08  20:  1.81  21:  2.97  22:  7.43  23:  4.73  24:  2.88
  25: 37.31  26:  5.64  27:  0.40  28:  6.91  29: 53.48  30:  9.30  31:  5.87  32:  1.66
  33: 62.58  34:  5.69  35: 51.30  36:  5.23  37:  5.34  38: 27.86  39: 20.26  40:  8.04
  41: 11.75  42:  6.33  43:  5.92  44: 13.50  45:  0.88  46:  5.57  47: 56.63  48: 25.31
  49: 16.71  50: 31.77  51:115.61  52:  7.78  53:  6.66  54: 19.15  55: 26.12  56: 74.67
  57:  9.99  58: 25.56  59:187.98  60:  2.31  61:221.47  62: 36.45  63: 32.12  64: 16.36
  65:331.19  66: 68.45  67: 40.43  68:  0.98  69: 26.10  70: 16.96  71: 29.95  72:  3.82
  73:  3.61  74:  0.20  75: 11.34  76:  0.49  77: 14.25  78:  4.79  79:  1.12  80:  5.73
  81:  6.07  82: 27.96  83: 21.07  84:  8.66  85:  1.56  86: 19.76  87:  1.33  88:  4.39
  89:  1.69  90: 35.28  91: 37.64  92: 18.74  93: 28.26  94: 15.50  95:  3.57  96:  5.38
  97: 40.62  98: 30.11  99:  7.69 100:  5.92 101:  9.39 102:  5.89 103: 15.50 104: 15.73
 105: 10.03 106: 21.79 107:  9.24 108:  0.34 109:  1.19 110:  6.77 111: 30.12 112: 49.56
 113:  8.95 114: 18.80 115: 39.83 116: 12.19 117:  4.19 118:  2.03 119:192.57 120:  0.76
 121:263.37 122:  7.36 123:  2.75 124:  9.98 125:  9.41 126:  1.78 127: 40.42 128: 10.84
 129:  0.68 130:  4.33 131:  2.62 132:182.09 133:123.24 134:227.09 135:  2.58 136:137.28
 137:431.25 138:328.92 139:233.85 140:668.11 141: 45.67 142:  4.11 143: 16.83 144: 30.71
 145: 26.27 146: 53.74 147: 21.57 148: 20.99 149: 22.43 150: 12.83 151:  8.68 152: 14.40
 153: 44.94 154: 41.99 155: 26.12 156:  3.02 157:  2.43 158: 25.69 159:  8.35 160: 35.89
 161: 61.84 162: 18.61 163: 12.94 164:348.01 165:456.77 166:674.59 167:143.17 168:103.28
 169: 19.19 170: 11.94 171:  4.25
 Raman intensities (Ä⁴*amu⁻¹)
   1:  0.00   2:  0.00   3:  0.00   4:  0.00   5:  0.00   6:  0.00   7:  0.00   8:  0.00
   9:  0.00  10:  0.00  11:  0.00  12:  0.00  13:  0.00  14:  0.00  15:  0.00  16:  0.00
  17:  0.00  18:  0.00  19:  0.00  20:  0.00  21:  0.00  22:  0.00  23:  0.00  24:  0.00
  25:  0.00  26:  0.00  27:  0.00  28:  0.00  29:  0.00  30:  0.00  31:  0.00  32:  0.00
  33:  0.00  34:  0.00  35:  0.00  36:  0.00  37:  0.00  38:  0.00  39:  0.00  40:  0.00
  41:  0.00  42:  0.00  43:  0.00  44:  0.00  45:  0.00  46:  0.00  47:  0.00  48:  0.00
  49:  0.00  50:  0.00  51:  0.00  52:  0.00  53:  0.00  54:  0.00  55:  0.00  56:  0.00
  57:  0.00  58:  0.00  59:  0.00  60:  0.00  61:  0.00  62:  0.00  63:  0.00  64:  0.00
  65:  0.00  66:  0.00  67:  0.00  68:  0.00  69:  0.00  70:  0.00  71:  0.00  72:  0.00
  73:  0.00  74:  0.00  75:  0.00  76:  0.00  77:  0.00  78:  0.00  79:  0.00  80:  0.00
  81:  0.00  82:  0.00  83:  0.00  84:  0.00  85:  0.00  86:  0.00  87:  0.00  88:  0.00
  89:  0.00  90:  0.00  91:  0.00  92:  0.00  93:  0.00  94:  0.00  95:  0.00  96:  0.00
  97:  0.00  98:  0.00  99:  0.00 100:  0.00 101:  0.00 102:  0.00 103:  0.00 104:  0.00
 105:  0.00 106:  0.00 107:  0.00 108:  0.00 109:  0.00 110:  0.00 111:  0.00 112:  0.00
 113:  0.00 114:  0.00 115:  0.00 116:  0.00 117:  0.00 118:  0.00 119:  0.00 120:  0.00
 121:  0.00 122:  0.00 123:  0.00 124:  0.00 125:  0.00 126:  0.00 127:  0.00 128:  0.00
 129:  0.00 130:  0.00 131:  0.00 132:  0.00 133:  0.00 134:  0.00 135:  0.00 136:  0.00
 137:  0.00 138:  0.00 139:  0.00 140:  0.00 141:  0.00 142:  0.00 143:  0.00 144:  0.00
 145:  0.00 146:  0.00 147:  0.00 148:  0.00 149:  0.00 150:  0.00 151:  0.00 152:  0.00
 153:  0.00 154:  0.00 155:  0.00 156:  0.00 157:  0.00 158:  0.00 159:  0.00 160:  0.00
 161:  0.00 162:  0.00 163:  0.00 164:  0.00 165:  0.00 166:  0.00 167:  0.00 168:  0.00
 169:  0.00 170:  0.00 171:  0.00
 output can be read by thermo (or use thermo option).
 writing <g98.out> molden fake output.
 recommended (thermochemical) frequency scaling factor: 1.0
           -------------------------------------------------
          |             Thermodynamic Functions             |
           -------------------------------------------------

Refinement of some symmetry elements was terminated before convergence was reached.
Some symmetry elements may remain unidentified.
Molecule has no symmetry elements
It seems to be the C1 point group
c1  symmetry found (for desy threshold:  0.10E+00) used in thermo
 inverting freq            1   5.42207267405927     

          ...................................................
          :                      SETUP                      :
          :.................................................:
          :  # frequencies                         165      :
          :  # imaginary freq.                       0      :
          :  linear?                             false      :
          :  only rotor calc.                    false      :
          :  symmetry                               c1      :
          :  rotational number                       1      :
          :  scaling factor                  1.0000000      :
          :  rotor cutoff                   50.0000000 cm⁻¹ :
          :  imag. cutoff                  -20.0000000 cm⁻¹ :
          :.................................................:

    mode    ω/cm⁻¹     T·S(HO)/kcal·mol⁻¹    T·S(FR)/kcal·mol⁻¹   T·S(vib)
   ------------------------------------------------------------------------
       1      5.42    -2.75111 (  0.01%)    -1.71441 ( 99.99%)    -1.71455
       2      9.23    -2.43572 (  0.12%)    -1.55680 ( 99.88%)    -1.55782
       3     22.38    -1.91151 (  3.86%)    -1.29467 ( 96.14%)    -1.31846
       4     27.89    -1.78121 (  8.82%)    -1.22945 ( 91.18%)    -1.27814
       5     31.73    -1.70480 ( 13.96%)    -1.19119 ( 86.04%)    -1.26289
       6     35.26    -1.64252 ( 19.83%)    -1.15998 ( 80.17%)    -1.25566
       7     45.06    -1.49769 ( 39.74%)    -1.08735 ( 60.26%)    -1.25042
       8     47.71    -1.46396 ( 45.32%)    -1.07042 ( 54.68%)    -1.24878
       9     52.71    -1.40521 ( 55.25%)    -1.04090 ( 44.75%)    -1.24220
      10     59.42    -1.33461 ( 66.61%)    -1.00539 ( 33.39%)    -1.22468
      11     68.77    -1.24873 ( 78.16%)    -0.96211 ( 21.84%)    -1.18613
      12     72.30    -1.21939 ( 81.38%)    -0.94729 ( 18.62%)    -1.16873
      13     79.50    -1.16377 ( 86.47%)    -0.91917 ( 13.53%)    -1.13067
      14     84.52    -1.12791 ( 89.09%)    -0.90101 ( 10.91%)    -1.10315
      15     87.39    -1.10845 ( 90.32%)    -0.89114 (  9.68%)    -1.08741
      16    102.52    -1.01542 ( 94.65%)    -0.84381 (  5.35%)    -1.00624
      17    107.28    -0.98913 ( 95.49%)    -0.83038 (  4.51%)    -0.98197
      18    110.11    -0.97407 ( 95.92%)    -0.82268 (  4.08%)    -0.96789
      19    119.04    -0.92902 ( 96.98%)    -0.79958 (  3.02%)    -0.92512
      20    121.31    -0.91814 ( 97.19%)    -0.79398 (  2.81%)    -0.91466
      21    126.67    -0.89326 ( 97.63%)    -0.78117 (  2.37%)    -0.89061
      22    142.15    -0.82727 ( 98.49%)    -0.74700 (  1.51%)    -0.82606
      23    158.20    -0.76659 ( 99.01%)    -0.71531 (  0.99%)    -0.76608
      24    168.51    -0.73108 ( 99.23%)    -0.69662 (  0.77%)    -0.73081
      25    176.13    -0.70634 ( 99.35%)    -0.68352 (  0.65%)    -0.70620
      26    182.80    -0.68565 ( 99.44%)    -0.67251 (  0.56%)    -0.68557
      27    191.95    -0.65860 ( 99.54%)    -0.65804 (  0.46%)    -0.65860
      28    200.80    -0.63378 ( 99.62%)    -0.64468 (  0.38%)    -0.63382
      29    209.64    -0.61027 ( 99.68%)    -0.63193 (  0.32%)    -0.61034
      30    230.26    -0.55961 ( 99.78%)    -0.60413 (  0.22%)    -0.55970
      31    233.32    -0.55254 ( 99.79%)    -0.60021 (  0.21%)    -0.55264
      32    244.64    -0.52738 ( 99.83%)    -0.58618 (  0.17%)    -0.52749
      33    261.40    -0.49267 ( 99.87%)    -0.56656 (  0.13%)    -0.49277
      34    293.85    -0.43282 ( 99.92%)    -0.53189 (  0.08%)    -0.43290
   ------------------------------------------------------------------------

   temp. (K)  partition function   enthalpy   heat capacity  entropy
                                   cal/mol     cal/K/mol   cal/K/mol   J/K/mol
 298.15  VIB  0.110E+19            20061.579    107.064    133.738
         ROT  0.157E+08              888.752      2.981     35.911
         INT  0.173E+26            20950.332    110.045    169.650
         TR   0.687E+28             1481.254      4.968     43.594
         TOT                       22431.5855   115.0129   213.2436   892.2114

       T/K    H(0)-H(T)+PV         H(T)/Eh          T*S/Eh         G(T)/Eh
   ------------------------------------------------------------------------
    298.15    0.357470E-01    0.503060E+00    0.101319E+00    0.401742E+00
   ------------------------------------------------------------------------

         :::::::::::::::::::::::::::::::::::::::::::::::::::::
         ::                  THERMODYNAMIC                  ::
         :::::::::::::::::::::::::::::::::::::::::::::::::::::
         :: total free energy         -83.039000631867 Eh   ::
         ::.................................................::
         :: total energy              -83.440742164038 Eh   ::
         :: zero point energy           0.467313460972 Eh   ::
         :: G(RRHO) w/o ZPVE           -0.065571928801 Eh   ::
         :: G(RRHO) contrib.            0.401741532171 Eh   ::
         :::::::::::::::::::::::::::::::::::::::::::::::::::::
imag cut-off (cm-1) :    5.00
 found            1  significant imaginary frequency
 writing imag mode distorted coords to xtbhess.xyz
 for further optimization.

           -------------------------------------------------
          | TOTAL ENERGY              -83.440742164038 Eh   |
          | TOTAL ENTHALPY            -82.937681696172 Eh   |
          | TOTAL FREE ENERGY         -83.039000631867 Eh   |
          | GRADIENT NORM               0.000804311899 Eh/α |
          | HOMO-LUMO GAP               1.034115522304 eV   |
           -------------------------------------------------

------------------------------------------------------------------------
 * finished run on 2026/08/20 at 20:40:48.354     
------------------------------------------------------------------------
 total:
 * wall-time:     0 d,  0 h,  0 min,  5.256 sec
 *  cpu-time:     0 d,  0 h,  0 min, 34.156 sec
 * ratio c/w:     6.499 speedup
 SCF:
 * wall-time:     0 d,  0 h,  0 min,  0.048 sec
 *  cpu-time:     0 d,  0 h,  0 min,  0.078 sec
 * ratio c/w:     1.628 speedup
 analytical hessian:
 * wall-time:     0 d,  0 h,  0 min,  5.165 sec
 *  cpu-time:     0 d,  0 h,  0 min, 34.047 sec
 * ratio c/w:     6.592 speedup



===== STDERR =====

normal termination of xtb
