57
 energy: -83.440742164028 gnorm: 0.000804155450 xtb: 6.7.1pre (5071a88)
N           -0.26805503656079       -0.18992294420413       -0.90652702934590
C            1.04517760973025        0.03822955070816       -0.56970826550231
C            1.47277150370659        1.28870442710083       -0.11743788024910
C            2.81747689520627        1.54895568901113        0.05445225310399
C            3.77544956463798        0.57250634587629       -0.18712891687454
C            3.34449191088818       -0.69051868550827       -0.57694233735021
C            2.00605659928828       -0.95608456775678       -0.76957022740363
C            5.23996021534242        0.89503533389923       -0.12686270278502
C            5.72234972156197        1.28621889263343       -1.54164052230388
C            2.23501608738155        0.52986851244206       -3.61402142498942
C            2.71438769437102        1.88579580880536       -3.50281423555075
C            1.97130769006827        2.86225941846392       -2.97017120136507
C            2.43038886674984        4.25591432118506       -2.76629493040911
C            1.51469556269137        5.25961758158617       -3.48096785720312
C            1.97344877636484        6.69178704678619       -3.24210916961569
O            2.92522056175553       -0.42203941249048       -3.93551324195779
O           -0.58938538533645       -2.90841541394628       -2.00362775762267
H           -0.51529601622021       -1.15717656231959       -1.08102819904697
H           -0.96415418231294        0.35124054689847       -0.42045101888346
H            0.73992573753304        2.05728475442560        0.08768659273356
H            3.13290987956215        2.52895669820831        0.38497681335405
H            4.07044798155821       -1.47696964314723       -0.72615842504481
H            1.67843335409539       -1.93893332343494       -1.06987072983475
H            5.81394304771005        0.03678565387783        0.22236034207852
H            5.42189646873057        1.73797271022134        0.54148702368052
H            5.03280522559070        2.04019995939006       -1.93380302899932
H            4.95985066710862        0.20035553513061       -3.17396177183925
H            7.92565122625258        0.20725612903693       -0.94972883477367
H            1.16947598559468        0.39016958683210       -3.37471346614121
H            3.72579702071720        2.08088364193010       -3.83572717851076
H            0.96091753937079        2.63857506337830       -2.65159296774797
H            2.40593849614088        4.47177468897976       -1.69404002692282
H            3.45756543532668        4.37805521245488       -3.11348720387570
H            1.52158703107207        5.04672870976834       -4.55188919272176
H            0.49092177754083        5.13636971043933       -3.12182969187572
H            1.32457726883855        7.38949361770752       -3.76578874565505
H            1.95011033126155        6.93021518527138       -2.18122117454168
H            2.98997326145453        6.83213458454597       -3.60173822940552
H            0.15623384207541       -2.89456593678715       -2.63231144937366
H           -1.32592320705062       -3.29762991233839       -2.47594642786653
O            1.58736372181880       -2.88859193270428       -3.72247685402795
H            2.02902774470406       -2.03041286639942       -3.84507719624216
H            2.26562640817188       -3.50007503090747       -3.42893745185169
N            5.67461333540924        0.15757403007949       -2.46176695507118
C            7.09465882529032        1.98268034951796       -1.47665922518110
O            7.19289473216026        3.16830716002640       -1.73787186594857
C            5.86772273789933       -2.05575945824975       -3.34847606441453
C            6.25817051319154       -1.04415990890072       -2.29481522779307
O            7.06169648482631       -1.30309257885521       -1.41078201700704
H            6.06631745086482       -3.05773317616630       -2.97802821863780
H            6.47848725672821       -1.89043638214520       -4.23463707257685
H            4.82216665182924       -1.95178100876275       -3.62276409359592
N            8.10147584768057        1.20469087108605       -1.07029124279708
C            9.45327549772661        1.68799378284899       -0.94664194125446
H           10.10732177131601        1.19620139495711       -1.66979924826806
H            9.83043657647124        1.49582665726745        0.05933580390844
H            9.44739743422271        2.76067958194353       -1.13564869045363
