      -----------------------------------------------------------      
     |                   =====================                   |     
     |                           x T B                           |     
     |                   =====================                   |     
     |                         S. Grimme                         |     
     |          Mulliken Center for Theoretical Chemistry        |     
     |                    University of Bonn                     |     
      -----------------------------------------------------------      

   * xtb version 6.7.1pre (5071a88) compiled by 'Marcel@Raven' on 2024-07-23

   xtb is free software: you can redistribute it and/or modify it under
   the terms of the GNU Lesser General Public License as published by
   the Free Software Foundation, either version 3 of the License, or
   (at your option) any later version.
   
   xtb is distributed in the hope that it will be useful,
   but WITHOUT ANY WARRANTY; without even the implied warranty of
   MERCHANTABILITY or FITNESS FOR A PARTICULAR PURPOSE.  See the
   GNU Lesser General Public License for more details.
   
   Cite this work as:
   * C. Bannwarth, E. Caldeweyher, S. Ehlert, A. Hansen, P. Pracht,
     J. Seibert, S. Spicher, S. Grimme, WIREs Comput. Mol. Sci., 2020, 11,
     e01493. DOI: 10.1002/wcms.1493
   
   for GFN2-xTB:
   * C. Bannwarth, S. Ehlert and S. Grimme., J. Chem. Theory Comput., 2019,
     15, 1652-1671. DOI: 10.1021/acs.jctc.8b01176
   for GFN1-xTB:
   * S. Grimme, C. Bannwarth, P. Shushkov, J. Chem. Theory Comput., 2017,
     13, 1989-2009. DOI: 10.1021/acs.jctc.7b00118
   for GFN0-xTB:
   * P. Pracht, E. Caldeweyher, S. Ehlert, S. Grimme, ChemRxiv, 2019, preprint.
     DOI: 10.26434/chemrxiv.8326202.v1
   for GFN-FF:
   * S. Spicher and S. Grimme, Angew. Chem. Int. Ed., 2020, 59, 15665-15673.
     DOI: 10.1002/anie.202004239
   
   for ALPB and GBSA implicit solvation:
   * S. Ehlert, M. Stahn, S. Spicher, S. Grimme, J. Chem. Theory Comput.,
     2021, 17, 4250-4261. DOI: 10.1021/acs.jctc.1c00471
   
   for ddCOSMO and CPCM-X implicit solvation:
   * M. Stahn, S. Ehlert, S. Grimme, J. Phys. Chem. A,
     2023, XX, XXXX-XXXX. DOI: 10.1021/acs.jpca.3c04382
   
   for DFT-D4:
   * E. Caldeweyher, C. Bannwarth and S. Grimme, J. Chem. Phys., 2017,
     147, 034112. DOI: 10.1063/1.4993215
   * E. Caldeweyher, S. Ehlert, A. Hansen, H. Neugebauer, S. Spicher,
     C. Bannwarth and S. Grimme, J. Chem. Phys., 2019, 150, 154122.
     DOI: 10.1063/1.5090222
   * E. Caldeweyher, J.-M. Mewes, S. Ehlert and S. Grimme, Phys. Chem. Chem. Phys.
     2020, 22, 8499-8512. DOI: 10.1039/D0CP00502A
   
   for sTDA-xTB:
   * S. Grimme and C. Bannwarth, J. Chem. Phys., 2016, 145, 054103.
     DOI: 10.1063/1.4959605
   
   in the mass-spec context:
   * V. Asgeirsson, C. Bauer and S. Grimme, Chem. Sci., 2017, 8, 4879.
     DOI: 10.1039/c7sc00601b
   * J. Koopman and S. Grimme, ACS Omega 2019, 4, 12, 15120-15133.
     DOI: 10.1021/acsomega.9b02011
   
   for metadynamics refer to:
   * S. Grimme, J. Chem. Theory Comput., 2019, 155, 2847-2862
     DOI: 10.1021/acs.jctc.9b00143
   
   for SPH calculations refer to:
   * S. Spicher and S. Grimme, J. Chem. Theory Comput., 2021, 17, 1701-1714
     DOI: 10.1021/acs.jctc.0c01306
   
   for ONIOM refer to:
   * C. Plett, A. Katbashev, S. Ehlert, S. Grimme, M. Bursch,
     Phys. Chem. Chem. Phys., 2023, 25, 17860-17868. DOI: 10.1039/D3CP02178E
   
   for DIPRO refer to:
   * J. Kohn, N. Gildemeister, S. Grimme, D. Fazzi, A. Hansen,
     J. Chem. Phys., 2023, just accepted.
   
   for PTB refer to:
   * S. Grimme, M. Mueller, A. Hansen, J. Chem. Phys., 2023, 158, 124111.
     DOI: 10.1063/5.0137838
   
   with help from (in alphabetical order)
   P. Atkinson, C. Bannwarth, F. Bohle, G. Brandenburg, E. Caldeweyher
   M. Checinski, S. Dohm, S. Ehlert, S. Ehrlich, I. Gerasimov, C. Hölzer
   A. Katbashev, J. Kohn, J. Koopman, C. Lavigne, S. Lehtola, F. März, M. Müller,
   F. Musil, H. Neugebauer, J. Pisarek, C. Plett, P. Pracht, F. Pultar,
   J. Seibert, P. Shushkov, S. Spicher, M. Stahn, M. Steiner, T. Strunk,
   J. Stückrath, T. Rose, and J. Unsleber
   
 * started run on 2026/08/20 at 20:41:15.953     
   ID    Z sym.   atoms
    1    7 N      1, 44, 53
    2    6 C      2-15, 45, 47, 48, 54
    3    8 O      16, 17, 41, 46, 49
    4    1 H      18-40, 42, 43, 50-52, 55-57

           -------------------------------------------------
          |                Calculation Setup                |
           -------------------------------------------------

          program call               : C:\Users\Nayanika\Downloads\xtb-6.7.1pre-windows-x86_64\xtb-6.7.1\bin\xtb.exe D:\PhD_Thesis\LmrR_EVB\charges\fast_lmrr_5QM\xtb_preparation\stage2_five_xtb_protocols\GFN2_normal\RS1_1_to_TS1_2\RS1_1_to_TS1_2_PS_xtbopt.xyz --gfn 2 --chrg 0 --uhf 0 --hess --etemp 0
          coordinate file            : D:\PhD_Thesis\LmrR_EVB\charges\fast_lmrr_5QM\xtb_preparation\stage2_five_xtb_protocols\GFN2_normal\RS1_1_to_TS1_2\RS1_1_to_TS1_2_PS_xtbopt.xyz
          omp threads                :                     8


molecular fragmentation (1/2 indicates fragments):
111111111222222221111111111122222222222222211111111111111
# atoms in fragment 1/2:    34    23
 fragment masses (1/2) :      235.28      134.17
CMA distance (Bohr)    :   9.706
constraining FC (au)   :  0.0500

           -------------------------------------------------
          |                 G F N 2 - x T B                 |
           -------------------------------------------------

        Reference                      10.1021/acs.jctc.8b01176
      * Hamiltonian:
        H0-scaling (s, p, d)           1.850000    2.230000    2.230000
        zeta-weighting                 0.500000
      * Dispersion:
        s8                             2.700000
        a1                             0.520000
        a2                             5.000000
        s9                             5.000000
      * Repulsion:
        kExp                           1.500000    1.000000
        rExp                           1.000000
      * Coulomb:
        alpha                          2.000000
        third order                    shell-resolved
        anisotropic                    true
        a3                             3.000000
        a5                             4.000000
        cn-shift                       1.200000
        cn-exp                         4.000000
        max-rad                        5.000000

q/qsh data taken from xtbrestart
CAMM data taken from xtbrestart

          ...................................................
          :                      SETUP                      :
          :.................................................:
          :  # basis functions                 135          :
          :  # atomic orbitals                 135          :
          :  # shells                           83          :
          :  # electrons                       148          :
          :  max. iterations                   250          :
          :  Hamiltonian                  GFN2-xTB          :
          :  restarted?                       true          :
          :  GBSA solvation                  false          :
          :  PC potential                    false          :
          :  electronic temp.            0.0000000     K    :
          :  accuracy                    1.0000000          :
          :  -> integral cutoff          0.2500000E+02      :
          :  -> integral neglect         0.1000000E-07      :
          :  -> SCF convergence          0.1000000E-05 Eh   :
          :  -> wf. convergence          0.1000000E-03 e    :
          :  Broyden damping             0.4000000          :
          :  net charge                          0          :
          :  unpaired electrons                  0          :
          ...................................................

 iter      E             dE          RMSdq      gap      omega  full diag
   1    -84.5396153 -0.845396E+02  0.187E-06    2.30       0.0  T
   2    -84.5396153 -0.142109E-13  0.145E-06    2.30    9109.1  T
   3    -84.5396153  0.127898E-12  0.734E-07    2.30   18053.3  T

   *** convergence criteria satisfied after 3 iterations ***

         #    Occupation            Energy/Eh            Energy/eV
      -------------------------------------------------------------
         1        2.0000           -0.7124232             -19.3860
       ...           ...                  ...                  ...
        68        2.0000           -0.4178741             -11.3709
        69        2.0000           -0.4108800             -11.1806
        70        2.0000           -0.4085764             -11.1179
        71        2.0000           -0.4013914             -10.9224
        72        2.0000           -0.3991615             -10.8617
        73        2.0000           -0.3885054             -10.5718
        74        2.0000           -0.3690114             -10.0413 (HOMO)
        75                         -0.2844944              -7.7415 (LUMO)
        76                         -0.2264402              -6.1618
        77                         -0.2231997              -6.0736
        78                         -0.2170260              -5.9056
        79                         -0.2091653              -5.6917
       ...                                ...                  ...
       135                          0.6563728              17.8608
      -------------------------------------------------------------
                  HL-Gap            0.0845171 Eh            2.2998 eV
             Fermi-level            0.0000000 Eh            0.0000 eV

 SCC (total)                   0 d,  0 h,  0 min,  0.042 sec
 SCC setup                      ...        0 min,  0.000 sec (  0.000%)
 Dispersion                     ...        0 min,  0.001 sec (  2.381%)
 classical contributions        ...        0 min,  0.000 sec (  0.000%)
 integral evaluation            ...        0 min,  0.004 sec (  9.524%)
 iterations                     ...        0 min,  0.017 sec ( 40.476%)
 molecular gradient             ...        0 min,  0.020 sec ( 47.619%)
 printout                       ...        0 min,  0.000 sec (  0.000%)

         :::::::::::::::::::::::::::::::::::::::::::::::::::::
         ::                     SUMMARY                     ::
         :::::::::::::::::::::::::::::::::::::::::::::::::::::
         :: total energy             -83.437234185751 Eh    ::
         :: gradient norm              0.000323234523 Eh/a0 ::
         :: HOMO-LUMO gap              2.299826152469 eV    ::
         ::.................................................::
         :: SCC energy               -84.537763345230 Eh    ::
         :: -> isotropic ES            0.177994967951 Eh    ::
         :: -> anisotropic ES         -0.002170735160 Eh    ::
         :: -> anisotropic XC          0.029664597467 Eh    ::
         :: -> dispersion             -0.057608866157 Eh    ::
         :: repulsion energy           1.100529159479 Eh    ::
         :: add. restraining           0.000000000000 Eh    ::
         :: total charge              -0.000000000000 e     ::
         :::::::::::::::::::::::::::::::::::::::::::::::::::::

           ------------------------------------------------- 
          |                Numerical Hessian                |
           ------------------------------------------------- 
step length          :   0.00500
SCC accuracy         :   0.30000
Hessian scale factor :   1.00000
frozen atoms in %    :   0.00000    0
RMS gradient         :   0.00032
estimated CPU  time      4.95 min
estimated wall time      0.75 min

writing file <hessian>.

 projected vibrational frequencies (cm⁻¹)
eigval :       -0.00    -0.00     0.00     0.00     0.00     0.00
eigval :       15.21    17.70    24.37    25.17    34.07    39.75
eigval :       50.82    55.26    59.37    61.85    64.75    70.32
eigval :       77.09    82.97    85.36    94.43   103.75   107.89
eigval :      119.72   125.67   131.88   142.56   152.70   157.81
eigval :      174.23   178.57   197.22   202.34   235.63   239.06
eigval :      252.21   261.61   290.75   298.24   302.40   324.34
eigval :      345.86   355.98   377.32   381.76   391.52   395.91
eigval :      412.48   417.33   444.81   455.64   477.86   491.79
eigval :      528.22   534.37   573.01   578.45   601.41   614.36
eigval :      621.52   637.07   671.89   689.46   720.63   727.96
eigval :      767.56   775.19   792.36   807.51   814.96   862.84
eigval :      872.66   882.59   894.78   907.03   921.14   927.84
eigval :      931.14   938.48   977.19   992.11   994.25  1001.89
eigval :     1011.08  1015.60  1018.92  1036.85  1073.62  1078.32
eigval :     1089.65  1104.66  1108.06  1118.11  1129.81  1143.91
eigval :     1155.28  1163.18  1195.70  1207.62  1217.80  1220.94
eigval :     1221.76  1242.61  1254.85  1266.62  1280.33  1283.51
eigval :     1286.53  1294.80  1312.62  1320.20  1342.18  1346.49
eigval :     1375.19  1381.89  1393.18  1419.75  1424.00  1428.35
eigval :     1433.59  1455.43  1462.48  1465.29  1477.35  1478.06
eigval :     1484.21  1485.70  1496.92  1500.49  1504.75  1514.91
eigval :     1551.08  1560.10  1577.61  1614.70  1635.32  1676.09
eigval :     1708.70  1759.34  2807.25  2920.14  2961.59  2971.56
eigval :     2971.76  2981.80  2990.26  2990.34  2999.50  3000.62
eigval :     3019.14  3032.52  3033.53  3037.16  3037.61  3050.65
eigval :     3058.90  3060.71  3062.26  3075.74  3080.73  3083.43
eigval :     3088.86  3339.92  3363.45  3392.02  3435.58  3456.77
eigval :     3531.09  3589.01  3665.21
           -------------------------------------------------
          |                Property Printout                |
           -------------------------------------------------

    * Orbital Energies and Occupations

         #    Occupation            Energy/Eh            Energy/eV
      -------------------------------------------------------------
         1        2.0000           -0.7124232             -19.3860
       ...           ...                  ...                  ...
        62        2.0000           -0.4409184             -11.9980
        63        2.0000           -0.4379099             -11.9161
        64        2.0000           -0.4345201             -11.8239
        65        2.0000           -0.4294371             -11.6856
        66        2.0000           -0.4265346             -11.6066
        67        2.0000           -0.4229200             -11.5082
        68        2.0000           -0.4178741             -11.3709
        69        2.0000           -0.4108800             -11.1806
        70        2.0000           -0.4085764             -11.1179
        71        2.0000           -0.4013914             -10.9224
        72        2.0000           -0.3991615             -10.8617
        73        2.0000           -0.3885054             -10.5718
        74        2.0000           -0.3690114             -10.0413 (HOMO)
        75                         -0.2844944              -7.7415 (LUMO)
        76                         -0.2264402              -6.1618
        77                         -0.2231997              -6.0736
        78                         -0.2170260              -5.9056
        79                         -0.2091653              -5.6917
        80                         -0.1705385              -4.6406
        81                         -0.0945097              -2.5717
        82                         -0.0022539              -0.0613
        83                          0.0055055               0.1498
        84                          0.0177316               0.4825
        85                          0.0728534               1.9824
       ...                                ...                  ...
       135                          0.6563728              17.8608
      -------------------------------------------------------------
                  HL-Gap            0.0845171 Eh            2.2998 eV
             Fermi-level            0.0000000 Eh            0.0000 eV

     #   Z          covCN         q      C6AA      α(0)
     1   7 N        2.659    -0.264    26.852     7.696
     2   6 C        2.900     0.075    26.316     8.411
     3   6 C        2.923    -0.058    29.453     8.900
     4   6 C        2.924    -0.038    28.944     8.823
     5   6 C        2.971    -0.004    28.111     8.697
     6   6 C        2.924    -0.043    29.068     8.842
     7   6 C        2.922    -0.061    29.529     8.911
     8   6 C        3.811    -0.070    21.827     6.650
     9   6 C        3.798     0.020    20.247     6.407
    10   6 C        2.783     0.209    23.577     7.953
    11   6 C        2.890    -0.065    29.618     8.923
    12   6 C        2.896    -0.004    28.119     8.694
    13   6 C        3.808    -0.062    21.682     6.628
    14   6 C        3.802    -0.045    21.377     6.583
    15   6 C        3.752    -0.111    22.675     6.790
    16   8 O        0.856    -0.435    22.385     6.343
    17   8 O        1.610    -0.600    25.179     6.772
    18   1 H        0.860     0.200     1.104     1.646
    19   1 H        0.860     0.199     1.113     1.652
    20   1 H        0.926     0.033     2.548     2.496
    21   1 H        0.926     0.032     2.553     2.499
    22   1 H        0.925     0.027     2.631     2.536
    23   1 H        0.926     0.031     2.567     2.505
    24   1 H        0.924     0.062     2.177     2.307
    25   1 H        0.924     0.058     2.222     2.331
    26   1 H        0.924     0.063     2.167     2.302
    27   1 H        0.860     0.181     1.207     1.721
    28   1 H        0.860     0.203     1.092     1.637
    29   1 H        0.923     0.015     2.810     2.622
    30   1 H        0.926     0.038     2.478     2.462
    31   1 H        0.925     0.061     2.186     2.312
    32   1 H        0.924     0.052     2.300     2.372
    33   1 H        0.924     0.049     2.337     2.391
    34   1 H        0.924     0.029     2.601     2.522
    35   1 H        0.924     0.032     2.558     2.501
    36   1 H        0.925     0.035     2.516     2.480
    37   1 H        0.925     0.034     2.525     2.485
    38   1 H        0.925     0.062     2.175     2.306
    39   1 H        0.805     0.293     0.744     1.355
    40   1 H        0.805     0.300     0.721     1.334
    41   8 O        1.609    -0.608    25.391     6.801
    42   1 H        0.806     0.276     0.798     1.403
    43   1 H        0.804     0.320     0.664     1.280
    44   7 N        2.692    -0.181    24.912     7.413
    45   6 C        2.753     0.264    22.555     7.777
    46   8 O        0.858    -0.433    22.355     6.339
    47   6 C        3.757    -0.141    23.274     6.878
    48   6 C        2.749     0.277    22.312     7.735
    49   8 O        0.859    -0.463    22.980     6.427
    50   1 H        0.925     0.050     2.325     2.385
    51   1 H        0.925     0.066     2.135     2.285
    52   1 H        0.925     0.075     2.029     2.228
    53   7 N        2.686    -0.176    24.807     7.397
    54   6 C        3.690    -0.043    21.533     6.641
    55   1 H        0.924     0.053     2.284     2.363
    56   1 H        0.924     0.050     2.325     2.385
    57   1 H        0.925     0.083     1.946     2.181

 Mol. C6AA /au·bohr⁶  :      29532.440028
 Mol. C8AA /au·bohr⁸  :     657675.396034
 Mol. α(0) /au        :        262.716062


Wiberg/Mayer (AO) data.
largest (>0.10) Wiberg bond orders for each atom

 ---------------------------------------------------------------------------
     #   Z sym  total        # sym  WBO       # sym  WBO       # sym  WBO
 ---------------------------------------------------------------------------
     1   7 N    3.376 --     2 C    1.148    18 H    0.929    19 H    0.928
                            10 C    0.125
     2   6 C    3.971 --     7 C    1.353     3 C    1.341     1 N    1.148
     3   6 C    3.989 --     4 C    1.472     2 C    1.341    20 H    0.968
                             6 C    0.101
     4   6 C    3.992 --     3 C    1.472     5 C    1.395    21 H    0.969
                             7 C    0.103
     5   6 C    3.982 --     6 C    1.405     4 C    1.395     8 C    1.009
     6   6 C    3.991 --     7 C    1.457     5 C    1.405    22 H    0.968
                             3 C    0.101
     7   6 C    3.987 --     6 C    1.457     2 C    1.353    23 H    0.969
                             4 C    0.103
     8   6 C    3.990 --     5 C    1.009     9 C    0.981    24 H    0.970
                            25 H    0.965
     9   6 C    3.962 --     8 C    0.981    44 N    0.973    26 H    0.952
                            45 C    0.915
    10   6 C    3.931 --    16 O    1.689    11 C    1.090    29 H    0.939
                             1 N    0.125
    11   6 C    3.989 --    12 C    1.815    10 C    1.090    30 H    0.965
    12   6 C    3.980 --    11 C    1.815    13 C    1.044    31 H    0.962
    13   6 C    3.996 --    12 C    1.044    14 C    0.975    33 H    0.972
                            32 H    0.959
    14   6 C    3.994 --    15 C    1.018    34 H    0.979    35 H    0.979
                            13 C    0.975
    15   6 C    3.992 --    14 C    1.018    37 H    0.988    36 H    0.986
                            38 H    0.981
    16   8 O    2.009 --    10 C    1.689
    17   8 O    1.835 --    39 H    0.904    40 H    0.892
    18   1 H    0.959 --     1 N    0.929
    19   1 H    0.960 --     1 N    0.928
    20   1 H    0.999 --     3 C    0.968
    21   1 H    0.998 --     4 C    0.969
    22   1 H    0.999 --     6 C    0.968
    23   1 H    0.999 --     7 C    0.969
    24   1 H    0.996 --     8 C    0.970
    25   1 H    0.995 --     8 C    0.965
    26   1 H    0.996 --     9 C    0.952
    27   1 H    0.967 --    44 N    0.934
    28   1 H    0.959 --    53 N    0.911
    29   1 H    0.999 --    10 C    0.939
    30   1 H    0.999 --    11 C    0.965
    31   1 H    0.996 --    12 C    0.962
    32   1 H    0.997 --    13 C    0.959
    33   1 H    0.998 --    13 C    0.972
    34   1 H    0.999 --    14 C    0.979
    35   1 H    0.999 --    14 C    0.979
    36   1 H    0.997 --    15 C    0.986
    37   1 H    0.999 --    15 C    0.988
    38   1 H    0.996 --    15 C    0.981
    39   1 H    0.914 --    17 O    0.904
    40   1 H    0.910 --    17 O    0.892
    41   8 O    1.826 --    42 H    0.919    43 H    0.853
    42   1 H    0.924 --    41 O    0.919
    43   1 H    0.898 --    41 O    0.853
    44   7 N    3.457 --    48 C    1.277     9 C    0.973    27 H    0.934
                            49 O    0.192
    45   6 C    3.956 --    46 O    1.682    53 N    1.288     9 C    0.915
    46   8 O    2.013 --    45 C    1.682    53 N    0.212
    47   6 C    3.993 --    48 C    0.985    52 H    0.979    50 H    0.978
                            51 H    0.963
    48   6 C    3.950 --    49 O    1.636    44 N    1.277    47 C    0.985
    49   8 O    1.982 --    48 C    1.636    44 N    0.192
    50   1 H    0.997 --    47 C    0.978
    51   1 H    0.995 --    47 C    0.963
    52   1 H    0.994 --    47 C    0.979
    53   7 N    3.465 --    45 C    1.288    54 C    1.005    28 H    0.911
                            46 O    0.212
    54   6 C    3.965 --    53 N    1.005    55 H    0.977    56 H    0.977
                            57 H    0.977
    55   1 H    0.997 --    54 C    0.977
    56   1 H    0.997 --    54 C    0.977
    57   1 H    0.993 --    54 C    0.977
 ---------------------------------------------------------------------------

Topologies differ in total number of bonds
Writing topology from bond orders to xtbtopo.mol

molecular dipole:
                 x           y           z       tot (Debye)
 q only:        0.184       1.001      -0.335
   full:       -0.232       1.165      -0.508       3.283
molecular quadrupole (traceless):
                xx          xy          yy          xz          yz          zz
 q only:      -16.605       5.672       5.313     -10.683       1.033      11.292
  q+dip:      -24.171       0.462       6.953     -15.070       7.003      17.218
   full:      -25.278       0.763       5.785     -14.457       3.700      19.494

           -------------------------------------------------
          |               Frequency Printout                |
           -------------------------------------------------
 projected vibrational frequencies (cm⁻¹)
eigval :       -0.00    -0.00     0.00     0.00     0.00     0.00
eigval :       15.21    17.70    24.37    25.17    34.07    39.75
eigval :       50.82    55.26    59.37    61.85    64.75    70.32
eigval :       77.09    82.97    85.36    94.43   103.75   107.89
eigval :      119.72   125.67   131.88   142.56   152.70   157.81
eigval :      174.23   178.57   197.22   202.34   235.63   239.06
eigval :      252.21   261.61   290.75   298.24   302.40   324.34
eigval :      345.86   355.98   377.32   381.76   391.52   395.91
eigval :      412.48   417.33   444.81   455.64   477.86   491.79
eigval :      528.22   534.37   573.01   578.45   601.41   614.36
eigval :      621.52   637.07   671.89   689.46   720.63   727.96
eigval :      767.56   775.19   792.36   807.51   814.96   862.84
eigval :      872.66   882.59   894.78   907.03   921.14   927.84
eigval :      931.14   938.48   977.19   992.11   994.25  1001.89
eigval :     1011.08  1015.60  1018.92  1036.85  1073.62  1078.32
eigval :     1089.65  1104.66  1108.06  1118.11  1129.81  1143.91
eigval :     1155.28  1163.18  1195.70  1207.62  1217.80  1220.94
eigval :     1221.76  1242.61  1254.85  1266.62  1280.33  1283.51
eigval :     1286.53  1294.80  1312.62  1320.20  1342.18  1346.49
eigval :     1375.19  1381.89  1393.18  1419.75  1424.00  1428.35
eigval :     1433.59  1455.43  1462.48  1465.29  1477.35  1478.06
eigval :     1484.21  1485.70  1496.92  1500.49  1504.75  1514.91
eigval :     1551.08  1560.10  1577.61  1614.70  1635.32  1676.09
eigval :     1708.70  1759.34  2807.25  2920.14  2961.59  2971.56
eigval :     2971.76  2981.80  2990.26  2990.34  2999.50  3000.62
eigval :     3019.14  3032.52  3033.53  3037.16  3037.61  3050.65
eigval :     3058.90  3060.71  3062.26  3075.74  3080.73  3083.43
eigval :     3088.86  3339.92  3363.45  3392.02  3435.58  3456.77
eigval :     3531.09  3589.01  3665.21
 reduced masses (amu)
   1: 12.57   2: 12.11   3: 11.94   4: 12.09   5: 12.41   6: 11.91   7: 11.13   8: 12.23
   9: 12.76  10: 11.89  11: 11.53  12: 12.19  13:  9.91  14: 12.10  15:  9.25  16:  9.57
  17:  8.45  18: 10.10  19: 11.09  20:  7.77  21: 12.02  22: 12.04  23: 12.21  24:  8.34
  25: 11.65  26:  2.01  27: 10.70  28: 10.25  29:  8.50  30: 11.54  31: 11.68  32: 11.03
  33: 11.67  34: 11.63  35: 11.32  36: 11.91  37:  2.88  38:  2.12  39: 12.10  40:  9.36
  41:  9.73  42: 10.61  43:  9.28  44: 10.79  45:  8.59  46:  2.54  47:  7.26  48:  5.02
  49:  8.23  50:  9.79  51:  4.49  52:  9.55  53: 10.17  54: 10.75  55:  4.20  56:  8.12
  57:  2.58  58:  8.04  59:  9.83  60: 10.96  61:  2.36  62:  7.63  63:  9.75  64:  8.74
  65:  9.73  66: 11.45  67:  6.55  68:  8.35  69:  2.36  70:  6.23  71:  4.25  72:  3.35
  73:  8.41  74: 10.25  75:  3.72  76:  2.80  77:  4.16  78:  5.47  79:  8.04  80:  6.11
  81: 10.96  82:  5.56  83:  6.47  84:  5.36  85:  2.42  86:  4.27  87:  7.75  88:  8.18
  89:  5.41  90:  6.89  91:  8.83  92:  3.87  93:  7.24  94:  7.91  95:  7.32  96:  3.66
  97:  8.44  98:  5.98  99:  1.79 100:  5.27 101:  4.64 102:  5.14 103:  5.79 104:  3.38
 105:  4.56 106:  2.40 107:  4.34 108:  3.92 109:  3.56 110:  3.69 111:  6.78 112:  9.01
 113: 10.90 114:  4.82 115:  3.29 116:  3.33 117:  2.62 118:  3.42 119:  9.62 120:  9.72
 121:  8.62 122:  1.67 123:  1.57 124:  1.75 125:  2.10 126:  2.17 127:  2.47 128:  4.42
 129:  1.84 130:  1.52 131:  1.66 132:  8.62 133:  2.13 134:  2.77 135: 11.53 136: 11.56
 137: 12.14 138: 11.81 139: 13.14 140: 13.20 141:  1.71 142:  1.75 143:  1.88 144:  1.92
 145:  1.82 146:  1.53 147:  1.97 148:  1.47 149:  1.69 150:  1.51 151:  1.78 152:  1.73
 153:  1.92 154:  1.58 155:  1.60 156:  1.70 157:  1.81 158:  1.79 159:  1.76 160:  1.78
 161:  1.86 162:  1.83 163:  1.88 164:  1.88 165:  1.85 166:  1.57 167:  2.08 168:  1.85
 169:  1.95 170:  1.75 171:  1.84
 IR intensities (km·mol⁻¹)
   1:  0.02   2:  0.10   3:  0.09   4:  0.05   5:  0.03   6:  0.07   7:  0.30   8:  0.68
   9:  1.36  10:  0.17  11:  1.53  12:  3.38  13:  3.86  14:  6.72  15:  0.22  16:  1.61
  17:  3.08  18:  1.47  19:  4.22  20:  5.36  21:  2.29  22: 12.53  23:  8.46  24:  9.69
  25: 10.93  26:  0.56  27: 17.59  28: 40.79  29: 39.91  30: 11.63  31: 29.16  32:  4.31
  33:  9.70  34: 28.79  35: 12.60  36:  2.94  37: 45.57  38:  0.41  39:  5.65  40: 12.58
  41:  3.74  42:  9.49  43: 27.54  44: 27.15  45:  6.14  46: 11.03  47: 57.63  48: 41.61
  49: 50.57  50: 15.23  51:154.67  52:  8.27  53: 23.24  54:  4.39  55:504.71  56:123.35
  57:116.05  58:  6.30  59: 39.66  60:  8.18  61:163.30  62: 68.23  63: 19.11  64: 11.89
  65: 48.99  66: 10.86  67:  6.95  68: 35.52  69: 16.67  70:  0.33  71:189.12  72:  0.54
  73:  2.75  74:  1.66  75:  6.94  76:  0.22  77:  0.23  78: 49.60  79: 10.63  80:  4.63
  81: 21.53  82:  5.05  83: 24.60  84: 21.55  85: 22.11  86:  0.65  87:  0.25  88: 23.35
  89:  6.64  90: 19.33  91:  0.04  92:  0.55  93: 14.74  94: 28.13  95: 23.32  96:  1.58
  97:  0.96  98:  1.11  99:  4.51 100:  3.29 101:  7.42 102:  0.74 103:  9.86 104:  9.83
 105: 37.24 106:  0.84 107: 17.59 108:  6.16 109:  1.80 110:  1.00 111: 24.19 112: 22.36
 113:  6.99 114:  8.11 115: 22.61 116: 26.99 117:  3.11 118: 10.89 119:193.44 120: 20.25
 121:224.18 122:  4.02 123: 10.45 124:  7.38 125:  1.30 126:  1.83 127: 27.88 128: 17.23
 129:  0.73 130:  4.08 131:  2.99 132:235.47 133:178.55 134:186.23 135:  3.61 136: 14.48
 137:590.82 138:141.08 139:319.15 140:559.95 141: 88.44 142: 13.46 143:  7.77 144: 17.63
 145: 53.66 146: 31.94 147: 14.92 148: 44.46 149: 30.81 150: 11.50 151:  8.95 152:  6.83
 153: 50.18 154:  7.95 155: 46.69 156:  4.13 157: 10.97 158: 31.60 159:  6.61 160: 18.17
 161: 49.49 162: 37.37 163: 27.35 164:102.41 165:241.83 166:172.17 167: 56.94 168: 16.02
 169:125.41 170: 43.05 171:  8.24
 Raman intensities (Ä⁴*amu⁻¹)
   1:  0.00   2:  0.00   3:  0.00   4:  0.00   5:  0.00   6:  0.00   7:  0.00   8:  0.00
   9:  0.00  10:  0.00  11:  0.00  12:  0.00  13:  0.00  14:  0.00  15:  0.00  16:  0.00
  17:  0.00  18:  0.00  19:  0.00  20:  0.00  21:  0.00  22:  0.00  23:  0.00  24:  0.00
  25:  0.00  26:  0.00  27:  0.00  28:  0.00  29:  0.00  30:  0.00  31:  0.00  32:  0.00
  33:  0.00  34:  0.00  35:  0.00  36:  0.00  37:  0.00  38:  0.00  39:  0.00  40:  0.00
  41:  0.00  42:  0.00  43:  0.00  44:  0.00  45:  0.00  46:  0.00  47:  0.00  48:  0.00
  49:  0.00  50:  0.00  51:  0.00  52:  0.00  53:  0.00  54:  0.00  55:  0.00  56:  0.00
  57:  0.00  58:  0.00  59:  0.00  60:  0.00  61:  0.00  62:  0.00  63:  0.00  64:  0.00
  65:  0.00  66:  0.00  67:  0.00  68:  0.00  69:  0.00  70:  0.00  71:  0.00  72:  0.00
  73:  0.00  74:  0.00  75:  0.00  76:  0.00  77:  0.00  78:  0.00  79:  0.00  80:  0.00
  81:  0.00  82:  0.00  83:  0.00  84:  0.00  85:  0.00  86:  0.00  87:  0.00  88:  0.00
  89:  0.00  90:  0.00  91:  0.00  92:  0.00  93:  0.00  94:  0.00  95:  0.00  96:  0.00
  97:  0.00  98:  0.00  99:  0.00 100:  0.00 101:  0.00 102:  0.00 103:  0.00 104:  0.00
 105:  0.00 106:  0.00 107:  0.00 108:  0.00 109:  0.00 110:  0.00 111:  0.00 112:  0.00
 113:  0.00 114:  0.00 115:  0.00 116:  0.00 117:  0.00 118:  0.00 119:  0.00 120:  0.00
 121:  0.00 122:  0.00 123:  0.00 124:  0.00 125:  0.00 126:  0.00 127:  0.00 128:  0.00
 129:  0.00 130:  0.00 131:  0.00 132:  0.00 133:  0.00 134:  0.00 135:  0.00 136:  0.00
 137:  0.00 138:  0.00 139:  0.00 140:  0.00 141:  0.00 142:  0.00 143:  0.00 144:  0.00
 145:  0.00 146:  0.00 147:  0.00 148:  0.00 149:  0.00 150:  0.00 151:  0.00 152:  0.00
 153:  0.00 154:  0.00 155:  0.00 156:  0.00 157:  0.00 158:  0.00 159:  0.00 160:  0.00
 161:  0.00 162:  0.00 163:  0.00 164:  0.00 165:  0.00 166:  0.00 167:  0.00 168:  0.00
 169:  0.00 170:  0.00 171:  0.00
 output can be read by thermo (or use thermo option).
 writing <g98.out> molden fake output.
 recommended (thermochemical) frequency scaling factor: 1.0
           -------------------------------------------------
          |             Thermodynamic Functions             |
           -------------------------------------------------

Refinement of some symmetry elements was terminated before convergence was reached.
Some symmetry elements may remain unidentified.
Molecule has no symmetry elements
It seems to be the C1 point group
c1  symmetry found (for desy threshold:  0.10E+00) used in thermo

          ...................................................
          :                      SETUP                      :
          :.................................................:
          :  # frequencies                         165      :
          :  # imaginary freq.                       0      :
          :  linear?                             false      :
          :  only rotor calc.                    false      :
          :  symmetry                               c1      :
          :  rotational number                       1      :
          :  scaling factor                  1.0000000      :
          :  rotor cutoff                   50.0000000 cm⁻¹ :
          :  imag. cutoff                  -20.0000000 cm⁻¹ :
          :.................................................:

    mode    ω/cm⁻¹     T·S(HO)/kcal·mol⁻¹    T·S(FR)/kcal·mol⁻¹   T·S(vib)
   ------------------------------------------------------------------------
       1     15.21    -2.14020 (  0.85%)    -1.40907 ( 99.15%)    -1.41527
       2     17.70    -2.05022 (  1.55%)    -1.36407 ( 98.45%)    -1.37468
       3     24.37    -1.86110 (  5.34%)    -1.26944 ( 94.66%)    -1.30103
       4     25.17    -1.84196 (  6.03%)    -1.25986 ( 93.97%)    -1.29497
       5     34.07    -1.66281 ( 17.74%)    -1.17015 ( 82.26%)    -1.25753
       6     39.75    -1.57171 ( 28.54%)    -1.12449 ( 71.46%)    -1.25213
       7     50.82    -1.42666 ( 51.63%)    -1.05168 ( 48.37%)    -1.24530
       8     55.26    -1.37731 ( 59.88%)    -1.02687 ( 40.12%)    -1.23671
       9     59.37    -1.33510 ( 66.54%)    -1.00563 ( 33.46%)    -1.22484
      10     61.85    -1.31101 ( 70.08%)    -0.99351 ( 29.92%)    -1.21601
      11     64.75    -1.28413 ( 73.77%)    -0.97996 ( 26.23%)    -1.20433
      12     70.32    -1.23564 ( 79.64%)    -0.95550 ( 20.36%)    -1.17862
      13     77.09    -1.18173 ( 84.97%)    -0.92826 ( 15.03%)    -1.14362
      14     82.97    -1.13872 ( 88.35%)    -0.90649 ( 11.65%)    -1.11166
      15     85.36    -1.12214 ( 89.47%)    -0.89808 ( 10.53%)    -1.09854
      16     94.43    -1.06325 ( 92.71%)    -0.86818 (  7.29%)    -1.04903
      17    103.75    -1.00851 ( 94.88%)    -0.84028 (  5.12%)    -0.99990
      18    107.89    -0.98583 ( 95.59%)    -0.82869 (  4.41%)    -0.97890
      19    119.72    -0.92571 ( 97.05%)    -0.79788 (  2.95%)    -0.92194
      20    125.67    -0.89781 ( 97.56%)    -0.78351 (  2.44%)    -0.89502
      21    131.88    -0.87014 ( 97.98%)    -0.76923 (  2.02%)    -0.86810
      22    142.56    -0.82565 ( 98.51%)    -0.74616 (  1.49%)    -0.82446
      23    152.70    -0.78662 ( 98.86%)    -0.72581 (  1.14%)    -0.78593
      24    157.81    -0.76799 ( 99.00%)    -0.71605 (  1.00%)    -0.76747
      25    174.23    -0.71237 ( 99.33%)    -0.68672 (  0.67%)    -0.71220
      26    178.57    -0.69864 ( 99.39%)    -0.67943 (  0.61%)    -0.69853
      27    197.22    -0.64366 ( 99.59%)    -0.65001 (  0.41%)    -0.64368
      28    202.34    -0.62962 ( 99.63%)    -0.64243 (  0.37%)    -0.62967
      29    235.63    -0.54729 ( 99.80%)    -0.59730 (  0.20%)    -0.54739
      30    239.06    -0.53960 ( 99.81%)    -0.59301 (  0.19%)    -0.53970
      31    252.21    -0.51135 ( 99.85%)    -0.57715 (  0.15%)    -0.51145
      32    261.61    -0.49225 ( 99.87%)    -0.56631 (  0.13%)    -0.49234
      33    290.75    -0.43816 ( 99.91%)    -0.53503 (  0.09%)    -0.43824
      34    298.24    -0.42539 ( 99.92%)    -0.52749 (  0.08%)    -0.42547
   ------------------------------------------------------------------------

   temp. (K)  partition function   enthalpy   heat capacity  entropy
                                   cal/mol     cal/K/mol   cal/K/mol   J/K/mol
 298.15  VIB  0.129E+18            19941.036    107.336    131.673
         ROT  0.160E+08              888.752      2.981     35.940
         INT  0.205E+25            20829.788    110.317    167.613
         TR   0.687E+28             1481.254      4.968     43.594
         TOT                       22311.0423   115.2848   211.2066   883.6883

       T/K    H(0)-H(T)+PV         H(T)/Eh          T*S/Eh         G(T)/Eh
   ------------------------------------------------------------------------
    298.15    0.355549E-01    0.503173E+00    0.100351E+00    0.402822E+00
   ------------------------------------------------------------------------

         :::::::::::::::::::::::::::::::::::::::::::::::::::::
         ::                  THERMODYNAMIC                  ::
         :::::::::::::::::::::::::::::::::::::::::::::::::::::
         :: total free energy         -83.034412423274 Eh   ::
         ::.................................................::
         :: total energy              -83.437234185751 Eh   ::
         :: zero point energy           0.467617906809 Eh   ::
         :: G(RRHO) w/o ZPVE           -0.064796144332 Eh   ::
         :: G(RRHO) contrib.            0.402821762477 Eh   ::
         :::::::::::::::::::::::::::::::::::::::::::::::::::::

           -------------------------------------------------
          | TOTAL ENERGY              -83.437234185751 Eh   |
          | TOTAL ENTHALPY            -82.934061369852 Eh   |
          | TOTAL FREE ENERGY         -83.034412423274 Eh   |
          | GRADIENT NORM               0.000323235612 Eh/α |
          | HOMO-LUMO GAP               2.299826198706 eV   |
           -------------------------------------------------

------------------------------------------------------------------------
 * finished run on 2026/08/20 at 20:41:21.403     
------------------------------------------------------------------------
 total:
 * wall-time:     0 d,  0 h,  0 min,  5.449 sec
 *  cpu-time:     0 d,  0 h,  0 min, 35.656 sec
 * ratio c/w:     6.544 speedup
 SCF:
 * wall-time:     0 d,  0 h,  0 min,  0.042 sec
 *  cpu-time:     0 d,  0 h,  0 min,  0.188 sec
 * ratio c/w:     4.464 speedup
 analytical hessian:
 * wall-time:     0 d,  0 h,  0 min,  5.361 sec
 *  cpu-time:     0 d,  0 h,  0 min, 35.438 sec
 * ratio c/w:     6.610 speedup



===== STDERR =====

normal termination of xtb
