57
 energy: -83.438978018393 gnorm: 0.000607787042 xtb: 6.7.1pre (5071a88)
N           -0.39444438734436       -0.75295944324684       -0.23716771838247
C            0.97722647682651       -0.68058595720553       -0.12049707153390
C            1.55005972240659        0.10075248027496        0.88572006384883
C            2.91410655538913        0.28965448059405        0.93279334058949
C            3.75358470695047       -0.29414265788951       -0.01050011658180
C            3.18430987420454       -1.09370355956353       -0.99327541638278
C            1.81817036319968       -1.29121255550129       -1.05051264796710
C            5.22862762031859       -0.01064317774632        0.00100753008735
C            5.51257887180658        1.39474662747227       -0.53629880409567
C           -1.06023123172667        1.04777195534464       -1.77851532615611
C            0.14749890139306        1.79265702214983       -1.45390013472780
C            0.17398384592388        2.75774819982663       -0.53200673949980
C            1.37760822966095        3.54032860811025       -0.15722345537584
C            1.23445126444549        5.01491798675163       -0.55903559718507
C            2.48271878676348        5.80530526431030       -0.18981714887094
O           -2.17676385146609        1.29372342189329       -1.35679023392007
O           -3.91276137709460        0.93847132425275        0.72744395751713
H           -0.91291326082984       -0.50937152342882        0.60579849642137
H           -0.75913602921185       -1.55088568414154       -0.73430173572153
H            0.90231398706709        0.55130428840497        1.62193439076317
H            3.34122995375450        0.89885183607596        1.71647631898803
H            3.81900313750094       -1.58189147051751       -1.72142264074352
H            1.39215446615008       -1.91538228741581       -1.82399812936522
H            5.77106542128952       -0.73083135243928       -0.61422198523976
H            5.62889928659364       -0.07263738952882        1.01388319574627
H            5.10925057275348        2.15844186886973        0.14014714250298
H            4.63517327881422        0.73124908896465       -2.33201857792521
H            6.56564022606393        3.58998407517010       -0.98368948183382
H           -0.92561525182386        0.28233865563926       -2.56373143255612
H            1.04821487171684        1.50374560599126       -1.97545956079901
H           -0.74830565950116        3.01400645360415       -0.02626345633403
H            1.51281073777266        3.48730641094652        0.92605225353206
H            2.26438109547049        3.12104575001669       -0.63429015728675
H            1.07096912447229        5.07313501399949       -1.63722184598840
H            0.35976862354184        5.44405521934132       -0.06496947710611
H            2.38432300422432        6.84107272522759       -0.50611768733062
H            2.64110554627200        5.78832947014160        0.88642584987271
H            3.35669083895441        5.37660934791437       -0.67415782803123
H           -4.22458667179858        1.82685949616928        0.91037684643589
H           -3.40094367444788        1.00283414153177       -0.09754580083460
O           -1.87599419712206       -0.13507360659221        2.16048024472039
H           -2.23143989698276       -0.84924098278492        2.69174413654816
H           -2.64499453641719        0.28292337443713        1.72058047559448
N            4.85648740563775        1.57170967855832       -1.82140221870137
C            7.03156525002069        1.63284818759559       -0.69159746527808
O            7.84669939733316        0.73480796353512       -0.65262581977086
C            3.72496257432877        2.71771448387296       -3.60447478405683
C            4.48687721098164        2.77083756614772       -2.30104184626116
O            4.76086010543323        3.81503600748409       -1.72920447926780
H            2.95879915464795        1.94680044028317       -3.57561057970256
H            4.41553884283035        2.49458109815579       -4.41592335400352
H            3.26574730479565        3.68404176068460       -3.79231147745745
N            7.32840195759268        2.92870519555697       -0.87466496096157
C            8.67370294761728        3.39126102125546       -1.11106389350170
H            8.94039530430662        4.16241035353680       -0.38701349308646
H            8.77252105835874        3.80048174310253       -2.11860305577289
H            9.34365212022267        2.54015595457647       -0.99937660768143
