      -----------------------------------------------------------      
     |                   =====================                   |     
     |                           x T B                           |     
     |                   =====================                   |     
     |                         S. Grimme                         |     
     |          Mulliken Center for Theoretical Chemistry        |     
     |                    University of Bonn                     |     
      -----------------------------------------------------------      

   * xtb version 6.7.1pre (5071a88) compiled by 'Marcel@Raven' on 2024-07-23

   xtb is free software: you can redistribute it and/or modify it under
   the terms of the GNU Lesser General Public License as published by
   the Free Software Foundation, either version 3 of the License, or
   (at your option) any later version.
   
   xtb is distributed in the hope that it will be useful,
   but WITHOUT ANY WARRANTY; without even the implied warranty of
   MERCHANTABILITY or FITNESS FOR A PARTICULAR PURPOSE.  See the
   GNU Lesser General Public License for more details.
   
   Cite this work as:
   * C. Bannwarth, E. Caldeweyher, S. Ehlert, A. Hansen, P. Pracht,
     J. Seibert, S. Spicher, S. Grimme, WIREs Comput. Mol. Sci., 2020, 11,
     e01493. DOI: 10.1002/wcms.1493
   
   for GFN2-xTB:
   * C. Bannwarth, S. Ehlert and S. Grimme., J. Chem. Theory Comput., 2019,
     15, 1652-1671. DOI: 10.1021/acs.jctc.8b01176
   for GFN1-xTB:
   * S. Grimme, C. Bannwarth, P. Shushkov, J. Chem. Theory Comput., 2017,
     13, 1989-2009. DOI: 10.1021/acs.jctc.7b00118
   for GFN0-xTB:
   * P. Pracht, E. Caldeweyher, S. Ehlert, S. Grimme, ChemRxiv, 2019, preprint.
     DOI: 10.26434/chemrxiv.8326202.v1
   for GFN-FF:
   * S. Spicher and S. Grimme, Angew. Chem. Int. Ed., 2020, 59, 15665-15673.
     DOI: 10.1002/anie.202004239
   
   for ALPB and GBSA implicit solvation:
   * S. Ehlert, M. Stahn, S. Spicher, S. Grimme, J. Chem. Theory Comput.,
     2021, 17, 4250-4261. DOI: 10.1021/acs.jctc.1c00471
   
   for ddCOSMO and CPCM-X implicit solvation:
   * M. Stahn, S. Ehlert, S. Grimme, J. Phys. Chem. A,
     2023, XX, XXXX-XXXX. DOI: 10.1021/acs.jpca.3c04382
   
   for DFT-D4:
   * E. Caldeweyher, C. Bannwarth and S. Grimme, J. Chem. Phys., 2017,
     147, 034112. DOI: 10.1063/1.4993215
   * E. Caldeweyher, S. Ehlert, A. Hansen, H. Neugebauer, S. Spicher,
     C. Bannwarth and S. Grimme, J. Chem. Phys., 2019, 150, 154122.
     DOI: 10.1063/1.5090222
   * E. Caldeweyher, J.-M. Mewes, S. Ehlert and S. Grimme, Phys. Chem. Chem. Phys.
     2020, 22, 8499-8512. DOI: 10.1039/D0CP00502A
   
   for sTDA-xTB:
   * S. Grimme and C. Bannwarth, J. Chem. Phys., 2016, 145, 054103.
     DOI: 10.1063/1.4959605
   
   in the mass-spec context:
   * V. Asgeirsson, C. Bauer and S. Grimme, Chem. Sci., 2017, 8, 4879.
     DOI: 10.1039/c7sc00601b
   * J. Koopman and S. Grimme, ACS Omega 2019, 4, 12, 15120-15133.
     DOI: 10.1021/acsomega.9b02011
   
   for metadynamics refer to:
   * S. Grimme, J. Chem. Theory Comput., 2019, 155, 2847-2862
     DOI: 10.1021/acs.jctc.9b00143
   
   for SPH calculations refer to:
   * S. Spicher and S. Grimme, J. Chem. Theory Comput., 2021, 17, 1701-1714
     DOI: 10.1021/acs.jctc.0c01306
   
   for ONIOM refer to:
   * C. Plett, A. Katbashev, S. Ehlert, S. Grimme, M. Bursch,
     Phys. Chem. Chem. Phys., 2023, 25, 17860-17868. DOI: 10.1039/D3CP02178E
   
   for DIPRO refer to:
   * J. Kohn, N. Gildemeister, S. Grimme, D. Fazzi, A. Hansen,
     J. Chem. Phys., 2023, just accepted.
   
   for PTB refer to:
   * S. Grimme, M. Mueller, A. Hansen, J. Chem. Phys., 2023, 158, 124111.
     DOI: 10.1063/5.0137838
   
   with help from (in alphabetical order)
   P. Atkinson, C. Bannwarth, F. Bohle, G. Brandenburg, E. Caldeweyher
   M. Checinski, S. Dohm, S. Ehlert, S. Ehrlich, I. Gerasimov, C. Hölzer
   A. Katbashev, J. Kohn, J. Koopman, C. Lavigne, S. Lehtola, F. März, M. Müller,
   F. Musil, H. Neugebauer, J. Pisarek, C. Plett, P. Pracht, F. Pultar,
   J. Seibert, P. Shushkov, S. Spicher, M. Stahn, M. Steiner, T. Strunk,
   J. Stückrath, T. Rose, and J. Unsleber
   
 * started run on 2026/08/31 at 13:17:08.748     
   ID    Z sym.   atoms
    1    7 N      1, 44, 53
    2    6 C      2-15, 45, 47, 48, 54
    3    8 O      16, 17, 41, 46, 49
    4    1 H      18-40, 42, 43, 50-52, 55-57

           -------------------------------------------------
          |                Calculation Setup                |
           -------------------------------------------------

          program call               : C:\Users\Nayanika\Downloads\xtb-6.7.1pre-windows-x86_64\xtb-6.7.1\bin\xtb.exe D:\PhD_Thesis\LmrR_EVB\charges\fast_lmrr_5QM\xtb_preparation\stage2_five_xtb_protocols\GFN2_normal\RS1_1_to_TS1_2\RS1_1_to_TS1_2_RS_xtbopt.xyz --gfn 2 --chrg 0 --uhf 0 --etemp 0
          coordinate file            : D:\PhD_Thesis\LmrR_EVB\charges\fast_lmrr_5QM\xtb_preparation\stage2_five_xtb_protocols\GFN2_normal\RS1_1_to_TS1_2\RS1_1_to_TS1_2_RS_xtbopt.xyz
          omp threads                :                     1


molecular fragmentation (1/2 indicates fragments):
111111111222222221111111111122222222222222211111111111111
# atoms in fragment 1/2:    34    23
 fragment masses (1/2) :      235.28      134.17
CMA distance (Bohr)    :   7.284
constraining FC (au)   :  0.0500

           -------------------------------------------------
          |                 G F N 2 - x T B                 |
           -------------------------------------------------

        Reference                      10.1021/acs.jctc.8b01176
      * Hamiltonian:
        H0-scaling (s, p, d)           1.850000    2.230000    2.230000
        zeta-weighting                 0.500000
      * Dispersion:
        s8                             2.700000
        a1                             0.520000
        a2                             5.000000
        s9                             5.000000
      * Repulsion:
        kExp                           1.500000    1.000000
        rExp                           1.000000
      * Coulomb:
        alpha                          2.000000
        third order                    shell-resolved
        anisotropic                    true
        a3                             3.000000
        a5                             4.000000
        cn-shift                       1.200000
        cn-exp                         4.000000
        max-rad                        5.000000

q/qsh data taken from xtbrestart
CAMM data taken from xtbrestart

          ...................................................
          :                      SETUP                      :
          :.................................................:
          :  # basis functions                 135          :
          :  # atomic orbitals                 135          :
          :  # shells                           83          :
          :  # electrons                       148          :
          :  max. iterations                   250          :
          :  Hamiltonian                  GFN2-xTB          :
          :  restarted?                       true          :
          :  GBSA solvation                  false          :
          :  PC potential                    false          :
          :  electronic temp.            0.0000000     K    :
          :  accuracy                    1.0000000          :
          :  -> integral cutoff          0.2500000E+02      :
          :  -> integral neglect         0.1000000E-07      :
          :  -> SCF convergence          0.1000000E-05 Eh   :
          :  -> wf. convergence          0.1000000E-03 e    :
          :  Broyden damping             0.4000000          :
          :  net charge                          0          :
          :  unpaired electrons                  0          :
          ...................................................

 iter      E             dE          RMSdq      gap      omega  full diag
   1    -84.5270569 -0.845271E+02  0.256E+00    2.26       0.0  T
   2    -84.5388662 -0.118093E-01  0.153E+00    1.61       1.0  T
   3    -84.5210678  0.177984E-01  0.658E-01    1.01       1.0  T
   4    -84.5432882 -0.222204E-01  0.195E-01    0.99       1.0  T
   5    -84.5442788 -0.990605E-03  0.935E-02    1.01       1.0  T
   6    -84.5443909 -0.112096E-03  0.473E-02    1.04       1.0  T
   7    -84.5444262 -0.352452E-04  0.164E-02    1.04       1.0  T
   8    -84.5444306 -0.448486E-05  0.579E-03    1.04       2.3  T
   9    -84.5444313 -0.679223E-06  0.236E-03    1.03       5.6  T
  10    -84.5444314 -0.444297E-07  0.106E-03    1.03      12.5  T
  11    -84.5444314 -0.263495E-07  0.303E-04    1.03      43.7  T
  12    -84.5444314 -0.184477E-08  0.140E-04    1.03      94.9  T

   *** convergence criteria satisfied after 12 iterations ***

         #    Occupation            Energy/Eh            Energy/eV
      -------------------------------------------------------------
         1        2.0000           -0.7302969             -19.8724
       ...           ...                  ...                  ...
        68        2.0000           -0.4142159             -11.2714
        69        2.0000           -0.4101103             -11.1597
        70        2.0000           -0.3963166             -10.7843
        71        2.0000           -0.3937917             -10.7156
        72        2.0000           -0.3875386             -10.5455
        73        2.0000           -0.3764032             -10.2425
        74        2.0000           -0.3492139              -9.5026 (HOMO)
        75                         -0.3112096              -8.4684 (LUMO)
        76                         -0.2121816              -5.7738
        77                         -0.2112629              -5.7488
        78                         -0.2039566              -5.5499
        79                         -0.1939339              -5.2772
       ...                                ...                  ...
       135                          0.6707759              18.2527
      -------------------------------------------------------------
                  HL-Gap            0.0380043 Eh            1.0341 eV
             Fermi-level            0.0000000 Eh            0.0000 eV

 SCC (total)                   0 d,  0 h,  0 min,  0.330 sec
 SCC setup                      ...        0 min,  0.001 sec (  0.303%)
 Dispersion                     ...        0 min,  0.001 sec (  0.303%)
 classical contributions        ...        0 min,  0.000 sec (  0.000%)
 integral evaluation            ...        0 min,  0.023 sec (  6.970%)
 iterations                     ...        0 min,  0.159 sec ( 48.182%)
 molecular gradient             ...        0 min,  0.139 sec ( 42.121%)
 printout                       ...        0 min,  0.007 sec (  2.121%)

         :::::::::::::::::::::::::::::::::::::::::::::::::::::
         ::                     SUMMARY                     ::
         :::::::::::::::::::::::::::::::::::::::::::::::::::::
         :: total energy             -83.440742163837 Eh    ::
         :: gradient norm              0.000804193152 Eh/a0 ::
         :: HOMO-LUMO gap              1.034149822727 eV    ::
         ::.................................................::
         :: SCC energy               -84.542655092296 Eh    ::
         :: -> isotropic ES            0.177010835752 Eh    ::
         :: -> anisotropic ES         -0.004612807760 Eh    ::
         :: -> anisotropic XC          0.030293246405 Eh    ::
         :: -> dispersion             -0.058709279309 Eh    ::
         :: repulsion energy           1.101912928460 Eh    ::
         :: add. restraining           0.000000000000 Eh    ::
         :: total charge              -0.000000000000 e     ::
         :::::::::::::::::::::::::::::::::::::::::::::::::::::

           -------------------------------------------------
          |                Property Printout                |
           -------------------------------------------------

    * Orbital Energies and Occupations

         #    Occupation            Energy/Eh            Energy/eV
      -------------------------------------------------------------
         1        2.0000           -0.7302969             -19.8724
       ...           ...                  ...                  ...
        62        2.0000           -0.4448747             -12.1057
        63        2.0000           -0.4365437             -11.8790
        64        2.0000           -0.4307127             -11.7203
        65        2.0000           -0.4278056             -11.6412
        66        2.0000           -0.4263897             -11.6027
        67        2.0000           -0.4203472             -11.4382
        68        2.0000           -0.4142159             -11.2714
        69        2.0000           -0.4101103             -11.1597
        70        2.0000           -0.3963166             -10.7843
        71        2.0000           -0.3937917             -10.7156
        72        2.0000           -0.3875386             -10.5455
        73        2.0000           -0.3764032             -10.2425
        74        2.0000           -0.3492139              -9.5026 (HOMO)
        75                         -0.3112096              -8.4684 (LUMO)
        76                         -0.2121816              -5.7738
        77                         -0.2112629              -5.7488
        78                         -0.2039566              -5.5499
        79                         -0.1939339              -5.2772
        80                         -0.1917881              -5.2188
        81                         -0.0804708              -2.1897
        82                         -0.0014860              -0.0404
        83                          0.0264230               0.7190
        84                          0.0321936               0.8760
        85                          0.0583089               1.5867
       ...                                ...                  ...
       135                          0.6707759              18.2527
      -------------------------------------------------------------
                  HL-Gap            0.0380043 Eh            1.0341 eV
             Fermi-level            0.0000000 Eh            0.0000 eV

     #   Z          covCN         q      C6AA      α(0)
     1   7 N        2.641    -0.294    27.577     7.799
     2   6 C        2.899     0.075    26.318     8.411
     3   6 C        2.922    -0.070    29.748     8.944
     4   6 C        2.924    -0.046    29.132     8.851
     5   6 C        2.972    -0.011    28.298     8.726
     6   6 C        2.924    -0.042    29.042     8.838
     7   6 C        2.924    -0.071    29.760     8.946
     8   6 C        3.809    -0.069    21.813     6.648
     9   6 C        3.791     0.019    20.268     6.411
    10   6 C        2.768     0.209    23.577     7.952
    11   6 C        2.891    -0.070    29.751     8.943
    12   6 C        2.899     0.003    27.955     8.669
    13   6 C        3.807    -0.063    21.709     6.633
    14   6 C        3.802    -0.049    21.458     6.595
    15   6 C        3.752    -0.107    22.607     6.780
    16   8 O        0.857    -0.387    21.414     6.204
    17   8 O        1.609    -0.603    25.254     6.783
    18   1 H        0.860     0.200     1.104     1.646
    19   1 H        0.860     0.150     1.400     1.853
    20   1 H        0.925     0.017     2.784     2.609
    21   1 H        0.925     0.021     2.713     2.576
    22   1 H        0.926     0.026     2.640     2.541
    23   1 H        0.926     0.047     2.363     2.404
    24   1 H        0.925     0.060     2.201     2.320
    25   1 H        0.924     0.043     2.404     2.425
    26   1 H        0.924     0.056     2.245     2.343
    27   1 H        0.860     0.194     1.138     1.671
    28   1 H        0.860     0.220     1.009     1.573
    29   1 H        0.923     0.036     2.497     2.471
    30   1 H        0.925     0.066     2.125     2.280
    31   1 H        0.925     0.063     2.160     2.298
    32   1 H        0.924     0.071     2.073     2.252
    33   1 H        0.924     0.059     2.213     2.327
    34   1 H        0.924     0.037     2.491     2.468
    35   1 H        0.924     0.038     2.473     2.459
    36   1 H        0.925     0.042     2.428     2.437
    37   1 H        0.925     0.041     2.437     2.441
    38   1 H        0.925     0.044     2.401     2.423
    39   1 H        0.804     0.317     0.673     1.288
    40   1 H        0.806     0.272     0.813     1.416
    41   8 O        1.609    -0.597    25.119     6.764
    42   1 H        0.804     0.317     0.671     1.287
    43   1 H        0.805     0.283     0.774     1.382
    44   7 N        2.688    -0.189    25.089     7.439
    45   6 C        2.753     0.264    22.540     7.774
    46   8 O        0.858    -0.456    22.821     6.405
    47   6 C        3.758    -0.148    23.401     6.897
    48   6 C        2.745     0.282    22.225     7.719
    49   8 O        0.858    -0.458    22.870     6.412
    50   1 H        0.925     0.068     2.104     2.268
    51   1 H        0.925     0.065     2.144     2.290
    52   1 H        0.925     0.067     2.120     2.277
    53   7 N        2.684    -0.180    24.900     7.411
    54   6 C        3.691    -0.041    21.487     6.633
    55   1 H        0.924     0.048     2.350     2.397
    56   1 H        0.924     0.050     2.318     2.381
    57   1 H        0.925     0.078     1.996     2.209

 Mol. C6AA /au·bohr⁶  :      29504.447435
 Mol. C8AA /au·bohr⁸  :     657515.409016
 Mol. α(0) /au        :        262.601479


Wiberg/Mayer (AO) data.
largest (>0.10) Wiberg bond orders for each atom

 ---------------------------------------------------------------------------
     #   Z sym  total        # sym  WBO       # sym  WBO       # sym  WBO
 ---------------------------------------------------------------------------
     1   7 N    3.255 --     2 C    1.176    19 H    0.957    18 H    0.919
     2   6 C    3.973 --     3 C    1.340     7 C    1.333     1 N    1.176
     3   6 C    3.985 --     4 C    1.462     2 C    1.340    20 H    0.969
     4   6 C    3.991 --     3 C    1.462     5 C    1.401    21 H    0.969
                             7 C    0.101
     5   6 C    3.986 --     4 C    1.401     6 C    1.393     8 C    1.011
     6   6 C    3.991 --     7 C    1.470     5 C    1.393    22 H    0.968
     7   6 C    3.987 --     6 C    1.470     2 C    1.333    23 H    0.964
                             4 C    0.101
     8   6 C    3.992 --     5 C    1.011    25 H    0.971    24 H    0.967
                             9 C    0.957
     9   6 C    3.962 --    44 N    0.977    26 H    0.963     8 C    0.957
                            45 C    0.924
    10   6 C    3.918 --    16 O    1.773    11 C    1.130    29 H    0.934
    11   6 C    3.987 --    12 C    1.773    10 C    1.130    30 H    0.954
    12   6 C    3.971 --    11 C    1.773    13 C    1.056    31 H    0.959
                            16 O    0.101
    13   6 C    3.994 --    12 C    1.056    14 C    0.976    33 H    0.972
                            32 H    0.940
    14   6 C    3.990 --    15 C    1.019    34 H    0.979    35 H    0.978
                            13 C    0.976
    15   6 C    3.994 --    14 C    1.019    37 H    0.987    38 H    0.987
                            36 H    0.985
    16   8 O    2.054 --    10 C    1.773    12 C    0.101
    17   8 O    1.838 --    40 H    0.923    39 H    0.853
    18   1 H    0.959 --     1 N    0.919
    19   1 H    0.977 --     1 N    0.957
    20   1 H    0.999 --     3 C    0.969
    21   1 H    0.999 --     4 C    0.969
    22   1 H    0.999 --     6 C    0.968
    23   1 H    0.998 --     7 C    0.964
    24   1 H    0.996 --     8 C    0.967
    25   1 H    0.997 --     8 C    0.971
    26   1 H    0.997 --     9 C    0.963
    27   1 H    0.962 --    44 N    0.923
    28   1 H    0.952 --    53 N    0.878
    29   1 H    0.999 --    10 C    0.934
    30   1 H    0.996 --    11 C    0.954
    31   1 H    0.996 --    12 C    0.959
    32   1 H    0.989 --    13 C    0.940
    33   1 H    0.997 --    13 C    0.972
    34   1 H    0.999 --    14 C    0.979
    35   1 H    0.999 --    14 C    0.978
    36   1 H    0.997 --    15 C    0.985
    37   1 H    0.998 --    15 C    0.987
    38   1 H    0.998 --    15 C    0.987
    39   1 H    0.900 --    17 O    0.853
    40   1 H    0.926 --    17 O    0.923
    41   8 O    1.861 --    43 H    0.917    42 H    0.858
    42   1 H    0.899 --    41 O    0.858
    43   1 H    0.920 --    41 O    0.917
    44   7 N    3.452 --    48 C    1.279     9 C    0.977    27 H    0.923
                            49 O    0.188
    45   6 C    3.958 --    46 O    1.655    53 N    1.310     9 C    0.924
    46   8 O    1.984 --    45 C    1.655    53 N    0.213
    47   6 C    3.992 --    48 C    0.985    50 H    0.981    52 H    0.973
                            51 H    0.962
    48   6 C    3.948 --    49 O    1.631    44 N    1.279    47 C    0.985
    49   8 O    2.003 --    48 C    1.631    44 N    0.188
    50   1 H    0.995 --    47 C    0.981
    51   1 H    0.996 --    47 C    0.962
    52   1 H    0.995 --    47 C    0.973
    53   7 N    3.473 --    45 C    1.310    54 C    1.008    28 H    0.878
                            46 O    0.213
    54   6 C    3.968 --    53 N    1.008    56 H    0.977    57 H    0.977
                            55 H    0.976
    55   1 H    0.998 --    54 C    0.976
    56   1 H    0.997 --    54 C    0.977
    57   1 H    0.994 --    54 C    0.977
 ---------------------------------------------------------------------------

Topologies differ in total number of bonds
Writing topology from bond orders to xtbtopo.mol

molecular dipole:
                 x           y           z       tot (Debye)
 q only:       -1.288       0.691      -0.660
   full:       -1.566       0.415      -0.782       4.571
molecular quadrupole (traceless):
                xx          xy          yy          xz          yz          zz
 q only:      -17.056      -8.239       8.119       2.139      -3.430       8.937
  q+dip:      -19.966     -14.853       9.279      -0.709       1.252      10.687
   full:      -21.471     -14.223       7.403      -0.385       0.028      14.068


           -------------------------------------------------
          | TOTAL ENERGY              -83.440742163837 Eh   |
          | GRADIENT NORM               0.000804193152 Eh/α |
          | HOMO-LUMO GAP               1.034149822727 eV   |
           -------------------------------------------------

------------------------------------------------------------------------
 * finished run on 2026/08/31 at 13:17:09.202     
------------------------------------------------------------------------
 total:
 * wall-time:     0 d,  0 h,  0 min,  0.451 sec
 *  cpu-time:     0 d,  0 h,  0 min,  0.188 sec
 * ratio c/w:     0.416 speedup
 SCF:
 * wall-time:     0 d,  0 h,  0 min,  0.330 sec
 *  cpu-time:     0 d,  0 h,  0 min,  0.141 sec
 * ratio c/w:     0.426 speedup



===== STDERR =====

normal termination of xtb
