      -----------------------------------------------------------      
     |                   =====================                   |     
     |                           x T B                           |     
     |                   =====================                   |     
     |                         S. Grimme                         |     
     |          Mulliken Center for Theoretical Chemistry        |     
     |                    University of Bonn                     |     
      -----------------------------------------------------------      

   * xtb version 6.7.1pre (5071a88) compiled by 'Marcel@Raven' on 2024-07-23

   xtb is free software: you can redistribute it and/or modify it under
   the terms of the GNU Lesser General Public License as published by
   the Free Software Foundation, either version 3 of the License, or
   (at your option) any later version.
   
   xtb is distributed in the hope that it will be useful,
   but WITHOUT ANY WARRANTY; without even the implied warranty of
   MERCHANTABILITY or FITNESS FOR A PARTICULAR PURPOSE.  See the
   GNU Lesser General Public License for more details.
   
   Cite this work as:
   * C. Bannwarth, E. Caldeweyher, S. Ehlert, A. Hansen, P. Pracht,
     J. Seibert, S. Spicher, S. Grimme, WIREs Comput. Mol. Sci., 2020, 11,
     e01493. DOI: 10.1002/wcms.1493
   
   for GFN2-xTB:
   * C. Bannwarth, S. Ehlert and S. Grimme., J. Chem. Theory Comput., 2019,
     15, 1652-1671. DOI: 10.1021/acs.jctc.8b01176
   for GFN1-xTB:
   * S. Grimme, C. Bannwarth, P. Shushkov, J. Chem. Theory Comput., 2017,
     13, 1989-2009. DOI: 10.1021/acs.jctc.7b00118
   for GFN0-xTB:
   * P. Pracht, E. Caldeweyher, S. Ehlert, S. Grimme, ChemRxiv, 2019, preprint.
     DOI: 10.26434/chemrxiv.8326202.v1
   for GFN-FF:
   * S. Spicher and S. Grimme, Angew. Chem. Int. Ed., 2020, 59, 15665-15673.
     DOI: 10.1002/anie.202004239
   
   for ALPB and GBSA implicit solvation:
   * S. Ehlert, M. Stahn, S. Spicher, S. Grimme, J. Chem. Theory Comput.,
     2021, 17, 4250-4261. DOI: 10.1021/acs.jctc.1c00471
   
   for ddCOSMO and CPCM-X implicit solvation:
   * M. Stahn, S. Ehlert, S. Grimme, J. Phys. Chem. A,
     2023, XX, XXXX-XXXX. DOI: 10.1021/acs.jpca.3c04382
   
   for DFT-D4:
   * E. Caldeweyher, C. Bannwarth and S. Grimme, J. Chem. Phys., 2017,
     147, 034112. DOI: 10.1063/1.4993215
   * E. Caldeweyher, S. Ehlert, A. Hansen, H. Neugebauer, S. Spicher,
     C. Bannwarth and S. Grimme, J. Chem. Phys., 2019, 150, 154122.
     DOI: 10.1063/1.5090222
   * E. Caldeweyher, J.-M. Mewes, S. Ehlert and S. Grimme, Phys. Chem. Chem. Phys.
     2020, 22, 8499-8512. DOI: 10.1039/D0CP00502A
   
   for sTDA-xTB:
   * S. Grimme and C. Bannwarth, J. Chem. Phys., 2016, 145, 054103.
     DOI: 10.1063/1.4959605
   
   in the mass-spec context:
   * V. Asgeirsson, C. Bauer and S. Grimme, Chem. Sci., 2017, 8, 4879.
     DOI: 10.1039/c7sc00601b
   * J. Koopman and S. Grimme, ACS Omega 2019, 4, 12, 15120-15133.
     DOI: 10.1021/acsomega.9b02011
   
   for metadynamics refer to:
   * S. Grimme, J. Chem. Theory Comput., 2019, 155, 2847-2862
     DOI: 10.1021/acs.jctc.9b00143
   
   for SPH calculations refer to:
   * S. Spicher and S. Grimme, J. Chem. Theory Comput., 2021, 17, 1701-1714
     DOI: 10.1021/acs.jctc.0c01306
   
   for ONIOM refer to:
   * C. Plett, A. Katbashev, S. Ehlert, S. Grimme, M. Bursch,
     Phys. Chem. Chem. Phys., 2023, 25, 17860-17868. DOI: 10.1039/D3CP02178E
   
   for DIPRO refer to:
   * J. Kohn, N. Gildemeister, S. Grimme, D. Fazzi, A. Hansen,
     J. Chem. Phys., 2023, just accepted.
   
   for PTB refer to:
   * S. Grimme, M. Mueller, A. Hansen, J. Chem. Phys., 2023, 158, 124111.
     DOI: 10.1063/5.0137838
   
   with help from (in alphabetical order)
   P. Atkinson, C. Bannwarth, F. Bohle, G. Brandenburg, E. Caldeweyher
   M. Checinski, S. Dohm, S. Ehlert, S. Ehrlich, I. Gerasimov, C. Hölzer
   A. Katbashev, J. Kohn, J. Koopman, C. Lavigne, S. Lehtola, F. März, M. Müller,
   F. Musil, H. Neugebauer, J. Pisarek, C. Plett, P. Pracht, F. Pultar,
   J. Seibert, P. Shushkov, S. Spicher, M. Stahn, M. Steiner, T. Strunk,
   J. Stückrath, T. Rose, and J. Unsleber
   
 * started run on 2026/08/31 at 13:17:09.759     
   ID    Z sym.   atoms
    1    7 N      1, 44, 53
    2    6 C      2-15, 45, 47, 48, 54
    3    8 O      16, 17, 41, 46, 49
    4    1 H      18-40, 42, 43, 50-52, 55-57

           -------------------------------------------------
          |                Calculation Setup                |
           -------------------------------------------------

          program call               : C:\Users\Nayanika\Downloads\xtb-6.7.1pre-windows-x86_64\xtb-6.7.1\bin\xtb.exe D:\PhD_Thesis\LmrR_EVB\charges\fast_lmrr_5QM\xtb_preparation\stage2_five_xtb_protocols\GFN2_normal\RS1_1_to_TS1_2\RS1_1_to_TS1_2_PS_xtbopt.xyz --gfn 2 --chrg 0 --uhf 0 --etemp 0
          coordinate file            : D:\PhD_Thesis\LmrR_EVB\charges\fast_lmrr_5QM\xtb_preparation\stage2_five_xtb_protocols\GFN2_normal\RS1_1_to_TS1_2\RS1_1_to_TS1_2_PS_xtbopt.xyz
          omp threads                :                     1


molecular fragmentation (1/2 indicates fragments):
111111111222222221111111111122222222222222211111111111111
# atoms in fragment 1/2:    34    23
 fragment masses (1/2) :      235.28      134.17
CMA distance (Bohr)    :   9.706
constraining FC (au)   :  0.0500

           -------------------------------------------------
          |                 G F N 2 - x T B                 |
           -------------------------------------------------

        Reference                      10.1021/acs.jctc.8b01176
      * Hamiltonian:
        H0-scaling (s, p, d)           1.850000    2.230000    2.230000
        zeta-weighting                 0.500000
      * Dispersion:
        s8                             2.700000
        a1                             0.520000
        a2                             5.000000
        s9                             5.000000
      * Repulsion:
        kExp                           1.500000    1.000000
        rExp                           1.000000
      * Coulomb:
        alpha                          2.000000
        third order                    shell-resolved
        anisotropic                    true
        a3                             3.000000
        a5                             4.000000
        cn-shift                       1.200000
        cn-exp                         4.000000
        max-rad                        5.000000

q/qsh data taken from xtbrestart
CAMM data taken from xtbrestart

          ...................................................
          :                      SETUP                      :
          :.................................................:
          :  # basis functions                 135          :
          :  # atomic orbitals                 135          :
          :  # shells                           83          :
          :  # electrons                       148          :
          :  max. iterations                   250          :
          :  Hamiltonian                  GFN2-xTB          :
          :  restarted?                       true          :
          :  GBSA solvation                  false          :
          :  PC potential                    false          :
          :  electronic temp.            0.0000000     K    :
          :  accuracy                    1.0000000          :
          :  -> integral cutoff          0.2500000E+02      :
          :  -> integral neglect         0.1000000E-07      :
          :  -> SCF convergence          0.1000000E-05 Eh   :
          :  -> wf. convergence          0.1000000E-03 e    :
          :  Broyden damping             0.4000000          :
          :  net charge                          0          :
          :  unpaired electrons                  0          :
          ...................................................

 iter      E             dE          RMSdq      gap      omega  full diag
   1    -84.5380541 -0.845381E+02  0.155E+00    2.11       0.0  T
   2    -84.5392042 -0.115012E-02  0.918E-01    2.32       1.0  T
   3    -84.5382913  0.912906E-03  0.162E-01    2.25       1.0  T
   4    -84.5395262 -0.123490E-02  0.533E-02    2.31       1.0  T
   5    -84.5396042 -0.780534E-04  0.273E-02    2.30       1.0  T
   6    -84.5396100 -0.573173E-05  0.137E-02    2.30       1.0  T
   7    -84.5396149 -0.496777E-05  0.388E-03    2.30       3.4  T
   8    -84.5396153 -0.313688E-06  0.171E-03    2.30       7.7  T
   9    -84.5396153 -0.583321E-07  0.596E-04    2.30      22.2  T
  10    -84.5396153 -0.365414E-08  0.241E-04    2.30      55.0  T

   *** convergence criteria satisfied after 10 iterations ***

         #    Occupation            Energy/Eh            Energy/eV
      -------------------------------------------------------------
         1        2.0000           -0.7124234             -19.3860
       ...           ...                  ...                  ...
        68        2.0000           -0.4178741             -11.3709
        69        2.0000           -0.4108803             -11.1806
        70        2.0000           -0.4085761             -11.1179
        71        2.0000           -0.4013925             -10.9224
        72        2.0000           -0.3991615             -10.8617
        73        2.0000           -0.3885054             -10.5718
        74        2.0000           -0.3690117             -10.0413 (HOMO)
        75                         -0.2844945              -7.7415 (LUMO)
        76                         -0.2264400              -6.1617
        77                         -0.2231998              -6.0736
        78                         -0.2170255              -5.9056
        79                         -0.2091655              -5.6917
       ...                                ...                  ...
       135                          0.6563730              17.8608
      -------------------------------------------------------------
                  HL-Gap            0.0845172 Eh            2.2998 eV
             Fermi-level            0.0000000 Eh            0.0000 eV

 SCC (total)                   0 d,  0 h,  0 min,  0.189 sec
 SCC setup                      ...        0 min,  0.003 sec (  1.587%)
 Dispersion                     ...        0 min,  0.002 sec (  1.058%)
 classical contributions        ...        0 min,  0.000 sec (  0.000%)
 integral evaluation            ...        0 min,  0.018 sec (  9.524%)
 iterations                     ...        0 min,  0.106 sec ( 56.085%)
 molecular gradient             ...        0 min,  0.060 sec ( 31.746%)
 printout                       ...        0 min,  0.000 sec (  0.000%)

         :::::::::::::::::::::::::::::::::::::::::::::::::::::
         ::                     SUMMARY                     ::
         :::::::::::::::::::::::::::::::::::::::::::::::::::::
         :: total energy             -83.437234184511 Eh    ::
         :: gradient norm              0.000322730163 Eh/a0 ::
         :: HOMO-LUMO gap              2.299831067223 eV    ::
         ::.................................................::
         :: SCC energy               -84.537763343990 Eh    ::
         :: -> isotropic ES            0.177995478643 Eh    ::
         :: -> anisotropic ES         -0.002170900571 Eh    ::
         :: -> anisotropic XC          0.029664677665 Eh    ::
         :: -> dispersion             -0.057608849977 Eh    ::
         :: repulsion energy           1.100529159479 Eh    ::
         :: add. restraining           0.000000000000 Eh    ::
         :: total charge               0.000000000000 e     ::
         :::::::::::::::::::::::::::::::::::::::::::::::::::::

           -------------------------------------------------
          |                Property Printout                |
           -------------------------------------------------

    * Orbital Energies and Occupations

         #    Occupation            Energy/Eh            Energy/eV
      -------------------------------------------------------------
         1        2.0000           -0.7124234             -19.3860
       ...           ...                  ...                  ...
        62        2.0000           -0.4409173             -11.9980
        63        2.0000           -0.4379093             -11.9161
        64        2.0000           -0.4345199             -11.8239
        65        2.0000           -0.4294377             -11.6856
        66        2.0000           -0.4265361             -11.6066
        67        2.0000           -0.4229224             -11.5083
        68        2.0000           -0.4178741             -11.3709
        69        2.0000           -0.4108803             -11.1806
        70        2.0000           -0.4085761             -11.1179
        71        2.0000           -0.4013925             -10.9224
        72        2.0000           -0.3991615             -10.8617
        73        2.0000           -0.3885054             -10.5718
        74        2.0000           -0.3690117             -10.0413 (HOMO)
        75                         -0.2844945              -7.7415 (LUMO)
        76                         -0.2264400              -6.1617
        77                         -0.2231998              -6.0736
        78                         -0.2170255              -5.9056
        79                         -0.2091655              -5.6917
        80                         -0.1705384              -4.6406
        81                         -0.0945097              -2.5717
        82                         -0.0022531              -0.0613
        83                          0.0055051               0.1498
        84                          0.0177309               0.4825
        85                          0.0728541               1.9825
       ...                                ...                  ...
       135                          0.6563730              17.8608
      -------------------------------------------------------------
                  HL-Gap            0.0845172 Eh            2.2998 eV
             Fermi-level            0.0000000 Eh            0.0000 eV

     #   Z          covCN         q      C6AA      α(0)
     1   7 N        2.659    -0.264    26.852     7.696
     2   6 C        2.900     0.075    26.316     8.411
     3   6 C        2.923    -0.058    29.453     8.900
     4   6 C        2.924    -0.038    28.944     8.823
     5   6 C        2.971    -0.004    28.111     8.697
     6   6 C        2.924    -0.043    29.068     8.842
     7   6 C        2.922    -0.061    29.529     8.911
     8   6 C        3.811    -0.070    21.827     6.650
     9   6 C        3.798     0.020    20.247     6.407
    10   6 C        2.783     0.209    23.577     7.953
    11   6 C        2.890    -0.065    29.618     8.923
    12   6 C        2.896    -0.004    28.119     8.694
    13   6 C        3.808    -0.062    21.682     6.628
    14   6 C        3.802    -0.045    21.377     6.583
    15   6 C        3.752    -0.111    22.675     6.790
    16   8 O        0.856    -0.435    22.385     6.343
    17   8 O        1.610    -0.600    25.179     6.772
    18   1 H        0.860     0.200     1.104     1.646
    19   1 H        0.860     0.199     1.113     1.652
    20   1 H        0.926     0.033     2.548     2.496
    21   1 H        0.926     0.032     2.553     2.499
    22   1 H        0.925     0.027     2.631     2.536
    23   1 H        0.926     0.031     2.567     2.505
    24   1 H        0.924     0.062     2.177     2.307
    25   1 H        0.924     0.058     2.222     2.331
    26   1 H        0.924     0.063     2.167     2.302
    27   1 H        0.860     0.181     1.207     1.721
    28   1 H        0.860     0.203     1.092     1.637
    29   1 H        0.923     0.015     2.810     2.622
    30   1 H        0.926     0.038     2.478     2.462
    31   1 H        0.925     0.061     2.186     2.312
    32   1 H        0.924     0.052     2.300     2.372
    33   1 H        0.924     0.049     2.337     2.391
    34   1 H        0.924     0.029     2.601     2.522
    35   1 H        0.924     0.032     2.558     2.501
    36   1 H        0.925     0.035     2.516     2.480
    37   1 H        0.925     0.034     2.525     2.485
    38   1 H        0.925     0.062     2.175     2.306
    39   1 H        0.805     0.293     0.744     1.355
    40   1 H        0.805     0.300     0.721     1.334
    41   8 O        1.609    -0.608    25.391     6.801
    42   1 H        0.806     0.276     0.798     1.403
    43   1 H        0.804     0.320     0.664     1.280
    44   7 N        2.692    -0.181    24.912     7.413
    45   6 C        2.753     0.264    22.555     7.777
    46   8 O        0.858    -0.433    22.355     6.339
    47   6 C        3.757    -0.141    23.274     6.878
    48   6 C        2.749     0.277    22.312     7.735
    49   8 O        0.859    -0.463    22.980     6.427
    50   1 H        0.925     0.050     2.325     2.385
    51   1 H        0.925     0.066     2.135     2.285
    52   1 H        0.925     0.075     2.029     2.228
    53   7 N        2.686    -0.176    24.807     7.397
    54   6 C        3.690    -0.043    21.533     6.641
    55   1 H        0.924     0.053     2.284     2.363
    56   1 H        0.924     0.050     2.325     2.385
    57   1 H        0.925     0.083     1.946     2.181

 Mol. C6AA /au·bohr⁶  :      29532.442753
 Mol. C8AA /au·bohr⁸  :     657675.452314
 Mol. α(0) /au        :        262.716075


Wiberg/Mayer (AO) data.
largest (>0.10) Wiberg bond orders for each atom

 ---------------------------------------------------------------------------
     #   Z sym  total        # sym  WBO       # sym  WBO       # sym  WBO
 ---------------------------------------------------------------------------
     1   7 N    3.376 --     2 C    1.148    18 H    0.929    19 H    0.928
                            10 C    0.125
     2   6 C    3.971 --     7 C    1.353     3 C    1.341     1 N    1.148
     3   6 C    3.989 --     4 C    1.472     2 C    1.341    20 H    0.968
                             6 C    0.101
     4   6 C    3.992 --     3 C    1.472     5 C    1.395    21 H    0.969
                             7 C    0.103
     5   6 C    3.982 --     6 C    1.405     4 C    1.395     8 C    1.009
     6   6 C    3.991 --     7 C    1.457     5 C    1.405    22 H    0.968
                             3 C    0.101
     7   6 C    3.987 --     6 C    1.457     2 C    1.353    23 H    0.969
                             4 C    0.103
     8   6 C    3.990 --     5 C    1.009     9 C    0.981    24 H    0.970
                            25 H    0.965
     9   6 C    3.962 --     8 C    0.981    44 N    0.973    26 H    0.952
                            45 C    0.915
    10   6 C    3.931 --    16 O    1.689    11 C    1.090    29 H    0.939
                             1 N    0.125
    11   6 C    3.989 --    12 C    1.815    10 C    1.090    30 H    0.965
    12   6 C    3.980 --    11 C    1.815    13 C    1.044    31 H    0.962
    13   6 C    3.996 --    12 C    1.044    14 C    0.975    33 H    0.972
                            32 H    0.959
    14   6 C    3.994 --    15 C    1.018    34 H    0.979    35 H    0.979
                            13 C    0.975
    15   6 C    3.992 --    14 C    1.018    37 H    0.988    36 H    0.986
                            38 H    0.981
    16   8 O    2.009 --    10 C    1.689
    17   8 O    1.835 --    39 H    0.904    40 H    0.892
    18   1 H    0.959 --     1 N    0.929
    19   1 H    0.960 --     1 N    0.928
    20   1 H    0.999 --     3 C    0.968
    21   1 H    0.998 --     4 C    0.969
    22   1 H    0.999 --     6 C    0.968
    23   1 H    0.999 --     7 C    0.969
    24   1 H    0.996 --     8 C    0.970
    25   1 H    0.995 --     8 C    0.965
    26   1 H    0.996 --     9 C    0.952
    27   1 H    0.967 --    44 N    0.934
    28   1 H    0.959 --    53 N    0.911
    29   1 H    0.999 --    10 C    0.939
    30   1 H    0.999 --    11 C    0.965
    31   1 H    0.996 --    12 C    0.962
    32   1 H    0.997 --    13 C    0.959
    33   1 H    0.998 --    13 C    0.972
    34   1 H    0.999 --    14 C    0.979
    35   1 H    0.999 --    14 C    0.979
    36   1 H    0.997 --    15 C    0.986
    37   1 H    0.999 --    15 C    0.988
    38   1 H    0.996 --    15 C    0.981
    39   1 H    0.914 --    17 O    0.904
    40   1 H    0.910 --    17 O    0.892
    41   8 O    1.826 --    42 H    0.919    43 H    0.853
    42   1 H    0.924 --    41 O    0.919
    43   1 H    0.898 --    41 O    0.853
    44   7 N    3.457 --    48 C    1.277     9 C    0.973    27 H    0.934
                            49 O    0.192
    45   6 C    3.956 --    46 O    1.682    53 N    1.288     9 C    0.915
    46   8 O    2.013 --    45 C    1.682    53 N    0.212
    47   6 C    3.993 --    48 C    0.985    52 H    0.979    50 H    0.978
                            51 H    0.963
    48   6 C    3.950 --    49 O    1.636    44 N    1.277    47 C    0.985
    49   8 O    1.982 --    48 C    1.636    44 N    0.192
    50   1 H    0.997 --    47 C    0.978
    51   1 H    0.995 --    47 C    0.963
    52   1 H    0.994 --    47 C    0.979
    53   7 N    3.465 --    45 C    1.288    54 C    1.005    28 H    0.911
                            46 O    0.212
    54   6 C    3.965 --    53 N    1.005    55 H    0.977    56 H    0.977
                            57 H    0.977
    55   1 H    0.997 --    54 C    0.977
    56   1 H    0.997 --    54 C    0.977
    57   1 H    0.993 --    54 C    0.977
 ---------------------------------------------------------------------------

Topologies differ in total number of bonds
Writing topology from bond orders to xtbtopo.mol

molecular dipole:
                 x           y           z       tot (Debye)
 q only:        0.184       1.001      -0.335
   full:       -0.232       1.165      -0.508       3.283
molecular quadrupole (traceless):
                xx          xy          yy          xz          yz          zz
 q only:      -16.604       5.672       5.313     -10.683       1.033      11.292
  q+dip:      -24.170       0.462       6.952     -15.070       7.003      17.218
   full:      -25.278       0.763       5.784     -14.457       3.700      19.493


           -------------------------------------------------
          | TOTAL ENERGY              -83.437234184511 Eh   |
          | GRADIENT NORM               0.000322730163 Eh/α |
          | HOMO-LUMO GAP               2.299831067223 eV   |
           -------------------------------------------------

------------------------------------------------------------------------
 * finished run on 2026/08/31 at 13:17:10.044     
------------------------------------------------------------------------
 total:
 * wall-time:     0 d,  0 h,  0 min,  0.276 sec
 *  cpu-time:     0 d,  0 h,  0 min,  0.203 sec
 * ratio c/w:     0.736 speedup
 SCF:
 * wall-time:     0 d,  0 h,  0 min,  0.189 sec
 *  cpu-time:     0 d,  0 h,  0 min,  0.188 sec
 * ratio c/w:     0.992 speedup



===== STDERR =====

normal termination of xtb
