57
 energy: -83.437234185718 gnorm: 0.000323349428 xtb: 6.7.1pre (5071a88)
N           -0.13258325407672       -0.62223916399400        0.62103010233407
C            1.24513680989761       -0.55708651327234        0.66155375271288
C            1.87836063792009        0.43393469462777        1.41410762515544
C            3.24381372537711        0.60519317434273        1.33757374807166
C            4.02200707052115       -0.20129587205871        0.51402052772396
C            3.39391954648240       -1.20877476130018       -0.20732825853688
C            2.02670364620905       -1.39303839991079       -0.13479224804341
C            5.48934905014072        0.07481677982721        0.35039474819396
C            5.69311447526929        1.35749556806658       -0.46050984168544
C           -0.89278416261625        0.63885580077892       -1.17628665832512
C            0.21658601119650        1.57725459944482       -1.07025587023254
C            0.11734266661430        2.77054453659140       -0.48147058546088
C            1.23091471988516        3.74858182527791       -0.38484200418248
C            1.02322515571266        4.91653131659227       -1.36053525661293
C            2.20813762315169        5.87241801512144       -1.32816334847265
O           -2.04016074410419        0.84757197300642       -0.79607598751022
O           -2.75461227759756       -1.75109488675396        0.26208242344858
H           -0.62029829707614       -0.15509912439209        1.37487185661209
H           -0.56298612392454       -1.50317769161377        0.36681220820793
H            1.28148894831718        1.07300526970653        2.04774261256663
H            3.71632979915663        1.38096951841247        1.92242313376404
H            3.98315143611143       -1.86442220683320       -0.83424259230736
H            1.55093371591751       -2.17716462662292       -0.70587434316301
H            5.98969086954725       -0.74689996876304       -0.16475854910706
H            5.97419409480630        0.20404945686551        1.31912286349513
H            5.33945249181783        2.23098771198680        0.10045480107102
H            4.71602780777032        0.38246961726941       -2.05369501207776
H            6.63524138882996        3.45205250600470       -1.37570925181400
H           -0.68118415731548       -0.23851505940128       -1.80984138942439
H            1.15860397336251        1.25032300795467       -1.48555181053268
H           -0.84067043711524        3.07951792555289       -0.08264319921490
H            1.28101477242316        4.14760671081570        0.63091396319461
H            2.18003018562467        3.26085594335695       -0.61245683394113
H            0.90331206537071        4.51523964146466       -2.36936660323990
H            0.10437801775785        5.44850264776002       -1.10356061139358
H            2.06858145954689        6.67534508261197       -2.04829006781907
H            2.31630928668841        6.31282454469822       -0.33938387469368
H            3.12650381202003        5.34258410025448       -1.57054794438038
H           -2.90785103789856       -1.34125867745652        1.11980235112242
H           -2.79268811539330       -1.02158924156197       -0.36923072317360
O           -2.51013556945642        0.73722548590691        1.89142682630506
H           -3.19164095519412        1.30814646871308        2.24896707475062
H           -2.44781839624077        0.94276831178674        0.94151841594064
N            4.90983927149608        1.29944868798220       -1.68351256676034
C            7.18018936052091        1.57429437404504       -0.81437427144605
O            8.01857086704710        0.70380807660459       -0.70974656809329
C            3.56427503403569        2.12266984029428       -3.49986165402979
C            4.42550259845442        2.39661325065483       -2.28998377519036
O            4.68210425585035        3.52300479280508       -1.89380812571203
H            2.94858001006233        1.23880756866896       -3.35569003789872
H            4.20797374125403        1.96506843293417       -4.36387451240231
H            2.93342600177001        2.98524366567712       -3.69493381059439
N            7.41885173494222        2.81902411783300       -1.25731543022781
C            8.71952266289676        3.24687565084937       -1.71019013100542
H            9.05143920891458        4.11768525457998       -1.14277204631905
H            8.69602015711829        3.50183302072616       -2.77151597376718
H            9.41426336021056        2.42360722538703       -1.55082726583506
