57
 xtb: 6.7.1pre (5071a88)
N           -0.38768442480571       -0.77227198355596       -0.25106262461731
C            0.98358624418654       -0.69918425415393       -0.13084734713680
C            1.55411553789411        0.08262096091477        0.87630871745881
C            2.91780925096349        0.27312413548527        0.92510932876721
C            3.75902622616327       -0.30925954929650       -0.01761492832121
C            3.19207476262907       -1.11000698523588       -1.00071598664516
C            1.82619434973844       -1.30960910968607       -1.05935585958245
C            5.23336236879555       -0.02184516338429       -0.00552201490584
C            5.51184301031569        1.38850071248634       -0.53266741230777
C           -1.04479571992262        1.01358860417735       -1.80432423057020
C            0.14901689776028        1.77176282250657       -1.45701829030630
C            0.15155318586773        2.73960844132368       -0.53746763911477
C            1.34353969182456        3.53253004943639       -0.14637927092200
C            1.19911250015780        5.00309362922024       -0.56258864442708
C            2.43917192271959        5.80201456860568       -0.18387834796264
O           -2.17249120542728        1.23882766555248       -1.41321350741532
O           -3.83311852739967        1.10586748521400        0.77458610462580
H           -0.91099171168372       -0.51272504486969        0.60163273247521
H           -0.75752054872583       -1.55672418895959       -0.73681471151855
H            0.90301807359661        0.54580119668911        1.61892195142989
H            3.34181425831698        0.89420059000909        1.71439146666781
H            3.82169218427679       -1.58623328021167       -1.72344638922487
H            1.39496900374286       -1.92092528142531       -1.82666391121102
H            5.77282369024680       -0.73230588981686       -0.61787409799207
H            5.63067197815063       -0.07774250483697        1.01171226683790
H            5.10895412552453        2.15474206025927        0.14322924950048
H            4.63495373334080        0.73297907793024       -2.33235179330830
H            6.56276695760718        3.59022944147427       -0.97833793162372
H           -0.91416026729181        0.27347721027981       -2.57100694313441
H            1.05222306790357        1.49988670365132       -1.97143353966299
H           -0.75764704883468        3.00728295245699       -0.03235342602532
H            1.49743523743623        3.48768912732097        0.92999479303412
H            2.25772729751983        3.11927731040699       -0.62566026707117
H            1.06478010843966        5.06683370942727       -1.63903275771256
H            0.34713348201339        5.44078894581733       -0.07041406629945
H            2.37144429294969        6.83931455278859       -0.50693701266718
H            2.62475237931881        5.78983303454009        0.88872246396012
H            3.34637732380279        5.37580338000216       -0.66848569566566
H           -4.19069652570002        1.87524735203978        0.91493312224019
H           -3.38867335587618        1.02768405216743       -0.09187291078387
O           -1.82671512087215       -0.09242136927996        2.15652489624818
H           -2.22739903699218       -0.83410927279778        2.69113513979389
H           -2.62849249377756        0.30634705955850        1.72457345407961
N            4.85089455751557        1.57413862535974       -1.81379063288757
C            7.02942527130455        1.63286963869179       -0.69104397953636
O            7.84804392510026        0.73782976782953       -0.66337480902077
C            3.71031833942352        2.73216497859958       -3.58379460422996
C            4.47395506434264        2.77593131909105       -2.28101458486253
O            4.74042227265859        3.81574098254764       -1.69402749133615
H            2.95631412690895        1.94914192407769       -3.57198912810667
H            4.41147074721930        2.50311353754875       -4.41100310049959
H            3.25925673266593        3.68781966589018       -3.78283721383013
N            7.32046048510413        2.93140227774745       -0.86466711667810
C            8.66389033679246        3.40043476162231       -1.10272934578199
H            8.93763736161492        4.16341285663045       -0.38292278366568
H            8.76817581074101        3.80580755970558       -2.11526408607016
H            9.34175623721102        2.54313125460457       -0.99992752470273
