      -----------------------------------------------------------      
     |                   =====================                   |     
     |                           x T B                           |     
     |                   =====================                   |     
     |                         S. Grimme                         |     
     |          Mulliken Center for Theoretical Chemistry        |     
     |                    University of Bonn                     |     
      -----------------------------------------------------------      

   * xtb version 6.7.1pre (5071a88) compiled by 'Marcel@Raven' on 2024-07-23

   xtb is free software: you can redistribute it and/or modify it under
   the terms of the GNU Lesser General Public License as published by
   the Free Software Foundation, either version 3 of the License, or
   (at your option) any later version.
   
   xtb is distributed in the hope that it will be useful,
   but WITHOUT ANY WARRANTY; without even the implied warranty of
   MERCHANTABILITY or FITNESS FOR A PARTICULAR PURPOSE.  See the
   GNU Lesser General Public License for more details.
   
   Cite this work as:
   * C. Bannwarth, E. Caldeweyher, S. Ehlert, A. Hansen, P. Pracht,
     J. Seibert, S. Spicher, S. Grimme, WIREs Comput. Mol. Sci., 2020, 11,
     e01493. DOI: 10.1002/wcms.1493
   
   for GFN2-xTB:
   * C. Bannwarth, S. Ehlert and S. Grimme., J. Chem. Theory Comput., 2019,
     15, 1652-1671. DOI: 10.1021/acs.jctc.8b01176
   for GFN1-xTB:
   * S. Grimme, C. Bannwarth, P. Shushkov, J. Chem. Theory Comput., 2017,
     13, 1989-2009. DOI: 10.1021/acs.jctc.7b00118
   for GFN0-xTB:
   * P. Pracht, E. Caldeweyher, S. Ehlert, S. Grimme, ChemRxiv, 2019, preprint.
     DOI: 10.26434/chemrxiv.8326202.v1
   for GFN-FF:
   * S. Spicher and S. Grimme, Angew. Chem. Int. Ed., 2020, 59, 15665-15673.
     DOI: 10.1002/anie.202004239
   
   for ALPB and GBSA implicit solvation:
   * S. Ehlert, M. Stahn, S. Spicher, S. Grimme, J. Chem. Theory Comput.,
     2021, 17, 4250-4261. DOI: 10.1021/acs.jctc.1c00471
   
   for ddCOSMO and CPCM-X implicit solvation:
   * M. Stahn, S. Ehlert, S. Grimme, J. Phys. Chem. A,
     2023, XX, XXXX-XXXX. DOI: 10.1021/acs.jpca.3c04382
   
   for DFT-D4:
   * E. Caldeweyher, C. Bannwarth and S. Grimme, J. Chem. Phys., 2017,
     147, 034112. DOI: 10.1063/1.4993215
   * E. Caldeweyher, S. Ehlert, A. Hansen, H. Neugebauer, S. Spicher,
     C. Bannwarth and S. Grimme, J. Chem. Phys., 2019, 150, 154122.
     DOI: 10.1063/1.5090222
   * E. Caldeweyher, J.-M. Mewes, S. Ehlert and S. Grimme, Phys. Chem. Chem. Phys.
     2020, 22, 8499-8512. DOI: 10.1039/D0CP00502A
   
   for sTDA-xTB:
   * S. Grimme and C. Bannwarth, J. Chem. Phys., 2016, 145, 054103.
     DOI: 10.1063/1.4959605
   
   in the mass-spec context:
   * V. Asgeirsson, C. Bauer and S. Grimme, Chem. Sci., 2017, 8, 4879.
     DOI: 10.1039/c7sc00601b
   * J. Koopman and S. Grimme, ACS Omega 2019, 4, 12, 15120-15133.
     DOI: 10.1021/acsomega.9b02011
   
   for metadynamics refer to:
   * S. Grimme, J. Chem. Theory Comput., 2019, 155, 2847-2862
     DOI: 10.1021/acs.jctc.9b00143
   
   for SPH calculations refer to:
   * S. Spicher and S. Grimme, J. Chem. Theory Comput., 2021, 17, 1701-1714
     DOI: 10.1021/acs.jctc.0c01306
   
   for ONIOM refer to:
   * C. Plett, A. Katbashev, S. Ehlert, S. Grimme, M. Bursch,
     Phys. Chem. Chem. Phys., 2023, 25, 17860-17868. DOI: 10.1039/D3CP02178E
   
   for DIPRO refer to:
   * J. Kohn, N. Gildemeister, S. Grimme, D. Fazzi, A. Hansen,
     J. Chem. Phys., 2023, just accepted.
   
   for PTB refer to:
   * S. Grimme, M. Mueller, A. Hansen, J. Chem. Phys., 2023, 158, 124111.
     DOI: 10.1063/5.0137838
   
   with help from (in alphabetical order)
   P. Atkinson, C. Bannwarth, F. Bohle, G. Brandenburg, E. Caldeweyher
   M. Checinski, S. Dohm, S. Ehlert, S. Ehrlich, I. Gerasimov, C. Hölzer
   A. Katbashev, J. Kohn, J. Koopman, C. Lavigne, S. Lehtola, F. März, M. Müller,
   F. Musil, H. Neugebauer, J. Pisarek, C. Plett, P. Pracht, F. Pultar,
   J. Seibert, P. Shushkov, S. Spicher, M. Stahn, M. Steiner, T. Strunk,
   J. Stückrath, T. Rose, and J. Unsleber
   
 * started run on 2026/08/31 at 13:15:37.617     
   ID    Z sym.   atoms
    1    7 N      1, 44, 53
    2    6 C      2-15, 45, 47, 48, 54
    3    8 O      16, 17, 41, 46, 49
    4    1 H      18-40, 42, 43, 50-52, 55-57

           -------------------------------------------------
          |                Calculation Setup                |
           -------------------------------------------------

          program call               : C:\Users\Nayanika\Downloads\xtb-6.7.1pre-windows-x86_64\xtb-6.7.1\bin\xtb.exe D:\PhD_Thesis\LmrR_EVB\charges\fast_lmrr_5QM\xtb_preparation\RS1_2b_to_PS1_3\RS1_2b_to_PS1_3_TS.xyz --gfn 1 --opt tight --chrg 0 --uhf 0 --etemp 0
          coordinate file            : D:\PhD_Thesis\LmrR_EVB\charges\fast_lmrr_5QM\xtb_preparation\RS1_2b_to_PS1_3\RS1_2b_to_PS1_3_TS.xyz
          omp threads                :                     1


molecular fragmentation (1/2 indicates fragments):
111111111111111221211111111111111111112222211111111111111
# atoms in fragment 1/2:    49     8
 fragment masses (1/2) :      316.42       53.04
CMA distance (Bohr)    :  13.960
constraining FC (au)   :  0.0500

           -------------------------------------------------
          |                 G F N 1 - x T B                 |
           -------------------------------------------------

        Reference                      10.1021/acs.jctc.7b00118
      * Hamiltonian:
        H0-scaling (s, p, d)           1.850000    2.250000    2.000000
        zeta-weighting                 0.000000
      * Dispersion:
        s8                             2.400000
        a1                             0.630000
        a2                             5.000000
        s9                             0.000000
      * Repulsion:
        kExp                           1.500000
        rExp                           1.000000
      * Coulomb:
        alpha                          2.000000
        third order                    atomic
        anisotropic                    false
      * Halogen bond correction:
        rad-scale                      1.300000
        damping                        0.440000

q/qsh data taken from xtbrestart

          ...................................................
          :                      SETUP                      :
          :.................................................:
          :  # basis functions                 166          :
          :  # atomic orbitals                 166          :
          :  # shells                          114          :
          :  # electrons                       148          :
          :  # halogen bonds                     0          :
          :  max. iterations                   250          :
          :  Hamiltonian                  GFN1-xTB          :
          :  restarted?                       true          :
          :  GBSA solvation                  false          :
          :  PC potential                    false          :
          :  electronic temp.            0.0000000     K    :
          :  accuracy                    1.0000000          :
          :  -> integral cutoff          0.2500000E+02      :
          :  -> integral neglect         0.1000000E-07      :
          :  -> SCF convergence          0.1000000E-05 Eh   :
          :  -> wf. convergence          0.2000000E-04 e    :
          :  Broyden damping             0.4000000          :
          :  net charge                          0          :
          :  unpaired electrons                  0          :
          ...................................................

 iter      E             dE          RMSdq      gap      omega  full diag
   1    -88.5263984 -0.885264E+02  0.871E-01    1.92       0.0  T
   2    -87.7310217  0.795377E+00  0.261E+00    0.01       1.0  T
   3    -88.5430797 -0.812058E+00  0.710E-01    1.48       1.0  T
   4    -88.5507749 -0.769521E-02  0.593E-01    0.77       1.0  T
   5    -87.7714528  0.779322E+00  0.244E+00    0.01       1.0  T
   6    -88.5487767 -0.777324E+00  0.631E-01    0.82       1.0  T
   7    -88.5510655 -0.228883E-02  0.597E-01    0.48       1.0  T
   8    -88.5541471 -0.308161E-02  0.564E-01    0.26       1.0  T
   9    -88.5627658 -0.861864E-02  0.498E-01    0.12       1.0  T
  10    -88.5918334 -0.290676E-01  0.218E-01    0.05       1.0  T
  11    -88.5648929  0.269406E-01  0.482E-01    0.11       1.0  T
  12    -88.5980900 -0.331971E-01  0.767E-02    0.03       1.0  T
  13    -88.5650136  0.330764E-01  0.482E-01    0.11       1.0  T
  14    -88.5951046 -0.300910E-01  0.160E-01    0.04       1.0  T
  15    -88.5874755  0.762906E-02  0.278E-01    0.05       1.0  T
  16    -88.5358814  0.515942E-01  0.656E-01    0.01       1.0  T
  17    -88.5637097 -0.278284E-01  0.492E-01    0.12       1.0  T
  18    -88.5958728 -0.321630E-01  0.143E-01    0.04       1.0  T
  19    -88.5985553 -0.268247E-02  0.483E-02    0.03       1.0  T
  20    -88.5973244  0.123089E-02  0.103E-01    0.04       1.0  T
  21    -88.5950173  0.230711E-02  0.163E-01    0.03       1.0  T
  22    -88.5929194  0.209787E-02  0.202E-01    0.04       1.0  T
  23    -88.5860072  0.691217E-02  0.296E-01    0.02       1.0  T
  24    -88.5875724 -0.156514E-02  0.278E-01    0.05       1.0  T
  25    -88.5893901 -0.181778E-02  0.254E-01    0.02       1.0  T
  26    -88.5901719 -0.781790E-03  0.244E-01    0.05       1.0  T
  27    -88.5940650 -0.389305E-02  0.181E-01    0.02       1.0  T
  28    -88.5942320 -0.167074E-03  0.178E-01    0.04       1.0  T
  29    -88.5965700 -0.233798E-02  0.126E-01    0.03       1.0  T
  30    -88.5968838 -0.313802E-03  0.117E-01    0.04       1.0  T
  31    -88.5979979 -0.111403E-02  0.784E-02    0.03       1.0  T
  32    -88.5982439 -0.246027E-03  0.669E-02    0.03       1.0  T
  33    -88.5986405 -0.396604E-03  0.422E-02    0.03       1.0  T
  34    -88.5987488 -0.108321E-03  0.323E-02    0.03       1.0  T
  35    -88.5988476 -0.988281E-04  0.192E-02    0.03       1.0  T
  36    -88.5988769 -0.292279E-04  0.130E-02    0.03       1.0  T
  37    -88.5988939 -0.170695E-04  0.736E-03    0.03       1.8  T
  38    -88.5988994 -0.547281E-05  0.411E-03    0.03       3.2  T
  39    -88.5989016 -0.217241E-05  0.147E-03    0.03       9.0  T
  40    -88.5989019 -0.311595E-06  0.230E-04    0.03      57.5  T
  41    -88.5989019 -0.775907E-08  0.165E-05    0.03     804.2  T
  42    -88.5989019 -0.319318E-10  0.734E-06    0.03    1804.1  T

   *** convergence criteria satisfied after 42 iterations ***

         #    Occupation            Energy/Eh            Energy/eV
      -------------------------------------------------------------
         1        2.0000           -0.8435280             -22.9536
       ...           ...                  ...                  ...
        68        2.0000           -0.4253114             -11.5733
        69        2.0000           -0.4215261             -11.4703
        70        2.0000           -0.4065831             -11.0637
        71        2.0000           -0.3971713             -10.8076
        72        2.0000           -0.3859200             -10.5014
        73        2.0000           -0.3028084              -8.2398
        74        2.0000           -0.3020610              -8.2195 (HOMO)
        75                         -0.3009067              -8.1881 (LUMO)
        76                         -0.2586245              -7.0375
        77                         -0.2506320              -6.8200
        78                         -0.2439798              -6.6390
        79                         -0.2404403              -6.5427
       ...                                ...                  ...
       166                          0.6700027              18.2317
      -------------------------------------------------------------
                  HL-Gap            0.0011543 Eh            0.0314 eV
             Fermi-level            0.0000000 Eh            0.0000 eV

 SCC (total)                   0 d,  0 h,  0 min,  0.472 sec
 SCC setup                      ...        0 min,  0.002 sec (  0.424%)
 Dispersion                     ...        0 min,  0.001 sec (  0.212%)
 classical contributions        ...        0 min,  0.000 sec (  0.000%)
 integral evaluation            ...        0 min,  0.035 sec (  7.415%)
 iterations                     ...        0 min,  0.328 sec ( 69.491%)
 molecular gradient             ...        0 min,  0.105 sec ( 22.246%)
 printout                       ...        0 min,  0.001 sec (  0.212%)

         :::::::::::::::::::::::::::::::::::::::::::::::::::::
         ::                     SUMMARY                     ::
         :::::::::::::::::::::::::::::::::::::::::::::::::::::
         :: total energy             -87.609318327280 Eh    ::
         :: gradient norm              0.151757154940 Eh/a0 ::
         :: HOMO-LUMO gap              0.031410574282 eV    ::
         ::.................................................::
         :: SCC energy               -88.598901896997 Eh    ::
         :: -> electrostatic           0.386503208175 Eh    ::
         :: repulsion energy           1.023486531696 Eh    ::
         :: dispersion energy         -0.033902961979 Eh    ::
         :: halogen bond corr.         0.000000000000 Eh    ::
         :: add. restraining           0.000000000000 Eh    ::
         :: total charge              -0.000000000000 e     ::
         :::::::::::::::::::::::::::::::::::::::::::::::::::::

      ----------------------------------------------------------- 
     |                   =====================                   |
     |                        A N C O P T                        |
     |                   =====================                   |
     |               Approximate Normal Coordinate               |
     |                Rational Function Optimizer                |
      ----------------------------------------------------------- 
      ----------------------------------------------------------- 
     |                   =====================                   |
     |                        A N C O P T                        |
     |                   =====================                   |
     |               Approximate Normal Coordinate               |
     |                Rational Function Optimizer                |
      ----------------------------------------------------------- 

          ...................................................
          :                      SETUP                      :
          :.................................................:
          :   optimization level             tight          :
          :   max. optcycles                   285          :
          :   ANC micro-cycles                  20          :
          :   degrees of freedom               165          :
          :.................................................:
          :   RF solver                   davidson          :
          :   write xtbopt.log                true          :
          :   linear?                        false          :
          :   energy convergence         0.1000000E-05 Eh   :
          :   grad. convergence          0.8000000E-03 Eh/α :
          :   maxmium RF displ.          1.0000000          :
          :   Hlow (freq-cutoff)         0.1000000E-01      :
          :   Hmax (freq-cutoff)         5.0000000          :
          :   S6 in model hess.         20.0000000          :
          ...................................................

generating ANC from exact Hessian ...
Using Lindh-Hessian (1995)
 Shifting diagonal of input Hessian by   1.023373822998905E-002
 Lowest  eigenvalues of input Hessian
    0.010000    0.010101    0.010211    0.000000    0.000000    0.000000
    0.000000    0.000000    0.000000    0.010250    0.010266    0.010342
    0.010375    0.010436    0.010533    0.010570    0.010710    0.010838
 Highest eigenvalues
    1.899615    1.943737    1.976438    2.026434    2.237089    2.249263
 

........................................................................
.............................. CYCLE    1 ..............................
........................................................................

 iter      E             dE          RMSdq      gap      omega  full diag
   1    -88.5989019 -0.885989E+02  0.339E-06    0.03       0.0  T
   2    -88.5989019  0.112050E-07  0.276E-04    0.03      48.0  T
   3    -88.5989019 -0.112067E-07  0.216E-07    0.03   61256.7  T
   4    -88.5989019  0.142109E-12  0.861E-08    0.03  100000.0  T
     SCC iter.                  ...        0 min,  0.032 sec
     gradient                   ...        0 min,  0.103 sec
 * total energy  :   -87.6093183 Eh     change       -0.7801759E-11 Eh
   gradient norm :     0.1517156 Eh/α   predicted     0.0000000E+00 (-100.00%)
   displ. norm   :     0.5957952 α      lambda       -0.5151739E-01
   maximum displ.:     0.3212811 α      in ANC's #44, #26, #25, ...

........................................................................
.............................. CYCLE    2 ..............................
........................................................................

 iter      E             dE          RMSdq      gap      omega  full diag
   1    -88.6086158 -0.886086E+02  0.454E-01    0.06       0.0  T
   2    -84.6287435  0.397987E+01  0.523E+00    0.03       1.0  T
   3    -87.8026460 -0.317390E+01  0.243E+00    0.01       1.0  T
   4    -87.8232753 -0.206293E-01  0.237E+00    0.00       1.0  T
   5    -88.5921241 -0.768849E+00  0.578E-01    0.18       1.0  T
   6    -88.5933842 -0.126014E-02  0.566E-01    0.16       1.0  T
   7    -88.5984706 -0.508633E-02  0.533E-01    0.11       1.0  T
   8    -88.6047271 -0.625656E-02  0.489E-01    0.07       1.0  T
   9    -88.6383294 -0.336022E-01  0.100E-01    0.02       1.0  T
  10    -88.6392706 -0.941258E-03  0.609E-02    0.02       1.0  T
  11    -88.6070282  0.322424E-01  0.472E-01    0.01       1.0  T
  12    -88.6210420 -0.140138E-01  0.357E-01    0.04       1.0  T
  13    -88.6387902 -0.177483E-01  0.836E-02    0.02       1.0  T
  14    -88.6396406 -0.850419E-03  0.347E-02    0.02       1.0  T
  15    -88.6390138  0.626836E-03  0.739E-02    0.02       1.0  T
  16    -88.6397752 -0.761363E-03  0.173E-02    0.02       1.0  T
  17    -88.6397244  0.508198E-04  0.254E-02    0.02       1.0  T
  18    -88.6398174 -0.929970E-04  0.371E-03    0.02       3.6  T
  19    -88.6398044  0.129138E-04  0.101E-02    0.02       1.3  T
  20    -88.6398150 -0.105234E-04  0.547E-03    0.02       2.4  T
  21    -88.6398180 -0.303895E-05  0.304E-03    0.02       4.4  T
  22    -88.6398193 -0.133250E-05  0.450E-04    0.02      29.5  T
  23    -88.6398194 -0.293715E-07  0.538E-05    0.02     246.0  T
  24    -88.6398194 -0.428045E-09  0.142E-06    0.02    9334.0  T
     SCC iter.                  ...        0 min,  0.185 sec
     gradient                   ...        0 min,  0.104 sec
 * total energy  :   -87.6476047 Eh     change       -0.3828634E-01 Eh
   gradient norm :     0.1312008 Eh/α   predicted    -0.3491054E-01 (  -8.82%)
   displ. norm   :     0.6742056 α      lambda       -0.6506629E-01
   maximum displ.:     0.2921898 α      in ANC's #120, #44, #121, ...

........................................................................
.............................. CYCLE    3 ..............................
........................................................................

 iter      E             dE          RMSdq      gap      omega  full diag
   1    -87.9071460 -0.879071E+02  0.242E+00    0.01       0.0  T
   2    -88.4838828 -0.576737E+00  0.201E+00    2.57       1.0  T
   3    -88.5969070 -0.113024E+00  0.132E+00    2.75       1.0  T
   4    -88.6186116 -0.217046E-01  0.104E+00    2.65       1.0  T
   5    -88.6329838 -0.143722E-01  0.812E-01    1.63       1.0  T
   6    -87.9058022  0.727182E+00  0.239E+00    0.01       1.0  T
   7    -88.6359959 -0.730194E+00  0.751E-01    1.06       1.0  T
   8    -88.6377703 -0.177440E-02  0.715E-01    0.71       1.0  T
   9    -88.6443440 -0.657369E-02  0.632E-01    0.10       1.0  T
  10    -87.9110822  0.733262E+00  0.235E+00    0.01       1.0  T
  11    -88.6381912 -0.727109E+00  0.706E-01    0.60       1.0  T
  12    -88.6399926 -0.180135E-02  0.673E-01    0.33       1.0  T
  13    -88.6408554 -0.862866E-03  0.661E-01    0.23       1.0  T
  14    -88.6721612 -0.313058E-01  0.450E-01    0.02       1.0  T
  15    -88.6408138  0.313474E-01  0.661E-01    0.23       1.0  T
  16    -88.6461317 -0.531786E-02  0.620E-01    0.08       1.0  T
  17    -87.9123426  0.733789E+00  0.234E+00    0.01       1.0  T
  18    -88.6387136 -0.726371E+00  0.695E-01    0.51       1.0  T
  19    -88.6410226 -0.230901E-02  0.659E-01    0.22       1.0  T
  20    -87.9131185  0.727904E+00  0.234E+00    0.01       1.0  T
  21    -88.6366764 -0.723558E+00  0.737E-01    0.89       1.0  T
  22    -88.6388737 -0.219733E-02  0.693E-01    0.50       1.0  T
  23    -88.6438110 -0.493729E-02  0.635E-01    0.11       1.0  T
  24    -87.9097292  0.734082E+00  0.236E+00    0.01       1.0  T
  25    -88.6332394 -0.723510E+00  0.806E-01    1.55       1.0  T
  26    -88.6380555 -0.481603E-02  0.709E-01    0.65       1.0  T
  27    -88.6423946 -0.433917E-02  0.646E-01    0.15       1.0  T
  28    -87.9082000  0.734195E+00  0.237E+00    0.01       1.0  T
  29    -88.6282204 -0.720020E+00  0.901E-01    2.45       1.0  T
  30    -88.6366102 -0.838984E-02  0.739E-01    0.92       1.0  T
  31    -88.6428180 -0.620771E-02  0.642E-01    0.13       1.0  T
  32    -87.9073448  0.735473E+00  0.238E+00    0.01       1.0  T
  33    -88.6240291 -0.716684E+00  0.976E-01    2.63       1.0  T
  34    -88.6356740 -0.116449E-01  0.758E-01    1.09       1.0  T
  35    -88.6425651 -0.689108E-02  0.644E-01    0.14       1.0  T
  36    -87.9070762  0.735489E+00  0.238E+00    0.01       1.0  T
  37    -88.6210285 -0.713952E+00  0.103E+00    2.65       1.0  T
  38    -88.6350543 -0.140259E-01  0.770E-01    1.21       1.0  T
  39    -88.6423246 -0.727024E-02  0.646E-01    0.15       1.0  T
  40    -87.9066813  0.735643E+00  0.238E+00    0.01       1.0  T
  41    -88.6189964 -0.712315E+00  0.106E+00    2.66       1.0  T
  42    -88.6346807 -0.156842E-01  0.777E-01    1.28       1.0  T
  43    -88.6427774 -0.809674E-02  0.643E-01    0.13       1.0  T
  44    -87.9055614  0.737216E+00  0.239E+00    0.01       1.0  T
  45    -88.6175379 -0.711976E+00  0.108E+00    2.67       1.0  T
  46    -88.6343897 -0.168518E-01  0.783E-01    1.33       1.0  T
  47    -88.6447898 -0.104001E-01  0.629E-01    0.10       1.0  T
  48    -87.9031671  0.741623E+00  0.241E+00    0.01       1.0  T
  49    -88.6159404 -0.712773E+00  0.111E+00    2.68       1.0  T
  50    -88.6338824 -0.179420E-01  0.793E-01    1.43       1.0  T
  51    -88.6560726 -0.221902E-01  0.560E-01    0.04       1.0  T
  52    -87.8979960  0.758077E+00  0.244E+00    0.01       1.0  T
  53    -88.6125272 -0.714531E+00  0.116E+00    2.69       1.0  T
  54    -88.6325074 -0.199802E-01  0.820E-01    1.68       1.0  T
  55    -88.6620781 -0.295707E-01  0.521E-01    0.03       1.0  T
  56    -87.8952626  0.766815E+00  0.246E+00    0.01       1.0  T
  57    -88.6073840 -0.712121E+00  0.124E+00    2.72       1.0  T
  58    -88.6315995 -0.242155E-01  0.838E-01    1.84       1.0  T
  59    -88.6580446 -0.264452E-01  0.547E-01    0.04       1.0  T
  60    -87.8941633  0.763881E+00  0.247E+00    0.01       1.0  T
  61    -88.6034206 -0.709257E+00  0.130E+00    2.73       1.0  T
  62    -88.6316409 -0.282204E-01  0.837E-01    1.84       1.0  T
  63    -87.9126229  0.719018E+00  0.234E+00    0.01       1.0  T
  64    -88.6142835 -0.701661E+00  0.113E+00    2.69       1.0  T
  65    -88.6339683 -0.196848E-01  0.791E-01    1.41       1.0  T
  66    -88.6437731 -0.980482E-02  0.635E-01    0.11       1.0  T
  67    -87.9002925  0.743481E+00  0.243E+00    0.01       1.0  T
  68    -88.6071364 -0.706844E+00  0.124E+00    2.72       1.0  T
  69    -88.6330765 -0.259401E-01  0.809E-01    1.58       1.0  T
  70    -87.9128447  0.720232E+00  0.234E+00    0.01       1.0  T
  71    -88.6106954 -0.697851E+00  0.119E+00    2.71       1.0  T
  72    -88.6328109 -0.221155E-01  0.814E-01    1.62       1.0  T
  73    -88.6404476 -0.763668E-02  0.666E-01    0.27       1.0  T
  74    -87.9036838  0.736764E+00  0.240E+00    0.01       1.0  T
  75    -88.6084133 -0.704729E+00  0.122E+00    2.72       1.0  T
  76    -88.6334992 -0.250859E-01  0.801E-01    1.50       1.0  T
  77    -88.6954925 -0.619933E-01  0.210E-01    0.00       1.0  T
  78    -87.9002255  0.795267E+00  0.243E+00    0.01       1.0  T
  79    -88.6044303 -0.704205E+00  0.128E+00    2.73       1.0  T
  80    -88.6298882 -0.254578E-01  0.870E-01    2.15       1.0  T
  81    -88.6383466 -0.845844E-02  0.704E-01    0.60       1.0  T
  82    -87.9069880  0.731359E+00  0.238E+00    0.01       1.0  T
  83    -88.6072017 -0.700214E+00  0.124E+00    2.72       1.0  T
  84    -88.6330338 -0.258321E-01  0.810E-01    1.58       1.0  T
  85    -88.6428167 -0.978297E-02  0.642E-01    0.13       1.0  T
  86    -87.8993793  0.743437E+00  0.243E+00    0.01       1.0  T
  87    -88.6077414 -0.708362E+00  0.123E+00    2.72       1.0  T
  88    -88.6334541 -0.257127E-01  0.802E-01    1.51       1.0  T
  89    -87.9117539  0.721700E+00  0.235E+00    0.01       1.0  T
  90    -88.6052977 -0.693544E+00  0.127E+00    2.73       1.0  T
  91    -88.6323772 -0.270795E-01  0.822E-01    1.70       1.0  T
  92    -88.6409461 -0.856892E-02  0.660E-01    0.22       1.0  T
  93    -87.9013733  0.739573E+00  0.242E+00    0.01       1.0  T
  94    -88.6081538 -0.706780E+00  0.123E+00    2.72       1.0  T
  95    -88.6336547 -0.255009E-01  0.798E-01    1.47       1.0  T
  96    -87.9119431  0.721712E+00  0.235E+00    0.01       1.0  T
  97    -88.6032449 -0.691302E+00  0.129E+00    2.74       1.0  T
  98    -88.6319900 -0.287450E-01  0.830E-01    1.77       1.0  T
  99    -88.6408600 -0.887006E-02  0.661E-01    0.23       1.0  T
 100    -87.9011761  0.739684E+00  0.242E+00    0.01       1.0  T
 101    -88.6090609 -0.707885E+00  0.121E+00    2.71       1.0  T
 102    -88.6338686 -0.248077E-01  0.794E-01    1.43       1.0  T
 103    -87.9118140  0.722055E+00  0.235E+00    0.01       1.0  T
 104    -88.6016187 -0.689805E+00  0.132E+00    2.74       1.0  T
 105    -88.6317893 -0.301705E-01  0.833E-01    1.80       1.0  T
 106    -88.6411299 -0.934068E-02  0.657E-01    0.21       1.0  T
 107    -87.9004267  0.740703E+00  0.243E+00    0.01       1.0  T
 108    -88.6103610 -0.709934E+00  0.120E+00    2.71       1.0  T
 109    -88.6340675 -0.237065E-01  0.790E-01    1.40       1.0  T
 110    -87.9117388  0.722329E+00  0.235E+00    0.01       1.0  T
 111    -88.6002537 -0.688515E+00  0.134E+00    2.75       1.0  T
 112    -88.6316216 -0.313678E-01  0.837E-01    1.83       1.0  T
 113    -88.6414898 -0.986824E-02  0.654E-01    0.19       1.0  T
 114    -87.8995954  0.741894E+00  0.243E+00    0.01       1.0  T
 115    -88.6117854 -0.712190E+00  0.117E+00    2.70       1.0  T
 116    -88.6341951 -0.224097E-01  0.787E-01    1.37       1.0  T
 117    -87.9118197  0.722375E+00  0.235E+00    0.01       1.0  T
 118    -88.5989350 -0.687115E+00  0.135E+00    2.75       1.0  T
 119    -88.6314291 -0.324941E-01  0.840E-01    1.86       1.0  T
 120    -88.6418845 -0.104554E-01  0.650E-01    0.17       1.0  T
 121    -87.8987788  0.743106E+00  0.244E+00    0.01       1.0  T
 122    -88.6132023 -0.714423E+00  0.115E+00    2.69       1.0  T
 123    -88.6342454 -0.210431E-01  0.786E-01    1.37       1.0  T
 124    -87.9120177  0.722228E+00  0.235E+00    0.01       1.0  T
 125    -88.5976149 -0.685597E+00  0.137E+00    2.76       1.0  T
 126    -88.6312186 -0.336037E-01  0.844E-01    1.90       1.0  T
 127    -88.6423688 -0.111502E-01  0.646E-01    0.15       1.0  T
 128    -87.8979156  0.744453E+00  0.244E+00    0.01       1.0  T
 129    -88.6145959 -0.716680E+00  0.113E+00    2.69       1.0  T
 130    -88.6342170 -0.196211E-01  0.787E-01    1.37       1.0  T
 131    -87.9122850  0.721932E+00  0.234E+00    0.01       1.0  T
 132    -88.5963465 -0.684062E+00  0.139E+00    2.76       1.0  T
 133    -88.6310135 -0.346669E-01  0.848E-01    1.94       1.0  T
 134    -88.6430253 -0.120118E-01  0.641E-01    0.13       1.0  T
 135    -87.8969497  0.746076E+00  0.245E+00    0.01       1.0  T
 136    -88.6159188 -0.718969E+00  0.111E+00    2.68       1.0  T
 137    -88.6340961 -0.181773E-01  0.790E-01    1.40       1.0  T
 138    -87.9125947  0.721501E+00  0.234E+00    0.01       1.0  T
 139    -88.5952438 -0.682649E+00  0.140E+00    2.77       1.0  T
 140    -88.6308418 -0.355980E-01  0.851E-01    1.97       1.0  T
 141    -88.6439100 -0.130682E-01  0.634E-01    0.11       1.0  T
 142    -87.8958902  0.748020E+00  0.246E+00    0.01       1.0  T
 143    -88.6170081 -0.721118E+00  0.109E+00    2.67       1.0  T
 144    -88.6338736 -0.168655E-01  0.794E-01    1.44       1.0  T
 145    -87.9129481  0.720925E+00  0.234E+00    0.01       1.0  T
 146    -88.5944719 -0.681524E+00  0.141E+00    2.77       1.0  T
 147    -88.6307361 -0.362642E-01  0.853E-01    1.99       1.0  T
 148    -88.6449525 -0.142164E-01  0.628E-01    0.09       1.0  T
 149    -87.8948408  0.750112E+00  0.246E+00    0.01       1.0  T
 150    -88.6175866 -0.722746E+00  0.109E+00    2.67       1.0  T
 151    -88.6335789 -0.159923E-01  0.800E-01    1.49       1.0  T
 152    -87.9132360  0.720343E+00  0.234E+00    0.01       1.0  T
 153    -88.5941013 -0.680865E+00  0.142E+00    2.77       1.0  T
 154    -88.6306930 -0.365916E-01  0.854E-01    1.99       1.0  T
 155    -88.6459160 -0.152230E-01  0.622E-01    0.08       1.0  T
 156    -87.8939282  0.751988E+00  0.247E+00    0.01       1.0  T
 157    -88.6174803 -0.723552E+00  0.109E+00    2.67       1.0  T
 158    -88.6332897 -0.158093E-01  0.805E-01    1.54       1.0  T
 159    -87.9130240  0.720266E+00  0.234E+00    0.01       1.0  T
 160    -88.5939613 -0.680937E+00  0.142E+00    2.77       1.0  T
 161    -88.6306511 -0.366898E-01  0.855E-01    2.00       1.0  T
 162    -88.6468050 -0.161539E-01  0.616E-01    0.08       1.0  T
 163    -87.8930832  0.753722E+00  0.247E+00    0.01       1.0  T
 164    -88.6169124 -0.723829E+00  0.110E+00    2.67       1.0  T
 165    -88.6330528 -0.161404E-01  0.810E-01    1.59       1.0  T
 166    -87.9126691  0.720384E+00  0.234E+00    0.01       1.0  T
 167    -88.5939902 -0.681321E+00  0.142E+00    2.77       1.0  T
 168    -88.6306315 -0.366413E-01  0.855E-01    2.01       1.0  T
 169    -88.6480166 -0.173852E-01  0.609E-01    0.07       1.0  T
 170    -87.8921511  0.755866E+00  0.248E+00    0.01       1.0  T
 171    -88.6161458 -0.723995E+00  0.111E+00    2.68       1.0  T
 172    -88.6328378 -0.166920E-01  0.814E-01    1.63       1.0  T
 173    -87.9124108  0.720427E+00  0.234E+00    0.01       1.0  T
 174    -88.5940542 -0.681643E+00  0.142E+00    2.77       1.0  T
 175    -88.6306302 -0.365760E-01  0.855E-01    2.01       1.0  T
 176    -88.6497230 -0.190928E-01  0.598E-01    0.06       1.0  T
 177    -87.8911670  0.758556E+00  0.249E+00    0.01       1.0  T
 178    -88.6152024 -0.724035E+00  0.112E+00    2.68       1.0  T
 179    -88.6326354 -0.174330E-01  0.818E-01    1.66       1.0  T
 180    -87.9122262  0.720409E+00  0.234E+00    0.01       1.0  T
 181    -88.5940429 -0.681817E+00  0.142E+00    2.77       1.0  T
 182    -88.6306365 -0.365936E-01  0.855E-01    2.01       1.0  T
 183    -88.6521882 -0.215518E-01  0.584E-01    0.05       1.0  T
 184    -87.8901781  0.762010E+00  0.249E+00    0.01       1.0  T
 185    -88.6141145 -0.723936E+00  0.114E+00    2.69       1.0  T
 186    -88.6324354 -0.183209E-01  0.822E-01    1.70       1.0  T
 187    -87.9121425  0.720293E+00  0.234E+00    0.01       1.0  T
 188    -88.5939004 -0.681758E+00  0.142E+00    2.77       1.0  T
 189    -88.6306539 -0.367535E-01  0.855E-01    2.01       1.0  T
 190    -88.6554973 -0.248434E-01  0.563E-01    0.04       1.0  T
 191    -87.8893326  0.766165E+00  0.250E+00    0.01       1.0  T
 192    -88.6128736 -0.723541E+00  0.116E+00    2.69       1.0  T
 193    -88.6322398 -0.193662E-01  0.826E-01    1.74       1.0  T
 194    -87.9121829  0.720057E+00  0.234E+00    0.01       1.0  T
 195    -88.5936201 -0.681437E+00  0.142E+00    2.77       1.0  T
 196    -88.6306939 -0.370738E-01  0.854E-01    2.00       1.0  T
 197    -88.6593159 -0.286219E-01  0.539E-01    0.04       1.0  T
 198    -87.8888109  0.770505E+00  0.250E+00    0.01       1.0  T
 199    -88.6115188 -0.722708E+00  0.118E+00    2.70       1.0  T
 200    -88.6320652 -0.205464E-01  0.829E-01    1.77       1.0  T
 201    -87.9123391  0.719726E+00  0.234E+00    0.01       1.0  T
 202    -88.5932455 -0.680906E+00  0.143E+00    2.77       1.0  T
 203    -88.6307709 -0.375254E-01  0.853E-01    1.98       1.0  T
 204    -88.6631922 -0.324213E-01  0.514E-01    0.03       1.0  T
 205    -87.8886769  0.774515E+00  0.250E+00    0.01       1.0  T
 206    -88.6101583 -0.721481E+00  0.120E+00    2.70       1.0  T
 207    -88.6319210 -0.217627E-01  0.832E-01    1.79       1.0  T
 208    -87.9126122  0.719309E+00  0.234E+00    0.01       1.0  T
 209    -88.5928337 -0.680221E+00  0.143E+00    2.77       1.0  T
 210    -88.6308933 -0.380596E-01  0.850E-01    1.96       1.0  T
 211    -88.6666769 -0.357836E-01  0.490E-01    0.03       1.0  T
 212    -87.8888848  0.777792E+00  0.250E+00    0.01       1.0  T
 213    -88.6088947 -0.720010E+00  0.122E+00    2.71       1.0  T
 214    -88.6318146 -0.229199E-01  0.834E-01    1.81       1.0  T
 215    -87.9131728  0.718642E+00  0.234E+00    0.01       1.0  T
 216    -88.5924948 -0.679322E+00  0.144E+00    2.77       1.0  T
 217    -88.6310807 -0.385859E-01  0.847E-01    1.93       1.0  T
 218    -88.6692800 -0.381992E-01  0.472E-01    0.03       1.0  T
 219    -87.8893240  0.779956E+00  0.250E+00    0.01       1.0  T
 220    -88.6078039 -0.718480E+00  0.124E+00    2.71       1.0  T
 221    -88.6317577 -0.239538E-01  0.835E-01    1.82       1.0  T
 222    -88.0238375  0.607920E+00  0.217E+00    0.00       1.0  T
 223    -88.6008953 -0.577058E+00  0.133E+00    2.75       1.0  T
 224    -88.6335621 -0.326668E-01  0.800E-01    1.48       1.0  T
 225    -88.6857548 -0.521927E-01  0.333E-01    0.00       1.0  T
 226    -87.9108120  0.774943E+00  0.235E+00    0.01       1.0  T
 227    -88.5869600 -0.676148E+00  0.151E+00    2.79       1.0  T
 228    -88.6268767 -0.399167E-01  0.924E-01    2.61       1.0  T
 229    -88.6387535 -0.118768E-01  0.695E-01    0.52       1.0  T
 230    -87.9019005  0.736853E+00  0.242E+00    0.01       1.0  T
 231    -88.6018275 -0.699927E+00  0.132E+00    2.74       1.0  T
 232    -88.6330865 -0.312589E-01  0.809E-01    1.58       1.0  T
 233    -87.9110979  0.721989E+00  0.235E+00    0.01       1.0  T
 234    -88.5936337 -0.682536E+00  0.142E+00    2.77       1.0  T
 235    -88.6320133 -0.383796E-01  0.829E-01    1.76       1.0  T
 236    -87.9126672  0.719346E+00  0.234E+00    0.01       1.0  T
 237    -88.5923314 -0.679664E+00  0.144E+00    2.77       1.0  T
 238    -88.6318172 -0.394858E-01  0.833E-01    1.80       1.0  T
 239    -88.7018419 -0.700246E-01  0.261E-02    0.01       1.0  T
 240    -87.9025305  0.799311E+00  0.241E+00    0.01       1.0  T
 241    -88.5957424 -0.693212E+00  0.140E+00    2.76       1.0  T
 242    -88.6290907 -0.333483E-01  0.884E-01    2.29       1.0  T
 243    -88.6394119 -0.103212E-01  0.683E-01    0.41       1.0  T
 244    -87.9001154  0.739296E+00  0.243E+00    0.01       1.0  T
 245    -88.6037741 -0.703659E+00  0.129E+00    2.73       1.0  T
 246    -88.6332909 -0.295169E-01  0.805E-01    1.54       1.0  T
 247    -87.9114378  0.721853E+00  0.235E+00    0.01       1.0  T
 248    -88.5933057 -0.681868E+00  0.143E+00    2.77       1.0  T
 249    -88.6323024 -0.389967E-01  0.824E-01    1.71       1.0  T
 250    -87.9127063  0.719596E+00  0.234E+00    0.01       1.0  T
     SCC iter.                  ...        0 min,  2.550 sec
     gradient                   ...        0 min,  0.104 sec
================
 final structure:
================
57
 xtb: 6.7.1pre (5071a88)
N            0.00000000000000        0.00000000000000        0.00000000000000
C            1.46000000000000        0.00000000000000        0.00000000000000
C            2.15500000000000        0.77400000000000        0.92200000000000
C            3.54500000000000        0.77400000000000        0.92200000000000
C            4.24000000000000        0.00000000000000        0.00000000000000
C            3.54500000000000       -0.77400000000000       -0.92200000000000
C            2.15500000000000       -0.77400000000000       -0.92200000000000
C            5.74000000000000        0.00000000000000        0.00000000000000
C            6.24000000000000        1.08300000000000       -0.90900000000000
C           -0.71700000000000        1.17900000000000        0.00000000000000
C            0.03600000000000        2.47700000000000        0.00000000000000
C           -0.61100000000000        3.65100000000000        0.00000000000000
C            0.14200000000000        4.94900000000000        0.00000000000000
C            0.39200000000000        5.38200000000000       -1.41400000000000
C            1.14400000000000        6.67900000000000       -1.41400000000000
O           -1.99000000000000        1.16600000000000        1.47700000000000
O           -3.68700000000000        1.14900000000000        3.44700000000000
H           -0.34000000000000       -0.60500000000000        0.74800000000000
H           -2.83800000000000        1.15700000000000        2.46200000000000
H            1.61400000000000        1.37600000000000        1.64000000000000
H            4.08600000000000        1.37600000000000        1.64000000000000
H            4.08600000000000       -1.37600000000000       -1.64000000000000
H            1.61400000000000       -1.37600000000000       -1.64000000000000
H            6.10300000000000       -0.96600000000000       -0.35100000000000
H            6.10300000000000        0.17800000000000        1.01200000000000
H            5.87600000000000        2.04900000000000       -0.55800000000000
H            6.37400000000000        0.46000000000000       -2.96300000000000
H            7.93000000000000        3.09600000000000       -1.26500000000000
H           -1.42800000000000        1.17200000000000       -0.82600000000000
H            1.11500000000000        2.43400000000000        0.00000000000000
H           -1.69000000000000        3.69400000000000        0.00000000000000
H           -0.44600000000000        5.71000000000000        0.51400000000000
H            1.09400000000000        4.81700000000000        0.51400000000000
H            0.98000000000000        4.62100000000000       -1.92800000000000
H           -0.56000000000000        5.51400000000000       -1.92800000000000
H            1.32700000000000        6.99400000000000       -2.44200000000000
H            0.55700000000000        7.44000000000000       -0.90000000000000
H            2.09700000000000        6.54800000000000       -0.90000000000000
H           -4.64900000000000        1.26800000000000        3.41800000000000
H           -3.49300000000000        0.96000000000000        4.37900000000000
O           -3.47300000000000       -1.39700000000000        0.79600000000000
H           -2.67100000000000        1.56100000000000        0.89400000000000
H           -4.09900000000000       -2.11400000000000        0.61100000000000
N            5.75400000000000        0.84400000000000       -2.26500000000000
C            7.76000000000000        1.08300000000000       -0.90900000000000
O            8.37500000000000        0.03400000000000       -0.72400000000000
C            3.97200000000000        0.88900000000000       -3.98700000000000
C            4.47500000000000        1.13700000000000       -2.58500000000000
O            3.72000000000000        1.60500000000000       -1.73400000000000
H            4.30500000000000       -0.09200000000000       -4.32400000000000
H            4.36600000000000        1.65600000000000       -4.65500000000000
H            2.88300000000000        0.92600000000000       -3.99400000000000
N            8.43500000000000        2.23400000000000       -1.11200000000000
C            9.88500000000000        2.23400000000000       -1.11200000000000
H           10.24800000000000        3.26200000000000       -1.11200000000000
H           10.24800000000000        1.72000000000000       -2.00200000000000
H           10.24800000000000        1.72000000000000       -0.22200000000000
 
 Bond Distances (Angstroems)
 ---------------------------
N1-C2=1.4600         N1-C10=1.3799        N1-H18=1.0204        C2-N1=1.4600         C2-C3=1.3900         C2-C7=1.3900         
C3-C2=1.3900         C3-C4=1.3900         C3-H20=1.0819        C4-C3=1.3900         C4-C5=1.3900         C4-H21=1.0819        
C5-C4=1.3900         C5-C6=1.3900         C5-C8=1.5000         C6-C5=1.3900         C6-C7=1.3900         C6-H22=1.0819        
C7-C2=1.3900         C7-C6=1.3900         C7-H23=1.0819        C8-C5=1.5000         C8-C9=1.4997         C8-H24=1.0900        
C8-H25=1.0898        C9-C8=1.4997         C9-H26=1.0903        C9-N44=1.4602        C9-C45=1.5200        C10-N1=1.3799        
C10-C11=1.5006       C10-H29=1.0899       C11-C10=1.5006       C11-C12=1.3405       C11-H30=1.0799       C12-C11=1.3405       
C12-C13=1.5006       C12-H31=1.0799       C13-C12=1.5006       C13-C14=1.4998       C13-H32=1.0904       C13-H33=1.0899       
C14-C13=1.4998       C14-C15=1.4992       C14-H34=1.0904       C14-H35=1.0899       C15-C14=1.4992       C15-H36=1.0906       
C15-H37=1.0899       C15-H38=1.0907       O16-H42=0.9796       O17-H39=0.9698       O17-H40=0.9706       H18-N1=1.0204        
H20-C3=1.0819        H21-C4=1.0819        H22-C6=1.0819        H23-C7=1.0819        H24-C8=1.0900        H25-C8=1.0898        
H26-C9=1.0903        H27-N44=1.0095       H28-N53=1.0107       H29-C10=1.0899       H30-C11=1.0799       H31-C12=1.0799       
H32-C13=1.0904       H33-C13=1.0899       H34-C14=1.0904       H35-C14=1.0899       H36-C15=1.0906       H37-C15=1.0899       
H38-C15=1.0907       H39-O17=0.9698       H40-O17=0.9706       O41-H43=0.9696       H42-O16=0.9796       H43-O41=0.9696       
N44-C9=1.4602        N44-H27=1.0095       N44-C48=1.3506       C45-C9=1.5200        C45-O46=1.2300       C45-N53=1.3497       
O46-C45=1.2300       C47-C48=1.5100       C47-H50=1.0894       C47-H51=1.0908       C47-H52=1.0897       C48-N44=1.3506       
C48-C47=1.5100       C48-O49=1.2301       O49-C48=1.2301       H50-C47=1.0894       H51-C47=1.0908       H52-C47=1.0897       
N53-H28=1.0107       N53-C45=1.3497       N53-C54=1.4500       C54-N53=1.4500       C54-H55=1.0902       C54-H56=1.0900       
C54-H57=1.0900       H55-C54=1.0902       H56-C54=1.0900       H57-C54=1.0900       
 C  H  Rav=1.0878 sigma=0.0039  Rmin=1.0799  Rmax=1.0908    23
 C  C  Rav=1.4474 sigma=0.0616  Rmin=1.3405  Rmax=1.5200    15
 N  H  Rav=1.0135 sigma=0.0049  Rmin=1.0095  Rmax=1.0204     3
 N  C  Rav=1.4084 sigma=0.0495  Rmin=1.3497  Rmax=1.4602     6
 O  H  Rav=0.9724 sigma=0.0042  Rmin=0.9696  Rmax=0.9796     4
 O  C  Rav=1.2301 sigma=0.0001  Rmin=1.2300  Rmax=1.2301     2
 
 selected bond angles (degree)
 --------------------
C10-N1-C2=121.31               H18-N1-C2=109.46               H18-N1-C10=109.48              C3-C2-N1=120.00                
C7-C2-N1=120.00                C7-C2-C3=120.00                C4-C3-C2=120.00                H20-C3-C2=120.00               
H20-C3-C4=120.00               C5-C4-C3=120.00                H21-C4-C3=120.00               H21-C4-C5=120.00               
C6-C5-C4=120.00                C8-C5-C4=120.00                C8-C5-C6=120.00                C7-C6-C5=120.00                
H22-C6-C5=120.00               H22-C6-C7=120.00               C6-C7-C2=120.00                H23-C7-C2=120.00               
H23-C7-C6=120.00               C9-C8-C5=109.47                H24-C8-C5=109.45               H24-C8-C9=109.50               
H25-C8-C5=109.46               H25-C8-C9=109.50               H25-C8-H24=109.44              H26-C9-C8=109.47               
N44-C9-C8=109.49               N44-C9-H26=109.44              C45-C9-C8=109.47               C45-C9-H26=109.50              
C45-C9-N44=109.44              C11-C10-N1=118.58              H29-C10-N1=109.48              H29-C10-C11=109.45             
 
 selected dihedral angles (degree)
 ---------------------------------
C3-C2-N1-C10= 49.99           C3-C2-N1-H18=281.02           C7-C2-N1-C10=229.99           C7-C2-N1-H18=101.02           
C4-C3-C2-N1=180.00            C4-C3-C2-C7=  0.00            H20-C3-C2-N1=  0.03           H20-C3-C2-C7=180.03           
C5-C4-C3-C2=  0.00            C5-C4-C3-H20=179.97           H21-C4-C3-C2=180.03           H21-C4-C3-H20=  0.00          
C6-C5-C4-C3=  0.00            C6-C5-C4-H21=179.97           C8-C5-C4-C3=180.00            C8-C5-C4-H21=359.97           
C7-C6-C5-C4=  0.00            C7-C6-C5-C8=180.00            H22-C6-C5-C4=179.97           H22-C6-C5-C8=359.97           
C6-C7-C2-N1=180.00            C6-C7-C2-C3=  0.00            H23-C7-C2-N1=  0.03           H23-C7-C2-C3=180.03           
C2-C7-C6-C5=  0.00            C2-C7-C6-H22=180.03           H23-C7-C6-C5=179.97           H23-C7-C6-H22=  0.00          
C9-C8-C5-C4=270.00            C9-C8-C5-C6= 90.00            H24-C8-C5-C4=149.98           H24-C8-C5-C6=329.98           
H25-C8-C5-C4= 30.04           H25-C8-C5-C6=210.04           H26-C9-C8-C5= 59.96           H26-C9-C8-H24=179.95          
H26-C9-C8-H25=299.95          N44-C9-C8-C5=299.98           N44-C9-C8-H24= 59.98          N44-C9-C8-H25=179.98          
C45-C9-C8-C5=180.00           C45-C9-C8-H24=300.00          C45-C9-C8-H25= 60.00          C11-C10-N1-C2=  0.00          
C11-C10-N1-H18=128.96         H29-C10-N1-C2=126.50          H29-C10-N1-H18=255.46         
 
 CMA Distance (Angstroems)
 ---------------------------
R(CMA):  7.3873
           -------------------------------------------------
          |                Final Singlepoint                |
           -------------------------------------------------

          ...................................................
          :                      SETUP                      :
          :.................................................:
          :  # basis functions                 166          :
          :  # atomic orbitals                 166          :
          :  # shells                          114          :
          :  # electrons                       148          :
          :  # halogen bonds                     0          :
          :  max. iterations                   250          :
          :  Hamiltonian                  GFN1-xTB          :
          :  restarted?                      false          :
          :  GBSA solvation                  false          :
          :  PC potential                    false          :
          :  electronic temp.            0.0000000     K    :
          :  accuracy                    1.0000000          :
          :  -> integral cutoff          0.2500000E+02      :
          :  -> integral neglect         0.1000000E-07      :
          :  -> SCF convergence          0.1000000E-05 Eh   :
          :  -> wf. convergence          0.2000000E-04 e    :
          :  Broyden damping             0.4000000          :
          :  net charge                          0          :
          :  unpaired electrons                  0          :
          ...................................................

 iter      E             dE          RMSdq      gap      omega  full diag
   1    -88.5002887 -0.885003E+02  0.147E+00    3.04       0.0  T
   2    -88.5528057 -0.525170E-01  0.740E-01    1.39       1.0  T
   3    -84.3272271  0.422558E+01  0.540E+00    0.11       1.0  T
   4    -88.5443231 -0.421710E+01  0.819E-01    2.35       1.0  T
   5    -88.5484255 -0.410236E-02  0.703E-01    1.28       1.0  T
   6    -88.5520499 -0.362438E-02  0.605E-01    0.38       1.0  T
   7    -87.7575420  0.794508E+00  0.243E+00    0.01       1.0  T
   8    -87.7538295  0.371243E-02  0.245E+00    0.01       1.0  T
   9    -87.7595741 -0.574454E-02  0.242E+00    0.01       1.0  T
  10    -88.5498869 -0.790313E+00  0.648E-01    0.80       1.0  T
  11    -88.5466996  0.318726E-02  0.718E-01    1.48       1.0  T
  12    -88.5431316  0.356800E-02  0.786E-01    2.13       1.0  T
  13    -88.5394261  0.370548E-02  0.849E-01    2.69       1.0  T
  14    -88.5405830 -0.115684E-02  0.827E-01    2.52       1.0  T
  15    -88.5413137 -0.730716E-03  0.811E-01    2.37       1.0  T
  16    -88.5423492 -0.103548E-02  0.787E-01    2.15       1.0  T
  17    -88.5488572 -0.650806E-02  0.646E-01    0.86       1.0  T
  18    -87.7708488  0.778008E+00  0.243E+00    0.01       1.0  T
  19    -88.5226351 -0.751786E+00  0.113E+00    2.80       1.0  T
  20    -88.5384421 -0.158070E-01  0.847E-01    2.69       1.0  T
  21    -88.5501457 -0.117036E-01  0.618E-01    0.61       1.0  T
  22    -87.7701559  0.779990E+00  0.243E+00    0.01       1.0  T
  23    -88.5175896 -0.747434E+00  0.120E+00    2.82       1.0  T
  24    -88.5428380 -0.252484E-01  0.765E-01    1.93       1.0  T
  25    -88.5527367 -0.989868E-02  0.580E-01    0.34       1.0  T
  26    -87.7778880  0.774849E+00  0.239E+00    0.01       1.0  T
  27    -88.5161888 -0.738301E+00  0.122E+00    2.83       1.0  T
  28    -88.5411628 -0.249739E-01  0.799E-01    2.25       1.0  T
  29    -88.5506342 -0.947143E-02  0.609E-01    0.54       1.0  T
  30    -87.7726202  0.778014E+00  0.242E+00    0.01       1.0  T
  31    -88.5175114 -0.744891E+00  0.120E+00    2.82       1.0  T
  32    -88.5423512 -0.248398E-01  0.776E-01    2.04       1.0  T
  33    -88.5538592 -0.115080E-01  0.568E-01    0.27       1.0  T
  34    -87.7764321  0.777427E+00  0.240E+00    0.01       1.0  T
  35    -88.5161996 -0.739768E+00  0.122E+00    2.82       1.0  T
  36    -88.5415428 -0.253432E-01  0.793E-01    2.19       1.0  T
  37    -88.5536571 -0.121143E-01  0.570E-01    0.28       1.0  T
  38    -87.7744432  0.779214E+00  0.241E+00    0.01       1.0  T
  39    -88.5176347 -0.743191E+00  0.119E+00    2.82       1.0  T
  40    -88.5425237 -0.248890E-01  0.773E-01    2.01       1.0  T
  41    -88.5618451 -0.193213E-01  0.505E-01    0.13       1.0  T
  42    -88.5519090  0.993603E-02  0.590E-01    0.40       1.0  T
  43    -87.7637187  0.788190E+00  0.246E+00    0.01       1.0  T
  44    -88.5192021 -0.755483E+00  0.117E+00    2.82       1.0  T
  45    -88.5434171 -0.242150E-01  0.755E-01    1.85       1.0  T
  46    -87.7804578  0.762959E+00  0.238E+00    0.01       1.0  T
  47    -88.5099571 -0.729499E+00  0.131E+00    2.84       1.0  T
  48    -88.5365167 -0.265596E-01  0.890E-01    2.73       1.0  T
  49    -88.5508560 -0.143393E-01  0.606E-01    0.51       1.0  T
  50    -87.7655178  0.785338E+00  0.245E+00    0.01       1.0  T
  51    -88.5147851 -0.749267E+00  0.124E+00    2.83       1.0  T
  52    -88.5416368 -0.268517E-01  0.792E-01    2.19       1.0  T
  53    -88.5987131 -0.570764E-01  0.393E-02    0.03       1.0  T
  54    -88.5465283  0.521848E-01  0.691E-01    1.25       1.0  T
  55    -87.7595153  0.787013E+00  0.248E+00    0.01       1.0  T
  56    -88.5182534 -0.758738E+00  0.119E+00    2.82       1.0  T
  57    -88.5435909 -0.253375E-01  0.753E-01    1.82       1.0  T
  58    -88.1935073  0.350084E+00  0.167E+00    0.00       1.0  T
  59    -88.5222509 -0.328744E+00  0.113E+00    2.80       1.0  T
  60    -88.5468570 -0.246061E-01  0.683E-01    1.18       1.0  T
  61    -87.7751152  0.771742E+00  0.240E+00    0.01       1.0  T
  62    -88.5108290 -0.735714E+00  0.129E+00    2.84       1.0  T
  63    -88.5383999 -0.275708E-01  0.855E-01    2.72       1.0  T
  64    -88.5512103 -0.128104E-01  0.600E-01    0.46       1.0  T
  65    -87.7642136  0.786997E+00  0.246E+00    0.01       1.0  T
  66    -88.5153574 -0.751144E+00  0.123E+00    2.83       1.0  T
  67    -88.5420002 -0.266428E-01  0.785E-01    2.12       1.0  T
  68    -88.5741709 -0.321707E-01  0.410E-01    0.08       1.0  T
  69    -87.7699076  0.804263E+00  0.243E+00    0.01       1.0  T
  70    -88.5134414 -0.743534E+00  0.126E+00    2.83       1.0  T
  71    -88.5412773 -0.278360E-01  0.799E-01    2.25       1.0  T
  72    -88.5650654 -0.237880E-01  0.482E-01    0.11       1.0  T
  73    -87.7647728  0.800293E+00  0.246E+00    0.01       1.0  T
  74    -88.5153166 -0.750544E+00  0.123E+00    2.83       1.0  T
  75    -88.5423490 -0.270324E-01  0.778E-01    2.05       1.0  T
  76    -88.5970390 -0.546900E-01  0.114E-01    0.03       1.0  T
  77    -88.5466936  0.503454E-01  0.687E-01    1.21       1.0  T
  78    -87.7606971  0.785996E+00  0.248E+00    0.01       1.0  T
  79    -88.5173096 -0.756613E+00  0.120E+00    2.82       1.0  T
  80    -88.5434066 -0.260970E-01  0.757E-01    1.86       1.0  T
  81    -88.4288238  0.114583E+00  0.108E+00    0.01       1.0  T
  82    -88.5326664 -0.103843E+00  0.960E-01    2.75       1.0  T
  83    -88.5540167 -0.213503E-01  0.566E-01    0.26       1.0  T
  84    -87.7607265  0.793290E+00  0.248E+00    0.01       1.0  T
  85    -88.5165225 -0.755796E+00  0.121E+00    2.82       1.0  T
  86    -88.5424194 -0.258969E-01  0.777E-01    2.05       1.0  T
  87    -88.5603684 -0.179490E-01  0.516E-01    0.14       1.0  T
  88    -87.7626260  0.797742E+00  0.247E+00    0.01       1.0  T
  89    -88.5157697 -0.753144E+00  0.123E+00    2.82       1.0  T
  90    -88.5423267 -0.265570E-01  0.779E-01    2.06       1.0  T
  91    -88.5925086 -0.501819E-01  0.208E-01    0.05       1.0  T
  92    -88.5920068  0.501855E-03  0.216E-01    0.05       1.0  T
  93    -87.7672534  0.824753E+00  0.244E+00    0.01       1.0  T
  94    -88.5048757 -0.737622E+00  0.138E+00    2.84       1.0  T
  95    -88.5379190 -0.330434E-01  0.865E-01    2.72       1.0  T
  96    -88.5607698 -0.228507E-01  0.514E-01    0.14       1.0  T
  97    -87.7573466  0.803423E+00  0.249E+00    0.02       1.0  T
  98    -88.5041869 -0.746840E+00  0.139E+00    2.84       1.0  T
  99    -88.5402958 -0.361089E-01  0.819E-01    2.44       1.0  T
 100    -87.7760838  0.764212E+00  0.240E+00    0.01       1.0  T
 101    -88.5067877 -0.730704E+00  0.135E+00    2.84       1.0  T
 102    -88.5380960 -0.313083E-01  0.861E-01    2.72       1.0  T
 103    -88.5540725 -0.159766E-01  0.566E-01    0.26       1.0  T
 104    -87.7567646  0.797308E+00  0.249E+00    0.02       1.0  T
 105    -88.5025214 -0.745757E+00  0.141E+00    2.84       1.0  T
 106    -88.5409924 -0.384710E-01  0.805E-01    2.31       1.0  T
 107    -87.7742108  0.766782E+00  0.241E+00    0.01       1.0  T
 108    -88.5063051 -0.732094E+00  0.136E+00    2.84       1.0  T
 109    -88.5389450 -0.326399E-01  0.845E-01    2.68       1.0  T
 110    -88.5589037 -0.199587E-01  0.527E-01    0.16       1.0  T
 111    -87.7545510  0.804353E+00  0.250E+00    0.02       1.0  T
 112    -88.4997408 -0.745190E+00  0.144E+00    2.85       1.0  T
 113    -88.5409889 -0.412481E-01  0.806E-01    2.31       1.0  T
 114    -87.7741716  0.766817E+00  0.241E+00    0.01       1.0  T
 115    -88.5063800 -0.732208E+00  0.136E+00    2.84       1.0  T
 116    -88.5392868 -0.329067E-01  0.838E-01    2.61       1.0  T
 117    -88.5603373 -0.210505E-01  0.517E-01    0.14       1.0  T
 118    -87.7539796  0.806358E+00  0.250E+00    0.02       1.0  T
 119    -88.4980218 -0.744042E+00  0.146E+00    2.85       1.0  T
 120    -88.5411311 -0.431093E-01  0.803E-01    2.28       1.0  T
 121    -87.7741313  0.767000E+00  0.241E+00    0.01       1.0  T
 122    -88.5065260 -0.732395E+00  0.136E+00    2.84       1.0  T
 123    -88.5395915 -0.330655E-01  0.832E-01    2.56       1.0  T
 124    -88.5630075 -0.234160E-01  0.497E-01    0.12       1.0  T
 125    -87.7538373  0.809170E+00  0.250E+00    0.02       1.0  T
 126    -88.4967164 -0.742879E+00  0.148E+00    2.85       1.0  T
 127    -88.5412593 -0.445429E-01  0.800E-01    2.26       1.0  T
 128    -87.7743239  0.766935E+00  0.241E+00    0.01       1.0  T
 129    -88.5067936 -0.732470E+00  0.135E+00    2.84       1.0  T
 130    -88.5397836 -0.329900E-01  0.829E-01    2.52       1.0  T
 131    -88.5639788 -0.241952E-01  0.490E-01    0.12       1.0  T
 132    -87.7537224  0.810256E+00  0.250E+00    0.02       1.0  T
 133    -88.4957706 -0.742048E+00  0.149E+00    2.84       1.0  T
 134    -88.5414503 -0.456797E-01  0.797E-01    2.22       1.0  T
 135    -87.7743302  0.767120E+00  0.241E+00    0.01       1.0  T
 136    -88.5070816 -0.732751E+00  0.135E+00    2.84       1.0  T
 137    -88.5399573 -0.328757E-01  0.825E-01    2.49       1.0  T
 138    -88.5656524 -0.256951E-01  0.478E-01    0.11       1.0  T
 139    -87.7539481  0.811704E+00  0.250E+00    0.02       1.0  T
 140    -88.4952268 -0.741279E+00  0.150E+00    2.84       1.0  T
 141    -88.5416067 -0.463799E-01  0.793E-01    2.19       1.0  T
 142    -87.7745324  0.767074E+00  0.241E+00    0.01       1.0  T
 143    -88.5073881 -0.732856E+00  0.134E+00    2.84       1.0  T
 144    -88.5400307 -0.326426E-01  0.824E-01    2.48       1.0  T
 145    -88.5645508 -0.245201E-01  0.486E-01    0.11       1.0  T
 146    -87.7535149  0.811036E+00  0.250E+00    0.02       1.0  T
 147    -88.4944337 -0.740919E+00  0.151E+00    2.84       1.0  T
 148    -88.5418165 -0.473829E-01  0.789E-01    2.15       1.0  T
 149    -87.7743012  0.767515E+00  0.241E+00    0.01       1.0  T
 150    -88.5076868 -0.733386E+00  0.134E+00    2.84       1.0  T
 151    -88.5401743 -0.324875E-01  0.821E-01    2.45       1.0  T
 152    -88.5673391 -0.271649E-01  0.465E-01    0.10       1.0  T
 153    -87.7542498  0.813089E+00  0.250E+00    0.02       1.0  T
 154    -88.4945471 -0.740297E+00  0.151E+00    2.84       1.0  T
 155    -88.5418985 -0.473514E-01  0.787E-01    2.14       1.0  T
 156    -87.7747610  0.767137E+00  0.241E+00    0.01       1.0  T
 157    -88.5079704 -0.733209E+00  0.134E+00    2.84       1.0  T
 158    -88.5401104 -0.321400E-01  0.822E-01    2.46       1.0  T
 159    -88.5625870 -0.224765E-01  0.500E-01    0.12       1.0  T
 160    -87.7527608  0.809826E+00  0.251E+00    0.02       1.0  T
 161    -88.4930553 -0.740295E+00  0.153E+00    2.82       1.0  T
 162    -88.5421648 -0.491095E-01  0.782E-01    2.09       1.0  T
 163    -87.7739717  0.768193E+00  0.241E+00    0.01       1.0  T
 164    -88.5082476 -0.734276E+00  0.133E+00    2.84       1.0  T
 165    -88.5403486 -0.321010E-01  0.818E-01    2.42       1.0  T
 166    -88.5717123 -0.313637E-01  0.431E-01    0.08       1.0  T
 167    -87.7556973  0.816015E+00  0.250E+00    0.02       1.0  T
 168    -88.4951769 -0.739480E+00  0.150E+00    2.84       1.0  T
 169    -88.5420008 -0.468239E-01  0.785E-01    2.12       1.0  T
 170    -87.7755559  0.766445E+00  0.240E+00    0.01       1.0  T
 171    -88.5084282 -0.732872E+00  0.133E+00    2.84       1.0  T
 172    -88.5399528 -0.315246E-01  0.825E-01    2.49       1.0  T
 173    -88.5577283 -0.177755E-01  0.536E-01    0.17       1.0  T
 174    -87.7515553  0.806173E+00  0.251E+00    0.02       1.0  T
 175    -88.4914613 -0.739906E+00  0.154E+00    2.80       1.0  T
 176    -88.5425199 -0.510586E-01  0.775E-01    2.02       1.0  T
 177    -87.7733340  0.769186E+00  0.241E+00    0.01       1.0  T
 178    -88.5086124 -0.735278E+00  0.133E+00    2.84       1.0  T
 179    -88.5405160 -0.319036E-01  0.814E-01    2.39       1.0  T
 180    -88.5827396 -0.422236E-01  0.331E-01    0.06       1.0  T
 181    -87.7604647  0.822275E+00  0.248E+00    0.01       1.0  T
 182    -88.4984714 -0.738007E+00  0.146E+00    2.85       1.0  T
 183    -88.5415570 -0.430857E-01  0.794E-01    2.20       1.0  T
 184    -87.7785374  0.763020E+00  0.239E+00    0.01       1.0  T
 185    -88.5086430 -0.730106E+00  0.133E+00    2.84       1.0  T
 186    -88.5392764 -0.306334E-01  0.838E-01    2.61       1.0  T
 187    -88.5529196 -0.136432E-01  0.577E-01    0.32       1.0  T
 188    -87.7522548  0.800665E+00  0.251E+00    0.02       1.0  T
 189    -88.4922045 -0.739950E+00  0.154E+00    2.82       1.0  T
 190    -88.5427637 -0.505591E-01  0.770E-01    1.97       1.0  T
 191    -87.7731114  0.769652E+00  0.241E+00    0.01       1.0  T
 192    -88.5082961 -0.735185E+00  0.133E+00    2.84       1.0  T
 193    -88.5404500 -0.321539E-01  0.815E-01    2.40       1.0  T
 194    -88.5727851 -0.323351E-01  0.422E-01    0.08       1.0  T
 195    -87.7550546  0.817730E+00  0.250E+00    0.02       1.0  T
 196    -88.4939932 -0.738939E+00  0.151E+00    2.84       1.0  T
 197    -88.5422736 -0.482804E-01  0.780E-01    2.07       1.0  T
 198    -87.7755916  0.766682E+00  0.240E+00    0.01       1.0  T
 199    -88.5086430 -0.733051E+00  0.133E+00    2.84       1.0  T
 200    -88.5398287 -0.311857E-01  0.828E-01    2.52       1.0  T
 201    -88.5558844 -0.160557E-01  0.550E-01    0.21       1.0  T
 202    -87.7502949  0.805590E+00  0.252E+00    0.02       1.0  T
 203    -88.4893939 -0.739099E+00  0.157E+00    2.78       1.0  T
 204    -88.5429627 -0.535688E-01  0.766E-01    1.94       1.0  T
 205    -87.7727250  0.770238E+00  0.242E+00    0.01       1.0  T
 206    -88.5086981 -0.735973E+00  0.133E+00    2.84       1.0  T
 207    -88.5405390 -0.318409E-01  0.814E-01    2.39       1.0  T
 208    -88.5838669 -0.433279E-01  0.319E-01    0.06       1.0  T
 209    -87.7597470  0.824120E+00  0.248E+00    0.01       1.0  T
 210    -88.4976242 -0.737877E+00  0.147E+00    2.85       1.0  T
 211    -88.5417080 -0.440838E-01  0.791E-01    2.17       1.0  T
 212    -87.7784570  0.763251E+00  0.239E+00    0.01       1.0  T
 213    -88.5086011 -0.730144E+00  0.133E+00    2.84       1.0  T
 214    -88.5391785 -0.305774E-01  0.840E-01    2.63       1.0  T
 215    -88.5525973 -0.134188E-01  0.581E-01    0.34       1.0  T
 216    -87.7513251  0.801272E+00  0.251E+00    0.02       1.0  T
 217    -88.4907730 -0.739448E+00  0.155E+00    2.80       1.0  T
 218    -88.5431023 -0.523294E-01  0.763E-01    1.91       1.0  T
 219    -87.7725374  0.770565E+00  0.242E+00    0.01       1.0  T
 220    -88.5082404 -0.735703E+00  0.133E+00    2.84       1.0  T
 221    -88.5404717 -0.322313E-01  0.815E-01    2.40       1.0  T
 222    -88.5744780 -0.340063E-01  0.408E-01    0.08       1.0  T
 223    -87.7542586  0.820219E+00  0.250E+00    0.02       1.0  T
 224    -88.4928308 -0.738572E+00  0.153E+00    2.83       1.0  T
 225    -88.5424944 -0.496636E-01  0.775E-01    2.03       1.0  T
 226    -87.7753383  0.767156E+00  0.240E+00    0.01       1.0  T
 227    -88.5085538 -0.733215E+00  0.133E+00    2.84       1.0  T
 228    -88.5397696 -0.312159E-01  0.829E-01    2.53       1.0  T
 229    -88.5554525 -0.156829E-01  0.554E-01    0.22       1.0  T
 230    -87.7489303  0.806522E+00  0.252E+00    0.02       1.0  T
 231    -88.4874677 -0.738537E+00  0.159E+00    2.76       1.0  T
 232    -88.5433577 -0.558900E-01  0.758E-01    1.86       1.0  T
 233    -87.7719535  0.771404E+00  0.242E+00    0.01       1.0  T
 234    -88.5085881 -0.736635E+00  0.133E+00    2.84       1.0  T
 235    -88.5405988 -0.320107E-01  0.813E-01    2.38       1.0  T
 236    -88.5929775 -0.523787E-01  0.200E-01    0.04       1.0  T
 237    -87.7642755  0.828702E+00  0.246E+00    0.01       1.0  T
 238    -88.4999645 -0.735689E+00  0.144E+00    2.85       1.0  T
 239    -88.5409121 -0.409476E-01  0.807E-01    2.32       1.0  T
 240    -88.5956598 -0.547477E-01  0.148E-01    0.04       1.0  T
 241    -87.7672279  0.828432E+00  0.244E+00    0.01       1.0  T
 242    -88.5016279 -0.734400E+00  0.142E+00    2.84       1.0  T
 243    -88.5402053 -0.385773E-01  0.821E-01    2.45       1.0  T
 244    -88.5572924 -0.170871E-01  0.539E-01    0.18       1.0  T
 245    -87.7492848  0.808008E+00  0.252E+00    0.02       1.0  T
 246    -88.4879023 -0.738617E+00  0.159E+00    2.76       1.0  T
 247    -88.5432609 -0.553587E-01  0.760E-01    1.88       1.0  T
 248    -87.7727620  0.770499E+00  0.242E+00    0.01       1.0  T
 249    -88.5090973 -0.736335E+00  0.132E+00    2.83       1.0  T
 250    -88.5403622 -0.312648E-01  0.817E-01    2.42       1.0  T

   *** convergence criteria cannot be satisfied within 250 iterations ***

         #    Occupation            Energy/Eh            Energy/eV
      -------------------------------------------------------------
         1        2.0000           -0.8442976             -22.9745
       ...           ...                  ...                  ...
        68        2.0000           -0.4372745             -11.8988
        69        2.0000           -0.4156688             -11.3109
        70        2.0000           -0.4087142             -11.1217
        71        2.0000           -0.3982895             -10.8380
        72        2.0000           -0.3857047             -10.4956
        73        2.0000           -0.3752966             -10.2123
        74        2.0000           -0.3750971             -10.2069 (HOMO)
        75                         -0.2861601              -7.7868 (LUMO)
        76                         -0.2546674              -6.9299
        77                         -0.2441980              -6.6450
        78                         -0.2371005              -6.4518
        79                         -0.2342120              -6.3732
       ...                                ...                  ...
       166                          0.6772738              18.4296
      -------------------------------------------------------------
                  HL-Gap            0.0889370 Eh            2.4201 eV
             Fermi-level            0.0000000 Eh            0.0000 eV

 SCC (total)                   0 d,  0 h,  0 min,  2.247 sec
 SCC setup                      ...        0 min,  0.001 sec (  0.045%)
 Dispersion                     ...        0 min,  0.001 sec (  0.045%)
 classical contributions        ...        0 min,  0.000 sec (  0.000%)
 integral evaluation            ...        0 min,  0.035 sec (  1.558%)
 iterations                     ...        0 min,  2.093 sec ( 93.146%)
 molecular gradient             ...        0 min,  0.114 sec (  5.073%)
 printout                       ...        0 min,  0.003 sec (  0.134%)


last geometry written to: xtblast.xyz

########################################################################
[ERROR] Program stopped due to fatal error
-9- Geometry optimization failed
-8- xtb_calculator_singlepoint: Electronic structure method terminated
-7- scf: Self consistent charge iterator did not converge
-6- xtb_geoopt: Trying to recover from failed geometry optimization
-5- xtb_geoopt: Geometry optimization did not converge
-4- optimizer_ancopt: Could not relax/optimize structure
-3- optimizer_relax: SCF not converged, aborting...
-2- xtb_calculator_singlepoint: Electronic structure method terminated
-1- scf: Self consistent charge iterator did not converge
########################################################################


===== STDERR =====

abnormal termination of xtb
