      -----------------------------------------------------------      
     |                   =====================                   |     
     |                           x T B                           |     
     |                   =====================                   |     
     |                         S. Grimme                         |     
     |          Mulliken Center for Theoretical Chemistry        |     
     |                    University of Bonn                     |     
      -----------------------------------------------------------      

   * xtb version 6.7.1pre (5071a88) compiled by 'Marcel@Raven' on 2024-07-23

   xtb is free software: you can redistribute it and/or modify it under
   the terms of the GNU Lesser General Public License as published by
   the Free Software Foundation, either version 3 of the License, or
   (at your option) any later version.
   
   xtb is distributed in the hope that it will be useful,
   but WITHOUT ANY WARRANTY; without even the implied warranty of
   MERCHANTABILITY or FITNESS FOR A PARTICULAR PURPOSE.  See the
   GNU Lesser General Public License for more details.
   
   Cite this work as:
   * C. Bannwarth, E. Caldeweyher, S. Ehlert, A. Hansen, P. Pracht,
     J. Seibert, S. Spicher, S. Grimme, WIREs Comput. Mol. Sci., 2020, 11,
     e01493. DOI: 10.1002/wcms.1493
   
   for GFN2-xTB:
   * C. Bannwarth, S. Ehlert and S. Grimme., J. Chem. Theory Comput., 2019,
     15, 1652-1671. DOI: 10.1021/acs.jctc.8b01176
   for GFN1-xTB:
   * S. Grimme, C. Bannwarth, P. Shushkov, J. Chem. Theory Comput., 2017,
     13, 1989-2009. DOI: 10.1021/acs.jctc.7b00118
   for GFN0-xTB:
   * P. Pracht, E. Caldeweyher, S. Ehlert, S. Grimme, ChemRxiv, 2019, preprint.
     DOI: 10.26434/chemrxiv.8326202.v1
   for GFN-FF:
   * S. Spicher and S. Grimme, Angew. Chem. Int. Ed., 2020, 59, 15665-15673.
     DOI: 10.1002/anie.202004239
   
   for ALPB and GBSA implicit solvation:
   * S. Ehlert, M. Stahn, S. Spicher, S. Grimme, J. Chem. Theory Comput.,
     2021, 17, 4250-4261. DOI: 10.1021/acs.jctc.1c00471
   
   for ddCOSMO and CPCM-X implicit solvation:
   * M. Stahn, S. Ehlert, S. Grimme, J. Phys. Chem. A,
     2023, XX, XXXX-XXXX. DOI: 10.1021/acs.jpca.3c04382
   
   for DFT-D4:
   * E. Caldeweyher, C. Bannwarth and S. Grimme, J. Chem. Phys., 2017,
     147, 034112. DOI: 10.1063/1.4993215
   * E. Caldeweyher, S. Ehlert, A. Hansen, H. Neugebauer, S. Spicher,
     C. Bannwarth and S. Grimme, J. Chem. Phys., 2019, 150, 154122.
     DOI: 10.1063/1.5090222
   * E. Caldeweyher, J.-M. Mewes, S. Ehlert and S. Grimme, Phys. Chem. Chem. Phys.
     2020, 22, 8499-8512. DOI: 10.1039/D0CP00502A
   
   for sTDA-xTB:
   * S. Grimme and C. Bannwarth, J. Chem. Phys., 2016, 145, 054103.
     DOI: 10.1063/1.4959605
   
   in the mass-spec context:
   * V. Asgeirsson, C. Bauer and S. Grimme, Chem. Sci., 2017, 8, 4879.
     DOI: 10.1039/c7sc00601b
   * J. Koopman and S. Grimme, ACS Omega 2019, 4, 12, 15120-15133.
     DOI: 10.1021/acsomega.9b02011
   
   for metadynamics refer to:
   * S. Grimme, J. Chem. Theory Comput., 2019, 155, 2847-2862
     DOI: 10.1021/acs.jctc.9b00143
   
   for SPH calculations refer to:
   * S. Spicher and S. Grimme, J. Chem. Theory Comput., 2021, 17, 1701-1714
     DOI: 10.1021/acs.jctc.0c01306
   
   for ONIOM refer to:
   * C. Plett, A. Katbashev, S. Ehlert, S. Grimme, M. Bursch,
     Phys. Chem. Chem. Phys., 2023, 25, 17860-17868. DOI: 10.1039/D3CP02178E
   
   for DIPRO refer to:
   * J. Kohn, N. Gildemeister, S. Grimme, D. Fazzi, A. Hansen,
     J. Chem. Phys., 2023, just accepted.
   
   for PTB refer to:
   * S. Grimme, M. Mueller, A. Hansen, J. Chem. Phys., 2023, 158, 124111.
     DOI: 10.1063/5.0137838
   
   with help from (in alphabetical order)
   P. Atkinson, C. Bannwarth, F. Bohle, G. Brandenburg, E. Caldeweyher
   M. Checinski, S. Dohm, S. Ehlert, S. Ehrlich, I. Gerasimov, C. Hölzer
   A. Katbashev, J. Kohn, J. Koopman, C. Lavigne, S. Lehtola, F. März, M. Müller,
   F. Musil, H. Neugebauer, J. Pisarek, C. Plett, P. Pracht, F. Pultar,
   J. Seibert, P. Shushkov, S. Spicher, M. Stahn, M. Steiner, T. Strunk,
   J. Stückrath, T. Rose, and J. Unsleber
   
 * started run on 2026/08/20 at 20:22:31.298     
   ID    Z sym.   atoms
    1    7 N      1, 44, 53
    2    6 C      2-15, 45, 47, 48, 54
    3    8 O      16, 17, 41, 46, 49
    4    1 H      18-40, 42, 43, 50-52, 55-57

           -------------------------------------------------
          |                Calculation Setup                |
           -------------------------------------------------

          program call               : C:\Users\Nayanika\Downloads\xtb-6.7.1pre-windows-x86_64\xtb-6.7.1\bin\xtb.exe D:\PhD_Thesis\LmrR_EVB\charges\fast_lmrr_5QM\xtb_preparation\stage2_five_xtb_protocols\GFN1_tight\RS1_2b_to_PS1_3\RS1_2b_to_PS1_3_RS_xtbopt.xyz --gfn 1 --chrg 0 --uhf 0 --hess --etemp 0
          coordinate file            : D:\PhD_Thesis\LmrR_EVB\charges\fast_lmrr_5QM\xtb_preparation\stage2_five_xtb_protocols\GFN1_tight\RS1_2b_to_PS1_3\RS1_2b_to_PS1_3_RS_xtbopt.xyz
          omp threads                :                     8


molecular fragmentation (1/2 indicates fragments):
111111111111111121211111111111111111112221211111111111111
# atoms in fragment 1/2:    51     6
 fragment masses (1/2) :      333.43       36.03
CMA distance (Bohr)    :  11.752
constraining FC (au)   :  0.0500

           -------------------------------------------------
          |                 G F N 1 - x T B                 |
           -------------------------------------------------

        Reference                      10.1021/acs.jctc.7b00118
      * Hamiltonian:
        H0-scaling (s, p, d)           1.850000    2.250000    2.000000
        zeta-weighting                 0.000000
      * Dispersion:
        s8                             2.400000
        a1                             0.630000
        a2                             5.000000
        s9                             0.000000
      * Repulsion:
        kExp                           1.500000
        rExp                           1.000000
      * Coulomb:
        alpha                          2.000000
        third order                    atomic
        anisotropic                    false
      * Halogen bond correction:
        rad-scale                      1.300000
        damping                        0.440000

q/qsh data taken from xtbrestart

          ...................................................
          :                      SETUP                      :
          :.................................................:
          :  # basis functions                 166          :
          :  # atomic orbitals                 166          :
          :  # shells                          114          :
          :  # electrons                       148          :
          :  # halogen bonds                     0          :
          :  max. iterations                   250          :
          :  Hamiltonian                  GFN1-xTB          :
          :  restarted?                       true          :
          :  GBSA solvation                  false          :
          :  PC potential                    false          :
          :  electronic temp.            0.0000000     K    :
          :  accuracy                    1.0000000          :
          :  -> integral cutoff          0.2500000E+02      :
          :  -> integral neglect         0.1000000E-07      :
          :  -> SCF convergence          0.1000000E-05 Eh   :
          :  -> wf. convergence          0.2000000E-04 e    :
          :  Broyden damping             0.4000000          :
          :  net charge                          0          :
          :  unpaired electrons                  0          :
          ...................................................

 iter      E             dE          RMSdq      gap      omega  full diag
   1    -88.9012177 -0.889012E+02  0.466E-08    3.72       0.0  T
   2    -88.9012177 -0.113687E-12  0.245E-08    3.72  100000.0  T
   3    -88.9012177  0.710543E-13  0.110E-08    3.72  100000.0  T

   *** convergence criteria satisfied after 3 iterations ***

         #    Occupation            Energy/Eh            Energy/eV
      -------------------------------------------------------------
         1        2.0000           -0.8171569             -22.2360
       ...           ...                  ...                  ...
        68        2.0000           -0.4566983             -12.4274
        69        2.0000           -0.4461545             -12.1405
        70        2.0000           -0.4437816             -12.0759
        71        2.0000           -0.4382204             -11.9246
        72        2.0000           -0.4337664             -11.8034
        73        2.0000           -0.4247702             -11.5586
        74        2.0000           -0.3966309             -10.7929 (HOMO)
        75                         -0.2599274              -7.0730 (LUMO)
        76                         -0.2560726              -6.9681
        77                         -0.2508614              -6.8263
        78                         -0.2432690              -6.6197
        79                         -0.2354468              -6.4068
       ...                                ...                  ...
       166                          0.7105988              19.3364
      -------------------------------------------------------------
                  HL-Gap            0.1367034 Eh            3.7199 eV
             Fermi-level            0.0000000 Eh            0.0000 eV

 SCC (total)                   0 d,  0 h,  0 min,  0.099 sec
 SCC setup                      ...        0 min,  0.001 sec (  1.010%)
 Dispersion                     ...        0 min,  0.001 sec (  1.010%)
 classical contributions        ...        0 min,  0.000 sec (  0.000%)
 integral evaluation            ...        0 min,  0.010 sec ( 10.101%)
 iterations                     ...        0 min,  0.070 sec ( 70.707%)
 molecular gradient             ...        0 min,  0.017 sec ( 17.172%)
 printout                       ...        0 min,  0.000 sec (  0.000%)

         :::::::::::::::::::::::::::::::::::::::::::::::::::::
         ::                     SUMMARY                     ::
         :::::::::::::::::::::::::::::::::::::::::::::::::::::
         :: total energy             -87.904282037996 Eh    ::
         :: gradient norm              0.000180518042 Eh/a0 ::
         :: HOMO-LUMO gap              3.719889323815 eV    ::
         ::.................................................::
         :: SCC energy               -88.901217660718 Eh    ::
         :: -> electrostatic           0.292084818186 Eh    ::
         :: repulsion energy           1.034233398687 Eh    ::
         :: dispersion energy         -0.037297775965 Eh    ::
         :: halogen bond corr.         0.000000000000 Eh    ::
         :: add. restraining           0.000000000000 Eh    ::
         :: total charge              -0.000000000000 e     ::
         :::::::::::::::::::::::::::::::::::::::::::::::::::::

           ------------------------------------------------- 
          |                Numerical Hessian                |
           ------------------------------------------------- 
step length          :   0.00500
SCC accuracy         :   0.30000
Hessian scale factor :   1.00000
frozen atoms in %    :   0.00000    0
RMS gradient         :   0.00018
estimated CPU  time      9.86 min
estimated wall time      1.60 min

writing file <hessian>.

 projected vibrational frequencies (cm⁻¹)
eigval :       -0.00    -0.00    -0.00     0.00     0.00     0.00
eigval :       12.61    19.54    24.26    29.85    30.33    36.49
eigval :       49.15    56.76    57.92    62.43    64.99    68.53
eigval :       74.43    75.97    79.86    88.19    98.73   108.74
eigval :      120.36   136.56   143.85   153.39   168.01   174.49
eigval :      191.35   203.86   206.80   228.74   260.64   264.14
eigval :      278.54   288.50   292.38   298.62   319.41   354.44
eigval :      356.71   367.72   375.01   385.46   405.12   411.29
eigval :      424.52   439.60   460.25   468.03   493.40   496.26
eigval :      531.77   539.78   553.72   563.33   599.71   607.77
eigval :      643.99   648.07   670.59   684.01   729.08   745.04
eigval :      763.04   787.29   792.92   836.26   861.03   875.58
eigval :      879.65   892.94   908.98   911.09   918.22   922.23
eigval :      950.77   966.93   980.74   992.33   999.96  1009.91
eigval :     1020.50  1020.98  1040.07  1067.85  1068.71  1100.09
eigval :     1103.14  1117.81  1120.39  1124.99  1130.51  1155.68
eigval :     1162.28  1171.81  1184.50  1191.51  1206.50  1211.08
eigval :     1223.21  1226.23  1252.49  1255.18  1267.21  1270.34
eigval :     1280.35  1284.71  1292.67  1297.27  1302.63  1320.26
eigval :     1346.64  1350.30  1365.53  1383.64  1385.48  1395.54
eigval :     1399.71  1426.87  1430.42  1440.22  1440.87  1445.60
eigval :     1447.34  1453.25  1460.11  1468.91  1473.59  1475.06
eigval :     1480.16  1486.93  1494.08  1585.94  1605.35  1726.43
eigval :     1754.98  1758.76  2912.89  2988.91  3000.10  3006.78
eigval :     3015.87  3020.54  3022.91  3029.87  3035.18  3039.64
eigval :     3048.11  3052.57  3073.23  3074.29  3085.83  3086.53
eigval :     3090.53  3093.87  3100.46  3106.56  3110.69  3111.74
eigval :     3114.62  3312.63  3396.10  3492.20  3496.40  3511.75
eigval :     3514.35  3623.92  3731.78
           -------------------------------------------------
          |                Property Printout                |
           -------------------------------------------------

    * Orbital Energies and Occupations

         #    Occupation            Energy/Eh            Energy/eV
      -------------------------------------------------------------
         1        2.0000           -0.8171569             -22.2360
       ...           ...                  ...                  ...
        62        2.0000           -0.4781272             -13.0105
        63        2.0000           -0.4749644             -12.9244
        64        2.0000           -0.4705103             -12.8032
        65        2.0000           -0.4666616             -12.6985
        66        2.0000           -0.4656864             -12.6720
        67        2.0000           -0.4636199             -12.6157
        68        2.0000           -0.4566983             -12.4274
        69        2.0000           -0.4461545             -12.1405
        70        2.0000           -0.4437816             -12.0759
        71        2.0000           -0.4382204             -11.9246
        72        2.0000           -0.4337664             -11.8034
        73        2.0000           -0.4247702             -11.5586
        74        2.0000           -0.3966309             -10.7929 (HOMO)
        75                         -0.2599274              -7.0730 (LUMO)
        76                         -0.2560726              -6.9681
        77                         -0.2508614              -6.8263
        78                         -0.2432690              -6.6197
        79                         -0.2354468              -6.4068
        80                         -0.1567696              -4.2659
        81                         -0.1492529              -4.0614
        82                         -0.1492138              -4.0603
        83                         -0.1365400              -3.7154
        84                         -0.1332303              -3.6254
        85                         -0.1233998              -3.3579
       ...                                ...                  ...
       166                          0.7105988              19.3364
      -------------------------------------------------------------
                  HL-Gap            0.1367034 Eh            3.7199 eV
             Fermi-level            0.0000000 Eh            0.0000 eV

  Mulliken/CM5 charges         n(s)   n(p)   n(d)
     1N    -0.40487 -0.76569   1.486  3.918  0.000
     2C     0.14444  0.19330   1.048  2.808  0.000
     3C    -0.05810 -0.10708   1.058  3.000  0.000
     4C    -0.02542 -0.07871   1.058  2.968  0.000
     5C    -0.00941 -0.02297   1.078  2.931  0.000
     6C    -0.04109 -0.09401   1.058  2.983  0.000
     7C    -0.06778 -0.11715   1.055  3.013  0.000
     8C    -0.05265 -0.14783   1.035  3.018  0.000
     9C     0.08412  0.08862   1.049  2.867  0.000
    10C     0.33753  0.34985   0.996  2.666  0.000
    11C    -0.07678 -0.12879   1.070  3.007  0.000
    12C    -0.01665 -0.07725   1.068  2.949  0.000
    13C    -0.04748 -0.15400   1.031  3.016  0.000
    14C    -0.03489 -0.14669   1.028  3.006  0.000
    15C    -0.08523 -0.23665   1.007  3.078  0.000
    16O    -0.58245 -0.80080   1.705  4.878  0.000
    17O    -0.68957 -1.04092   1.705  4.985  0.000
    18H     0.22118  0.42506   0.779  0.000  0.000
    19H     0.34887  0.53200   0.651  0.000  0.000
    20H     0.03676  0.09617   0.963  0.000  0.000
    21H     0.03271  0.08984   0.967  0.000  0.000
    22H     0.01825  0.07644   0.982  0.000  0.000
    23H     0.03065  0.09035   0.969  0.000  0.000
    24H     0.03517  0.09540   0.965  0.000  0.000
    25H     0.05672  0.11709   0.943  0.000  0.000
    26H     0.07277  0.15177   0.927  0.000  0.000
    27H     0.22140  0.41944   0.779  0.000  0.000
    28H     0.22521  0.42796   0.775  0.000  0.000
    29H     0.01770  0.09256   0.982  0.000  0.000
    30H     0.03373  0.09846   0.966  0.000  0.000
    31H     0.03144  0.09216   0.969  0.000  0.000
    32H     0.02808  0.08334   0.972  0.000  0.000
    33H     0.04154  0.10086   0.958  0.000  0.000
    34H     0.01913  0.07423   0.981  0.000  0.000
    35H     0.02180  0.07663   0.978  0.000  0.000
    36H     0.02660  0.07781   0.973  0.000  0.000
    37H     0.02776  0.07952   0.972  0.000  0.000
    38H     0.02874  0.08058   0.971  0.000  0.000
    39H     0.34096  0.51890   0.659  0.000  0.000
    40H     0.34062  0.50917   0.659  0.000  0.000
    41O    -0.68570 -1.03396   1.713  4.973  0.000
    42H     0.36229  0.55151   0.638  0.000  0.000
    43H     0.32793  0.51107   0.672  0.000  0.000
    44N    -0.36803 -0.73140   1.436  3.932  0.000
    45C     0.46149  0.56357   0.993  2.546  0.000
    46O    -0.55234 -0.60090   1.723  4.830  0.000
    47C    -0.13572 -0.27442   1.023  3.113  0.000
    48C     0.48292  0.57215   0.995  2.522  0.000
    49O    -0.54002 -0.59399   1.722  4.818  0.000
    50H     0.05384  0.10935   0.946  0.000  0.000
    51H     0.04232  0.09815   0.958  0.000  0.000
    52H     0.06328  0.11916   0.937  0.000  0.000
    53N    -0.34289 -0.70877   1.418  3.925  0.000
    54C     0.06685 -0.02203   0.979  2.954  0.000
    55H     0.03432  0.09490   0.966  0.000  0.000
    56H     0.03004  0.09066   0.970  0.000  0.000
    57H     0.06790  0.13603   0.932  0.000  0.000

Wiberg/Mayer (AO) data.
largest (>0.10) Wiberg bond orders for each atom

 ---------------------------------------------------------------------------
     #   Z sym  total        # sym  WBO       # sym  WBO       # sym  WBO
 ---------------------------------------------------------------------------
     1   7 N    3.152 --     2 C    1.057    18 H    0.925    10 C    0.912
     2   6 C    3.960 --     7 C    1.374     3 C    1.372     1 N    1.057
     3   6 C    3.993 --     4 C    1.463     2 C    1.372    20 H    0.971
                             6 C    0.103
     4   6 C    3.995 --     3 C    1.463     5 C    1.402    21 H    0.972
                             7 C    0.104
     5   6 C    3.986 --     6 C    1.408     4 C    1.402     8 C    1.012
     6   6 C    3.995 --     7 C    1.453     5 C    1.408    22 H    0.972
                             3 C    0.103
     7   6 C    3.993 --     6 C    1.453     2 C    1.374    23 H    0.970
                             4 C    0.104
     8   6 C    3.993 --     5 C    1.012    24 H    0.976    25 H    0.968
                             9 C    0.967
     9   6 C    3.938 --     8 C    0.967    26 H    0.949    45 C    0.942
                            44 N    0.940
    10   6 C    3.896 --    11 C    0.992    16 O    0.974    29 H    0.958
                             1 N    0.912
    11   6 C    3.989 --    12 C    1.929    10 C    0.992    30 H    0.966
    12   6 C    3.993 --    11 C    1.929    13 C    1.021    31 H    0.971
    13   6 C    3.996 --    12 C    1.021    14 C    0.987    33 H    0.973
                            32 H    0.970
    14   6 C    3.997 --    15 C    1.017    13 C    0.987    34 H    0.981
                            35 H    0.981
    15   6 C    3.997 --    14 C    1.017    37 H    0.988    38 H    0.988
                            36 H    0.987
    16   8 O    1.946 --    10 C    0.974    42 H    0.815
    17   8 O    1.812 --    40 H    0.885    19 H    0.848
    18   1 H    0.976 --     1 N    0.925
    19   1 H    0.901 --    17 O    0.848
    20   1 H    0.999 --     3 C    0.971
    21   1 H    1.000 --     4 C    0.972
    22   1 H    1.005 --     6 C    0.972
    23   1 H    1.003 --     7 C    0.970
    24   1 H    1.003 --     8 C    0.976
    25   1 H    1.009 --     8 C    0.968
    26   1 H    1.012 --     9 C    0.949
    27   1 H    0.960 --    44 N    0.921
    28   1 H    0.960 --    53 N    0.913
    29   1 H    1.022 --    10 C    0.958
    30   1 H    1.013 --    11 C    0.966
    31   1 H    1.007 --    12 C    0.971
    32   1 H    1.008 --    13 C    0.970
    33   1 H    1.015 --    13 C    0.973
    34   1 H    1.010 --    14 C    0.981
    35   1 H    1.007 --    14 C    0.981
    36   1 H    1.005 --    15 C    0.987
    37   1 H    1.005 --    15 C    0.988
    38   1 H    1.005 --    15 C    0.988
    39   1 H    0.907 --    41 O    0.868
    40   1 H    0.890 --    17 O    0.885
    41   8 O    1.836 --    39 H    0.868    43 H    0.860
    42   1 H    0.894 --    16 O    0.815
    43   1 H    0.920 --    41 O    0.860
    44   7 N    3.291 --    48 C    1.198     9 C    0.940    27 H    0.921
                            49 O    0.151
    45   6 C    3.902 --    46 O    1.636    53 N    1.251     9 C    0.942
    46   8 O    1.937 --    45 C    1.636    53 N    0.170
    47   6 C    3.994 --    48 C    0.982    52 H    0.981    51 H    0.980
                            50 H    0.967
    48   6 C    3.891 --    49 O    1.656    44 N    1.198    47 C    0.982
    49   8 O    1.961 --    48 C    1.656    44 N    0.151
    50   1 H    1.007 --    47 C    0.967
    51   1 H    1.001 --    47 C    0.980
    52   1 H    1.006 --    47 C    0.981
    53   7 N    3.325 --    45 C    1.251    54 C    0.954    28 H    0.913
                            46 O    0.170
    54   6 C    3.946 --    56 H    0.987    55 H    0.985    57 H    0.981
                            53 N    0.954
    55   1 H    1.005 --    54 C    0.985
    56   1 H    1.006 --    54 C    0.987
    57   1 H    1.008 --    54 C    0.981
 ---------------------------------------------------------------------------

Topologies differ in total number of bonds
Writing topology from bond orders to xtbtopo.mol

 dipole moment from electron density (au)
     X       Y       Z   
   0.4482   1.4537  -1.6920  total (Debye):    5.783

           -------------------------------------------------
          |               Frequency Printout                |
           -------------------------------------------------
 projected vibrational frequencies (cm⁻¹)
eigval :       -0.00    -0.00    -0.00     0.00     0.00     0.00
eigval :       12.61    19.54    24.26    29.85    30.33    36.49
eigval :       49.15    56.76    57.92    62.43    64.99    68.53
eigval :       74.43    75.97    79.86    88.19    98.73   108.74
eigval :      120.36   136.56   143.85   153.39   168.01   174.49
eigval :      191.35   203.86   206.80   228.74   260.64   264.14
eigval :      278.54   288.50   292.38   298.62   319.41   354.44
eigval :      356.71   367.72   375.01   385.46   405.12   411.29
eigval :      424.52   439.60   460.25   468.03   493.40   496.26
eigval :      531.77   539.78   553.72   563.33   599.71   607.77
eigval :      643.99   648.07   670.59   684.01   729.08   745.04
eigval :      763.04   787.29   792.92   836.26   861.03   875.58
eigval :      879.65   892.94   908.98   911.09   918.22   922.23
eigval :      950.77   966.93   980.74   992.33   999.96  1009.91
eigval :     1020.50  1020.98  1040.07  1067.85  1068.71  1100.09
eigval :     1103.14  1117.81  1120.39  1124.99  1130.51  1155.68
eigval :     1162.28  1171.81  1184.50  1191.51  1206.50  1211.08
eigval :     1223.21  1226.23  1252.49  1255.18  1267.21  1270.34
eigval :     1280.35  1284.71  1292.67  1297.27  1302.63  1320.26
eigval :     1346.64  1350.30  1365.53  1383.64  1385.48  1395.54
eigval :     1399.71  1426.87  1430.42  1440.22  1440.87  1445.60
eigval :     1447.34  1453.25  1460.11  1468.91  1473.59  1475.06
eigval :     1480.16  1486.93  1494.08  1585.94  1605.35  1726.43
eigval :     1754.98  1758.76  2912.89  2988.91  3000.10  3006.78
eigval :     3015.87  3020.54  3022.91  3029.87  3035.18  3039.64
eigval :     3048.11  3052.57  3073.23  3074.29  3085.83  3086.53
eigval :     3090.53  3093.87  3100.46  3106.56  3110.69  3111.74
eigval :     3114.62  3312.63  3396.10  3492.20  3496.40  3511.75
eigval :     3514.35  3623.92  3731.78
 reduced masses (amu)
   1: 11.92   2: 12.19   3: 12.15   4: 12.27   5: 11.51   6: 12.41   7: 10.35   8: 11.55
   9: 11.04  10: 12.04  11: 12.97  12: 11.91  13: 10.14  14: 11.35  15: 10.61  16: 10.06
  17:  9.98  18:  9.97  19:  6.61  20:  7.51  21: 10.46  22:  6.30  23: 11.64  24:  6.58
  25:  6.46  26: 11.74  27: 10.90  28: 11.23  29: 11.12  30: 12.35  31: 10.68  32:  3.25
  33: 12.89  34: 12.19  35: 11.28  36:  3.49  37:  8.84  38: 10.34  39:  9.82  40:  6.96
  41:  5.30  42: 10.42  43:  9.09  44: 10.54  45:  9.35  46:  8.03  47:  3.94  48:  9.27
  49:  9.32  50:  6.55  51:  2.56  52:  8.13  53:  3.96  54:  7.66  55:  9.42  56:  8.67
  57: 10.61  58:  8.46  59: 10.31  60: 11.20  61: 10.34  62:  8.83  63:  6.43  64:  8.33
  65: 10.91  66:  3.18  67:  6.15  68:  6.13  69:  9.88  70:  3.39  71:  6.97  72:  6.43
  73:  7.25  74:  2.95  75:  7.97  76:  4.00  77:  9.56  78:  6.00  79:  7.28  80: 11.05
  81:  5.27  82:  5.93  83:  1.93  84:  9.19  85:  8.24  86:  9.24  87:  5.65  88:  7.54
  89:  7.92  90:  7.98  91:  7.28  92:  3.18  93:  3.72  94:  7.36  95:  7.11  96:  5.61
  97:  1.82  98:  6.29  99:  4.75 100:  6.42 101:  5.80 102:  6.37 103:  4.82 104:  6.11
 105:  5.78 106:  4.72 107:  2.27 108:  5.08 109:  6.33 110:  3.49 111:  3.85 112:  5.30
 113:  5.78 114: 10.22 115:  3.59 116:  5.46 117:  5.33 118:  4.60 119:  3.24 120:  3.51
 121:  7.62 122:  4.27 123:  7.78 124:  6.10 125:  1.62 126:  1.63 127:  1.49 128:  2.25
 129:  2.05 130:  2.22 131:  2.93 132:  1.78 133:  1.49 134:  1.83 135:  9.55 136: 11.35
 137: 11.49 138: 11.51 139: 13.29 140: 13.28 141:  1.74 142:  1.77 143:  1.53 144:  1.54
 145:  1.26 146:  1.55 147:  1.96 148:  1.27 149:  2.02 150:  1.29 151:  2.00 152:  2.00
 153:  2.00 154:  1.99 155:  1.98 156:  1.97 157:  1.82 158:  1.85 159:  1.81 160:  2.00
 161:  1.84 162:  1.90 163:  1.88 164:  1.90 165:  1.84 166:  1.73 167:  1.86 168:  1.87
 169:  1.74 170:  2.00 171:  1.99
 IR intensities (km·mol⁻¹)
   1:  0.03   2:  0.40   3:  0.04   4:  0.15   5:  0.16   6:  0.13   7:  0.91   8:  1.62
   9:  0.54  10:  5.51  11:  1.07  12:  2.77  13:  4.83  14:  7.01  15:  2.93  16:  1.72
  17:  5.38  18:  4.93  19:  7.99  20:  8.03  21:  4.25  22: 13.91  23:  1.68  24: 15.49
  25: 26.31  26: 58.28  27: 25.17  28: 46.85  29: 14.97  30:  6.89  31:  4.38  32:  0.05
  33:  6.55  34: 11.48  35:  6.68  36: 74.81  37: 11.33  38: 58.75  39: 42.53  40: 94.01
  41:114.20  42: 11.99  43:  2.84  44:  5.70  45:  1.91  46: 75.99  47:181.07  48: 19.51
  49: 17.00  50: 60.18  51:322.60  52: 35.93  53:652.49  54: 97.12  55: 44.29  56:208.56
  57: 46.31  58:  8.43  59: 39.00  60:  0.80  61:  8.20  62: 48.27  63: 30.28  64: 23.61
  65: 25.00  66: 13.04  67:  7.46  68: 31.38  69: 57.15  70:  2.72  71: 92.57  72: 16.96
  73: 65.09  74:  2.24  75:100.62  76:  1.77  77: 16.34  78: 15.66  79: 59.53  80: 11.66
  81:  4.10  82: 57.88  83: 28.17  84: 41.05  85: 47.82  86: 43.72  87: 18.27  88: 38.84
  89:  0.76  90:  0.35  91:  7.80  92: 12.56  93:  2.92  94: 47.37  95: 36.76  96:  5.76
  97:  5.80  98:  7.59  99: 16.88 100:291.96 101: 33.08 102: 39.67 103:107.41 104: 21.73
 105:  3.62 106: 11.30 107:  2.65 108: 32.66 109: 75.81 110: 16.95 111:  4.87 112:  2.24
 113:  0.57 114: 32.09 115: 59.27 116:  8.07 117:113.77 118: 80.38 119:  4.66 120: 10.81
 121:297.03 122:237.64 123:250.50 124: 43.17 125: 11.14 126: 15.63 127: 17.70 128:  1.65
 129:  4.32 130:318.42 131: 70.29 132:  2.14 133:  8.26 134: 12.46 135:135.95 136:  3.69
 137: 42.11 138:  4.72 139:703.90 140:343.57 141: 37.64 142:  3.45 143:  6.21 144: 31.01
 145: 27.10 146: 13.69 147:  6.46 148: 15.58 149: 22.06 150:  0.86 151: 16.52 152:  7.55
 153: 25.30 154: 23.93 155:  4.47 156:  1.91 157: 17.50 158: 15.66 159:  7.95 160:  6.28
 161:  6.21 162: 21.45 163:  4.61 164:297.69 165:  8.19 166:377.87 167: 10.21 168: 16.93
 169:206.74 170:163.03 171: 97.29
 Raman intensities (Ä⁴*amu⁻¹)
   1:  0.00   2:  0.00   3:  0.00   4:  0.00   5:  0.00   6:  0.00   7:  0.00   8:  0.00
   9:  0.00  10:  0.00  11:  0.00  12:  0.00  13:  0.00  14:  0.00  15:  0.00  16:  0.00
  17:  0.00  18:  0.00  19:  0.00  20:  0.00  21:  0.00  22:  0.00  23:  0.00  24:  0.00
  25:  0.00  26:  0.00  27:  0.00  28:  0.00  29:  0.00  30:  0.00  31:  0.00  32:  0.00
  33:  0.00  34:  0.00  35:  0.00  36:  0.00  37:  0.00  38:  0.00  39:  0.00  40:  0.00
  41:  0.00  42:  0.00  43:  0.00  44:  0.00  45:  0.00  46:  0.00  47:  0.00  48:  0.00
  49:  0.00  50:  0.00  51:  0.00  52:  0.00  53:  0.00  54:  0.00  55:  0.00  56:  0.00
  57:  0.00  58:  0.00  59:  0.00  60:  0.00  61:  0.00  62:  0.00  63:  0.00  64:  0.00
  65:  0.00  66:  0.00  67:  0.00  68:  0.00  69:  0.00  70:  0.00  71:  0.00  72:  0.00
  73:  0.00  74:  0.00  75:  0.00  76:  0.00  77:  0.00  78:  0.00  79:  0.00  80:  0.00
  81:  0.00  82:  0.00  83:  0.00  84:  0.00  85:  0.00  86:  0.00  87:  0.00  88:  0.00
  89:  0.00  90:  0.00  91:  0.00  92:  0.00  93:  0.00  94:  0.00  95:  0.00  96:  0.00
  97:  0.00  98:  0.00  99:  0.00 100:  0.00 101:  0.00 102:  0.00 103:  0.00 104:  0.00
 105:  0.00 106:  0.00 107:  0.00 108:  0.00 109:  0.00 110:  0.00 111:  0.00 112:  0.00
 113:  0.00 114:  0.00 115:  0.00 116:  0.00 117:  0.00 118:  0.00 119:  0.00 120:  0.00
 121:  0.00 122:  0.00 123:  0.00 124:  0.00 125:  0.00 126:  0.00 127:  0.00 128:  0.00
 129:  0.00 130:  0.00 131:  0.00 132:  0.00 133:  0.00 134:  0.00 135:  0.00 136:  0.00
 137:  0.00 138:  0.00 139:  0.00 140:  0.00 141:  0.00 142:  0.00 143:  0.00 144:  0.00
 145:  0.00 146:  0.00 147:  0.00 148:  0.00 149:  0.00 150:  0.00 151:  0.00 152:  0.00
 153:  0.00 154:  0.00 155:  0.00 156:  0.00 157:  0.00 158:  0.00 159:  0.00 160:  0.00
 161:  0.00 162:  0.00 163:  0.00 164:  0.00 165:  0.00 166:  0.00 167:  0.00 168:  0.00
 169:  0.00 170:  0.00 171:  0.00
 output can be read by thermo (or use thermo option).
 writing <g98.out> molden fake output.
 recommended (thermochemical) frequency scaling factor: 1.0
           -------------------------------------------------
          |             Thermodynamic Functions             |
           -------------------------------------------------

Refinement of some symmetry elements was terminated before convergence was reached.
Some symmetry elements may remain unidentified.
Molecule has no symmetry elements
It seems to be the C1 point group
c1  symmetry found (for desy threshold:  0.10E+00) used in thermo

          ...................................................
          :                      SETUP                      :
          :.................................................:
          :  # frequencies                         165      :
          :  # imaginary freq.                       0      :
          :  linear?                             false      :
          :  only rotor calc.                    false      :
          :  symmetry                               c1      :
          :  rotational number                       1      :
          :  scaling factor                  1.0000000      :
          :  rotor cutoff                   50.0000000 cm⁻¹ :
          :  imag. cutoff                  -20.0000000 cm⁻¹ :
          :.................................................:

    mode    ω/cm⁻¹     T·S(HO)/kcal·mol⁻¹    T·S(FR)/kcal·mol⁻¹   T·S(vib)
   ------------------------------------------------------------------------
       1     12.61    -2.25105 (  0.40%)    -1.46450 ( 99.60%)    -1.46767
       2     19.54    -1.99163 (  2.28%)    -1.33476 ( 97.72%)    -1.34974
       3     24.26    -1.86362 (  5.25%)    -1.27071 ( 94.75%)    -1.30186
       4     29.85    -1.74109 ( 11.27%)    -1.20937 ( 88.73%)    -1.26927
       5     30.33    -1.73152 ( 11.93%)    -1.20457 ( 88.07%)    -1.26743
       6     36.49    -1.62224 ( 22.10%)    -1.14982 ( 77.90%)    -1.25423
       7     49.15    -1.44637 ( 48.29%)    -1.06159 ( 51.71%)    -1.24741
       8     56.76    -1.36154 ( 62.42%)    -1.01894 ( 37.58%)    -1.23280
       9     57.92    -1.34967 ( 64.29%)    -1.01297 ( 35.71%)    -1.22945
      10     62.43    -1.30556 ( 70.85%)    -0.99076 ( 29.15%)    -1.21379
      11     64.99    -1.28193 ( 74.06%)    -0.97885 ( 25.94%)    -1.20330
      12     68.53    -1.25075 ( 77.92%)    -0.96313 ( 22.08%)    -1.18725
      13     74.43    -1.20229 ( 83.08%)    -0.93866 ( 16.92%)    -1.15770
      14     75.97    -1.19031 ( 84.20%)    -0.93260 ( 15.80%)    -1.14960
      15     79.86    -1.16112 ( 86.68%)    -0.91784 ( 13.32%)    -1.12871
      16     88.19    -1.10309 ( 90.64%)    -0.88842 (  9.36%)    -1.08299
      17     98.73    -1.03734 ( 93.83%)    -0.85499 (  6.17%)    -1.02609
      18    108.74    -0.98130 ( 95.72%)    -0.82638 (  4.28%)    -0.97468
      19    120.36    -0.92263 ( 97.11%)    -0.79629 (  2.89%)    -0.91897
      20    136.56    -0.85017 ( 98.23%)    -0.75889 (  1.77%)    -0.84856
      21    143.85    -0.82050 ( 98.56%)    -0.74348 (  1.44%)    -0.81939
      22    153.39    -0.78406 ( 98.88%)    -0.72447 (  1.12%)    -0.78339
      23    168.01    -0.73273 ( 99.22%)    -0.69749 (  0.78%)    -0.73246
      24    174.49    -0.71157 ( 99.33%)    -0.68630 (  0.67%)    -0.71140
      25    191.35    -0.66031 ( 99.54%)    -0.65896 (  0.46%)    -0.66030
      26    203.86    -0.62551 ( 99.64%)    -0.64020 (  0.36%)    -0.62557
      27    206.80    -0.61769 ( 99.66%)    -0.63596 (  0.34%)    -0.61776
      28    228.74    -0.56315 ( 99.77%)    -0.60609 (  0.23%)    -0.56324
      29    260.64    -0.49417 ( 99.86%)    -0.56741 (  0.14%)    -0.49427
      30    264.14    -0.48724 ( 99.87%)    -0.56346 (  0.13%)    -0.48734
      31    278.54    -0.45992 ( 99.90%)    -0.54773 (  0.10%)    -0.46002
      32    288.50    -0.44208 ( 99.91%)    -0.53733 (  0.09%)    -0.44216
      33    292.38    -0.43534 ( 99.91%)    -0.53337 (  0.09%)    -0.43543
      34    298.62    -0.42475 ( 99.92%)    -0.52712 (  0.08%)    -0.42483
   ------------------------------------------------------------------------

   temp. (K)  partition function   enthalpy   heat capacity  entropy
                                   cal/mol     cal/K/mol   cal/K/mol   J/K/mol
 298.15  VIB  0.768E+17            19609.066    106.342    129.166
         ROT  0.174E+08              888.752      2.981     36.109
         INT  0.133E+25            20497.818    109.323    165.274
         TR   0.687E+28             1481.254      4.968     43.594
         TOT                       21979.0722   114.2912   208.8678   873.9028

       T/K    H(0)-H(T)+PV         H(T)/Eh          T*S/Eh         G(T)/Eh
   ------------------------------------------------------------------------
    298.15    0.350259E-01    0.504844E+00    0.992398E-01    0.405605E+00
   ------------------------------------------------------------------------

         :::::::::::::::::::::::::::::::::::::::::::::::::::::
         ::                  THERMODYNAMIC                  ::
         :::::::::::::::::::::::::::::::::::::::::::::::::::::
         :: total free energy         -87.498677457310 Eh   ::
         ::.................................................::
         :: total energy              -87.904282037996 Eh   ::
         :: zero point energy           0.469818523813 Eh   ::
         :: G(RRHO) w/o ZPVE           -0.064213943126 Eh   ::
         :: G(RRHO) contrib.            0.405604580686 Eh   ::
         :::::::::::::::::::::::::::::::::::::::::::::::::::::

           -------------------------------------------------
          | TOTAL ENERGY              -87.904282037996 Eh   |
          | TOTAL ENTHALPY            -87.399437633071 Eh   |
          | TOTAL FREE ENERGY         -87.498677457310 Eh   |
          | GRADIENT NORM               0.000180517978 Eh/α |
          | HOMO-LUMO GAP               3.719889327083 eV   |
           -------------------------------------------------

------------------------------------------------------------------------
 * finished run on 2026/08/20 at 20:22:43.106     
------------------------------------------------------------------------
 total:
 * wall-time:     0 d,  0 h,  0 min, 11.806 sec
 *  cpu-time:     0 d,  0 h,  1 min, 13.469 sec
 * ratio c/w:     6.223 speedup
 SCF:
 * wall-time:     0 d,  0 h,  0 min,  0.099 sec
 *  cpu-time:     0 d,  0 h,  0 min,  0.188 sec
 * ratio c/w:     1.894 speedup
 analytical hessian:
 * wall-time:     0 d,  0 h,  0 min, 11.621 sec
 *  cpu-time:     0 d,  0 h,  1 min, 13.141 sec
 * ratio c/w:     6.294 speedup



===== STDERR =====

normal termination of xtb
