57
 energy: -87.904282037996 gnorm: 0.000180533994 xtb: 6.7.1pre (5071a88)
N           -0.11223747189838        0.13237492047966        0.53148998195990
C            1.25466601218165       -0.17200134900416        0.39516713404705
C            2.11487754471636        0.05184585292765        1.47078912179766
C            3.47773952113515       -0.13398723607067        1.32050100976091
C            4.00536659113137       -0.55988037112324        0.10336697767624
C            3.13349007626064       -0.86568963261309       -0.93846529675421
C            1.76649604969994       -0.68589436351206       -0.79662897837910
C            5.49138414171366       -0.53794870907837       -0.12901483637210
C            5.90412983344349        0.89464230627637       -0.52041877715039
C           -0.65677849543637        1.01649483512117       -0.53445097071751
C            0.19858356514816        2.25564578162364       -0.61831543671010
C           -0.17633620505488        3.47278628805003       -0.25078165154714
C            0.74751043268143        4.65390515547597       -0.32200980417107
C            0.35166355961519        5.58441466607368       -1.47920203013929
C            1.28988698059768        6.78580433544062       -1.57114182578252
O           -1.97925878067907        1.33457068751140       -0.21247067620916
O           -2.10849898686076        1.22319598489623        2.59145975494680
H           -0.27078450010751        0.60381935715400        1.42176525889294
H           -2.15122742502840        1.60813318417068        1.70267160109991
H            1.71489585844558        0.41534126621992        2.41089606410915
H            4.14315631390399        0.08667146232669        2.14831460046480
H            3.52892778876056       -1.23083717465656       -1.88140773636248
H            1.10558022566818       -0.91629591903869       -1.62418043245197
H            5.77880559444903       -1.22753106397426       -0.92752960525258
H            6.04418122574412       -0.80853695461567        0.77387448940342
H            5.58256124987201        1.59670089536944        0.26063897275644
H            5.36386701034722        0.68303453182540       -2.54084058738214
H            7.12532362260305        2.64746505608742       -1.83941667415346
H           -0.61332105524095        0.46060164069662       -1.48844823224196
H            1.21312491109073        2.07118948710337       -0.95728507828500
H           -1.18832335129398        3.66852722069154        0.09208149831991
H            0.69978811726218        5.21142641298105        0.61946424556328
H            1.77854592132719        4.31357309824320       -0.46546278033255
H            0.38383589143265        5.02095077854702       -2.41773477873626
H           -0.67678045879182        5.93123486370532       -1.33372226003767
H            0.99525910430974        7.43115226434290       -2.39959187539224
H            1.25732409833917        7.36810307006014       -0.64912420577300
H            2.31684296550506        6.45646507598292       -1.73565876802381
H           -2.71732106273838       -0.59484581067735        1.78303861834637
H           -2.61176354137307        1.80063520839899        3.16724580567386
O           -2.60898957468529       -1.06382382433655        0.94500893356049
H           -2.46006187363960        0.49142547268725       -0.05015536533564
H           -1.64560893614439       -1.11585981555763        0.83146929401325
N            5.24911343563040        1.30604411212688       -1.75482468085573
C            7.42482446768873        1.00303311190554       -0.66452024878155
O            8.18369227735585        0.23388004707314       -0.11227912636984
C            3.38807023461272        2.14551491602832       -3.03181484359748
C            4.13277837083870        2.08991085003471       -1.71475459275832
O            3.78688586843855        2.70740518132247       -0.73180300513632
H            2.79666370954096        1.23610311396243       -3.13745863278264
H            4.07719565830831        2.21501987032822       -3.87158868411965
H            2.71780122712047        3.00219540575113       -3.02858863219203
N            7.81693071383792        2.02605677825198       -1.44876315717037
C            9.22148832343966        2.33263373281606       -1.65152929064103
H            9.45518439107938        3.31691492086409       -1.23825766612059
H            9.45608218547649        2.32401304309510       -2.71849148468473
H            9.81076664824380        1.57127598017650       -1.14011065339950
