57
 energy: -83.439136597865 gnorm: 0.000319220324 xtb: 6.7.1pre (5071a88)
N           -0.12337176942841       -0.65747867115979        0.35483920271430
C            1.25072500754703       -0.54737271940243        0.37991002919415
C            1.86209578576219        0.38322608434941        1.22285527104163
C            3.21842756561613        0.61470777552241        1.14077778902803
C            4.01134499789930       -0.07541096111364        0.23037452331455
C            3.40793938886003       -1.03312557414226       -0.57519261227586
C            2.04927347293457       -1.27101588693374       -0.50529091887605
C            5.46418949060369        0.26877779020675        0.07029998463223
C            5.61532227419534        1.54978723264805       -0.75593049542352
C           -0.99218146207031        0.96491162634804       -1.14975616587135
C            0.23197448173140        1.74832740702566       -1.11232788212340
C            0.39401504980962        2.79852335921631       -0.30344671740240
C            1.62744664770939        3.61670878551018       -0.21121757934545
C            1.38319523800769        5.06677306654936       -0.64972831797147
C            2.67187614462245        5.87544546976804       -0.58262984664466
O           -2.02487003478554        1.24285372967552       -0.55186273892646
O           -3.61053521283778       -0.80888806250968        0.37998323076227
H           -0.61903648055317       -0.30547971764657        1.17561313582804
H           -0.49989325801697       -1.52122733596983       -0.00597083241270
H            1.25337077975574        0.91959621704245        1.93474956209331
H            3.67545348529037        1.34438247243512        1.79361479388969
H            4.00963296094296       -1.61093650740079       -1.26456507883270
H            1.59432685482972       -2.01404736676638       -1.14548491145499
H            6.00709264677585       -0.53346190538460       -0.43256761562132
H            5.93659997911396        0.43300784511360        1.03942519494608
H            5.19210053250888        2.40803355328030       -0.21929798359069
H            4.71016774237610        0.48242217372742       -2.32959792016520
H            6.46604568419940        3.66540427553974       -1.71559760275735
H           -0.99505271175561        0.15505351899116       -1.89848294916720
H            1.03616015327396        1.41796694140251       -1.75314989762429
H           -0.43461654796261        3.10227026761420        0.32404412042949
H            1.96801125046449        3.62297387062722        0.82769050204764
H            2.41539465727689        3.18241649497110       -0.82726138910486
H            1.00508356334782        5.06806830871642       -1.67399651758880
H            0.62178062633590        5.51926678331224       -0.01054024429773
H            2.50198458466359        6.89259369471725       -0.92718860209370
H            3.04468539356708        5.91631825500563        0.43872575534594
H            3.43268686970332        5.41812775906707       -1.21048232438833
H           -3.12831212546890       -0.10728754392827       -0.09616141949907
H           -4.54063537270681       -0.66683566852739        0.19831603031301
O           -1.93217545708896        0.53457002547767        2.20346021663981
H           -2.02371175533646        1.24756701825030        1.56018655964626
H           -2.61931693405946       -0.10283680467080        1.95918844606169
N            4.87948762801018        1.42055916934749       -2.00259293312275
C            7.10073319176760        1.84807790006288       -1.05942054590084
O            7.98501630077296        1.03540391585176       -0.88807342356372
C            3.54813048349481        2.09895294619108       -3.88263164980566
C            4.37795915107450        2.46946898312276       -2.67574854562281
O            4.58954041944291        3.62366092856880       -2.33696137117375
H            2.83968485013719        1.31161203101433       -3.63658900213330
H            4.20276421132597        1.74404971111694       -4.67646358433559
H            3.01378315193856        2.97631473865295       -4.23536847802140
N            7.28245174692181        3.09053113602657       -1.53309799476427
C            8.57197223659130        3.58256091476473       -1.95115855607321
H            8.81604834505716        4.50289888068526       -1.41867221785321
H            8.58239675722889        3.77991085026698       -3.02503785928606
H            9.31233733873530        2.81932081774511       -1.71650962290719
