      -----------------------------------------------------------      
     |                   =====================                   |     
     |                           x T B                           |     
     |                   =====================                   |     
     |                         S. Grimme                         |     
     |          Mulliken Center for Theoretical Chemistry        |     
     |                    University of Bonn                     |     
      -----------------------------------------------------------      

   * xtb version 6.7.1pre (5071a88) compiled by 'Marcel@Raven' on 2024-07-23

   xtb is free software: you can redistribute it and/or modify it under
   the terms of the GNU Lesser General Public License as published by
   the Free Software Foundation, either version 3 of the License, or
   (at your option) any later version.
   
   xtb is distributed in the hope that it will be useful,
   but WITHOUT ANY WARRANTY; without even the implied warranty of
   MERCHANTABILITY or FITNESS FOR A PARTICULAR PURPOSE.  See the
   GNU Lesser General Public License for more details.
   
   Cite this work as:
   * C. Bannwarth, E. Caldeweyher, S. Ehlert, A. Hansen, P. Pracht,
     J. Seibert, S. Spicher, S. Grimme, WIREs Comput. Mol. Sci., 2020, 11,
     e01493. DOI: 10.1002/wcms.1493
   
   for GFN2-xTB:
   * C. Bannwarth, S. Ehlert and S. Grimme., J. Chem. Theory Comput., 2019,
     15, 1652-1671. DOI: 10.1021/acs.jctc.8b01176
   for GFN1-xTB:
   * S. Grimme, C. Bannwarth, P. Shushkov, J. Chem. Theory Comput., 2017,
     13, 1989-2009. DOI: 10.1021/acs.jctc.7b00118
   for GFN0-xTB:
   * P. Pracht, E. Caldeweyher, S. Ehlert, S. Grimme, ChemRxiv, 2019, preprint.
     DOI: 10.26434/chemrxiv.8326202.v1
   for GFN-FF:
   * S. Spicher and S. Grimme, Angew. Chem. Int. Ed., 2020, 59, 15665-15673.
     DOI: 10.1002/anie.202004239
   
   for ALPB and GBSA implicit solvation:
   * S. Ehlert, M. Stahn, S. Spicher, S. Grimme, J. Chem. Theory Comput.,
     2021, 17, 4250-4261. DOI: 10.1021/acs.jctc.1c00471
   
   for ddCOSMO and CPCM-X implicit solvation:
   * M. Stahn, S. Ehlert, S. Grimme, J. Phys. Chem. A,
     2023, XX, XXXX-XXXX. DOI: 10.1021/acs.jpca.3c04382
   
   for DFT-D4:
   * E. Caldeweyher, C. Bannwarth and S. Grimme, J. Chem. Phys., 2017,
     147, 034112. DOI: 10.1063/1.4993215
   * E. Caldeweyher, S. Ehlert, A. Hansen, H. Neugebauer, S. Spicher,
     C. Bannwarth and S. Grimme, J. Chem. Phys., 2019, 150, 154122.
     DOI: 10.1063/1.5090222
   * E. Caldeweyher, J.-M. Mewes, S. Ehlert and S. Grimme, Phys. Chem. Chem. Phys.
     2020, 22, 8499-8512. DOI: 10.1039/D0CP00502A
   
   for sTDA-xTB:
   * S. Grimme and C. Bannwarth, J. Chem. Phys., 2016, 145, 054103.
     DOI: 10.1063/1.4959605
   
   in the mass-spec context:
   * V. Asgeirsson, C. Bauer and S. Grimme, Chem. Sci., 2017, 8, 4879.
     DOI: 10.1039/c7sc00601b
   * J. Koopman and S. Grimme, ACS Omega 2019, 4, 12, 15120-15133.
     DOI: 10.1021/acsomega.9b02011
   
   for metadynamics refer to:
   * S. Grimme, J. Chem. Theory Comput., 2019, 155, 2847-2862
     DOI: 10.1021/acs.jctc.9b00143
   
   for SPH calculations refer to:
   * S. Spicher and S. Grimme, J. Chem. Theory Comput., 2021, 17, 1701-1714
     DOI: 10.1021/acs.jctc.0c01306
   
   for ONIOM refer to:
   * C. Plett, A. Katbashev, S. Ehlert, S. Grimme, M. Bursch,
     Phys. Chem. Chem. Phys., 2023, 25, 17860-17868. DOI: 10.1039/D3CP02178E
   
   for DIPRO refer to:
   * J. Kohn, N. Gildemeister, S. Grimme, D. Fazzi, A. Hansen,
     J. Chem. Phys., 2023, just accepted.
   
   for PTB refer to:
   * S. Grimme, M. Mueller, A. Hansen, J. Chem. Phys., 2023, 158, 124111.
     DOI: 10.1063/5.0137838
   
   with help from (in alphabetical order)
   P. Atkinson, C. Bannwarth, F. Bohle, G. Brandenburg, E. Caldeweyher
   M. Checinski, S. Dohm, S. Ehlert, S. Ehrlich, I. Gerasimov, C. Hölzer
   A. Katbashev, J. Kohn, J. Koopman, C. Lavigne, S. Lehtola, F. März, M. Müller,
   F. Musil, H. Neugebauer, J. Pisarek, C. Plett, P. Pracht, F. Pultar,
   J. Seibert, P. Shushkov, S. Spicher, M. Stahn, M. Steiner, T. Strunk,
   J. Stückrath, T. Rose, and J. Unsleber
   
 * started run on 2026/08/31 at 13:16:30.039     
   ID    Z sym.   atoms
    1    7 N      1, 44, 53
    2    6 C      2-15, 45, 47, 48, 54
    3    8 O      16, 17, 41, 46, 49
    4    1 H      18-40, 42, 43, 50-52, 55-57

           -------------------------------------------------
          |                Calculation Setup                |
           -------------------------------------------------

          program call               : C:\Users\Nayanika\Downloads\xtb-6.7.1pre-windows-x86_64\xtb-6.7.1\bin\xtb.exe D:\PhD_Thesis\LmrR_EVB\charges\fast_lmrr_5QM\xtb_preparation\stage2_five_xtb_protocols\GFN2_etemp300\TS1_2_to_PS1_2b\TS1_2_to_PS1_2b_RS_xtbopt.xyz --gfn 2 --chrg 0 --uhf 0 --etemp 300
          coordinate file            : D:\PhD_Thesis\LmrR_EVB\charges\fast_lmrr_5QM\xtb_preparation\stage2_five_xtb_protocols\GFN2_etemp300\TS1_2_to_PS1_2b\TS1_2_to_PS1_2b_RS_xtbopt.xyz
          omp threads                :                     1


molecular fragmentation (1/2 indicates fragments):
111111111222222221111111111122222222222222211111111111111
# atoms in fragment 1/2:    34    23
 fragment masses (1/2) :      235.28      134.17
CMA distance (Bohr)    :   9.603
constraining FC (au)   :  0.0500

           -------------------------------------------------
          |                 G F N 2 - x T B                 |
           -------------------------------------------------

        Reference                      10.1021/acs.jctc.8b01176
      * Hamiltonian:
        H0-scaling (s, p, d)           1.850000    2.230000    2.230000
        zeta-weighting                 0.500000
      * Dispersion:
        s8                             2.700000
        a1                             0.520000
        a2                             5.000000
        s9                             5.000000
      * Repulsion:
        kExp                           1.500000    1.000000
        rExp                           1.000000
      * Coulomb:
        alpha                          2.000000
        third order                    shell-resolved
        anisotropic                    true
        a3                             3.000000
        a5                             4.000000
        cn-shift                       1.200000
        cn-exp                         4.000000
        max-rad                        5.000000

q/qsh data taken from xtbrestart
CAMM data taken from xtbrestart

          ...................................................
          :                      SETUP                      :
          :.................................................:
          :  # basis functions                 135          :
          :  # atomic orbitals                 135          :
          :  # shells                           83          :
          :  # electrons                       148          :
          :  max. iterations                   250          :
          :  Hamiltonian                  GFN2-xTB          :
          :  restarted?                       true          :
          :  GBSA solvation                  false          :
          :  PC potential                    false          :
          :  electronic temp.          300.0000000     K    :
          :  accuracy                    1.0000000          :
          :  -> integral cutoff          0.2500000E+02      :
          :  -> integral neglect         0.1000000E-07      :
          :  -> SCF convergence          0.1000000E-05 Eh   :
          :  -> wf. convergence          0.1000000E-03 e    :
          :  Broyden damping             0.4000000          :
          :  net charge                          0          :
          :  unpaired electrons                  0          :
          ...................................................

 iter      E             dE          RMSdq      gap      omega  full diag
   1    -84.5398698 -0.845399E+02  0.125E+00    2.20       0.0  T
   2    -84.5400482 -0.178404E-03  0.733E-01    2.21       1.0  T
   3    -84.5399456  0.102607E-03  0.620E-02    2.21       1.0  T
   4    -84.5401215 -0.175959E-03  0.214E-02    2.21       1.0  T
   5    -84.5401293 -0.776057E-05  0.117E-02    2.21       1.1  T
   6    -84.5401309 -0.160383E-05  0.399E-03    2.21       3.3  T
   7    -84.5401315 -0.587929E-06  0.135E-03    2.21       9.8  T
   8    -84.5401315 -0.170583E-07  0.610E-04    2.21      21.7  T
   9    -84.5401315 -0.784438E-08  0.195E-04    2.21      67.9  T

   *** convergence criteria satisfied after 9 iterations ***

         #    Occupation            Energy/Eh            Energy/eV
      -------------------------------------------------------------
         1        2.0000           -0.7122570             -19.3815
       ...           ...                  ...                  ...
        68        2.0000           -0.4165353             -11.3345
        69        2.0000           -0.4110661             -11.1857
        70        2.0000           -0.4061652             -11.0523
        71        2.0000           -0.4004197             -10.8960
        72        2.0000           -0.3994741             -10.8702
        73        2.0000           -0.3869601             -10.5297
        74        2.0000           -0.3661962              -9.9647 (HOMO)
        75                         -0.2849443              -7.7537 (LUMO)
        76                         -0.2246305              -6.1125
        77                         -0.2224188              -6.0523
        78                         -0.2153257              -5.8593
        79                         -0.2078599              -5.6562
       ...                                ...                  ...
       135                          0.6582645              17.9123
      -------------------------------------------------------------
                  HL-Gap            0.0812519 Eh            2.2110 eV
             Fermi-level           -0.3255703 Eh           -8.8592 eV

 SCC (total)                   0 d,  0 h,  0 min,  0.154 sec
 SCC setup                      ...        0 min,  0.003 sec (  1.948%)
 Dispersion                     ...        0 min,  0.002 sec (  1.299%)
 classical contributions        ...        0 min,  0.001 sec (  0.649%)
 integral evaluation            ...        0 min,  0.018 sec ( 11.688%)
 iterations                     ...        0 min,  0.071 sec ( 46.104%)
 molecular gradient             ...        0 min,  0.056 sec ( 36.364%)
 printout                       ...        0 min,  0.002 sec (  1.299%)

         :::::::::::::::::::::::::::::::::::::::::::::::::::::
         ::                     SUMMARY                     ::
         :::::::::::::::::::::::::::::::::::::::::::::::::::::
         :: total energy             -83.439224479314 Eh    ::
         :: gradient norm              0.000154782543 Eh/a0 ::
         :: HOMO-LUMO gap              2.210977407932 eV    ::
         ::.................................................::
         :: SCC energy               -84.538187470550 Eh    ::
         :: -> isotropic ES            0.175815908664 Eh    ::
         :: -> anisotropic ES         -0.001615603858 Eh    ::
         :: -> anisotropic XC          0.029472152582 Eh    ::
         :: -> dispersion             -0.057909308140 Eh    ::
         :: repulsion energy           1.098962991236 Eh    ::
         :: add. restraining           0.000000000000 Eh    ::
         :: total charge               0.000000000000 e     ::
         :::::::::::::::::::::::::::::::::::::::::::::::::::::

           -------------------------------------------------
          |                Property Printout                |
           -------------------------------------------------

    * Orbital Energies and Occupations

         #    Occupation            Energy/Eh            Energy/eV
      -------------------------------------------------------------
         1        2.0000           -0.7122570             -19.3815
       ...           ...                  ...                  ...
        62        2.0000           -0.4361908             -11.8694
        63        2.0000           -0.4360752             -11.8662
        64        2.0000           -0.4337464             -11.8028
        65        2.0000           -0.4308784             -11.7248
        66        2.0000           -0.4267799             -11.6133
        67        2.0000           -0.4208015             -11.4506
        68        2.0000           -0.4165353             -11.3345
        69        2.0000           -0.4110661             -11.1857
        70        2.0000           -0.4061652             -11.0523
        71        2.0000           -0.4004197             -10.8960
        72        2.0000           -0.3994741             -10.8702
        73        2.0000           -0.3869601             -10.5297
        74        2.0000           -0.3661962              -9.9647 (HOMO)
        75                         -0.2849443              -7.7537 (LUMO)
        76                         -0.2246305              -6.1125
        77                         -0.2224188              -6.0523
        78                         -0.2153257              -5.8593
        79                         -0.2078599              -5.6562
        80                         -0.1698138              -4.6209
        81                         -0.0923301              -2.5124
        82                         -0.0015564              -0.0424
        83                          0.0080280               0.2185
        84                          0.0283455               0.7713
        85                          0.0735652               2.0018
       ...                                ...                  ...
       135                          0.6582645              17.9123
      -------------------------------------------------------------
                  HL-Gap            0.0812519 Eh            2.2110 eV
             Fermi-level           -0.3255703 Eh           -8.8592 eV

     #   Z          covCN         q      C6AA      α(0)
     1   7 N        2.649    -0.278    27.188     7.744
     2   6 C        2.900     0.077    26.288     8.407
     3   6 C        2.923    -0.059    29.459     8.901
     4   6 C        2.924    -0.038    28.948     8.823
     5   6 C        2.970    -0.005    28.137     8.701
     6   6 C        2.924    -0.044    29.088     8.845
     7   6 C        2.922    -0.063    29.570     8.917
     8   6 C        3.812    -0.070    21.827     6.650
     9   6 C        3.796     0.020    20.239     6.406
    10   6 C        2.775     0.209    23.577     7.953
    11   6 C        2.890    -0.064    29.586     8.918
    12   6 C        2.897    -0.001    28.045     8.683
    13   6 C        3.807    -0.061    21.663     6.626
    14   6 C        3.802    -0.046    21.402     6.586
    15   6 C        3.753    -0.110    22.670     6.790
    16   8 O        0.856    -0.425    22.194     6.316
    17   8 O        1.609    -0.608    25.368     6.798
    18   1 H        0.859     0.218     1.021     1.583
    19   1 H        0.860     0.169     1.279     1.771
    20   1 H        0.926     0.040     2.449     2.447
    21   1 H        0.926     0.031     2.566     2.505
    22   1 H        0.925     0.023     2.692     2.566
    23   1 H        0.925     0.024     2.670     2.555
    24   1 H        0.924     0.061     2.183     2.311
    25   1 H        0.924     0.059     2.216     2.328
    26   1 H        0.924     0.060     2.197     2.318
    27   1 H        0.860     0.183     1.195     1.713
    28   1 H        0.860     0.206     1.078     1.626
    29   1 H        0.923     0.011     2.874     2.651
    30   1 H        0.926     0.036     2.497     2.471
    31   1 H        0.925     0.064     2.154     2.295
    32   1 H        0.924     0.056     2.250     2.346
    33   1 H        0.924     0.046     2.371     2.408
    34   1 H        0.924     0.032     2.553     2.499
    35   1 H        0.924     0.033     2.545     2.495
    36   1 H        0.925     0.036     2.508     2.477
    37   1 H        0.925     0.033     2.542     2.493
    38   1 H        0.925     0.062     2.176     2.307
    39   1 H        0.803     0.319     0.667     1.283
    40   1 H        0.806     0.275     0.802     1.406
    41   8 O        1.609    -0.595    25.059     6.756
    42   1 H        0.805     0.297     0.730     1.342
    43   1 H        0.804     0.312     0.686     1.301
    44   7 N        2.692    -0.182    24.936     7.417
    45   6 C        2.753     0.264    22.553     7.776
    46   8 O        0.858    -0.434    22.375     6.342
    47   6 C        3.757    -0.141    23.275     6.878
    48   6 C        2.749     0.277    22.317     7.735
    49   8 O        0.859    -0.462    22.952     6.423
    50   1 H        0.925     0.052     2.300     2.372
    51   1 H        0.925     0.063     2.164     2.300
    52   1 H        0.925     0.074     2.043     2.235
    53   7 N        2.686    -0.177    24.838     7.402
    54   6 C        3.690    -0.043    21.526     6.640
    55   1 H        0.924     0.053     2.286     2.364
    56   1 H        0.924     0.049     2.330     2.387
    57   1 H        0.925     0.082     1.954     2.186

 Mol. C6AA /au·bohr⁶  :      29544.366947
 Mol. C8AA /au·bohr⁸  :     657874.115490
 Mol. α(0) /au        :        262.774188


Wiberg/Mayer (AO) data.
largest (>0.10) Wiberg bond orders for each atom

 ---------------------------------------------------------------------------
     #   Z sym  total        # sym  WBO       # sym  WBO       # sym  WBO
 ---------------------------------------------------------------------------
     1   7 N    3.355 --     2 C    1.155    19 H    0.951    18 H    0.887
                            10 C    0.108
     2   6 C    3.972 --     7 C    1.351     3 C    1.339     1 N    1.155
     3   6 C    3.989 --     4 C    1.472     2 C    1.339    20 H    0.967
                             6 C    0.101
     4   6 C    3.992 --     3 C    1.472     5 C    1.395    21 H    0.969
                             7 C    0.102
     5   6 C    3.976 --     6 C    1.403     4 C    1.395     8 C    1.010
     6   6 C    3.991 --     7 C    1.458     5 C    1.403    22 H    0.967
                             3 C    0.101
     7   6 C    3.988 --     6 C    1.458     2 C    1.351    23 H    0.969
                             4 C    0.102
     8   6 C    3.990 --     5 C    1.010     9 C    0.980    24 H    0.969
                            25 H    0.967
     9   6 C    3.961 --     8 C    0.980    44 N    0.973    26 H    0.953
                            45 C    0.913
    10   6 C    3.927 --    16 O    1.703    11 C    1.098    29 H    0.940
                             1 N    0.108
    11   6 C    3.989 --    12 C    1.804    10 C    1.098    30 H    0.965
    12   6 C    3.978 --    11 C    1.804    13 C    1.047    31 H    0.961
    13   6 C    3.996 --    12 C    1.047    14 C    0.977    33 H    0.972
                            32 H    0.952
    14   6 C    3.994 --    15 C    1.018    34 H    0.980    35 H    0.979
                            13 C    0.977
    15   6 C    3.993 --    14 C    1.018    37 H    0.988    36 H    0.986
                            38 H    0.981
    16   8 O    2.023 --    10 C    1.703
    17   8 O    1.836 --    40 H    0.922    39 H    0.850
    18   1 H    0.952 --     1 N    0.887
    19   1 H    0.971 --     1 N    0.951
    20   1 H    0.998 --     3 C    0.967
    21   1 H    0.999 --     4 C    0.969
    22   1 H    0.999 --     6 C    0.967
    23   1 H    0.999 --     7 C    0.969
    24   1 H    0.996 --     8 C    0.969
    25   1 H    0.995 --     8 C    0.967
    26   1 H    0.996 --     9 C    0.953
    27   1 H    0.966 --    44 N    0.931
    28   1 H    0.958 --    53 N    0.906
    29   1 H    0.999 --    10 C    0.940
    30   1 H    0.999 --    11 C    0.965
    31   1 H    0.996 --    12 C    0.961
    32   1 H    0.997 --    13 C    0.952
    33   1 H    0.998 --    13 C    0.972
    34   1 H    0.999 --    14 C    0.980
    35   1 H    0.999 --    14 C    0.979
    36   1 H    0.997 --    15 C    0.986
    37   1 H    0.999 --    15 C    0.988
    38   1 H    0.996 --    15 C    0.981
    39   1 H    0.898 --    17 O    0.850
    40   1 H    0.924 --    17 O    0.922
    41   8 O    1.875 --    42 H    0.900    43 H    0.875
    42   1 H    0.912 --    41 O    0.900
    43   1 H    0.903 --    41 O    0.875
    44   7 N    3.458 --    48 C    1.280     9 C    0.973    27 H    0.931
                            49 O    0.192
    45   6 C    3.956 --    46 O    1.680    53 N    1.291     9 C    0.913
    46   8 O    2.012 --    45 C    1.680    53 N    0.212
    47   6 C    3.993 --    48 C    0.984    52 H    0.982    50 H    0.975
                            51 H    0.965
    48   6 C    3.951 --    49 O    1.634    44 N    1.280    47 C    0.984
    49   8 O    1.985 --    48 C    1.634    44 N    0.192
    50   1 H    0.997 --    47 C    0.975
    51   1 H    0.996 --    47 C    0.965
    52   1 H    0.994 --    47 C    0.982
    53   7 N    3.465 --    45 C    1.291    54 C    1.006    28 H    0.906
                            46 O    0.212
    54   6 C    3.965 --    53 N    1.006    55 H    0.977    57 H    0.977
                            56 H    0.976
    55   1 H    0.997 --    54 C    0.977
    56   1 H    0.998 --    54 C    0.976
    57   1 H    0.993 --    54 C    0.977
 ---------------------------------------------------------------------------

Topologies differ in total number of bonds
Writing topology from bond orders to xtbtopo.mol

molecular dipole:
                 x           y           z       tot (Debye)
 q only:       -0.069       0.218      -1.040
   full:       -0.503      -0.069      -1.563       4.176
molecular quadrupole (traceless):
                xx          xy          yy          xz          yz          zz
 q only:      -13.681       6.346       9.823      -9.192       2.114       3.858
  q+dip:      -18.603       0.870      12.781     -11.847       7.640       5.822
   full:      -19.278       1.573      11.388     -11.069       4.711       7.890


           -------------------------------------------------
          | TOTAL ENERGY              -83.439224479314 Eh   |
          | GRADIENT NORM               0.000154782543 Eh/α |
          | HOMO-LUMO GAP               2.210977407932 eV   |
           -------------------------------------------------

------------------------------------------------------------------------
 * finished run on 2026/08/31 at 13:16:30.356     
------------------------------------------------------------------------
 total:
 * wall-time:     0 d,  0 h,  0 min,  0.309 sec
 *  cpu-time:     0 d,  0 h,  0 min,  0.203 sec
 * ratio c/w:     0.657 speedup
 SCF:
 * wall-time:     0 d,  0 h,  0 min,  0.154 sec
 *  cpu-time:     0 d,  0 h,  0 min,  0.156 sec
 * ratio c/w:     1.015 speedup



===== STDERR =====

normal termination of xtb
