57
 energy: -83.439224479655 gnorm: 0.000154916933 xtb: 6.7.1pre (5071a88)
N           -0.10022646655775       -0.59160069808306        0.58004675522566
C            1.25153563590889       -0.35701354171518        0.72032767024640
C            1.69902271094589        0.77545016245202        1.40402928257715
C            3.03909521627579        1.09861862291647        1.41880190133080
C            3.97726694446106        0.30475808351020        0.76831509392004
C            3.53425902349265       -0.84414765937541        0.12454839210749
C            2.19375300703433       -1.17482627131351        0.09706688444840
C            5.41779390753795        0.72298700727064        0.70124914178479
C            5.61328806241807        1.78965430891575       -0.38089650837251
C           -0.92023561108718        0.64214852292612       -1.27642508202933
C            0.26863168244628        1.47780969268808       -1.33226569001892
C            0.32493634840826        2.68838238872383       -0.77141442895387
C            1.51010370699903        3.57999192242758       -0.78770655837932
C            1.24324328190973        4.85861053984685       -1.59372835658891
C            2.47603368331007        5.75238064575089       -1.61774199206881
O           -2.00158372856051        0.98812618105040       -0.81651284818592
O           -3.65676082489842       -0.91174906691914        0.28285003101084
H           -0.71052059564082       -0.14738905162777        1.26921449252227
H           -0.36699167535549       -1.53937316012222        0.35871844266735
H            0.97793716820287        1.39259420506005        1.91791896486687
H            3.36864590269418        1.98262678008525        1.94552660700906
H            4.24877945829126       -1.50037330448926       -0.35520545467714
H            1.86545399057421       -2.06863191293006       -0.41518174128528
H            6.06438113273619       -0.12537222415369        0.46982421581315
H            5.74761930635883        1.14190303741875        1.65254532694185
H            5.08145973961772        2.71203926152654       -0.11592118995210
H            4.96689759895558        0.32297410593923       -1.74608251901407
H            6.48596002743205        3.68592267280120       -1.71083499164066
H           -0.84112071161222       -0.30557361697065       -1.83494273318688
H            1.13180277084827        1.05833118213148       -1.82784553070779
H           -0.56316997733513        3.07481711386421       -0.28669216488885
H            1.75354140680030        3.86323132628255        0.23973218275746
H            2.36885656713607        3.05931012434617       -1.21270857738267
H            0.97251382360303        4.58265799301070       -2.61491032943850
H            0.39856628573421        5.39615594168380       -1.15693276385426
H            2.29319169930159        6.63659842200668       -2.22355195457502
H            2.73504853533900        6.07329402760731       -0.61087645009069
H            3.32193668411032        5.21285888266474       -2.03668342527347
H           -3.13100947354633       -0.28961073014972       -0.25531235173947
H           -4.57011237376649       -0.78976431096060        0.01980001102850
O           -2.17335273091521        0.69294823471648        2.03770952686371
H           -2.23612898053183        1.34558513521074        1.33142398544722
H           -2.80419837242181        0.00027315841031        1.78686934599177
N            5.05747752835366        1.32104536164768       -1.63931036310722
C            7.11049686367030        2.12526850308442       -0.56645837798232
O            8.00069572295955        1.44540701170694       -0.10026467149219
C            3.95682242030309        1.44109357571396       -3.77009611256503
C            4.60627927968507        2.14354342882363       -2.60077441678258
O            4.72528827191223        3.35715923086382       -2.53104652985348
H            3.26379122930067        0.67743341354018       -3.42518757372319
H            4.72484884076920        0.96713254063566       -4.37866440553655
H            3.42832861081464        2.16899472431826       -4.37892388236668
N            7.29612286439900        3.23581849259727       -1.29640683361725
C            8.60622797759920        3.71694906735433       -1.65976556405897
H            8.72855969916072        4.75390683201938       -1.34379225422807
H            8.75731657244990        3.65421972889638       -2.73942164985820
H            9.34260033201713        3.09341395438840       -1.15503197710081
