      -----------------------------------------------------------      
     |                   =====================                   |     
     |                           x T B                           |     
     |                   =====================                   |     
     |                         S. Grimme                         |     
     |          Mulliken Center for Theoretical Chemistry        |     
     |                    University of Bonn                     |     
      -----------------------------------------------------------      

   * xtb version 6.7.1pre (5071a88) compiled by 'Marcel@Raven' on 2024-07-23

   xtb is free software: you can redistribute it and/or modify it under
   the terms of the GNU Lesser General Public License as published by
   the Free Software Foundation, either version 3 of the License, or
   (at your option) any later version.
   
   xtb is distributed in the hope that it will be useful,
   but WITHOUT ANY WARRANTY; without even the implied warranty of
   MERCHANTABILITY or FITNESS FOR A PARTICULAR PURPOSE.  See the
   GNU Lesser General Public License for more details.
   
   Cite this work as:
   * C. Bannwarth, E. Caldeweyher, S. Ehlert, A. Hansen, P. Pracht,
     J. Seibert, S. Spicher, S. Grimme, WIREs Comput. Mol. Sci., 2020, 11,
     e01493. DOI: 10.1002/wcms.1493
   
   for GFN2-xTB:
   * C. Bannwarth, S. Ehlert and S. Grimme., J. Chem. Theory Comput., 2019,
     15, 1652-1671. DOI: 10.1021/acs.jctc.8b01176
   for GFN1-xTB:
   * S. Grimme, C. Bannwarth, P. Shushkov, J. Chem. Theory Comput., 2017,
     13, 1989-2009. DOI: 10.1021/acs.jctc.7b00118
   for GFN0-xTB:
   * P. Pracht, E. Caldeweyher, S. Ehlert, S. Grimme, ChemRxiv, 2019, preprint.
     DOI: 10.26434/chemrxiv.8326202.v1
   for GFN-FF:
   * S. Spicher and S. Grimme, Angew. Chem. Int. Ed., 2020, 59, 15665-15673.
     DOI: 10.1002/anie.202004239
   
   for ALPB and GBSA implicit solvation:
   * S. Ehlert, M. Stahn, S. Spicher, S. Grimme, J. Chem. Theory Comput.,
     2021, 17, 4250-4261. DOI: 10.1021/acs.jctc.1c00471
   
   for ddCOSMO and CPCM-X implicit solvation:
   * M. Stahn, S. Ehlert, S. Grimme, J. Phys. Chem. A,
     2023, XX, XXXX-XXXX. DOI: 10.1021/acs.jpca.3c04382
   
   for DFT-D4:
   * E. Caldeweyher, C. Bannwarth and S. Grimme, J. Chem. Phys., 2017,
     147, 034112. DOI: 10.1063/1.4993215
   * E. Caldeweyher, S. Ehlert, A. Hansen, H. Neugebauer, S. Spicher,
     C. Bannwarth and S. Grimme, J. Chem. Phys., 2019, 150, 154122.
     DOI: 10.1063/1.5090222
   * E. Caldeweyher, J.-M. Mewes, S. Ehlert and S. Grimme, Phys. Chem. Chem. Phys.
     2020, 22, 8499-8512. DOI: 10.1039/D0CP00502A
   
   for sTDA-xTB:
   * S. Grimme and C. Bannwarth, J. Chem. Phys., 2016, 145, 054103.
     DOI: 10.1063/1.4959605
   
   in the mass-spec context:
   * V. Asgeirsson, C. Bauer and S. Grimme, Chem. Sci., 2017, 8, 4879.
     DOI: 10.1039/c7sc00601b
   * J. Koopman and S. Grimme, ACS Omega 2019, 4, 12, 15120-15133.
     DOI: 10.1021/acsomega.9b02011
   
   for metadynamics refer to:
   * S. Grimme, J. Chem. Theory Comput., 2019, 155, 2847-2862
     DOI: 10.1021/acs.jctc.9b00143
   
   for SPH calculations refer to:
   * S. Spicher and S. Grimme, J. Chem. Theory Comput., 2021, 17, 1701-1714
     DOI: 10.1021/acs.jctc.0c01306
   
   for ONIOM refer to:
   * C. Plett, A. Katbashev, S. Ehlert, S. Grimme, M. Bursch,
     Phys. Chem. Chem. Phys., 2023, 25, 17860-17868. DOI: 10.1039/D3CP02178E
   
   for DIPRO refer to:
   * J. Kohn, N. Gildemeister, S. Grimme, D. Fazzi, A. Hansen,
     J. Chem. Phys., 2023, just accepted.
   
   for PTB refer to:
   * S. Grimme, M. Mueller, A. Hansen, J. Chem. Phys., 2023, 158, 124111.
     DOI: 10.1063/5.0137838
   
   with help from (in alphabetical order)
   P. Atkinson, C. Bannwarth, F. Bohle, G. Brandenburg, E. Caldeweyher
   M. Checinski, S. Dohm, S. Ehlert, S. Ehrlich, I. Gerasimov, C. Hölzer
   A. Katbashev, J. Kohn, J. Koopman, C. Lavigne, S. Lehtola, F. März, M. Müller,
   F. Musil, H. Neugebauer, J. Pisarek, C. Plett, P. Pracht, F. Pultar,
   J. Seibert, P. Shushkov, S. Spicher, M. Stahn, M. Steiner, T. Strunk,
   J. Stückrath, T. Rose, and J. Unsleber
   
 * started run on 2026/08/20 at 20:30:28.118     
   ID    Z sym.   atoms
    1    7 N      1, 44, 53
    2    6 C      2-15, 45, 47, 48, 54
    3    8 O      16, 17, 41, 46, 49
    4    1 H      18-40, 42, 43, 50-52, 55-57

           -------------------------------------------------
          |                Calculation Setup                |
           -------------------------------------------------

          program call               : C:\Users\Nayanika\Downloads\xtb-6.7.1pre-windows-x86_64\xtb-6.7.1\bin\xtb.exe D:\PhD_Thesis\LmrR_EVB\charges\fast_lmrr_5QM\xtb_preparation\stage2_five_xtb_protocols\GFN2_etemp300\TS1_2_to_PS1_2b\TS1_2_to_PS1_2b_RS_xtbopt.xyz --gfn 2 --chrg 0 --uhf 0 --hess --etemp 300
          coordinate file            : D:\PhD_Thesis\LmrR_EVB\charges\fast_lmrr_5QM\xtb_preparation\stage2_five_xtb_protocols\GFN2_etemp300\TS1_2_to_PS1_2b\TS1_2_to_PS1_2b_RS_xtbopt.xyz
          omp threads                :                     8


molecular fragmentation (1/2 indicates fragments):
111111111222222221111111111122222222222222211111111111111
# atoms in fragment 1/2:    34    23
 fragment masses (1/2) :      235.28      134.17
CMA distance (Bohr)    :   9.603
constraining FC (au)   :  0.0500

           -------------------------------------------------
          |                 G F N 2 - x T B                 |
           -------------------------------------------------

        Reference                      10.1021/acs.jctc.8b01176
      * Hamiltonian:
        H0-scaling (s, p, d)           1.850000    2.230000    2.230000
        zeta-weighting                 0.500000
      * Dispersion:
        s8                             2.700000
        a1                             0.520000
        a2                             5.000000
        s9                             5.000000
      * Repulsion:
        kExp                           1.500000    1.000000
        rExp                           1.000000
      * Coulomb:
        alpha                          2.000000
        third order                    shell-resolved
        anisotropic                    true
        a3                             3.000000
        a5                             4.000000
        cn-shift                       1.200000
        cn-exp                         4.000000
        max-rad                        5.000000

q/qsh data taken from xtbrestart
CAMM data taken from xtbrestart

          ...................................................
          :                      SETUP                      :
          :.................................................:
          :  # basis functions                 135          :
          :  # atomic orbitals                 135          :
          :  # shells                           83          :
          :  # electrons                       148          :
          :  max. iterations                   250          :
          :  Hamiltonian                  GFN2-xTB          :
          :  restarted?                       true          :
          :  GBSA solvation                  false          :
          :  PC potential                    false          :
          :  electronic temp.          300.0000000     K    :
          :  accuracy                    1.0000000          :
          :  -> integral cutoff          0.2500000E+02      :
          :  -> integral neglect         0.1000000E-07      :
          :  -> SCF convergence          0.1000000E-05 Eh   :
          :  -> wf. convergence          0.1000000E-03 e    :
          :  Broyden damping             0.4000000          :
          :  net charge                          0          :
          :  unpaired electrons                  0          :
          ...................................................

 iter      E             dE          RMSdq      gap      omega  full diag
   1    -84.5401315 -0.845401E+02  0.155E-06    2.21       0.0  T
   2    -84.5401315 -0.156319E-12  0.126E-06    2.21   10541.5  T
   3    -84.5401315  0.142109E-13  0.477E-07    2.21   27783.9  T

   *** convergence criteria satisfied after 3 iterations ***

         #    Occupation            Energy/Eh            Energy/eV
      -------------------------------------------------------------
         1        2.0000           -0.7122569             -19.3815
       ...           ...                  ...                  ...
        68        2.0000           -0.4165340             -11.3345
        69        2.0000           -0.4110663             -11.1857
        70        2.0000           -0.4061644             -11.0523
        71        2.0000           -0.4004181             -10.8959
        72        2.0000           -0.3994760             -10.8703
        73        2.0000           -0.3869620             -10.5298
        74        2.0000           -0.3661954              -9.9647 (HOMO)
        75                         -0.2849429              -7.7537 (LUMO)
        76                         -0.2246300              -6.1125
        77                         -0.2224186              -6.0523
        78                         -0.2153247              -5.8593
        79                         -0.2078623              -5.6562
       ...                                ...                  ...
       135                          0.6582651              17.9123
      -------------------------------------------------------------
                  HL-Gap            0.0812525 Eh            2.2110 eV
             Fermi-level           -0.3255692 Eh           -8.8592 eV

 SCC (total)                   0 d,  0 h,  0 min,  0.052 sec
 SCC setup                      ...        0 min,  0.000 sec (  0.000%)
 Dispersion                     ...        0 min,  0.000 sec (  0.000%)
 classical contributions        ...        0 min,  0.000 sec (  0.000%)
 integral evaluation            ...        0 min,  0.015 sec ( 28.846%)
 iterations                     ...        0 min,  0.020 sec ( 38.461%)
 molecular gradient             ...        0 min,  0.017 sec ( 32.692%)
 printout                       ...        0 min,  0.000 sec (  0.000%)

         :::::::::::::::::::::::::::::::::::::::::::::::::::::
         ::                     SUMMARY                     ::
         :::::::::::::::::::::::::::::::::::::::::::::::::::::
         :: total energy             -83.439224479659 Eh    ::
         :: gradient norm              0.000155013464 Eh/a0 ::
         :: HOMO-LUMO gap              2.210993929139 eV    ::
         ::.................................................::
         :: SCC energy               -84.538187470895 Eh    ::
         :: -> isotropic ES            0.175814345795 Eh    ::
         :: -> anisotropic ES         -0.001615716173 Eh    ::
         :: -> anisotropic XC          0.029472066091 Eh    ::
         :: -> dispersion             -0.057909319169 Eh    ::
         :: repulsion energy           1.098962991236 Eh    ::
         :: add. restraining           0.000000000000 Eh    ::
         :: total charge               0.000000000000 e     ::
         :::::::::::::::::::::::::::::::::::::::::::::::::::::

           ------------------------------------------------- 
          |                Numerical Hessian                |
           ------------------------------------------------- 
step length          :   0.00500
SCC accuracy         :   0.30000
Hessian scale factor :   1.00000
frozen atoms in %    :   0.00000    0
RMS gradient         :   0.00016
estimated CPU  time      4.77 min
estimated wall time      0.70 min

writing file <hessian>.

 projected vibrational frequencies (cm⁻¹)
eigval :       -0.00    -0.00     0.00     0.00     0.00     0.00
eigval :       12.53    18.24    27.29    29.20    33.68    39.00
eigval :       48.25    54.59    59.66    61.80    71.42    75.60
eigval :       79.72    83.35    87.99    99.13   108.98   117.40
eigval :      125.42   129.83   140.71   157.47   157.65   171.48
eigval :      183.20   193.77   205.62   212.52   231.20   240.15
eigval :      261.78   289.47   290.61   296.32   301.64   330.46
eigval :      349.38   355.51   382.56   386.49   393.62   406.78
eigval :      416.15   435.16   444.14   450.44   476.80   488.67
eigval :      531.53   567.95   577.30   602.09   613.76   631.02
eigval :      643.02   673.43   676.36   692.76   725.71   728.26
eigval :      757.04   779.34   791.71   809.74   844.54   864.91
eigval :      869.93   883.45   893.05   908.71   922.07   923.39
eigval :      928.57   940.15   975.53   992.18   996.93  1002.41
eigval :     1009.83  1018.92  1034.21  1049.77  1073.58  1077.37
eigval :     1089.74  1104.61  1109.87  1117.05  1130.64  1144.67
eigval :     1159.95  1164.36  1196.39  1209.18  1219.47  1222.70
eigval :     1223.00  1239.40  1252.02  1265.74  1281.74  1285.06
eigval :     1287.25  1295.48  1312.42  1322.53  1342.80  1348.02
eigval :     1374.30  1381.56  1393.06  1419.00  1423.78  1430.12
eigval :     1433.80  1457.07  1462.66  1466.22  1473.31  1478.56
eigval :     1481.61  1484.37  1494.06  1501.27  1504.54  1514.31
eigval :     1548.29  1551.20  1577.17  1615.25  1636.31  1678.17
eigval :     1710.49  1759.44  2804.20  2913.94  2956.54  2969.93
eigval :     2970.28  2985.54  2991.27  2991.81  3003.13  3008.03
eigval :     3021.94  3030.88  3031.33  3032.40  3039.48  3051.26
eigval :     3055.61  3056.96  3064.26  3070.48  3075.31  3082.22
eigval :     3095.38  3218.15  3313.26  3321.75  3451.43  3453.72
eigval :     3465.88  3577.85  3666.46
           -------------------------------------------------
          |                Property Printout                |
           -------------------------------------------------

    * Orbital Energies and Occupations

         #    Occupation            Energy/Eh            Energy/eV
      -------------------------------------------------------------
         1        2.0000           -0.7122569             -19.3815
       ...           ...                  ...                  ...
        62        2.0000           -0.4361900             -11.8693
        63        2.0000           -0.4360746             -11.8662
        64        2.0000           -0.4337468             -11.8029
        65        2.0000           -0.4308765             -11.7247
        66        2.0000           -0.4267795             -11.6133
        67        2.0000           -0.4208005             -11.4506
        68        2.0000           -0.4165340             -11.3345
        69        2.0000           -0.4110663             -11.1857
        70        2.0000           -0.4061644             -11.0523
        71        2.0000           -0.4004181             -10.8959
        72        2.0000           -0.3994760             -10.8703
        73        2.0000           -0.3869620             -10.5298
        74        2.0000           -0.3661954              -9.9647 (HOMO)
        75                         -0.2849429              -7.7537 (LUMO)
        76                         -0.2246300              -6.1125
        77                         -0.2224186              -6.0523
        78                         -0.2153247              -5.8593
        79                         -0.2078623              -5.6562
        80                         -0.1698124              -4.6208
        81                         -0.0923294              -2.5124
        82                         -0.0015568              -0.0424
        83                          0.0080269               0.2184
        84                          0.0283456               0.7713
        85                          0.0735650               2.0018
       ...                                ...                  ...
       135                          0.6582651              17.9123
      -------------------------------------------------------------
                  HL-Gap            0.0812525 Eh            2.2110 eV
             Fermi-level           -0.3255692 Eh           -8.8592 eV

     #   Z          covCN         q      C6AA      α(0)
     1   7 N        2.649    -0.278    27.188     7.744
     2   6 C        2.900     0.077    26.288     8.407
     3   6 C        2.923    -0.059    29.459     8.901
     4   6 C        2.924    -0.038    28.948     8.823
     5   6 C        2.970    -0.005    28.137     8.701
     6   6 C        2.924    -0.044    29.088     8.845
     7   6 C        2.922    -0.063    29.570     8.917
     8   6 C        3.812    -0.070    21.827     6.650
     9   6 C        3.796     0.020    20.239     6.406
    10   6 C        2.775     0.209    23.577     7.953
    11   6 C        2.890    -0.064    29.585     8.918
    12   6 C        2.897    -0.001    28.045     8.683
    13   6 C        3.807    -0.061    21.663     6.626
    14   6 C        3.802    -0.046    21.402     6.586
    15   6 C        3.753    -0.110    22.670     6.790
    16   8 O        0.856    -0.425    22.194     6.316
    17   8 O        1.609    -0.608    25.368     6.798
    18   1 H        0.859     0.218     1.021     1.583
    19   1 H        0.860     0.169     1.279     1.771
    20   1 H        0.926     0.040     2.449     2.447
    21   1 H        0.926     0.031     2.566     2.505
    22   1 H        0.925     0.023     2.692     2.566
    23   1 H        0.925     0.024     2.670     2.555
    24   1 H        0.924     0.061     2.183     2.311
    25   1 H        0.924     0.059     2.216     2.328
    26   1 H        0.924     0.060     2.197     2.318
    27   1 H        0.860     0.183     1.195     1.713
    28   1 H        0.860     0.206     1.078     1.626
    29   1 H        0.923     0.011     2.874     2.651
    30   1 H        0.926     0.036     2.497     2.471
    31   1 H        0.925     0.064     2.154     2.295
    32   1 H        0.924     0.056     2.250     2.346
    33   1 H        0.924     0.046     2.371     2.408
    34   1 H        0.924     0.032     2.553     2.499
    35   1 H        0.924     0.033     2.545     2.495
    36   1 H        0.925     0.036     2.508     2.477
    37   1 H        0.925     0.033     2.542     2.493
    38   1 H        0.925     0.062     2.176     2.307
    39   1 H        0.803     0.319     0.667     1.283
    40   1 H        0.806     0.275     0.802     1.406
    41   8 O        1.609    -0.595    25.060     6.756
    42   1 H        0.805     0.297     0.730     1.342
    43   1 H        0.804     0.312     0.686     1.301
    44   7 N        2.692    -0.182    24.936     7.417
    45   6 C        2.753     0.264    22.553     7.776
    46   8 O        0.858    -0.434    22.375     6.342
    47   6 C        3.757    -0.141    23.275     6.878
    48   6 C        2.749     0.277    22.317     7.735
    49   8 O        0.859    -0.462    22.952     6.423
    50   1 H        0.925     0.052     2.300     2.372
    51   1 H        0.925     0.063     2.164     2.300
    52   1 H        0.925     0.074     2.043     2.235
    53   7 N        2.686    -0.177    24.838     7.402
    54   6 C        3.690    -0.043    21.526     6.640
    55   1 H        0.924     0.053     2.286     2.364
    56   1 H        0.924     0.049     2.330     2.387
    57   1 H        0.925     0.082     1.954     2.186

 Mol. C6AA /au·bohr⁶  :      29544.368764
 Mol. C8AA /au·bohr⁸  :     657874.130157
 Mol. α(0) /au        :        262.774196


Wiberg/Mayer (AO) data.
largest (>0.10) Wiberg bond orders for each atom

 ---------------------------------------------------------------------------
     #   Z sym  total        # sym  WBO       # sym  WBO       # sym  WBO
 ---------------------------------------------------------------------------
     1   7 N    3.355 --     2 C    1.155    19 H    0.951    18 H    0.887
                            10 C    0.108
     2   6 C    3.972 --     7 C    1.351     3 C    1.339     1 N    1.155
     3   6 C    3.989 --     4 C    1.472     2 C    1.339    20 H    0.967
                             6 C    0.101
     4   6 C    3.992 --     3 C    1.472     5 C    1.395    21 H    0.969
                             7 C    0.102
     5   6 C    3.976 --     6 C    1.403     4 C    1.395     8 C    1.010
     6   6 C    3.991 --     7 C    1.458     5 C    1.403    22 H    0.967
                             3 C    0.101
     7   6 C    3.988 --     6 C    1.458     2 C    1.351    23 H    0.969
                             4 C    0.102
     8   6 C    3.990 --     5 C    1.010     9 C    0.980    24 H    0.969
                            25 H    0.967
     9   6 C    3.961 --     8 C    0.980    44 N    0.973    26 H    0.953
                            45 C    0.913
    10   6 C    3.927 --    16 O    1.703    11 C    1.098    29 H    0.940
                             1 N    0.108
    11   6 C    3.989 --    12 C    1.804    10 C    1.098    30 H    0.965
    12   6 C    3.978 --    11 C    1.804    13 C    1.047    31 H    0.961
    13   6 C    3.996 --    12 C    1.047    14 C    0.977    33 H    0.972
                            32 H    0.952
    14   6 C    3.994 --    15 C    1.018    34 H    0.980    35 H    0.979
                            13 C    0.977
    15   6 C    3.993 --    14 C    1.018    37 H    0.988    36 H    0.986
                            38 H    0.981
    16   8 O    2.023 --    10 C    1.703
    17   8 O    1.836 --    40 H    0.922    39 H    0.850
    18   1 H    0.952 --     1 N    0.887
    19   1 H    0.971 --     1 N    0.951
    20   1 H    0.998 --     3 C    0.967
    21   1 H    0.999 --     4 C    0.969
    22   1 H    0.999 --     6 C    0.967
    23   1 H    0.999 --     7 C    0.969
    24   1 H    0.996 --     8 C    0.969
    25   1 H    0.995 --     8 C    0.967
    26   1 H    0.996 --     9 C    0.953
    27   1 H    0.966 --    44 N    0.931
    28   1 H    0.958 --    53 N    0.906
    29   1 H    0.999 --    10 C    0.940
    30   1 H    0.999 --    11 C    0.965
    31   1 H    0.996 --    12 C    0.961
    32   1 H    0.997 --    13 C    0.952
    33   1 H    0.998 --    13 C    0.972
    34   1 H    0.999 --    14 C    0.980
    35   1 H    0.999 --    14 C    0.979
    36   1 H    0.997 --    15 C    0.986
    37   1 H    0.999 --    15 C    0.988
    38   1 H    0.996 --    15 C    0.981
    39   1 H    0.898 --    17 O    0.850
    40   1 H    0.924 --    17 O    0.922
    41   8 O    1.875 --    42 H    0.900    43 H    0.875
    42   1 H    0.912 --    41 O    0.900
    43   1 H    0.903 --    41 O    0.875
    44   7 N    3.458 --    48 C    1.280     9 C    0.973    27 H    0.931
                            49 O    0.192
    45   6 C    3.956 --    46 O    1.680    53 N    1.291     9 C    0.913
    46   8 O    2.012 --    45 C    1.680    53 N    0.212
    47   6 C    3.993 --    48 C    0.984    52 H    0.982    50 H    0.975
                            51 H    0.965
    48   6 C    3.951 --    49 O    1.634    44 N    1.280    47 C    0.984
    49   8 O    1.985 --    48 C    1.634    44 N    0.192
    50   1 H    0.997 --    47 C    0.975
    51   1 H    0.996 --    47 C    0.965
    52   1 H    0.994 --    47 C    0.982
    53   7 N    3.465 --    45 C    1.291    54 C    1.006    28 H    0.906
                            46 O    0.212
    54   6 C    3.965 --    53 N    1.006    55 H    0.977    57 H    0.977
                            56 H    0.976
    55   1 H    0.997 --    54 C    0.977
    56   1 H    0.998 --    54 C    0.976
    57   1 H    0.993 --    54 C    0.977
 ---------------------------------------------------------------------------

Topologies differ in total number of bonds
Writing topology from bond orders to xtbtopo.mol

molecular dipole:
                 x           y           z       tot (Debye)
 q only:       -0.069       0.218      -1.040
   full:       -0.503      -0.069      -1.563       4.176
molecular quadrupole (traceless):
                xx          xy          yy          xz          yz          zz
 q only:      -13.680       6.347       9.823      -9.191       2.114       3.858
  q+dip:      -18.603       0.871      12.781     -11.847       7.640       5.822
   full:      -19.278       1.573      11.388     -11.069       4.711       7.889

           -------------------------------------------------
          |               Frequency Printout                |
           -------------------------------------------------
 projected vibrational frequencies (cm⁻¹)
eigval :       -0.00    -0.00     0.00     0.00     0.00     0.00
eigval :       12.53    18.24    27.29    29.20    33.68    39.00
eigval :       48.25    54.59    59.66    61.80    71.42    75.60
eigval :       79.72    83.35    87.99    99.13   108.98   117.40
eigval :      125.42   129.83   140.71   157.47   157.65   171.48
eigval :      183.20   193.77   205.62   212.52   231.20   240.15
eigval :      261.78   289.47   290.61   296.32   301.64   330.46
eigval :      349.38   355.51   382.56   386.49   393.62   406.78
eigval :      416.15   435.16   444.14   450.44   476.80   488.67
eigval :      531.53   567.95   577.30   602.09   613.76   631.02
eigval :      643.02   673.43   676.36   692.76   725.71   728.26
eigval :      757.04   779.34   791.71   809.74   844.54   864.91
eigval :      869.93   883.45   893.05   908.71   922.07   923.39
eigval :      928.57   940.15   975.53   992.18   996.93  1002.41
eigval :     1009.83  1018.92  1034.21  1049.77  1073.58  1077.37
eigval :     1089.74  1104.61  1109.87  1117.05  1130.64  1144.67
eigval :     1159.95  1164.36  1196.39  1209.18  1219.47  1222.70
eigval :     1223.00  1239.40  1252.02  1265.74  1281.74  1285.06
eigval :     1287.25  1295.48  1312.42  1322.53  1342.80  1348.02
eigval :     1374.30  1381.56  1393.06  1419.00  1423.78  1430.12
eigval :     1433.80  1457.07  1462.66  1466.22  1473.31  1478.56
eigval :     1481.61  1484.37  1494.06  1501.27  1504.54  1514.31
eigval :     1548.29  1551.20  1577.17  1615.25  1636.31  1678.17
eigval :     1710.49  1759.44  2804.20  2913.94  2956.54  2969.93
eigval :     2970.28  2985.54  2991.27  2991.81  3003.13  3008.03
eigval :     3021.94  3030.88  3031.33  3032.40  3039.48  3051.26
eigval :     3055.61  3056.96  3064.26  3070.48  3075.31  3082.22
eigval :     3095.38  3218.15  3313.26  3321.75  3451.43  3453.72
eigval :     3465.88  3577.85  3666.46
 reduced masses (amu)
   1: 11.44   2: 12.52   3: 12.28   4: 12.06   5: 12.31   6: 12.49   7: 11.56   8: 12.11
   9: 12.80  10: 11.84  11: 12.54  12: 12.01  13: 11.35  14: 12.75  15: 10.15  16: 10.88
  17:  4.21  18:  7.14  19: 10.31  20: 11.09  21: 10.49  22:  9.25  23: 11.44  24: 11.89
  25:  2.50  26: 11.47  27: 11.31  28: 11.14  29:  6.57  30: 11.96  31: 12.39  32: 11.37
  33: 10.79  34: 11.54  35: 10.92  36: 12.37  37:  1.97  38:  7.23  39:  8.28  40:  9.11
  41:  9.89  42:  9.73  43:  8.98  44: 10.78  45:  8.97  46:  3.30  47:  8.27  48:  6.70
  49:  9.63  50:  6.00  51:  4.63  52:  9.46  53: 10.47  54: 10.73  55:  9.56  56:  2.96
  57:  8.19  58: 10.06  59: 10.99  60:  2.40  61:  8.44  62:  8.06  63:  3.80  64:  7.75
  65:  9.68  66: 11.46  67:  5.98  68:  9.23  69:  2.52  70:  6.08  71:  3.73  72:  3.44
  73:  8.34  74:  9.84  75:  3.70  76:  2.69  77:  4.54  78:  4.73  79:  8.56  80:  6.07
  81: 10.97  82:  5.68  83:  5.24  84:  5.28  85:  3.57  86:  8.36  87:  7.80  88:  4.30
  89:  5.39  90:  6.69  91:  8.81  92:  3.91  93:  7.23  94:  8.08  95:  7.37  96:  3.23
  97:  8.47  98:  6.16  99:  1.85 100:  5.25 101:  4.99 102:  5.93 103:  4.60 104:  3.42
 105:  4.63 106:  2.48 107:  4.25 108:  3.24 109:  3.74 110:  4.03 111:  5.83 112:  9.62
 113: 11.12 114:  4.95 115:  3.28 116:  3.42 117:  2.62 118:  3.24 119:  9.98 120:  9.73
 121:  8.60 122:  1.67 123:  1.57 124:  1.66 125:  2.11 126:  2.15 127:  3.76 128:  2.48
 129:  1.87 130:  1.52 131:  1.63 132:  9.14 133:  2.31 134:  2.46 135: 11.54 136: 11.54
 137: 12.10 138: 12.02 139: 13.11 140: 13.20 141:  1.70 142:  1.74 143:  1.78 144:  1.90
 145:  1.89 146:  1.54 147:  1.49 148:  1.94 149:  1.54 150:  1.70 151:  1.82 152:  1.81
 153:  1.60 154:  1.73 155:  1.64 156:  1.79 157:  1.74 158:  1.78 159:  1.75 160:  1.86
 161:  1.80 162:  1.83 163:  1.86 164:  1.79 165:  1.87 166:  1.88 167:  1.90 168:  1.84
 169:  1.88 170:  1.78 171:  1.84
 IR intensities (km·mol⁻¹)
   1:  0.31   2:  0.09   3:  0.05   4:  0.09   5:  0.02   6:  0.16   7:  0.23   8:  0.30
   9:  0.45  10:  0.24  11:  2.83  12:  1.58  13:  4.45  14:  5.32  15:  1.88  16:  0.39
  17:  3.45  18:  3.42  19:  0.66  20:  7.79  21:  0.23  22:  7.45  23: 16.45  24: 14.64
  25:  0.71  26:  5.66  27:  9.39  28: 16.10  29: 37.95  30:  9.07  31: 22.19  32: 23.04
  33: 25.51  34: 41.38  35: 28.45  36:  8.70  37:  0.50  38: 27.21  39: 26.41  40:  7.55
  41:  7.70  42: 19.96  43: 23.40  44: 29.31  45:  1.90  46: 35.19  47: 38.64  48: 84.19
  49: 17.17  50:139.04  51: 98.29  52:  5.34  53:  2.48  54:  0.30  55: 12.80  56: 46.85
  57:  4.84  58: 31.62  59:  9.32  60:561.98  61: 50.50  62:  7.40  63:184.77  64: 26.28
  65: 72.89  66: 13.10  67:  4.07  68:  8.68  69: 17.91  70: 19.93  71:151.94  72:  6.73
  73:  2.10  74:  1.66  75: 10.04  76:  0.73  77:  9.03  78: 38.72  79:  2.93  80:  3.75
  81: 19.62  82:  3.79  83: 20.37  84: 23.29  85: 21.77  86:  0.06  87: 18.53  88:  3.12
  89:  8.35  90: 25.61  91:  0.06  92:  0.47  93: 12.77  94: 28.71  95: 22.88  96:  1.50
  97:  0.48  98:  1.34  99:  4.33 100:  2.52 101:  1.90 102: 10.51 103:  5.46 104: 12.18
 105: 35.13 106:  0.69 107: 13.83 108:  2.38 109:  4.41 110:  2.31 111: 15.74 112: 32.53
 113:  7.73 114:  5.65 115: 18.85 116: 21.66 117:  3.02 118:  3.10 119:208.82 120: 17.06
 121:228.19 122:  2.86 123: 10.35 124:  9.43 125:  5.62 126:  1.49 127: 19.19 128: 23.06
 129:  0.81 130:  4.33 131:  5.00 132:180.72 133:200.59 134: 22.24 135:  3.20 136: 11.27
 137:713.22 138:175.23 139:318.10 140:576.04 141:108.10 142: 13.76 143:  4.64 144: 24.33
 145: 48.29 146: 30.27 147: 42.21 148: 13.96 149: 17.24 150: 23.72 151: 11.08 152: 49.53
 153: 11.45 154:  6.41 155: 47.25 156: 34.96 157:  0.04 158: 16.67 159:  4.11 160: 58.27
 161: 18.42 162: 36.54 163: 23.31 164:517.95 165:763.76 166:122.59 167:254.51 168: 23.77
 169: 23.93 170: 39.85 171:  8.99
 Raman intensities (Ä⁴*amu⁻¹)
   1:  0.00   2:  0.00   3:  0.00   4:  0.00   5:  0.00   6:  0.00   7:  0.00   8:  0.00
   9:  0.00  10:  0.00  11:  0.00  12:  0.00  13:  0.00  14:  0.00  15:  0.00  16:  0.00
  17:  0.00  18:  0.00  19:  0.00  20:  0.00  21:  0.00  22:  0.00  23:  0.00  24:  0.00
  25:  0.00  26:  0.00  27:  0.00  28:  0.00  29:  0.00  30:  0.00  31:  0.00  32:  0.00
  33:  0.00  34:  0.00  35:  0.00  36:  0.00  37:  0.00  38:  0.00  39:  0.00  40:  0.00
  41:  0.00  42:  0.00  43:  0.00  44:  0.00  45:  0.00  46:  0.00  47:  0.00  48:  0.00
  49:  0.00  50:  0.00  51:  0.00  52:  0.00  53:  0.00  54:  0.00  55:  0.00  56:  0.00
  57:  0.00  58:  0.00  59:  0.00  60:  0.00  61:  0.00  62:  0.00  63:  0.00  64:  0.00
  65:  0.00  66:  0.00  67:  0.00  68:  0.00  69:  0.00  70:  0.00  71:  0.00  72:  0.00
  73:  0.00  74:  0.00  75:  0.00  76:  0.00  77:  0.00  78:  0.00  79:  0.00  80:  0.00
  81:  0.00  82:  0.00  83:  0.00  84:  0.00  85:  0.00  86:  0.00  87:  0.00  88:  0.00
  89:  0.00  90:  0.00  91:  0.00  92:  0.00  93:  0.00  94:  0.00  95:  0.00  96:  0.00
  97:  0.00  98:  0.00  99:  0.00 100:  0.00 101:  0.00 102:  0.00 103:  0.00 104:  0.00
 105:  0.00 106:  0.00 107:  0.00 108:  0.00 109:  0.00 110:  0.00 111:  0.00 112:  0.00
 113:  0.00 114:  0.00 115:  0.00 116:  0.00 117:  0.00 118:  0.00 119:  0.00 120:  0.00
 121:  0.00 122:  0.00 123:  0.00 124:  0.00 125:  0.00 126:  0.00 127:  0.00 128:  0.00
 129:  0.00 130:  0.00 131:  0.00 132:  0.00 133:  0.00 134:  0.00 135:  0.00 136:  0.00
 137:  0.00 138:  0.00 139:  0.00 140:  0.00 141:  0.00 142:  0.00 143:  0.00 144:  0.00
 145:  0.00 146:  0.00 147:  0.00 148:  0.00 149:  0.00 150:  0.00 151:  0.00 152:  0.00
 153:  0.00 154:  0.00 155:  0.00 156:  0.00 157:  0.00 158:  0.00 159:  0.00 160:  0.00
 161:  0.00 162:  0.00 163:  0.00 164:  0.00 165:  0.00 166:  0.00 167:  0.00 168:  0.00
 169:  0.00 170:  0.00 171:  0.00
 output can be read by thermo (or use thermo option).
 writing <g98.out> molden fake output.
 recommended (thermochemical) frequency scaling factor: 1.0
           -------------------------------------------------
          |             Thermodynamic Functions             |
           -------------------------------------------------

Refinement of some symmetry elements was terminated before convergence was reached.
Some symmetry elements may remain unidentified.
Molecule has no symmetry elements
It seems to be the C1 point group
c1  symmetry found (for desy threshold:  0.10E+00) used in thermo

          ...................................................
          :                      SETUP                      :
          :.................................................:
          :  # frequencies                         165      :
          :  # imaginary freq.                       0      :
          :  linear?                             false      :
          :  only rotor calc.                    false      :
          :  symmetry                               c1      :
          :  rotational number                       1      :
          :  scaling factor                  1.0000000      :
          :  rotor cutoff                   50.0000000 cm⁻¹ :
          :  imag. cutoff                  -20.0000000 cm⁻¹ :
          :.................................................:

    mode    ω/cm⁻¹     T·S(HO)/kcal·mol⁻¹    T·S(FR)/kcal·mol⁻¹   T·S(vib)
   ------------------------------------------------------------------------
       1     12.53    -2.25510 (  0.39%)    -1.46652 ( 99.61%)    -1.46961
       2     18.24    -2.03254 (  1.74%)    -1.35522 ( 98.26%)    -1.36701
       3     27.29    -1.79409 (  8.15%)    -1.23590 ( 91.85%)    -1.28139
       4     29.20    -1.75400 ( 10.42%)    -1.21583 ( 89.58%)    -1.27191
       5     33.68    -1.66970 ( 17.07%)    -1.17360 ( 82.93%)    -1.25826
       6     39.00    -1.58300 ( 27.01%)    -1.13015 ( 72.99%)    -1.25246
       7     48.25    -1.45734 ( 46.44%)    -1.06709 ( 53.56%)    -1.24832
       8     54.59    -1.38450 ( 58.70%)    -1.03049 ( 41.30%)    -1.23829
       9     59.66    -1.33221 ( 66.97%)    -1.00418 ( 33.03%)    -1.22386
      10     61.80    -1.31156 ( 70.00%)    -0.99378 ( 30.00%)    -1.21623
      11     71.42    -1.22654 ( 80.63%)    -0.95091 ( 19.37%)    -1.17315
      12     75.60    -1.19322 ( 83.94%)    -0.93408 ( 16.06%)    -1.15160
      13     79.72    -1.16214 ( 86.60%)    -0.91835 ( 13.40%)    -1.12947
      14     83.35    -1.13608 ( 88.53%)    -0.90515 ( 11.47%)    -1.10960
      15     87.99    -1.10442 ( 90.56%)    -0.88910 (  9.44%)    -1.08409
      16     99.13    -1.03497 ( 93.92%)    -0.85378 (  6.08%)    -1.02395
      17    108.98    -0.98001 ( 95.76%)    -0.82572 (  4.24%)    -0.97347
      18    117.40    -0.93701 ( 96.81%)    -0.80368 (  3.19%)    -0.93276
      19    125.42    -0.89897 ( 97.54%)    -0.78411 (  2.46%)    -0.89614
      20    129.83    -0.87913 ( 97.85%)    -0.77387 (  2.15%)    -0.87686
      21    140.71    -0.83307 ( 98.43%)    -0.75002 (  1.57%)    -0.83177
      22    157.47    -0.76921 ( 98.99%)    -0.71669 (  1.01%)    -0.76868
      23    157.65    -0.76857 ( 99.00%)    -0.71635 (  1.00%)    -0.76805
      24    171.48    -0.72127 ( 99.28%)    -0.69144 (  0.72%)    -0.72106
      25    183.20    -0.68442 ( 99.45%)    -0.67186 (  0.55%)    -0.68435
      26    193.77    -0.65338 ( 99.56%)    -0.65524 (  0.44%)    -0.65339
      27    205.62    -0.62082 ( 99.65%)    -0.63766 (  0.35%)    -0.62088
      28    212.52    -0.60284 ( 99.69%)    -0.62788 (  0.31%)    -0.60291
      29    231.20    -0.55742 ( 99.78%)    -0.60292 (  0.22%)    -0.55752
      30    240.15    -0.53719 ( 99.81%)    -0.59167 (  0.19%)    -0.53729
      31    261.78    -0.49190 ( 99.87%)    -0.56612 (  0.13%)    -0.49200
      32    289.47    -0.44039 ( 99.91%)    -0.53634 (  0.09%)    -0.44047
      33    290.61    -0.43840 ( 99.91%)    -0.53517 (  0.09%)    -0.43848
      34    296.32    -0.42862 ( 99.92%)    -0.52941 (  0.08%)    -0.42870
   ------------------------------------------------------------------------

   temp. (K)  partition function   enthalpy   heat capacity  entropy
                                   cal/mol     cal/K/mol   cal/K/mol   J/K/mol
 298.15  VIB  0.540E+17            19679.353    106.818    129.322
         ROT  0.156E+08              888.752      2.981     35.897
         INT  0.843E+24            20568.106    109.799    165.219
         TR   0.687E+28             1481.254      4.968     43.594
         TOT                       22049.3594   114.7670   208.8124   873.6713

       T/K    H(0)-H(T)+PV         H(T)/Eh          T*S/Eh         G(T)/Eh
   ------------------------------------------------------------------------
    298.15    0.351379E-01    0.503001E+00    0.992135E-01    0.403787E+00
   ------------------------------------------------------------------------

         :::::::::::::::::::::::::::::::::::::::::::::::::::::
         ::                  THERMODYNAMIC                  ::
         :::::::::::::::::::::::::::::::::::::::::::::::::::::
         :: total free energy         -83.035437291799 Eh   ::
         ::.................................................::
         :: total energy              -83.439224479659 Eh   ::
         :: zero point energy           0.467862827302 Eh   ::
         :: G(RRHO) w/o ZPVE           -0.064075639443 Eh   ::
         :: G(RRHO) contrib.            0.403787187860 Eh   ::
         :::::::::::::::::::::::::::::::::::::::::::::::::::::

           -------------------------------------------------
          | TOTAL ENERGY              -83.439224479659 Eh   |
          | TOTAL ENTHALPY            -82.936223761478 Eh   |
          | TOTAL FREE ENERGY         -83.035437291799 Eh   |
          | GRADIENT NORM               0.000155015919 Eh/α |
          | HOMO-LUMO GAP               2.210994080021 eV   |
           -------------------------------------------------

------------------------------------------------------------------------
 * finished run on 2026/08/20 at 20:30:33.463     
------------------------------------------------------------------------
 total:
 * wall-time:     0 d,  0 h,  0 min,  5.344 sec
 *  cpu-time:     0 d,  0 h,  0 min, 35.406 sec
 * ratio c/w:     6.625 speedup
 SCF:
 * wall-time:     0 d,  0 h,  0 min,  0.052 sec
 *  cpu-time:     0 d,  0 h,  0 min,  0.141 sec
 * ratio c/w:     2.704 speedup
 analytical hessian:
 * wall-time:     0 d,  0 h,  0 min,  5.260 sec
 *  cpu-time:     0 d,  0 h,  0 min, 35.219 sec
 * ratio c/w:     6.696 speedup



===== STDERR =====

normal termination of xtb
