      -----------------------------------------------------------      
     |                   =====================                   |     
     |                           x T B                           |     
     |                   =====================                   |     
     |                         S. Grimme                         |     
     |          Mulliken Center for Theoretical Chemistry        |     
     |                    University of Bonn                     |     
      -----------------------------------------------------------      

   * xtb version 6.7.1pre (5071a88) compiled by 'Marcel@Raven' on 2024-07-23

   xtb is free software: you can redistribute it and/or modify it under
   the terms of the GNU Lesser General Public License as published by
   the Free Software Foundation, either version 3 of the License, or
   (at your option) any later version.
   
   xtb is distributed in the hope that it will be useful,
   but WITHOUT ANY WARRANTY; without even the implied warranty of
   MERCHANTABILITY or FITNESS FOR A PARTICULAR PURPOSE.  See the
   GNU Lesser General Public License for more details.
   
   Cite this work as:
   * C. Bannwarth, E. Caldeweyher, S. Ehlert, A. Hansen, P. Pracht,
     J. Seibert, S. Spicher, S. Grimme, WIREs Comput. Mol. Sci., 2020, 11,
     e01493. DOI: 10.1002/wcms.1493
   
   for GFN2-xTB:
   * C. Bannwarth, S. Ehlert and S. Grimme., J. Chem. Theory Comput., 2019,
     15, 1652-1671. DOI: 10.1021/acs.jctc.8b01176
   for GFN1-xTB:
   * S. Grimme, C. Bannwarth, P. Shushkov, J. Chem. Theory Comput., 2017,
     13, 1989-2009. DOI: 10.1021/acs.jctc.7b00118
   for GFN0-xTB:
   * P. Pracht, E. Caldeweyher, S. Ehlert, S. Grimme, ChemRxiv, 2019, preprint.
     DOI: 10.26434/chemrxiv.8326202.v1
   for GFN-FF:
   * S. Spicher and S. Grimme, Angew. Chem. Int. Ed., 2020, 59, 15665-15673.
     DOI: 10.1002/anie.202004239
   
   for ALPB and GBSA implicit solvation:
   * S. Ehlert, M. Stahn, S. Spicher, S. Grimme, J. Chem. Theory Comput.,
     2021, 17, 4250-4261. DOI: 10.1021/acs.jctc.1c00471
   
   for ddCOSMO and CPCM-X implicit solvation:
   * M. Stahn, S. Ehlert, S. Grimme, J. Phys. Chem. A,
     2023, XX, XXXX-XXXX. DOI: 10.1021/acs.jpca.3c04382
   
   for DFT-D4:
   * E. Caldeweyher, C. Bannwarth and S. Grimme, J. Chem. Phys., 2017,
     147, 034112. DOI: 10.1063/1.4993215
   * E. Caldeweyher, S. Ehlert, A. Hansen, H. Neugebauer, S. Spicher,
     C. Bannwarth and S. Grimme, J. Chem. Phys., 2019, 150, 154122.
     DOI: 10.1063/1.5090222
   * E. Caldeweyher, J.-M. Mewes, S. Ehlert and S. Grimme, Phys. Chem. Chem. Phys.
     2020, 22, 8499-8512. DOI: 10.1039/D0CP00502A
   
   for sTDA-xTB:
   * S. Grimme and C. Bannwarth, J. Chem. Phys., 2016, 145, 054103.
     DOI: 10.1063/1.4959605
   
   in the mass-spec context:
   * V. Asgeirsson, C. Bauer and S. Grimme, Chem. Sci., 2017, 8, 4879.
     DOI: 10.1039/c7sc00601b
   * J. Koopman and S. Grimme, ACS Omega 2019, 4, 12, 15120-15133.
     DOI: 10.1021/acsomega.9b02011
   
   for metadynamics refer to:
   * S. Grimme, J. Chem. Theory Comput., 2019, 155, 2847-2862
     DOI: 10.1021/acs.jctc.9b00143
   
   for SPH calculations refer to:
   * S. Spicher and S. Grimme, J. Chem. Theory Comput., 2021, 17, 1701-1714
     DOI: 10.1021/acs.jctc.0c01306
   
   for ONIOM refer to:
   * C. Plett, A. Katbashev, S. Ehlert, S. Grimme, M. Bursch,
     Phys. Chem. Chem. Phys., 2023, 25, 17860-17868. DOI: 10.1039/D3CP02178E
   
   for DIPRO refer to:
   * J. Kohn, N. Gildemeister, S. Grimme, D. Fazzi, A. Hansen,
     J. Chem. Phys., 2023, just accepted.
   
   for PTB refer to:
   * S. Grimme, M. Mueller, A. Hansen, J. Chem. Phys., 2023, 158, 124111.
     DOI: 10.1063/5.0137838
   
   with help from (in alphabetical order)
   P. Atkinson, C. Bannwarth, F. Bohle, G. Brandenburg, E. Caldeweyher
   M. Checinski, S. Dohm, S. Ehlert, S. Ehrlich, I. Gerasimov, C. Hölzer
   A. Katbashev, J. Kohn, J. Koopman, C. Lavigne, S. Lehtola, F. März, M. Müller,
   F. Musil, H. Neugebauer, J. Pisarek, C. Plett, P. Pracht, F. Pultar,
   J. Seibert, P. Shushkov, S. Spicher, M. Stahn, M. Steiner, T. Strunk,
   J. Stückrath, T. Rose, and J. Unsleber
   
 * started run on 2026/08/20 at 20:30:44.870     
   ID    Z sym.   atoms
    1    7 N      1, 44, 53
    2    6 C      2-15, 45, 47, 48, 54
    3    8 O      16, 17, 41, 46, 49
    4    1 H      18-40, 42, 43, 50-52, 55-57

           -------------------------------------------------
          |                Calculation Setup                |
           -------------------------------------------------

          program call               : C:\Users\Nayanika\Downloads\xtb-6.7.1pre-windows-x86_64\xtb-6.7.1\bin\xtb.exe D:\PhD_Thesis\LmrR_EVB\charges\fast_lmrr_5QM\xtb_preparation\stage2_five_xtb_protocols\GFN2_etemp300\TS1_2_to_PS1_2b\TS1_2_to_PS1_2b_TS_xtbopt.xyz --gfn 2 --chrg 0 --uhf 0 --hess --etemp 300
          coordinate file            : D:\PhD_Thesis\LmrR_EVB\charges\fast_lmrr_5QM\xtb_preparation\stage2_five_xtb_protocols\GFN2_etemp300\TS1_2_to_PS1_2b\TS1_2_to_PS1_2b_TS_xtbopt.xyz
          omp threads                :                     8


molecular fragmentation (1/2 indicates fragments):
111111111222222221111111111122222222222222211111111111111
# atoms in fragment 1/2:    34    23
 fragment masses (1/2) :      235.28      134.17
CMA distance (Bohr)    :   9.554
constraining FC (au)   :  0.0500

           -------------------------------------------------
          |                 G F N 2 - x T B                 |
           -------------------------------------------------

        Reference                      10.1021/acs.jctc.8b01176
      * Hamiltonian:
        H0-scaling (s, p, d)           1.850000    2.230000    2.230000
        zeta-weighting                 0.500000
      * Dispersion:
        s8                             2.700000
        a1                             0.520000
        a2                             5.000000
        s9                             5.000000
      * Repulsion:
        kExp                           1.500000    1.000000
        rExp                           1.000000
      * Coulomb:
        alpha                          2.000000
        third order                    shell-resolved
        anisotropic                    true
        a3                             3.000000
        a5                             4.000000
        cn-shift                       1.200000
        cn-exp                         4.000000
        max-rad                        5.000000

q/qsh data taken from xtbrestart
CAMM data taken from xtbrestart

          ...................................................
          :                      SETUP                      :
          :.................................................:
          :  # basis functions                 135          :
          :  # atomic orbitals                 135          :
          :  # shells                           83          :
          :  # electrons                       148          :
          :  max. iterations                   250          :
          :  Hamiltonian                  GFN2-xTB          :
          :  restarted?                       true          :
          :  GBSA solvation                  false          :
          :  PC potential                    false          :
          :  electronic temp.          300.0000000     K    :
          :  accuracy                    1.0000000          :
          :  -> integral cutoff          0.2500000E+02      :
          :  -> integral neglect         0.1000000E-07      :
          :  -> SCF convergence          0.1000000E-05 Eh   :
          :  -> wf. convergence          0.1000000E-03 e    :
          :  Broyden damping             0.4000000          :
          :  net charge                          0          :
          :  unpaired electrons                  0          :
          ...................................................

 iter      E             dE          RMSdq      gap      omega  full diag
   1    -84.5406208 -0.845406E+02  0.173E-06    2.19       0.0  T
   2    -84.5406208  0.852651E-13  0.136E-06    2.19    9737.0  T
   3    -84.5406208 -0.113687E-12  0.560E-07    2.19   23636.7  T

   *** convergence criteria satisfied after 3 iterations ***

         #    Occupation            Energy/Eh            Energy/eV
      -------------------------------------------------------------
         1        2.0000           -0.7122938             -19.3825
       ...           ...                  ...                  ...
        68        2.0000           -0.4165123             -11.3339
        69        2.0000           -0.4111108             -11.1869
        70        2.0000           -0.4060553             -11.0493
        71        2.0000           -0.4008888             -10.9087
        72        2.0000           -0.3996996             -10.8764
        73        2.0000           -0.3870993             -10.5335
        74        2.0000           -0.3660249              -9.9600 (HOMO)
        75                         -0.2854849              -7.7684 (LUMO)
        76                         -0.2244984              -6.1089
        77                         -0.2224568              -6.0534
        78                         -0.2151245              -5.8538
        79                         -0.2079601              -5.6589
       ...                                ...                  ...
       135                          0.6585546              17.9202
      -------------------------------------------------------------
                  HL-Gap            0.0805400 Eh            2.1916 eV
             Fermi-level           -0.3257549 Eh           -8.8642 eV

 SCC (total)                   0 d,  0 h,  0 min,  0.040 sec
 SCC setup                      ...        0 min,  0.000 sec (  0.000%)
 Dispersion                     ...        0 min,  0.000 sec (  0.000%)
 classical contributions        ...        0 min,  0.002 sec (  5.000%)
 integral evaluation            ...        0 min,  0.002 sec (  5.000%)
 iterations                     ...        0 min,  0.016 sec ( 40.000%)
 molecular gradient             ...        0 min,  0.019 sec ( 47.500%)
 printout                       ...        0 min,  0.000 sec (  0.000%)

         :::::::::::::::::::::::::::::::::::::::::::::::::::::
         ::                     SUMMARY                     ::
         :::::::::::::::::::::::::::::::::::::::::::::::::::::
         :: total energy             -83.439136597872 Eh    ::
         :: gradient norm              0.000319393672 Eh/a0 ::
         :: HOMO-LUMO gap              2.191604415252 eV    ::
         ::.................................................::
         :: SCC energy               -84.538658808954 Eh    ::
         :: -> isotropic ES            0.175989909922 Eh    ::
         :: -> anisotropic ES         -0.001630687295 Eh    ::
         :: -> anisotropic XC          0.029490271515 Eh    ::
         :: -> dispersion             -0.058085531662 Eh    ::
         :: repulsion energy           1.099522211082 Eh    ::
         :: add. restraining           0.000000000000 Eh    ::
         :: total charge               0.000000000000 e     ::
         :::::::::::::::::::::::::::::::::::::::::::::::::::::

           ------------------------------------------------- 
          |                Numerical Hessian                |
           ------------------------------------------------- 
step length          :   0.00500
SCC accuracy         :   0.30000
Hessian scale factor :   1.00000
frozen atoms in %    :   0.00000    0
RMS gradient         :   0.00032
estimated CPU  time      4.75 min
estimated wall time      0.71 min

writing file <hessian>.

 projected vibrational frequencies (cm⁻¹)
eigval :       -0.00    -0.00    -0.00     0.00     0.00     0.00
eigval :       12.25    17.48    27.26    29.27    32.79    37.94
eigval :       46.99    54.61    59.76    61.80    68.82    77.19
eigval :       80.10    84.60    91.86   100.04   107.20   116.74
eigval :      124.89   129.34   137.14   155.91   156.85   169.90
eigval :      180.59   192.45   203.06   211.32   226.32   239.67
eigval :      261.34   289.92   291.37   296.30   301.76   329.64
eigval :      349.91   355.09   382.14   386.41   393.27   406.49
eigval :      415.66   438.03   444.89   448.29   477.04   488.64
eigval :      531.57   564.28   577.55   601.94   612.65   617.80
eigval :      642.20   662.54   673.55   692.14   725.13   728.19
eigval :      755.03   779.23   791.40   809.59   838.11   865.13
eigval :      870.44   883.20   892.49   908.57   921.78   922.63
eigval :      928.73   940.60   975.59   991.91   996.87  1002.04
eigval :     1009.80  1019.04  1033.84  1047.73  1073.86  1077.42
eigval :     1089.54  1104.64  1110.57  1117.06  1130.41  1144.67
eigval :     1160.53  1164.10  1196.41  1209.00  1219.59  1222.00
eigval :     1222.52  1238.58  1252.43  1265.59  1281.50  1284.74
eigval :     1286.76  1296.29  1312.54  1322.37  1343.02  1348.55
eigval :     1374.11  1381.68  1393.03  1418.56  1423.87  1430.01
eigval :     1433.81  1456.92  1462.56  1465.84  1471.74  1478.39
eigval :     1480.07  1484.40  1493.68  1501.25  1504.54  1514.08
eigval :     1547.78  1552.81  1577.20  1615.25  1636.05  1677.46
eigval :     1710.74  1759.55  2804.29  2914.88  2955.33  2970.48
eigval :     2970.93  2986.20  2991.21  2992.05  3002.62  3010.18
eigval :     3022.79  3030.93  3031.62  3032.72  3039.95  3052.62
eigval :     3054.90  3058.28  3064.75  3071.32  3075.29  3083.20
eigval :     3094.91  3230.21  3325.27  3329.16  3454.29  3467.41
eigval :     3477.67  3558.85  3666.79
           -------------------------------------------------
          |                Property Printout                |
           -------------------------------------------------

    * Orbital Energies and Occupations

         #    Occupation            Energy/Eh            Energy/eV
      -------------------------------------------------------------
         1        2.0000           -0.7122938             -19.3825
       ...           ...                  ...                  ...
        62        2.0000           -0.4363684             -11.8742
        63        2.0000           -0.4361567             -11.8684
        64        2.0000           -0.4338339             -11.8052
        65        2.0000           -0.4304884             -11.7142
        66        2.0000           -0.4267722             -11.6131
        67        2.0000           -0.4205592             -11.4440
        68        2.0000           -0.4165123             -11.3339
        69        2.0000           -0.4111108             -11.1869
        70        2.0000           -0.4060553             -11.0493
        71        2.0000           -0.4008888             -10.9087
        72        2.0000           -0.3996996             -10.8764
        73        2.0000           -0.3870993             -10.5335
        74        2.0000           -0.3660249              -9.9600 (HOMO)
        75                         -0.2854849              -7.7684 (LUMO)
        76                         -0.2244984              -6.1089
        77                         -0.2224568              -6.0534
        78                         -0.2151245              -5.8538
        79                         -0.2079601              -5.6589
        80                         -0.1700713              -4.6279
        81                         -0.0922533              -2.5103
        82                         -0.0016298              -0.0443
        83                          0.0078508               0.2136
        84                          0.0274905               0.7481
        85                          0.0735953               2.0026
       ...                                ...                  ...
       135                          0.6585546              17.9202
      -------------------------------------------------------------
                  HL-Gap            0.0805400 Eh            2.1916 eV
             Fermi-level           -0.3257549 Eh           -8.8642 eV

     #   Z          covCN         q      C6AA      α(0)
     1   7 N        2.649    -0.277    27.171     7.742
     2   6 C        2.900     0.076    26.294     8.408
     3   6 C        2.923    -0.059    29.468     8.902
     4   6 C        2.924    -0.038    28.949     8.823
     5   6 C        2.971    -0.005    28.138     8.701
     6   6 C        2.924    -0.044    29.088     8.844
     7   6 C        2.922    -0.063    29.572     8.918
     8   6 C        3.812    -0.070    21.824     6.650
     9   6 C        3.797     0.020    20.240     6.406
    10   6 C        2.774     0.209    23.576     7.952
    11   6 C        2.890    -0.064    29.593     8.919
    12   6 C        2.896    -0.000    28.035     8.681
    13   6 C        3.808    -0.061    21.672     6.627
    14   6 C        3.802    -0.046    21.405     6.587
    15   6 C        3.753    -0.110    22.665     6.789
    16   8 O        0.856    -0.427    22.219     6.320
    17   8 O        1.609    -0.607    25.362     6.797
    18   1 H        0.860     0.217     1.025     1.586
    19   1 H        0.860     0.170     1.271     1.766
    20   1 H        0.926     0.040     2.445     2.445
    21   1 H        0.926     0.031     2.566     2.505
    22   1 H        0.925     0.023     2.688     2.564
    23   1 H        0.926     0.024     2.667     2.554
    24   1 H        0.924     0.061     2.188     2.313
    25   1 H        0.924     0.059     2.216     2.328
    26   1 H        0.924     0.061     2.191     2.315
    27   1 H        0.860     0.183     1.198     1.715
    28   1 H        0.860     0.205     1.080     1.628
    29   1 H        0.923     0.011     2.876     2.652
    30   1 H        0.926     0.036     2.497     2.471
    31   1 H        0.925     0.064     2.148     2.292
    32   1 H        0.924     0.057     2.238     2.339
    33   1 H        0.924     0.047     2.357     2.401
    34   1 H        0.924     0.033     2.549     2.497
    35   1 H        0.924     0.033     2.542     2.493
    36   1 H        0.925     0.036     2.508     2.476
    37   1 H        0.925     0.033     2.541     2.493
    38   1 H        0.925     0.061     2.187     2.312
    39   1 H        0.804     0.318     0.669     1.285
    40   1 H        0.806     0.275     0.803     1.407
    41   8 O        1.609    -0.595    25.078     6.759
    42   1 H        0.805     0.300     0.722     1.335
    43   1 H        0.804     0.309     0.694     1.308
    44   7 N        2.692    -0.182    24.933     7.416
    45   6 C        2.753     0.264    22.553     7.776
    46   8 O        0.858    -0.434    22.370     6.341
    47   6 C        3.757    -0.141    23.275     6.878
    48   6 C        2.749     0.277    22.316     7.735
    49   8 O        0.859    -0.462    22.951     6.423
    50   1 H        0.925     0.052     2.298     2.370
    51   1 H        0.925     0.063     2.167     2.302
    52   1 H        0.925     0.074     2.042     2.235
    53   7 N        2.686    -0.177    24.835     7.401
    54   6 C        3.690    -0.043    21.527     6.640
    55   1 H        0.924     0.053     2.285     2.364
    56   1 H        0.924     0.049     2.329     2.387
    57   1 H        0.925     0.083     1.953     2.186

 Mol. C6AA /au·bohr⁶  :      29541.676524
 Mol. C8AA /au·bohr⁸  :     657836.248034
 Mol. α(0) /au        :        262.761286


Wiberg/Mayer (AO) data.
largest (>0.10) Wiberg bond orders for each atom

 ---------------------------------------------------------------------------
     #   Z sym  total        # sym  WBO       # sym  WBO       # sym  WBO
 ---------------------------------------------------------------------------
     1   7 N    3.356 --     2 C    1.156    19 H    0.950    18 H    0.889
                            10 C    0.108
     2   6 C    3.972 --     7 C    1.351     3 C    1.338     1 N    1.156
     3   6 C    3.989 --     4 C    1.472     2 C    1.338    20 H    0.967
                             6 C    0.101
     4   6 C    3.992 --     3 C    1.472     5 C    1.395    21 H    0.969
                             7 C    0.102
     5   6 C    3.977 --     6 C    1.404     4 C    1.395     8 C    1.010
     6   6 C    3.991 --     7 C    1.458     5 C    1.404    22 H    0.968
                             3 C    0.101
     7   6 C    3.987 --     6 C    1.458     2 C    1.351    23 H    0.969
                             4 C    0.102
     8   6 C    3.990 --     5 C    1.010     9 C    0.980    24 H    0.970
                            25 H    0.966
     9   6 C    3.961 --     8 C    0.980    44 N    0.973    26 H    0.952
                            45 C    0.914
    10   6 C    3.927 --    16 O    1.701    11 C    1.099    29 H    0.940
                             1 N    0.108
    11   6 C    3.989 --    12 C    1.803    10 C    1.099    30 H    0.965
    12   6 C    3.978 --    11 C    1.803    13 C    1.047    31 H    0.961
    13   6 C    3.996 --    12 C    1.047    14 C    0.978    33 H    0.972
                            32 H    0.951
    14   6 C    3.994 --    15 C    1.018    34 H    0.980    35 H    0.979
                            13 C    0.978
    15   6 C    3.993 --    14 C    1.018    37 H    0.988    36 H    0.986
                            38 H    0.982
    16   8 O    2.021 --    10 C    1.701
    17   8 O    1.833 --    40 H    0.922    39 H    0.853
    18   1 H    0.953 --     1 N    0.889
    19   1 H    0.970 --     1 N    0.950
    20   1 H    0.998 --     3 C    0.967
    21   1 H    0.999 --     4 C    0.969
    22   1 H    0.999 --     6 C    0.968
    23   1 H    0.999 --     7 C    0.969
    24   1 H    0.996 --     8 C    0.970
    25   1 H    0.995 --     8 C    0.966
    26   1 H    0.996 --     9 C    0.952
    27   1 H    0.967 --    44 N    0.932
    28   1 H    0.958 --    53 N    0.907
    29   1 H    0.999 --    10 C    0.940
    30   1 H    0.999 --    11 C    0.965
    31   1 H    0.996 --    12 C    0.961
    32   1 H    0.997 --    13 C    0.951
    33   1 H    0.998 --    13 C    0.972
    34   1 H    0.999 --    14 C    0.980
    35   1 H    0.999 --    14 C    0.979
    36   1 H    0.997 --    15 C    0.986
    37   1 H    0.999 --    15 C    0.988
    38   1 H    0.996 --    15 C    0.982
    39   1 H    0.899 --    17 O    0.853
    40   1 H    0.925 --    17 O    0.922
    41   8 O    1.873 --    42 H    0.895    43 H    0.880
    42   1 H    0.910 --    41 O    0.895
    43   1 H    0.904 --    41 O    0.880
    44   7 N    3.458 --    48 C    1.279     9 C    0.973    27 H    0.932
                            49 O    0.192
    45   6 C    3.956 --    46 O    1.681    53 N    1.290     9 C    0.914
    46   8 O    2.013 --    45 C    1.681    53 N    0.212
    47   6 C    3.993 --    48 C    0.984    52 H    0.982    50 H    0.975
                            51 H    0.965
    48   6 C    3.951 --    49 O    1.635    44 N    1.279    47 C    0.984
    49   8 O    1.985 --    48 C    1.635    44 N    0.192
    50   1 H    0.997 --    47 C    0.975
    51   1 H    0.996 --    47 C    0.965
    52   1 H    0.994 --    47 C    0.982
    53   7 N    3.465 --    45 C    1.290    54 C    1.006    28 H    0.907
                            46 O    0.212
    54   6 C    3.965 --    53 N    1.006    55 H    0.977    57 H    0.977
                            56 H    0.976
    55   1 H    0.997 --    54 C    0.977
    56   1 H    0.998 --    54 C    0.976
    57   1 H    0.993 --    54 C    0.977
 ---------------------------------------------------------------------------

Topologies differ in total number of bonds
Writing topology from bond orders to xtbtopo.mol

molecular dipole:
                 x           y           z       tot (Debye)
 q only:       -0.148       0.398      -0.944
   full:       -0.658       0.218      -1.474       4.141
molecular quadrupole (traceless):
                xx          xy          yy          xz          yz          zz
 q only:      -14.362      10.692       7.499      -4.390       1.600       6.862
  q+dip:      -20.388       7.353       8.244      -6.271       7.122      12.144
   full:      -20.870       7.592       8.162      -5.383       3.594      12.708

           -------------------------------------------------
          |               Frequency Printout                |
           -------------------------------------------------
 projected vibrational frequencies (cm⁻¹)
eigval :       -0.00    -0.00    -0.00     0.00     0.00     0.00
eigval :       12.25    17.48    27.26    29.27    32.79    37.94
eigval :       46.99    54.61    59.76    61.80    68.82    77.19
eigval :       80.10    84.60    91.86   100.04   107.20   116.74
eigval :      124.89   129.34   137.14   155.91   156.85   169.90
eigval :      180.59   192.45   203.06   211.32   226.32   239.67
eigval :      261.34   289.92   291.37   296.30   301.76   329.64
eigval :      349.91   355.09   382.14   386.41   393.27   406.49
eigval :      415.66   438.03   444.89   448.29   477.04   488.64
eigval :      531.57   564.28   577.55   601.94   612.65   617.80
eigval :      642.20   662.54   673.55   692.14   725.13   728.19
eigval :      755.03   779.23   791.40   809.59   838.11   865.13
eigval :      870.44   883.20   892.49   908.57   921.78   922.63
eigval :      928.73   940.60   975.59   991.91   996.87  1002.04
eigval :     1009.80  1019.04  1033.84  1047.73  1073.86  1077.42
eigval :     1089.54  1104.64  1110.57  1117.06  1130.41  1144.67
eigval :     1160.53  1164.10  1196.41  1209.00  1219.59  1222.00
eigval :     1222.52  1238.58  1252.43  1265.59  1281.50  1284.74
eigval :     1286.76  1296.29  1312.54  1322.37  1343.02  1348.55
eigval :     1374.11  1381.68  1393.03  1418.56  1423.87  1430.01
eigval :     1433.81  1456.92  1462.56  1465.84  1471.74  1478.39
eigval :     1480.07  1484.40  1493.68  1501.25  1504.54  1514.08
eigval :     1547.78  1552.81  1577.20  1615.25  1636.05  1677.46
eigval :     1710.74  1759.55  2804.29  2914.88  2955.33  2970.48
eigval :     2970.93  2986.20  2991.21  2992.05  3002.62  3010.18
eigval :     3022.79  3030.93  3031.62  3032.72  3039.95  3052.62
eigval :     3054.90  3058.28  3064.75  3071.32  3075.29  3083.20
eigval :     3094.91  3230.21  3325.27  3329.16  3454.29  3467.41
eigval :     3477.67  3558.85  3666.79
 reduced masses (amu)
   1: 12.52   2: 12.25   3: 12.58   4: 11.69   5: 12.52   6: 11.52   7: 11.59   8: 12.19
   9: 12.75  10: 12.13  11: 12.28  12: 11.75  13: 11.02  14: 12.88  15:  9.19  16: 10.96
  17:  4.46  18:  7.61  19: 10.03  20: 10.47  21: 10.72  22:  9.75  23: 11.91  24: 12.05
  25:  2.35  26: 11.51  27: 10.97  28:  7.25  29: 11.32  30: 12.46  31: 12.08  32: 11.07
  33: 10.70  34: 11.78  35: 10.90  36: 12.35  37:  1.98  38: 11.16  39:  5.97  40:  7.61
  41:  9.59  42:  9.80  43:  8.90  44: 10.73  45:  9.01  46:  3.06  47:  8.78  48:  7.07
  49:  9.62  50:  5.37  51:  4.61  52:  9.34  53: 10.50  54: 10.68  55:  9.56  56:  2.94
  57:  8.15  58: 10.02  59:  8.76  60:  4.62  61:  8.30  62:  2.10  63:  9.58  64:  7.94
  65:  9.95  66: 11.46  67:  5.87  68:  9.21  69:  2.53  70:  6.05  71:  3.60  72:  3.39
  73:  8.37  74: 10.03  75:  3.69  76:  2.70  77:  4.84  78:  4.38  79:  8.61  80:  6.05
  81: 10.92  82:  5.67  83:  4.88  84:  5.27  85:  4.01  86:  8.37  87:  7.64  88:  4.44
  89:  5.40  90:  6.70  91:  8.81  92:  3.91  93:  7.23  94:  8.03  95:  7.36  96:  3.28
  97:  8.48  98:  6.16  99:  1.84 100:  5.26 101:  4.98 102:  4.84 103:  5.70 104:  3.42
 105:  4.63 106:  2.45 107:  4.30 108:  3.26 109:  3.74 110:  4.02 111:  5.79 112:  9.68
 113: 11.08 114:  4.99 115:  3.28 116:  3.42 117:  2.62 118:  3.22 119:  9.98 120:  9.73
 121:  8.60 122:  1.68 123:  1.57 124:  1.65 125:  2.10 126:  2.17 127:  3.68 128:  2.47
 129:  1.87 130:  1.52 131:  1.62 132:  9.24 133:  2.38 134:  2.46 135: 11.54 136: 11.54
 137: 12.03 138: 12.02 139: 13.11 140: 13.20 141:  1.70 142:  1.74 143:  1.77 144:  1.90
 145:  1.89 146:  1.54 147:  1.49 148:  1.96 149:  1.52 150:  1.70 151:  1.83 152:  1.81
 153:  1.59 154:  1.73 155:  1.65 156:  1.79 157:  1.70 158:  1.81 159:  1.75 160:  1.86
 161:  1.80 162:  1.83 163:  1.86 164:  1.78 165:  1.88 166:  1.87 167:  1.84 168:  1.87
 169:  1.95 170:  1.75 171:  1.84
 IR intensities (km·mol⁻¹)
   1:  0.19   2:  0.02   3:  0.02   4:  0.18   5:  0.04   6:  0.19   7:  0.13   8:  0.25
   9:  0.45  10:  0.25  11:  3.01  12:  1.21  13:  4.04  14:  5.16  15:  1.24  16:  0.53
  17:  3.15  18:  3.23  19:  2.25  20:  4.99  21:  1.19  22:  6.05  23: 19.85  24: 15.07
  25:  0.62  26:  5.82  27:  9.01  28: 33.77  29: 16.11  30: 13.29  31: 21.28  32: 29.70
  33: 53.64  34: 10.85  35: 23.85  36:  6.73  37:  0.53  38:  6.14  39: 38.45  40:  7.01
  41:  5.80  42: 19.13  43: 22.90  44: 32.67  45:  2.17  46: 55.18  47: 24.95  48: 66.68
  49: 16.22  50:152.34  51: 89.73  52:  6.18  53:  2.76  54:  0.45  55: 13.18  56: 54.38
  57:  5.91  58: 28.40  59:148.72  60:454.84  61: 53.65  62:148.41  63: 26.99  64: 24.62
  65: 61.56  66: 13.00  67:  4.15  68:  8.66  69: 17.81  70: 17.80  71:147.38  72:  5.37
  73:  2.68  74:  1.02  75:  9.10  76:  0.62  77: 22.09  78: 25.51  79:  1.83  80:  3.46
  81: 19.20  82:  3.55  83: 20.65  84: 23.26  85: 22.88  86:  0.11  87: 18.17  88:  3.48
  89:  7.94  90: 22.90  91:  0.07  92:  0.51  93: 10.98  94: 27.83  95: 23.44  96:  1.55
  97:  0.86  98:  1.60  99:  4.22 100:  2.83 101:  1.61 102:  8.33 103:  7.60 104: 11.05
 105: 34.56 106:  0.67 107: 14.62 108:  1.89 109:  4.02 110:  1.69 111: 15.61 112: 33.66
 113:  7.70 114:  7.22 115: 17.96 116: 23.63 117:  2.98 118:  2.64 119:208.35 120: 14.81
 121:227.15 122:  3.49 123: 10.25 124:  9.86 125:  5.60 126:  2.11 127: 18.80 128: 23.21
 129:  1.54 130:  3.79 131:  4.92 132:179.73 133:195.83 134: 24.13 135:  3.31 136: 10.43
 137:723.64 138:176.69 139:315.87 140:573.33 141: 98.21 142: 15.11 143:  5.16 144: 25.58
 145: 45.93 146: 30.67 147: 42.09 148: 14.67 149: 17.52 150: 19.51 151: 11.39 152: 50.06
 153: 10.58 154:  6.48 155: 45.20 156: 33.82 157:  3.74 158: 13.78 159:  5.52 160: 59.12
 161: 18.10 162: 36.82 163: 22.80 164:478.22 165:147.25 166:652.54 167: 21.04 168: 14.69
 169:203.70 170: 55.68 171:  9.24
 Raman intensities (Ä⁴*amu⁻¹)
   1:  0.00   2:  0.00   3:  0.00   4:  0.00   5:  0.00   6:  0.00   7:  0.00   8:  0.00
   9:  0.00  10:  0.00  11:  0.00  12:  0.00  13:  0.00  14:  0.00  15:  0.00  16:  0.00
  17:  0.00  18:  0.00  19:  0.00  20:  0.00  21:  0.00  22:  0.00  23:  0.00  24:  0.00
  25:  0.00  26:  0.00  27:  0.00  28:  0.00  29:  0.00  30:  0.00  31:  0.00  32:  0.00
  33:  0.00  34:  0.00  35:  0.00  36:  0.00  37:  0.00  38:  0.00  39:  0.00  40:  0.00
  41:  0.00  42:  0.00  43:  0.00  44:  0.00  45:  0.00  46:  0.00  47:  0.00  48:  0.00
  49:  0.00  50:  0.00  51:  0.00  52:  0.00  53:  0.00  54:  0.00  55:  0.00  56:  0.00
  57:  0.00  58:  0.00  59:  0.00  60:  0.00  61:  0.00  62:  0.00  63:  0.00  64:  0.00
  65:  0.00  66:  0.00  67:  0.00  68:  0.00  69:  0.00  70:  0.00  71:  0.00  72:  0.00
  73:  0.00  74:  0.00  75:  0.00  76:  0.00  77:  0.00  78:  0.00  79:  0.00  80:  0.00
  81:  0.00  82:  0.00  83:  0.00  84:  0.00  85:  0.00  86:  0.00  87:  0.00  88:  0.00
  89:  0.00  90:  0.00  91:  0.00  92:  0.00  93:  0.00  94:  0.00  95:  0.00  96:  0.00
  97:  0.00  98:  0.00  99:  0.00 100:  0.00 101:  0.00 102:  0.00 103:  0.00 104:  0.00
 105:  0.00 106:  0.00 107:  0.00 108:  0.00 109:  0.00 110:  0.00 111:  0.00 112:  0.00
 113:  0.00 114:  0.00 115:  0.00 116:  0.00 117:  0.00 118:  0.00 119:  0.00 120:  0.00
 121:  0.00 122:  0.00 123:  0.00 124:  0.00 125:  0.00 126:  0.00 127:  0.00 128:  0.00
 129:  0.00 130:  0.00 131:  0.00 132:  0.00 133:  0.00 134:  0.00 135:  0.00 136:  0.00
 137:  0.00 138:  0.00 139:  0.00 140:  0.00 141:  0.00 142:  0.00 143:  0.00 144:  0.00
 145:  0.00 146:  0.00 147:  0.00 148:  0.00 149:  0.00 150:  0.00 151:  0.00 152:  0.00
 153:  0.00 154:  0.00 155:  0.00 156:  0.00 157:  0.00 158:  0.00 159:  0.00 160:  0.00
 161:  0.00 162:  0.00 163:  0.00 164:  0.00 165:  0.00 166:  0.00 167:  0.00 168:  0.00
 169:  0.00 170:  0.00 171:  0.00
 output can be read by thermo (or use thermo option).
 writing <g98.out> molden fake output.
 recommended (thermochemical) frequency scaling factor: 1.0
           -------------------------------------------------
          |             Thermodynamic Functions             |
           -------------------------------------------------

Refinement of some symmetry elements was terminated before convergence was reached.
Some symmetry elements may remain unidentified.
Molecule has no symmetry elements
It seems to be the C1 point group
c1  symmetry found (for desy threshold:  0.10E+00) used in thermo

          ...................................................
          :                      SETUP                      :
          :.................................................:
          :  # frequencies                         165      :
          :  # imaginary freq.                       0      :
          :  linear?                             false      :
          :  only rotor calc.                    false      :
          :  symmetry                               c1      :
          :  rotational number                       1      :
          :  scaling factor                  1.0000000      :
          :  rotor cutoff                   50.0000000 cm⁻¹ :
          :  imag. cutoff                  -20.0000000 cm⁻¹ :
          :.................................................:

    mode    ω/cm⁻¹     T·S(HO)/kcal·mol⁻¹    T·S(FR)/kcal·mol⁻¹   T·S(vib)
   ------------------------------------------------------------------------
       1     12.25    -2.26849 (  0.36%)    -1.47322 ( 99.64%)    -1.47607
       2     17.48    -2.05770 (  1.47%)    -1.36781 ( 98.53%)    -1.37796
       3     27.26    -1.79480 (  8.11%)    -1.23626 ( 91.89%)    -1.28157
       4     29.27    -1.75254 ( 10.51%)    -1.21510 ( 89.49%)    -1.27160
       5     32.79    -1.68538 ( 15.62%)    -1.18146 ( 84.38%)    -1.26015
       6     37.94    -1.59923 ( 24.90%)    -1.13829 ( 75.10%)    -1.25305
       7     46.99    -1.47291 ( 43.83%)    -1.07491 ( 56.17%)    -1.24933
       8     54.61    -1.38429 ( 58.73%)    -1.03039 ( 41.27%)    -1.23825
       9     59.76    -1.33123 ( 67.12%)    -1.00369 ( 32.88%)    -1.22353
      10     61.80    -1.31154 ( 70.00%)    -0.99377 ( 30.00%)    -1.21621
      11     68.82    -1.24827 ( 78.21%)    -0.96187 ( 21.79%)    -1.18587
      12     77.19    -1.18098 ( 85.03%)    -0.92788 ( 14.97%)    -1.14309
      13     80.10    -1.15932 ( 86.82%)    -0.91692 ( 13.18%)    -1.12737
      14     84.60    -1.12737 ( 89.13%)    -0.90074 ( 10.87%)    -1.10273
      15     91.86    -1.07934 ( 91.93%)    -0.87636 (  8.07%)    -1.06296
      16    100.04    -1.02968 ( 94.13%)    -0.85109 (  5.87%)    -1.01919
      17    107.20    -0.98957 ( 95.48%)    -0.83061 (  4.52%)    -0.98239
      18    116.74    -0.94025 ( 96.74%)    -0.80534 (  3.26%)    -0.93586
      19    124.89    -0.90139 ( 97.50%)    -0.78536 (  2.50%)    -0.89849
      20    129.34    -0.88127 ( 97.82%)    -0.77498 (  2.18%)    -0.87895
      21    137.14    -0.84775 ( 98.26%)    -0.75764 (  1.74%)    -0.84619
      22    155.91    -0.77483 ( 98.95%)    -0.71964 (  1.05%)    -0.77426
      23    156.85    -0.77142 ( 98.98%)    -0.71785 (  1.02%)    -0.77088
      24    169.90    -0.72648 ( 99.26%)    -0.69419 (  0.74%)    -0.72624
      25    180.59    -0.69239 ( 99.42%)    -0.67611 (  0.58%)    -0.69230
      26    192.45    -0.65715 ( 99.55%)    -0.65726 (  0.45%)    -0.65715
      27    203.06    -0.62767 ( 99.63%)    -0.64137 (  0.37%)    -0.62772
      28    211.32    -0.60592 ( 99.69%)    -0.62956 (  0.31%)    -0.60600
      29    226.32    -0.56884 ( 99.76%)    -0.60923 (  0.24%)    -0.56894
      30    239.67    -0.53826 ( 99.81%)    -0.59227 (  0.19%)    -0.53837
      31    261.34    -0.49277 ( 99.87%)    -0.56662 (  0.13%)    -0.49287
      32    289.92    -0.43960 ( 99.91%)    -0.53587 (  0.09%)    -0.43968
      33    291.37    -0.43708 ( 99.91%)    -0.53439 (  0.09%)    -0.43716
      34    296.30    -0.42866 ( 99.92%)    -0.52943 (  0.08%)    -0.42874
   ------------------------------------------------------------------------

   temp. (K)  partition function   enthalpy   heat capacity  entropy
                                   cal/mol     cal/K/mol   cal/K/mol   J/K/mol
 298.15  VIB  0.653E+17            19715.205    106.874    129.609
         ROT  0.155E+08              888.752      2.981     35.881
         INT  0.101E+25            20603.957    109.855    165.490
         TR   0.687E+28             1481.254      4.968     43.594
         TOT                       22085.2113   114.8232   209.0834   874.8050

       T/K    H(0)-H(T)+PV         H(T)/Eh          T*S/Eh         G(T)/Eh
   ------------------------------------------------------------------------
    298.15    0.351950E-01    0.503005E+00    0.993423E-01    0.403663E+00
   ------------------------------------------------------------------------

         :::::::::::::::::::::::::::::::::::::::::::::::::::::
         ::                  THERMODYNAMIC                  ::
         :::::::::::::::::::::::::::::::::::::::::::::::::::::
         :: total free energy         -83.035474006038 Eh   ::
         ::.................................................::
         :: total energy              -83.439136597876 Eh   ::
         :: zero point energy           0.467809846838 Eh   ::
         :: G(RRHO) w/o ZPVE           -0.064147255000 Eh   ::
         :: G(RRHO) contrib.            0.403662591838 Eh   ::
         :::::::::::::::::::::::::::::::::::::::::::::::::::::

           -------------------------------------------------
          | TOTAL ENERGY              -83.439136597876 Eh   |
          | TOTAL ENTHALPY            -82.936131726617 Eh   |
          | TOTAL FREE ENERGY         -83.035474006038 Eh   |
          | GRADIENT NORM               0.000319393343 Eh/α |
          | HOMO-LUMO GAP               2.191604468014 eV   |
           -------------------------------------------------

------------------------------------------------------------------------
 * finished run on 2026/08/20 at 20:30:50.256     
------------------------------------------------------------------------
 total:
 * wall-time:     0 d,  0 h,  0 min,  5.386 sec
 *  cpu-time:     0 d,  0 h,  0 min, 34.641 sec
 * ratio c/w:     6.432 speedup
 SCF:
 * wall-time:     0 d,  0 h,  0 min,  0.040 sec
 *  cpu-time:     0 d,  0 h,  0 min,  0.047 sec
 * ratio c/w:     1.172 speedup
 analytical hessian:
 * wall-time:     0 d,  0 h,  0 min,  5.302 sec
 *  cpu-time:     0 d,  0 h,  0 min, 34.562 sec
 * ratio c/w:     6.519 speedup



===== STDERR =====

normal termination of xtb
