57
 energy: -83.439185556033 gnorm: 0.000184720785 xtb: 6.7.1pre (5071a88)
N           -0.06678442024057        0.51299352268544        0.49555897720855
C            1.28516597200593        0.26356491328291        0.32224043689235
C            2.25257134592252        0.94466516344845        1.06495000696917
C            3.58287320036938        0.60025129293400        0.94951983232932
C            3.98958399302092       -0.41597757492930        0.09169611282691
C            3.02075654955303       -1.09707669655189       -0.63582143431916
C            1.68269358168461       -0.77802589433979       -0.51439499525595
C            5.44847161140712       -0.72454166639110       -0.08295085644934
C            6.12350408906656        0.34528502203783       -0.94501628656103
C           -0.60462397306493        1.66483080451612        0.40404413948267
C            0.00573117277810        2.88773722467802       -0.05078712566497
C           -0.62810511647060        4.06076770214344        0.01684235482700
C           -0.05637862377570        5.36268285588624       -0.41752723108490
C           -0.96366363714312        6.06378744206373       -1.43544975846114
C           -0.39354891191560        7.41203759747425       -1.85596987958526
O           -0.15753829172809        2.17949496757285        3.27778261873440
O           -2.77847152854510        1.23442203836462        3.00397552252149
H           -0.98468262710169       -0.58743211882266        1.52272712711402
H           -1.11278978962961        2.04335943344460        3.15802613907001
H            1.93615199684032        1.72458587337410        1.74195869995537
H            4.32114245088624        1.13109511642536        1.53318648138530
H            3.31341461342559       -1.90464464647701       -1.29375642254248
H            0.93592374039012       -1.31246833330666       -1.08294993001811
H            5.59039746630673       -1.69540962780558       -0.56112766326774
H            5.95729612595462       -0.75235873011001        0.88154699460213
H            6.10920158437656        1.31800390573811       -0.43765838277541
H            4.82878743847400       -0.27306824300093       -2.48903940059588
H            7.78645596412801        1.86411605191191       -1.96263929828331
H           -1.65546030532376        1.71884716232251        0.67078194454605
H            1.01556738063691        2.82668451707974       -0.43575047932801
H           -1.63080044890202        4.09763052801438        0.42383501826224
H            0.04506851789396        6.00879159545346        0.45992894715640
H            0.93705283739289        5.21614971217115       -0.84600203661788
H           -1.07601730221239        5.42404243235928       -2.31377840924418
H           -1.95411407653615        6.20626047463907       -0.99810735140970
H           -1.04508997217576        7.89134399489845       -2.58282474491886
H           -0.29558940178218        8.07056668273107       -0.99570255052885
H            0.58925469661200        7.28820115618806       -2.30546905343657
H           -3.20222546906821        1.09817802884816        3.85272854348404
H           -2.43738949992607        0.36068834265848        2.72149126317578
O           -1.63146065521816       -1.06124137688554        2.09345128918161
H            0.18087618730576        1.34350855898237        3.60562410467317
H           -2.12603145521932       -1.64145319462040        1.51249695445803
N            5.39681733344118        0.50492195535123       -2.19323808557767
C            7.59433006739065       -0.02582603649596       -1.23928132763069
O            8.05109624463656       -1.12993358600247       -1.02653455402839
C            4.44743147340949        1.64369137730054       -4.08012485007556
C            5.38202760226949        1.65446162906876       -2.89245272506438
O            6.07453075568409        2.61124047871019       -2.58881009992272
H            3.43340590296460        1.41996910417318       -3.75574473281754
H            4.76273526887593        0.88489774573956       -4.79323136730542
H            4.46714882626588        2.61658487287668       -4.56212514673780
N            8.28417191644635        1.00445305597076       -1.75111347329104
C            9.66210459999723        0.89066779332887       -2.16070122741408
H           10.27127758513149        1.63769955042825       -1.64960109779806
H            9.75905289796007        1.03055648843761       -3.23923100451908
H           10.00869251527012       -0.10626044004599       -1.89248052644753
