57
 energy: -83.460587148080 gnorm: 0.000161683672 xtb: 6.7.1pre (5071a88)
N           -0.49254574729893       -0.04310428114568       -0.97269612686192
C            0.86561392062520       -0.13937970931122       -0.72174863926553
C            1.48534959302444        0.57537874451259        0.30514562993439
C            2.83312532617826        0.41420107727198        0.55232938244967
C            3.60836938069904       -0.46097723735885       -0.19884260653312
C            2.98505312458991       -1.18488132819080       -1.20770210688970
C            1.63736999106011       -1.03191644030669       -1.46677583594992
C            5.09015987021877       -0.56023698790344        0.02587099009098
C            5.79426133282546        0.70751196106713       -0.46682003852616
C           -1.27987267150522        1.13127897238360       -0.64614739732985
C           -0.60551423140026        2.40129125092355       -1.10319875416223
C           -0.36255278960922        3.45818190971678       -0.34834021821907
C            0.32147619394859        4.69800174358600       -0.81913943295981
C           -0.54715032070671        5.93861166144704       -0.59311292223166
C            0.15747840854010        7.20801920586445       -1.05397781766146
O           -1.57381388949230        1.17131855815766        0.72330976437771
O           -0.54091785247589        1.39919746403276        3.31624672603730
H           -0.79430115119292       -0.54795984189611       -1.79098353676057
H           -0.84639934438509        1.63956666182046        2.42744056458852
H            0.91435868419756        1.26171854410758        0.90609168901118
H            3.29017916833909        0.97988725554913        1.35080535282246
H            3.55989594737552       -1.88462409766806       -1.79955266437578
H            1.17131448681044       -1.60526145805830       -2.25663214174305
H            5.50844210069063       -1.41657317422490       -0.50629923350437
H            5.31674066201293       -0.68523293646754        1.08579569273109
H            5.56238019297651        1.55998881444540        0.18368947625097
H            4.88764283323618        0.30643473918175       -2.32550032051325
H            7.42579134134008        2.52365089367269       -0.82948364073380
H           -2.22786989586716        1.02248648218550       -1.20804097404877
H           -0.30564523747843        2.37804892331069       -2.14294007671399
H           -0.68025790596417        3.46033333727403        0.68494201058231
H            1.25669676717863        4.81717713361932       -0.26398117339508
H            0.56869076809639        4.60879188234117       -1.87878768038509
H           -1.48609865842843        5.82113646340781       -1.13873007418430
H           -0.78813967072774        6.02068525844221        0.46888014888969
H           -0.47141655856309        8.07838474289777       -0.88177784397813
H            1.09040093010513        7.34489652712805       -0.51141546609813
H            0.38543142056881        7.15426931656773       -2.11635946326221
H           -0.65277544504450       -0.40722265791223        2.77038652102408
H           -1.23486057343689        1.66380641337943        3.92237791118820
O           -0.91057017890604       -1.08381271927308        2.11974146987080
H           -1.56900362683816        0.24625045933886        1.05925740608895
H           -0.09447024412008       -1.39560322234729        1.72236160673113
N            5.32250165825479        1.04790730871203       -1.79903590446320
C            7.32775105225547        0.52245735104400       -0.49052642210881
O            7.86525497673466       -0.55919460935459       -0.37087287973923
C            4.57104446368579        2.46362824977715       -3.58407594697590
C            5.28481902013172        2.31083740986582       -2.26080826224944
O            5.79323758090069        3.24138181645168       -1.65812951581535
H            3.52806915230710        2.17429033298802       -3.47122951597533
H            5.03232823647679        1.82763295870807       -4.33615810512366
H            4.62429926482492        3.49953802459570       -3.90532212637914
N            7.97429310020575        1.68539681951450       -0.66119436857394
C            9.40888005356036        1.76832702186532       -0.77909860652650
H            9.81017654017411        2.45870906397709       -0.03562916704391
H            9.69740745922695        2.11152125157090       -1.77477811956237
H            9.81589099008165        0.77284669469146       -0.60782721567852
