      -----------------------------------------------------------      
     |                   =====================                   |     
     |                           x T B                           |     
     |                   =====================                   |     
     |                         S. Grimme                         |     
     |          Mulliken Center for Theoretical Chemistry        |     
     |                    University of Bonn                     |     
      -----------------------------------------------------------      

   * xtb version 6.7.1pre (5071a88) compiled by 'Marcel@Raven' on 2024-07-23

   xtb is free software: you can redistribute it and/or modify it under
   the terms of the GNU Lesser General Public License as published by
   the Free Software Foundation, either version 3 of the License, or
   (at your option) any later version.
   
   xtb is distributed in the hope that it will be useful,
   but WITHOUT ANY WARRANTY; without even the implied warranty of
   MERCHANTABILITY or FITNESS FOR A PARTICULAR PURPOSE.  See the
   GNU Lesser General Public License for more details.
   
   Cite this work as:
   * C. Bannwarth, E. Caldeweyher, S. Ehlert, A. Hansen, P. Pracht,
     J. Seibert, S. Spicher, S. Grimme, WIREs Comput. Mol. Sci., 2020, 11,
     e01493. DOI: 10.1002/wcms.1493
   
   for GFN2-xTB:
   * C. Bannwarth, S. Ehlert and S. Grimme., J. Chem. Theory Comput., 2019,
     15, 1652-1671. DOI: 10.1021/acs.jctc.8b01176
   for GFN1-xTB:
   * S. Grimme, C. Bannwarth, P. Shushkov, J. Chem. Theory Comput., 2017,
     13, 1989-2009. DOI: 10.1021/acs.jctc.7b00118
   for GFN0-xTB:
   * P. Pracht, E. Caldeweyher, S. Ehlert, S. Grimme, ChemRxiv, 2019, preprint.
     DOI: 10.26434/chemrxiv.8326202.v1
   for GFN-FF:
   * S. Spicher and S. Grimme, Angew. Chem. Int. Ed., 2020, 59, 15665-15673.
     DOI: 10.1002/anie.202004239
   
   for ALPB and GBSA implicit solvation:
   * S. Ehlert, M. Stahn, S. Spicher, S. Grimme, J. Chem. Theory Comput.,
     2021, 17, 4250-4261. DOI: 10.1021/acs.jctc.1c00471
   
   for ddCOSMO and CPCM-X implicit solvation:
   * M. Stahn, S. Ehlert, S. Grimme, J. Phys. Chem. A,
     2023, XX, XXXX-XXXX. DOI: 10.1021/acs.jpca.3c04382
   
   for DFT-D4:
   * E. Caldeweyher, C. Bannwarth and S. Grimme, J. Chem. Phys., 2017,
     147, 034112. DOI: 10.1063/1.4993215
   * E. Caldeweyher, S. Ehlert, A. Hansen, H. Neugebauer, S. Spicher,
     C. Bannwarth and S. Grimme, J. Chem. Phys., 2019, 150, 154122.
     DOI: 10.1063/1.5090222
   * E. Caldeweyher, J.-M. Mewes, S. Ehlert and S. Grimme, Phys. Chem. Chem. Phys.
     2020, 22, 8499-8512. DOI: 10.1039/D0CP00502A
   
   for sTDA-xTB:
   * S. Grimme and C. Bannwarth, J. Chem. Phys., 2016, 145, 054103.
     DOI: 10.1063/1.4959605
   
   in the mass-spec context:
   * V. Asgeirsson, C. Bauer and S. Grimme, Chem. Sci., 2017, 8, 4879.
     DOI: 10.1039/c7sc00601b
   * J. Koopman and S. Grimme, ACS Omega 2019, 4, 12, 15120-15133.
     DOI: 10.1021/acsomega.9b02011
   
   for metadynamics refer to:
   * S. Grimme, J. Chem. Theory Comput., 2019, 155, 2847-2862
     DOI: 10.1021/acs.jctc.9b00143
   
   for SPH calculations refer to:
   * S. Spicher and S. Grimme, J. Chem. Theory Comput., 2021, 17, 1701-1714
     DOI: 10.1021/acs.jctc.0c01306
   
   for ONIOM refer to:
   * C. Plett, A. Katbashev, S. Ehlert, S. Grimme, M. Bursch,
     Phys. Chem. Chem. Phys., 2023, 25, 17860-17868. DOI: 10.1039/D3CP02178E
   
   for DIPRO refer to:
   * J. Kohn, N. Gildemeister, S. Grimme, D. Fazzi, A. Hansen,
     J. Chem. Phys., 2023, just accepted.
   
   for PTB refer to:
   * S. Grimme, M. Mueller, A. Hansen, J. Chem. Phys., 2023, 158, 124111.
     DOI: 10.1063/5.0137838
   
   with help from (in alphabetical order)
   P. Atkinson, C. Bannwarth, F. Bohle, G. Brandenburg, E. Caldeweyher
   M. Checinski, S. Dohm, S. Ehlert, S. Ehrlich, I. Gerasimov, C. Hölzer
   A. Katbashev, J. Kohn, J. Koopman, C. Lavigne, S. Lehtola, F. März, M. Müller,
   F. Musil, H. Neugebauer, J. Pisarek, C. Plett, P. Pracht, F. Pultar,
   J. Seibert, P. Shushkov, S. Spicher, M. Stahn, M. Steiner, T. Strunk,
   J. Stückrath, T. Rose, and J. Unsleber
   
 * started run on 2026/08/20 at 18:22:57.455     
   ID    Z sym.   atoms
    1    7 N      1, 44, 53
    2    6 C      2-15, 45, 47, 48, 54
    3    8 O      16, 17, 41, 46, 49
    4    1 H      18-40, 42, 43, 50-52, 55-57

           -------------------------------------------------
          |                Calculation Setup                |
           -------------------------------------------------

          program call               : C:\Users\Nayanika\Downloads\xtb-6.7.1pre-windows-x86_64\xtb-6.7.1\bin\xtb.exe D:\PhD_Thesis\LmrR_EVB\charges\fast_lmrr_5QM\xtb_preparation\RS1_2b_to_PS1_3\RS1_2b_to_PS1_3_PS_xtbopt.xyz --gfn 2 --chrg 0 --uhf 0 --etemp 0
          coordinate file            : D:\PhD_Thesis\LmrR_EVB\charges\fast_lmrr_5QM\xtb_preparation\RS1_2b_to_PS1_3\RS1_2b_to_PS1_3_PS_xtbopt.xyz
          omp threads                :                     1


molecular fragmentation (1/2 indicates fragments):
111111111111111222211111111111111111112222211111111111111
# atoms in fragment 1/2:    48     9
 fragment masses (1/2) :      315.41       54.05
CMA distance (Bohr)    :   5.411
constraining FC (au)   :  0.0500

           -------------------------------------------------
          |                 G F N 2 - x T B                 |
           -------------------------------------------------

        Reference                      10.1021/acs.jctc.8b01176
      * Hamiltonian:
        H0-scaling (s, p, d)           1.850000    2.230000    2.230000
        zeta-weighting                 0.500000
      * Dispersion:
        s8                             2.700000
        a1                             0.520000
        a2                             5.000000
        s9                             5.000000
      * Repulsion:
        kExp                           1.500000    1.000000
        rExp                           1.000000
      * Coulomb:
        alpha                          2.000000
        third order                    shell-resolved
        anisotropic                    true
        a3                             3.000000
        a5                             4.000000
        cn-shift                       1.200000
        cn-exp                         4.000000
        max-rad                        5.000000

q/qsh data taken from xtbrestart
CAMM data taken from xtbrestart

          ...................................................
          :                      SETUP                      :
          :.................................................:
          :  # basis functions                 135          :
          :  # atomic orbitals                 135          :
          :  # shells                           83          :
          :  # electrons                       148          :
          :  max. iterations                   250          :
          :  Hamiltonian                  GFN2-xTB          :
          :  restarted?                       true          :
          :  GBSA solvation                  false          :
          :  PC potential                    false          :
          :  electronic temp.            0.0000000     K    :
          :  accuracy                    1.0000000          :
          :  -> integral cutoff          0.2500000E+02      :
          :  -> integral neglect         0.1000000E-07      :
          :  -> SCF convergence          0.1000000E-05 Eh   :
          :  -> wf. convergence          0.1000000E-03 e    :
          :  Broyden damping             0.4000000          :
          :  net charge                          0          :
          :  unpaired electrons                  0          :
          ...................................................

 iter      E             dE          RMSdq      gap      omega  full diag
   1    -84.5435292 -0.845435E+02  0.825E-05    2.30       0.0  T
   2    -84.5435292 -0.105800E-09  0.522E-05    2.30     253.7  T
   3    -84.5435292 -0.899121E-10  0.299E-05    2.30     443.3  T

   *** convergence criteria satisfied after 3 iterations ***

         #    Occupation            Energy/Eh            Energy/eV
      -------------------------------------------------------------
         1        2.0000           -0.7061364             -19.2149
       ...           ...                  ...                  ...
        68        2.0000           -0.4134618             -11.2509
        69        2.0000           -0.4090974             -11.1321
        70        2.0000           -0.4054235             -11.0321
        71        2.0000           -0.3994885             -10.8706
        72        2.0000           -0.3956553             -10.7663
        73        2.0000           -0.3854772             -10.4894
        74        2.0000           -0.3676408             -10.0040 (HOMO)
        75                         -0.2830175              -7.7013 (LUMO)
        76                         -0.2279382              -6.2025
        77                         -0.2191576              -5.9636
        78                         -0.2161592              -5.8820
        79                         -0.2066143              -5.6223
       ...                                ...                  ...
       135                          0.6682687              18.1845
      -------------------------------------------------------------
                  HL-Gap            0.0846232 Eh            2.3027 eV
             Fermi-level            0.0000000 Eh            0.0000 eV

 SCC (total)                   0 d,  0 h,  0 min,  0.078 sec
 SCC setup                      ...        0 min,  0.001 sec (  1.282%)
 Dispersion                     ...        0 min,  0.001 sec (  1.282%)
 classical contributions        ...        0 min,  0.000 sec (  0.000%)
 integral evaluation            ...        0 min,  0.007 sec (  8.974%)
 iterations                     ...        0 min,  0.024 sec ( 30.769%)
 molecular gradient             ...        0 min,  0.045 sec ( 57.692%)
 printout                       ...        0 min,  0.000 sec (  0.000%)

         :::::::::::::::::::::::::::::::::::::::::::::::::::::
         ::                     SUMMARY                     ::
         :::::::::::::::::::::::::::::::::::::::::::::::::::::
         :: total energy             -83.440298285075 Eh    ::
         :: gradient norm              0.013281566515 Eh/a0 ::
         :: HOMO-LUMO gap              2.302715757343 eV    ::
         ::.................................................::
         :: SCC energy               -84.541955596948 Eh    ::
         :: -> isotropic ES            0.185409502884 Eh    ::
         :: -> anisotropic ES         -0.005838007837 Eh    ::
         :: -> anisotropic XC          0.034084767167 Eh    ::
         :: -> dispersion             -0.055247460512 Eh    ::
         :: repulsion energy           1.101657311872 Eh    ::
         :: add. restraining           0.000000000000 Eh    ::
         :: total charge              -0.000000000000 e     ::
         :::::::::::::::::::::::::::::::::::::::::::::::::::::

           -------------------------------------------------
          |                Property Printout                |
           -------------------------------------------------

    * Orbital Energies and Occupations

         #    Occupation            Energy/Eh            Energy/eV
      -------------------------------------------------------------
         1        2.0000           -0.7061364             -19.2149
       ...           ...                  ...                  ...
        62        2.0000           -0.4386377             -11.9359
        63        2.0000           -0.4344748             -11.8227
        64        2.0000           -0.4296204             -11.6906
        65        2.0000           -0.4265709             -11.6076
        66        2.0000           -0.4248723             -11.5614
        67        2.0000           -0.4172944             -11.3552
        68        2.0000           -0.4134618             -11.2509
        69        2.0000           -0.4090974             -11.1321
        70        2.0000           -0.4054235             -11.0321
        71        2.0000           -0.3994885             -10.8706
        72        2.0000           -0.3956553             -10.7663
        73        2.0000           -0.3854772             -10.4894
        74        2.0000           -0.3676408             -10.0040 (HOMO)
        75                         -0.2830175              -7.7013 (LUMO)
        76                         -0.2279382              -6.2025
        77                         -0.2191576              -5.9636
        78                         -0.2161592              -5.8820
        79                         -0.2066143              -5.6223
        80                         -0.1604885              -4.3671
        81                         -0.0956510              -2.6028
        82                          0.0032196               0.0876
        83                          0.0080300               0.2185
        84                          0.0504077               1.3717
        85                          0.0717651               1.9528
       ...                                ...                  ...
       135                          0.6682687              18.1845
      -------------------------------------------------------------
                  HL-Gap            0.0846232 Eh            2.3027 eV
             Fermi-level            0.0000000 Eh            0.0000 eV

     #   Z          covCN         q      C6AA      α(0)
     1   7 N        1.833    -0.245    27.250     7.736
     2   6 C        2.930     0.080    26.225     8.398
     3   6 C        2.919    -0.042    29.032     8.836
     4   6 C        2.924    -0.035    28.866     8.811
     5   6 C        2.972     0.005    27.898     8.664
     6   6 C        2.923    -0.042    29.052     8.839
     7   6 C        2.923    -0.065    29.619     8.925
     8   6 C        3.811    -0.068    21.797     6.645
     9   6 C        3.800     0.019    20.264     6.409
    10   6 C        2.855     0.076    26.292     8.404
    11   6 C        2.894    -0.067    29.658     8.929
    12   6 C        2.897    -0.013    28.345     8.729
    13   6 C        3.808    -0.068    21.794     6.645
    14   6 C        3.802    -0.048    21.435     6.592
    15   6 C        3.752    -0.105    22.567     6.774
    16   8 O        1.609    -0.609    25.394     6.801
    17   8 O        1.610    -0.590    24.944     6.741
    18   1 H        0.803     0.297     0.731     1.343
    19   1 H        0.805     0.295     0.737     1.348
    20   1 H        0.926     0.037     2.487     2.466
    21   1 H        0.926     0.036     2.498     2.472
    22   1 H        0.926     0.028     2.618     2.530
    23   1 H        0.926     0.054     2.267     2.354
    24   1 H        0.924     0.056     2.242     2.342
    25   1 H        0.924     0.062     2.177     2.307
    26   1 H        0.924     0.070     2.087     2.259
    27   1 H        0.860     0.180     1.212     1.724
    28   1 H        0.860     0.201     1.100     1.643
    29   1 H        0.925     0.036     2.500     2.473
    30   1 H        0.926     0.084     1.942     2.179
    31   1 H        0.925     0.036     2.505     2.475
    32   1 H        0.924     0.049     2.334     2.389
    33   1 H        0.924     0.071     2.072     2.251
    34   1 H        0.924     0.035     2.511     2.478
    35   1 H        0.924     0.029     2.599     2.521
    36   1 H        0.925     0.035     2.517     2.481
    37   1 H        0.925     0.034     2.528     2.486
    38   1 H        0.925     0.043     2.403     2.424
    39   1 H        0.805     0.295     0.735     1.347
    40   1 H        0.805     0.297     0.729     1.341
    41   8 O        1.608    -0.597    25.121     6.765
    42   1 H        0.805     0.291     0.749     1.360
    43   1 H        0.804     0.273     0.809     1.413
    44   7 N        2.692    -0.178    24.857     7.405
    45   6 C        2.753     0.263    22.557     7.777
    46   8 O        0.858    -0.433    22.357     6.339
    47   6 C        3.757    -0.155    23.544     6.918
    48   6 C        2.750     0.279    22.279     7.729
    49   8 O        0.859    -0.477    23.282     6.469
    50   1 H        0.925     0.072     2.063     2.246
    51   1 H        0.924     0.099     1.795     2.095
    52   1 H        0.925     0.049     2.329     2.386
    53   7 N        2.687    -0.175    24.779     7.393
    54   6 C        3.690    -0.043    21.538     6.642
    55   1 H        0.924     0.053     2.283     2.363
    56   1 H        0.924     0.050     2.319     2.381
    57   1 H        0.925     0.083     1.947     2.182

 Mol. C6AA /au·bohr⁶  :      29462.279307
 Mol. C8AA /au·bohr⁸  :     657862.044879
 Mol. α(0) /au        :        262.377726


Wiberg/Mayer (AO) data.
largest (>0.10) Wiberg bond orders for each atom

 ---------------------------------------------------------------------------
     #   Z sym  total        # sym  WBO       # sym  WBO       # sym  WBO
 ---------------------------------------------------------------------------
     1   7 N    3.159 --    10 C    1.718     2 C    1.124    12 C    0.115
     2   6 C    3.977 --     7 C    1.343     3 C    1.340     1 N    1.124
     3   6 C    3.989 --     4 C    1.468     2 C    1.340    20 H    0.968
                             6 C    0.100
     4   6 C    3.991 --     3 C    1.468     5 C    1.396    21 H    0.968
                             7 C    0.102
     5   6 C    3.981 --     6 C    1.404     4 C    1.396     8 C    1.011
     6   6 C    3.990 --     7 C    1.452     5 C    1.404    22 H    0.967
                             3 C    0.100
     7   6 C    3.977 --     6 C    1.452     2 C    1.343    23 H    0.962
                             4 C    0.102
     8   6 C    3.991 --     5 C    1.011     9 C    0.978    24 H    0.970
                            25 H    0.966
     9   6 C    3.962 --     8 C    0.978    44 N    0.976    26 H    0.950
                            45 C    0.915
    10   6 C    3.968 --     1 N    1.718    11 C    1.145    29 H    0.954
    11   6 C    3.985 --    12 C    1.781    10 C    1.145    30 H    0.947
    12   6 C    3.964 --    11 C    1.781    13 C    1.045    31 H    0.964
                             1 N    0.115
    13   6 C    3.993 --    12 C    1.045    14 C    0.982    33 H    0.970
                            32 H    0.951
    14   6 C    3.990 --    15 C    1.019    13 C    0.982    34 H    0.979
                            35 H    0.979
    15   6 C    3.995 --    14 C    1.019    37 H    0.988    38 H    0.987
                            36 H    0.986
    16   8 O    1.820 --    42 H    0.897    19 H    0.888
    17   8 O    1.855 --    39 H    0.908    40 H    0.883
    18   1 H    0.912 --    41 O    0.867
    19   1 H    0.913 --    16 O    0.888
    20   1 H    0.998 --     3 C    0.968
    21   1 H    0.998 --     4 C    0.968
    22   1 H    0.998 --     6 C    0.967
    23   1 H    0.997 --     7 C    0.962
    24   1 H    0.996 --     8 C    0.970
    25   1 H    0.995 --     8 C    0.966
    26   1 H    0.995 --     9 C    0.950
    27   1 H    0.967 --    44 N    0.935
    28   1 H    0.959 --    53 N    0.915
    29   1 H    0.998 --    10 C    0.954
    30   1 H    0.993 --    11 C    0.947
    31   1 H    0.998 --    12 C    0.964
    32   1 H    0.990 --    13 C    0.951
    33   1 H    0.995 --    13 C    0.970
    34   1 H    0.999 --    14 C    0.979
    35   1 H    0.999 --    14 C    0.979
    36   1 H    0.998 --    15 C    0.986
    37   1 H    0.999 --    15 C    0.988
    38   1 H    0.998 --    15 C    0.987
    39   1 H    0.913 --    17 O    0.908
    40   1 H    0.912 --    17 O    0.883
    41   8 O    1.820 --    43 H    0.925    18 H    0.867
    42   1 H    0.915 --    16 O    0.897
    43   1 H    0.926 --    41 O    0.925
    44   7 N    3.458 --    48 C    1.277     9 C    0.976    27 H    0.935
                            49 O    0.185
    45   6 C    3.955 --    46 O    1.682    53 N    1.286     9 C    0.915
    46   8 O    2.012 --    45 C    1.682    53 N    0.211
    47   6 C    3.990 --    48 C    0.994    50 H    0.980    52 H    0.978
                            51 H    0.944
    48   6 C    3.947 --    49 O    1.617    44 N    1.277    47 C    0.994
    49   8 O    1.965 --    48 C    1.617    44 N    0.185
    50   1 H    0.995 --    47 C    0.980
    51   1 H    0.990 --    47 C    0.944
    52   1 H    0.997 --    47 C    0.978
    53   7 N    3.464 --    45 C    1.286    54 C    1.005    28 H    0.915
                            46 O    0.211
    54   6 C    3.965 --    53 N    1.005    55 H    0.977    57 H    0.977
                            56 H    0.976
    55   1 H    0.997 --    54 C    0.977
    56   1 H    0.997 --    54 C    0.976
    57   1 H    0.993 --    54 C    0.977
 ---------------------------------------------------------------------------

Topologies differ in total number of bonds
Writing topology from bond orders to xtbtopo.mol

molecular dipole:
                 x           y           z       tot (Debye)
 q only:       -0.820       0.212      -0.254
   full:       -1.200       0.129      -0.313       3.170
molecular quadrupole (traceless):
                xx          xy          yy          xz          yz          zz
 q only:       -8.724       4.481       3.852      -9.453       2.742       4.872
  q+dip:      -11.902       2.074       5.446     -12.813       7.825       6.456
   full:      -13.305       3.131       4.042     -12.761       6.350       9.263


           -------------------------------------------------
          | TOTAL ENERGY              -83.440298285075 Eh   |
          | GRADIENT NORM               0.013281566515 Eh/α |
          | HOMO-LUMO GAP               2.302715757343 eV   |
           -------------------------------------------------

------------------------------------------------------------------------
 * finished run on 2026/08/20 at 18:22:57.587     
------------------------------------------------------------------------
 total:
 * wall-time:     0 d,  0 h,  0 min,  0.132 sec
 *  cpu-time:     0 d,  0 h,  0 min,  0.109 sec
 * ratio c/w:     0.829 speedup
 SCF:
 * wall-time:     0 d,  0 h,  0 min,  0.078 sec
 *  cpu-time:     0 d,  0 h,  0 min,  0.078 sec
 * ratio c/w:     1.002 speedup



================ STDERR ================

normal termination of xtb
