      -----------------------------------------------------------      
     |                   =====================                   |     
     |                           x T B                           |     
     |                   =====================                   |     
     |                         S. Grimme                         |     
     |          Mulliken Center for Theoretical Chemistry        |     
     |                    University of Bonn                     |     
      -----------------------------------------------------------      

   * xtb version 6.7.1pre (5071a88) compiled by 'Marcel@Raven' on 2024-07-23

   xtb is free software: you can redistribute it and/or modify it under
   the terms of the GNU Lesser General Public License as published by
   the Free Software Foundation, either version 3 of the License, or
   (at your option) any later version.
   
   xtb is distributed in the hope that it will be useful,
   but WITHOUT ANY WARRANTY; without even the implied warranty of
   MERCHANTABILITY or FITNESS FOR A PARTICULAR PURPOSE.  See the
   GNU Lesser General Public License for more details.
   
   Cite this work as:
   * C. Bannwarth, E. Caldeweyher, S. Ehlert, A. Hansen, P. Pracht,
     J. Seibert, S. Spicher, S. Grimme, WIREs Comput. Mol. Sci., 2020, 11,
     e01493. DOI: 10.1002/wcms.1493
   
   for GFN2-xTB:
   * C. Bannwarth, S. Ehlert and S. Grimme., J. Chem. Theory Comput., 2019,
     15, 1652-1671. DOI: 10.1021/acs.jctc.8b01176
   for GFN1-xTB:
   * S. Grimme, C. Bannwarth, P. Shushkov, J. Chem. Theory Comput., 2017,
     13, 1989-2009. DOI: 10.1021/acs.jctc.7b00118
   for GFN0-xTB:
   * P. Pracht, E. Caldeweyher, S. Ehlert, S. Grimme, ChemRxiv, 2019, preprint.
     DOI: 10.26434/chemrxiv.8326202.v1
   for GFN-FF:
   * S. Spicher and S. Grimme, Angew. Chem. Int. Ed., 2020, 59, 15665-15673.
     DOI: 10.1002/anie.202004239
   
   for ALPB and GBSA implicit solvation:
   * S. Ehlert, M. Stahn, S. Spicher, S. Grimme, J. Chem. Theory Comput.,
     2021, 17, 4250-4261. DOI: 10.1021/acs.jctc.1c00471
   
   for ddCOSMO and CPCM-X implicit solvation:
   * M. Stahn, S. Ehlert, S. Grimme, J. Phys. Chem. A,
     2023, XX, XXXX-XXXX. DOI: 10.1021/acs.jpca.3c04382
   
   for DFT-D4:
   * E. Caldeweyher, C. Bannwarth and S. Grimme, J. Chem. Phys., 2017,
     147, 034112. DOI: 10.1063/1.4993215
   * E. Caldeweyher, S. Ehlert, A. Hansen, H. Neugebauer, S. Spicher,
     C. Bannwarth and S. Grimme, J. Chem. Phys., 2019, 150, 154122.
     DOI: 10.1063/1.5090222
   * E. Caldeweyher, J.-M. Mewes, S. Ehlert and S. Grimme, Phys. Chem. Chem. Phys.
     2020, 22, 8499-8512. DOI: 10.1039/D0CP00502A
   
   for sTDA-xTB:
   * S. Grimme and C. Bannwarth, J. Chem. Phys., 2016, 145, 054103.
     DOI: 10.1063/1.4959605
   
   in the mass-spec context:
   * V. Asgeirsson, C. Bauer and S. Grimme, Chem. Sci., 2017, 8, 4879.
     DOI: 10.1039/c7sc00601b
   * J. Koopman and S. Grimme, ACS Omega 2019, 4, 12, 15120-15133.
     DOI: 10.1021/acsomega.9b02011
   
   for metadynamics refer to:
   * S. Grimme, J. Chem. Theory Comput., 2019, 155, 2847-2862
     DOI: 10.1021/acs.jctc.9b00143
   
   for SPH calculations refer to:
   * S. Spicher and S. Grimme, J. Chem. Theory Comput., 2021, 17, 1701-1714
     DOI: 10.1021/acs.jctc.0c01306
   
   for ONIOM refer to:
   * C. Plett, A. Katbashev, S. Ehlert, S. Grimme, M. Bursch,
     Phys. Chem. Chem. Phys., 2023, 25, 17860-17868. DOI: 10.1039/D3CP02178E
   
   for DIPRO refer to:
   * J. Kohn, N. Gildemeister, S. Grimme, D. Fazzi, A. Hansen,
     J. Chem. Phys., 2023, just accepted.
   
   for PTB refer to:
   * S. Grimme, M. Mueller, A. Hansen, J. Chem. Phys., 2023, 158, 124111.
     DOI: 10.1063/5.0137838
   
   with help from (in alphabetical order)
   P. Atkinson, C. Bannwarth, F. Bohle, G. Brandenburg, E. Caldeweyher
   M. Checinski, S. Dohm, S. Ehlert, S. Ehrlich, I. Gerasimov, C. Hölzer
   A. Katbashev, J. Kohn, J. Koopman, C. Lavigne, S. Lehtola, F. März, M. Müller,
   F. Musil, H. Neugebauer, J. Pisarek, C. Plett, P. Pracht, F. Pultar,
   J. Seibert, P. Shushkov, S. Spicher, M. Stahn, M. Steiner, T. Strunk,
   J. Stückrath, T. Rose, and J. Unsleber
   
 * started run on 2026/08/20 at 18:20:57.007     
   ID    Z sym.   atoms
    1    7 N      1, 44, 53
    2    6 C      2-15, 45, 47, 48, 54
    3    8 O      16, 17, 41, 46, 49
    4    1 H      18-40, 42, 43, 50-52, 55-57

           -------------------------------------------------
          |                Calculation Setup                |
           -------------------------------------------------

          program call               : C:\Users\Nayanika\Downloads\xtb-6.7.1pre-windows-x86_64\xtb-6.7.1\bin\xtb.exe D:\PhD_Thesis\LmrR_EVB\charges\fast_lmrr_5QM\xtb_preparation\RS1_2b_to_PS1_3\RS1_2b_to_PS1_3_RS_xtbopt.xyz --gfn 2 --chrg 0 --uhf 0 --etemp 0
          coordinate file            : D:\PhD_Thesis\LmrR_EVB\charges\fast_lmrr_5QM\xtb_preparation\RS1_2b_to_PS1_3\RS1_2b_to_PS1_3_RS_xtbopt.xyz
          omp threads                :                     1


molecular fragmentation (1/2 indicates fragments):
111111111111111121211111111111111111112221211111111111111
# atoms in fragment 1/2:    51     6
 fragment masses (1/2) :      333.43       36.03
CMA distance (Bohr)    :  10.193
constraining FC (au)   :  0.0500

           -------------------------------------------------
          |                 G F N 2 - x T B                 |
           -------------------------------------------------

        Reference                      10.1021/acs.jctc.8b01176
      * Hamiltonian:
        H0-scaling (s, p, d)           1.850000    2.230000    2.230000
        zeta-weighting                 0.500000
      * Dispersion:
        s8                             2.700000
        a1                             0.520000
        a2                             5.000000
        s9                             5.000000
      * Repulsion:
        kExp                           1.500000    1.000000
        rExp                           1.000000
      * Coulomb:
        alpha                          2.000000
        third order                    shell-resolved
        anisotropic                    true
        a3                             3.000000
        a5                             4.000000
        cn-shift                       1.200000
        cn-exp                         4.000000
        max-rad                        5.000000

q/qsh data taken from xtbrestart
CAMM data taken from xtbrestart

          ...................................................
          :                      SETUP                      :
          :.................................................:
          :  # basis functions                 135          :
          :  # atomic orbitals                 135          :
          :  # shells                           83          :
          :  # electrons                       148          :
          :  max. iterations                   250          :
          :  Hamiltonian                  GFN2-xTB          :
          :  restarted?                       true          :
          :  GBSA solvation                  false          :
          :  PC potential                    false          :
          :  electronic temp.            0.0000000     K    :
          :  accuracy                    1.0000000          :
          :  -> integral cutoff          0.2500000E+02      :
          :  -> integral neglect         0.1000000E-07      :
          :  -> SCF convergence          0.1000000E-05 Eh   :
          :  -> wf. convergence          0.1000000E-03 e    :
          :  Broyden damping             0.4000000          :
          :  net charge                          0          :
          :  unpaired electrons                  0          :
          ...................................................

 iter      E             dE          RMSdq      gap      omega  full diag
   1    -84.5403398 -0.845403E+02  0.557E-06    3.80       0.0  T
   2    -84.5403398 -0.227374E-12  0.417E-06    3.80    3173.5  T
   3    -84.5403398 -0.511591E-12  0.193E-06    3.80    6856.6  T

   *** convergence criteria satisfied after 3 iterations ***

         #    Occupation            Energy/Eh            Energy/eV
      -------------------------------------------------------------
         1        2.0000           -0.7045047             -19.1705
       ...           ...                  ...                  ...
        68        2.0000           -0.4151205             -11.2960
        69        2.0000           -0.4051259             -11.0240
        70        2.0000           -0.4032574             -10.9732
        71        2.0000           -0.3969525             -10.8016
        72        2.0000           -0.3944009             -10.7322
        73        2.0000           -0.3814998             -10.3811
        74        2.0000           -0.3621280              -9.8540 (HOMO)
        75                         -0.2225061              -6.0547 (LUMO)
        76                         -0.2151105              -5.8535
        77                         -0.2134820              -5.8091
        78                         -0.2081951              -5.6653
        79                         -0.2029271              -5.5219
       ...                                ...                  ...
       135                          0.6611271              17.9902
      -------------------------------------------------------------
                  HL-Gap            0.1396220 Eh            3.7993 eV
             Fermi-level            0.0000000 Eh            0.0000 eV

 SCC (total)                   0 d,  0 h,  0 min,  0.089 sec
 SCC setup                      ...        0 min,  0.000 sec (  0.000%)
 Dispersion                     ...        0 min,  0.001 sec (  1.124%)
 classical contributions        ...        0 min,  0.000 sec (  0.000%)
 integral evaluation            ...        0 min,  0.013 sec ( 14.606%)
 iterations                     ...        0 min,  0.018 sec ( 20.225%)
 molecular gradient             ...        0 min,  0.048 sec ( 53.933%)
 printout                       ...        0 min,  0.009 sec ( 10.112%)

         :::::::::::::::::::::::::::::::::::::::::::::::::::::
         ::                     SUMMARY                     ::
         :::::::::::::::::::::::::::::::::::::::::::::::::::::
         :: total energy             -83.460587148094 Eh    ::
         :: gradient norm              0.000161707398 Eh/a0 ::
         :: HOMO-LUMO gap              3.799307065914 eV    ::
         ::.................................................::
         :: SCC energy               -84.539130808590 Eh    ::
         :: -> isotropic ES            0.172824034603 Eh    ::
         :: -> anisotropic ES          0.000519559362 Eh    ::
         :: -> anisotropic XC          0.027144244125 Eh    ::
         :: -> dispersion             -0.053294515178 Eh    ::
         :: repulsion energy           1.078543660496 Eh    ::
         :: add. restraining           0.000000000000 Eh    ::
         :: total charge               0.000000000000 e     ::
         :::::::::::::::::::::::::::::::::::::::::::::::::::::

           -------------------------------------------------
          |                Property Printout                |
           -------------------------------------------------

    * Orbital Energies and Occupations

         #    Occupation            Energy/Eh            Energy/eV
      -------------------------------------------------------------
         1        2.0000           -0.7045047             -19.1705
       ...           ...                  ...                  ...
        62        2.0000           -0.4395442             -11.9606
        63        2.0000           -0.4359419             -11.8626
        64        2.0000           -0.4346370             -11.8271
        65        2.0000           -0.4292141             -11.6795
        66        2.0000           -0.4254214             -11.5763
        67        2.0000           -0.4205793             -11.4445
        68        2.0000           -0.4151205             -11.2960
        69        2.0000           -0.4051259             -11.0240
        70        2.0000           -0.4032574             -10.9732
        71        2.0000           -0.3969525             -10.8016
        72        2.0000           -0.3944009             -10.7322
        73        2.0000           -0.3814998             -10.3811
        74        2.0000           -0.3621280              -9.8540 (HOMO)
        75                         -0.2225061              -6.0547 (LUMO)
        76                         -0.2151105              -5.8535
        77                         -0.2134820              -5.8091
        78                         -0.2081951              -5.6653
        79                         -0.2029271              -5.5219
        80                         -0.0916796              -2.4947
        81                          0.0055724               0.1516
        82                          0.0112832               0.3070
        83                          0.0146608               0.3989
        84                          0.0177850               0.4840
        85                          0.0661065               1.7989
       ...                                ...                  ...
       135                          0.6611271              17.9902
      -------------------------------------------------------------
                  HL-Gap            0.1396220 Eh            3.7993 eV
             Fermi-level            0.0000000 Eh            0.0000 eV

     #   Z          covCN         q      C6AA      α(0)
     1   7 N        2.690    -0.222    25.858     7.552
     2   6 C        2.903     0.069    26.445     8.432
     3   6 C        2.921    -0.065    29.610     8.923
     4   6 C        2.925    -0.041    29.013     8.833
     5   6 C        2.969    -0.007    28.184     8.708
     6   6 C        2.924    -0.045    29.109     8.848
     7   6 C        2.924    -0.067    29.675     8.933
     8   6 C        3.811    -0.070    21.833     6.651
     9   6 C        3.797     0.020    20.248     6.407
    10   6 C        3.664     0.187    17.860     6.062
    11   6 C        2.890    -0.065    29.610     8.921
    12   6 C        2.890    -0.029    28.723     8.787
    13   6 C        3.807    -0.061    21.664     6.626
    14   6 C        3.802    -0.051    21.481     6.599
    15   6 C        3.752    -0.104    22.543     6.771
    16   8 O        1.654    -0.483    22.529     6.407
    17   8 O        1.610    -0.593    25.021     6.751
    18   1 H        0.860     0.152     1.390     1.847
    19   1 H        0.804     0.318     0.670     1.286
    20   1 H        0.926     0.055     2.264     2.353
    21   1 H        0.926     0.034     2.532     2.489
    22   1 H        0.925     0.024     2.676     2.558
    23   1 H        0.925     0.019     2.748     2.592
    24   1 H        0.924     0.062     2.176     2.307
    25   1 H        0.924     0.057     2.240     2.340
    26   1 H        0.924     0.060     2.197     2.318
    27   1 H        0.860     0.181     1.208     1.722
    28   1 H        0.860     0.207     1.072     1.622
    29   1 H        0.922     0.018     2.760     2.598
    30   1 H        0.925     0.027     2.625     2.533
    31   1 H        0.926     0.050     2.318     2.381
    32   1 H        0.924     0.049     2.337     2.391
    33   1 H        0.924     0.036     2.502     2.474
    34   1 H        0.924     0.031     2.578     2.511
    35   1 H        0.924     0.034     2.531     2.488
    36   1 H        0.925     0.035     2.516     2.480
    37   1 H        0.925     0.037     2.487     2.466
    38   1 H        0.925     0.035     2.520     2.482
    39   1 H        0.804     0.319     0.666     1.282
    40   1 H        0.805     0.282     0.777     1.385
    41   8 O        1.609    -0.596    25.084     6.760
    42   1 H        0.802     0.341     0.610     1.227
    43   1 H        0.805     0.285     0.768     1.377
    44   7 N        2.692    -0.183    24.967     7.421
    45   6 C        2.753     0.264    22.547     7.775
    46   8 O        0.858    -0.437    22.424     6.349
    47   6 C        3.757    -0.143    23.308     6.883
    48   6 C        2.749     0.277    22.309     7.734
    49   8 O        0.859    -0.455    22.816     6.404
    50   1 H        0.925     0.058     2.223     2.332
    51   1 H        0.925     0.057     2.233     2.337
    52   1 H        0.925     0.073     2.056     2.242
    53   7 N        2.686    -0.177    24.836     7.402
    54   6 C        3.690    -0.042    21.519     6.639
    55   1 H        0.924     0.052     2.294     2.369
    56   1 H        0.924     0.049     2.335     2.390
    57   1 H        0.925     0.082     1.961     2.190

 Mol. C6AA /au·bohr⁶  :      29328.833850
 Mol. C8AA /au·bohr⁸  :     652512.587175
 Mol. α(0) /au        :        260.944787


Wiberg/Mayer (AO) data.
largest (>0.10) Wiberg bond orders for each atom

 ---------------------------------------------------------------------------
     #   Z sym  total        # sym  WBO       # sym  WBO       # sym  WBO
 ---------------------------------------------------------------------------
     1   7 N    3.299 --     2 C    1.131    10 C    0.976    18 H    0.949
     2   6 C    3.970 --     7 C    1.350     3 C    1.346     1 N    1.131
     3   6 C    3.987 --     4 C    1.467     2 C    1.346    20 H    0.963
                             6 C    0.101
     4   6 C    3.992 --     3 C    1.467     5 C    1.398    21 H    0.969
                             7 C    0.103
     5   6 C    3.986 --     6 C    1.402     4 C    1.398     8 C    1.009
     6   6 C    3.990 --     7 C    1.458     5 C    1.402    22 H    0.968
                             3 C    0.101
     7   6 C    3.986 --     6 C    1.458     2 C    1.350    23 H    0.968
                             4 C    0.103
     8   6 C    3.990 --     5 C    1.009     9 C    0.981    24 H    0.970
                            25 H    0.965
     9   6 C    3.962 --     8 C    0.981    44 N    0.973    26 H    0.952
                            45 C    0.915
    10   6 C    3.953 --    16 O    0.992    11 C    0.988     1 N    0.976
                            29 H    0.944
    11   6 C    3.986 --    12 C    1.927    10 C    0.988    30 H    0.964
    12   6 C    3.989 --    11 C    1.927    13 C    1.028    31 H    0.961
    13   6 C    3.997 --    12 C    1.028    14 C    0.992    33 H    0.975
                            32 H    0.958
    14   6 C    3.997 --    15 C    1.019    13 C    0.992    34 H    0.980
                            35 H    0.979
    15   6 C    3.996 --    14 C    1.019    38 H    0.988    37 H    0.988
                            36 H    0.987
    16   8 O    1.959 --    10 C    0.992    42 H    0.815
    17   8 O    1.859 --    40 H    0.919    19 H    0.867
    18   1 H    0.976 --     1 N    0.949
    19   1 H    0.899 --    17 O    0.867
    20   1 H    0.997 --     3 C    0.963
    21   1 H    0.998 --     4 C    0.969
    22   1 H    0.999 --     6 C    0.968
    23   1 H    0.999 --     7 C    0.968
    24   1 H    0.996 --     8 C    0.970
    25   1 H    0.995 --     8 C    0.965
    26   1 H    0.996 --     9 C    0.952
    27   1 H    0.967 --    44 N    0.933
    28   1 H    0.957 --    53 N    0.904
    29   1 H    0.999 --    10 C    0.944
    30   1 H    0.999 --    11 C    0.964
    31   1 H    0.997 --    12 C    0.961
    32   1 H    0.998 --    13 C    0.958
    33   1 H    0.999 --    13 C    0.975
    34   1 H    0.999 --    14 C    0.980
    35   1 H    0.999 --    14 C    0.979
    36   1 H    0.998 --    15 C    0.987
    37   1 H    0.999 --    15 C    0.988
    38   1 H    0.999 --    15 C    0.988
    39   1 H    0.898 --    41 O    0.861
    40   1 H    0.920 --    17 O    0.919
    41   8 O    1.871 --    43 H    0.915    39 H    0.861
    42   1 H    0.884 --    16 O    0.815
    43   1 H    0.919 --    41 O    0.915
    44   7 N    3.451 --    48 C    1.273     9 C    0.973    27 H    0.933
                            49 O    0.192
    45   6 C    3.956 --    46 O    1.678    53 N    1.292     9 C    0.915
    46   8 O    2.009 --    45 C    1.678    53 N    0.212
    47   6 C    3.993 --    52 H    0.983    48 C    0.982    51 H    0.971
                            50 H    0.970
    48   6 C    3.951 --    49 O    1.647    44 N    1.273    47 C    0.982
    49   8 O    1.993 --    48 C    1.647    44 N    0.192
    50   1 H    0.996 --    47 C    0.970
    51   1 H    0.997 --    47 C    0.971
    52   1 H    0.994 --    47 C    0.983
    53   7 N    3.466 --    45 C    1.292    54 C    1.006    28 H    0.904
                            46 O    0.212
    54   6 C    3.966 --    53 N    1.006    55 H    0.977    57 H    0.977
                            56 H    0.976
    55   1 H    0.997 --    54 C    0.977
    56   1 H    0.998 --    54 C    0.976
    57   1 H    0.993 --    54 C    0.977
 ---------------------------------------------------------------------------

Topologies differ in total number of bonds
Writing topology from bond orders to xtbtopo.mol

molecular dipole:
                 x           y           z       tot (Debye)
 q only:       -0.941       0.541      -0.662
   full:       -1.257       0.585      -1.230       4.712
molecular quadrupole (traceless):
                xx          xy          yy          xz          yz          zz
 q only:      -14.514       6.040      -0.010      -5.936       2.408      14.524
  q+dip:      -23.592       5.623       0.004      -8.041       7.207      23.588
   full:      -23.471       5.565      -0.259      -8.863       4.975      23.731


           -------------------------------------------------
          | TOTAL ENERGY              -83.460587148094 Eh   |
          | GRADIENT NORM               0.000161707398 Eh/α |
          | HOMO-LUMO GAP               3.799307065914 eV   |
           -------------------------------------------------

------------------------------------------------------------------------
 * finished run on 2026/08/20 at 18:20:57.184     
------------------------------------------------------------------------
 total:
 * wall-time:     0 d,  0 h,  0 min,  0.172 sec
 *  cpu-time:     0 d,  0 h,  0 min,  0.141 sec
 * ratio c/w:     0.818 speedup
 SCF:
 * wall-time:     0 d,  0 h,  0 min,  0.090 sec
 *  cpu-time:     0 d,  0 h,  0 min,  0.094 sec
 * ratio c/w:     1.042 speedup



================ STDERR ================

normal termination of xtb
