      -----------------------------------------------------------      
     |                   =====================                   |     
     |                           x T B                           |     
     |                   =====================                   |     
     |                         S. Grimme                         |     
     |          Mulliken Center for Theoretical Chemistry        |     
     |                    University of Bonn                     |     
      -----------------------------------------------------------      

   * xtb version 6.7.1pre (5071a88) compiled by 'Marcel@Raven' on 2024-07-23

   xtb is free software: you can redistribute it and/or modify it under
   the terms of the GNU Lesser General Public License as published by
   the Free Software Foundation, either version 3 of the License, or
   (at your option) any later version.
   
   xtb is distributed in the hope that it will be useful,
   but WITHOUT ANY WARRANTY; without even the implied warranty of
   MERCHANTABILITY or FITNESS FOR A PARTICULAR PURPOSE.  See the
   GNU Lesser General Public License for more details.
   
   Cite this work as:
   * C. Bannwarth, E. Caldeweyher, S. Ehlert, A. Hansen, P. Pracht,
     J. Seibert, S. Spicher, S. Grimme, WIREs Comput. Mol. Sci., 2020, 11,
     e01493. DOI: 10.1002/wcms.1493
   
   for GFN2-xTB:
   * C. Bannwarth, S. Ehlert and S. Grimme., J. Chem. Theory Comput., 2019,
     15, 1652-1671. DOI: 10.1021/acs.jctc.8b01176
   for GFN1-xTB:
   * S. Grimme, C. Bannwarth, P. Shushkov, J. Chem. Theory Comput., 2017,
     13, 1989-2009. DOI: 10.1021/acs.jctc.7b00118
   for GFN0-xTB:
   * P. Pracht, E. Caldeweyher, S. Ehlert, S. Grimme, ChemRxiv, 2019, preprint.
     DOI: 10.26434/chemrxiv.8326202.v1
   for GFN-FF:
   * S. Spicher and S. Grimme, Angew. Chem. Int. Ed., 2020, 59, 15665-15673.
     DOI: 10.1002/anie.202004239
   
   for ALPB and GBSA implicit solvation:
   * S. Ehlert, M. Stahn, S. Spicher, S. Grimme, J. Chem. Theory Comput.,
     2021, 17, 4250-4261. DOI: 10.1021/acs.jctc.1c00471
   
   for ddCOSMO and CPCM-X implicit solvation:
   * M. Stahn, S. Ehlert, S. Grimme, J. Phys. Chem. A,
     2023, XX, XXXX-XXXX. DOI: 10.1021/acs.jpca.3c04382
   
   for DFT-D4:
   * E. Caldeweyher, C. Bannwarth and S. Grimme, J. Chem. Phys., 2017,
     147, 034112. DOI: 10.1063/1.4993215
   * E. Caldeweyher, S. Ehlert, A. Hansen, H. Neugebauer, S. Spicher,
     C. Bannwarth and S. Grimme, J. Chem. Phys., 2019, 150, 154122.
     DOI: 10.1063/1.5090222
   * E. Caldeweyher, J.-M. Mewes, S. Ehlert and S. Grimme, Phys. Chem. Chem. Phys.
     2020, 22, 8499-8512. DOI: 10.1039/D0CP00502A
   
   for sTDA-xTB:
   * S. Grimme and C. Bannwarth, J. Chem. Phys., 2016, 145, 054103.
     DOI: 10.1063/1.4959605
   
   in the mass-spec context:
   * V. Asgeirsson, C. Bauer and S. Grimme, Chem. Sci., 2017, 8, 4879.
     DOI: 10.1039/c7sc00601b
   * J. Koopman and S. Grimme, ACS Omega 2019, 4, 12, 15120-15133.
     DOI: 10.1021/acsomega.9b02011
   
   for metadynamics refer to:
   * S. Grimme, J. Chem. Theory Comput., 2019, 155, 2847-2862
     DOI: 10.1021/acs.jctc.9b00143
   
   for SPH calculations refer to:
   * S. Spicher and S. Grimme, J. Chem. Theory Comput., 2021, 17, 1701-1714
     DOI: 10.1021/acs.jctc.0c01306
   
   for ONIOM refer to:
   * C. Plett, A. Katbashev, S. Ehlert, S. Grimme, M. Bursch,
     Phys. Chem. Chem. Phys., 2023, 25, 17860-17868. DOI: 10.1039/D3CP02178E
   
   for DIPRO refer to:
   * J. Kohn, N. Gildemeister, S. Grimme, D. Fazzi, A. Hansen,
     J. Chem. Phys., 2023, just accepted.
   
   for PTB refer to:
   * S. Grimme, M. Mueller, A. Hansen, J. Chem. Phys., 2023, 158, 124111.
     DOI: 10.1063/5.0137838
   
   with help from (in alphabetical order)
   P. Atkinson, C. Bannwarth, F. Bohle, G. Brandenburg, E. Caldeweyher
   M. Checinski, S. Dohm, S. Ehlert, S. Ehrlich, I. Gerasimov, C. Hölzer
   A. Katbashev, J. Kohn, J. Koopman, C. Lavigne, S. Lehtola, F. März, M. Müller,
   F. Musil, H. Neugebauer, J. Pisarek, C. Plett, P. Pracht, F. Pultar,
   J. Seibert, P. Shushkov, S. Spicher, M. Stahn, M. Steiner, T. Strunk,
   J. Stückrath, T. Rose, and J. Unsleber
   
 * started run on 2026/08/20 at 18:22:57.634     
   ID    Z sym.   atoms
    1    7 N      1, 44, 53
    2    6 C      2-15, 45, 47, 48, 54
    3    8 O      16, 17, 41, 46, 49
    4    1 H      18-40, 42, 43, 50-52, 55-57

           -------------------------------------------------
          |                Calculation Setup                |
           -------------------------------------------------

          program call               : C:\Users\Nayanika\Downloads\xtb-6.7.1pre-windows-x86_64\xtb-6.7.1\bin\xtb.exe D:\PhD_Thesis\LmrR_EVB\charges\fast_lmrr_5QM\xtb_preparation\RS1_2b_to_PS1_3\RS1_2b_to_PS1_3_PS_xtbopt.xyz --gfn 2 --chrg 0 --uhf 0 --hess --etemp 0
          coordinate file            : D:\PhD_Thesis\LmrR_EVB\charges\fast_lmrr_5QM\xtb_preparation\RS1_2b_to_PS1_3\RS1_2b_to_PS1_3_PS_xtbopt.xyz
          omp threads                :                     1


molecular fragmentation (1/2 indicates fragments):
111111111111111222211111111111111111112222211111111111111
# atoms in fragment 1/2:    48     9
 fragment masses (1/2) :      315.41       54.05
CMA distance (Bohr)    :   5.411
constraining FC (au)   :  0.0500

           -------------------------------------------------
          |                 G F N 2 - x T B                 |
           -------------------------------------------------

        Reference                      10.1021/acs.jctc.8b01176
      * Hamiltonian:
        H0-scaling (s, p, d)           1.850000    2.230000    2.230000
        zeta-weighting                 0.500000
      * Dispersion:
        s8                             2.700000
        a1                             0.520000
        a2                             5.000000
        s9                             5.000000
      * Repulsion:
        kExp                           1.500000    1.000000
        rExp                           1.000000
      * Coulomb:
        alpha                          2.000000
        third order                    shell-resolved
        anisotropic                    true
        a3                             3.000000
        a5                             4.000000
        cn-shift                       1.200000
        cn-exp                         4.000000
        max-rad                        5.000000

q/qsh data taken from xtbrestart
CAMM data taken from xtbrestart

          ...................................................
          :                      SETUP                      :
          :.................................................:
          :  # basis functions                 135          :
          :  # atomic orbitals                 135          :
          :  # shells                           83          :
          :  # electrons                       148          :
          :  max. iterations                   250          :
          :  Hamiltonian                  GFN2-xTB          :
          :  restarted?                       true          :
          :  GBSA solvation                  false          :
          :  PC potential                    false          :
          :  electronic temp.            0.0000000     K    :
          :  accuracy                    1.0000000          :
          :  -> integral cutoff          0.2500000E+02      :
          :  -> integral neglect         0.1000000E-07      :
          :  -> SCF convergence          0.1000000E-05 Eh   :
          :  -> wf. convergence          0.1000000E-03 e    :
          :  Broyden damping             0.4000000          :
          :  net charge                          0          :
          :  unpaired electrons                  0          :
          ...................................................

 iter      E             dE          RMSdq      gap      omega  full diag
   1    -84.5435292 -0.845435E+02  0.141E-05    2.30       0.0  T
   2    -84.5435292  0.284217E-13  0.126E-05    2.30    1052.5  T
   3    -84.5435292 -0.704858E-11  0.459E-06    2.30    2888.4  T

   *** convergence criteria satisfied after 3 iterations ***

         #    Occupation            Energy/Eh            Energy/eV
      -------------------------------------------------------------
         1        2.0000           -0.7061364             -19.2149
       ...           ...                  ...                  ...
        68        2.0000           -0.4134617             -11.2509
        69        2.0000           -0.4090974             -11.1321
        70        2.0000           -0.4054235             -11.0321
        71        2.0000           -0.3994885             -10.8706
        72        2.0000           -0.3956552             -10.7663
        73        2.0000           -0.3854771             -10.4894
        74        2.0000           -0.3676408             -10.0040 (HOMO)
        75                         -0.2830174              -7.7013 (LUMO)
        76                         -0.2279382              -6.2025
        77                         -0.2191575              -5.9636
        78                         -0.2161591              -5.8820
        79                         -0.2066142              -5.6223
       ...                                ...                  ...
       135                          0.6682687              18.1845
      -------------------------------------------------------------
                  HL-Gap            0.0846234 Eh            2.3027 eV
             Fermi-level            0.0000000 Eh            0.0000 eV

 SCC (total)                   0 d,  0 h,  0 min,  0.095 sec
 SCC setup                      ...        0 min,  0.001 sec (  1.053%)
 Dispersion                     ...        0 min,  0.001 sec (  1.053%)
 classical contributions        ...        0 min,  0.000 sec (  0.000%)
 integral evaluation            ...        0 min,  0.013 sec ( 13.684%)
 iterations                     ...        0 min,  0.032 sec ( 33.684%)
 molecular gradient             ...        0 min,  0.047 sec ( 49.474%)
 printout                       ...        0 min,  0.001 sec (  1.053%)

         :::::::::::::::::::::::::::::::::::::::::::::::::::::
         ::                     SUMMARY                     ::
         :::::::::::::::::::::::::::::::::::::::::::::::::::::
         :: total energy             -83.440298285087 Eh    ::
         :: gradient norm              0.013281711309 Eh/a0 ::
         :: HOMO-LUMO gap              2.302719055148 eV    ::
         ::.................................................::
         :: SCC energy               -84.541955596959 Eh    ::
         :: -> isotropic ES            0.185409563075 Eh    ::
         :: -> anisotropic ES         -0.005838018288 Eh    ::
         :: -> anisotropic XC          0.034084749240 Eh    ::
         :: -> dispersion             -0.055247461659 Eh    ::
         :: repulsion energy           1.101657311872 Eh    ::
         :: add. restraining           0.000000000000 Eh    ::
         :: total charge              -0.000000000000 e     ::
         :::::::::::::::::::::::::::::::::::::::::::::::::::::

           ------------------------------------------------- 
          |                Numerical Hessian                |
           ------------------------------------------------- 
step length          :   0.00500
SCC accuracy         :   0.30000
Hessian scale factor :   1.00000
frozen atoms in %    :   0.00000    0
RMS gradient         :   0.01328 !! INCOMPLETELY OPTIMIZED GEOMETRY !!
estimated CPU  time      0.47 min
estimated wall time      0.47 min

writing file <hessian>.

 projected vibrational frequencies (cm⁻¹)
eigval :       -0.00    -0.00    -0.00    -0.00     0.00     0.00
eigval :      -14.47    20.25    22.37    31.01    36.10    41.13
eigval :       47.72    51.76    58.37    68.52    70.35    76.54
eigval :       80.95    84.57    99.37   108.32   126.13   127.70
eigval :      131.36   142.46   144.68   151.99   163.40   173.44
eigval :      175.42   183.55   189.46   219.56   224.61   232.77
eigval :      247.99   255.17   273.53   291.36   293.82   310.47
eigval :      337.65   358.59   382.19   386.01   394.76   406.43
eigval :      422.59   429.06   433.46   447.92   455.45   472.53
eigval :      492.38   509.08   516.33   557.16   561.37   576.07
eigval :      588.54   598.68   607.32   639.75   660.85   684.00
eigval :      703.21   727.55   772.75   783.17   797.06   820.23
eigval :      866.17   873.62   883.62   892.28   900.31   918.93
eigval :      923.87   930.06   938.47   979.32   999.52  1010.17
eigval :     1014.25  1025.39  1036.24  1041.61  1075.18  1088.67
eigval :     1105.18  1107.94  1115.72  1129.91  1142.57  1144.27
eigval :     1161.30  1163.91  1192.48  1207.47  1209.32  1214.87
eigval :     1219.06  1235.25  1244.58  1259.64  1267.59  1274.15
eigval :     1281.98  1292.80  1298.12  1315.05  1326.30  1346.01
eigval :     1365.48  1378.57  1393.64  1411.15  1416.63  1424.54
eigval :     1434.05  1450.40  1462.69  1463.48  1464.85  1477.04
eigval :     1481.85  1484.20  1493.93  1502.02  1505.43  1531.00
eigval :     1560.97  1568.15  1571.88  1593.64  1634.29  1666.76
eigval :     1692.87  1760.11  2914.17  2934.53  2956.82  2970.23
eigval :     2978.83  2988.39  2988.64  2990.57  3000.12  3001.21
eigval :     3012.56  3021.39  3026.38  3031.01  3031.23  3033.76
eigval :     3039.00  3057.79  3065.34  3077.32  3091.70  3092.80
eigval :     3097.57  3282.72  3348.59  3460.44  3475.25  3502.60
eigval :     3527.74  3558.25  3594.67
           -------------------------------------------------
          |                Property Printout                |
           -------------------------------------------------

    * Orbital Energies and Occupations

         #    Occupation            Energy/Eh            Energy/eV
      -------------------------------------------------------------
         1        2.0000           -0.7061364             -19.2149
       ...           ...                  ...                  ...
        62        2.0000           -0.4386376             -11.9359
        63        2.0000           -0.4344747             -11.8227
        64        2.0000           -0.4296204             -11.6906
        65        2.0000           -0.4265708             -11.6076
        66        2.0000           -0.4248722             -11.5614
        67        2.0000           -0.4172944             -11.3552
        68        2.0000           -0.4134617             -11.2509
        69        2.0000           -0.4090974             -11.1321
        70        2.0000           -0.4054235             -11.0321
        71        2.0000           -0.3994885             -10.8706
        72        2.0000           -0.3956552             -10.7663
        73        2.0000           -0.3854771             -10.4894
        74        2.0000           -0.3676408             -10.0040 (HOMO)
        75                         -0.2830174              -7.7013 (LUMO)
        76                         -0.2279382              -6.2025
        77                         -0.2191575              -5.9636
        78                         -0.2161591              -5.8820
        79                         -0.2066142              -5.6223
        80                         -0.1604884              -4.3671
        81                         -0.0956510              -2.6028
        82                          0.0032196               0.0876
        83                          0.0080301               0.2185
        84                          0.0504078               1.3717
        85                          0.0717652               1.9528
       ...                                ...                  ...
       135                          0.6682687              18.1845
      -------------------------------------------------------------
                  HL-Gap            0.0846233 Eh            2.3027 eV
             Fermi-level            0.0000000 Eh            0.0000 eV

     #   Z          covCN         q      C6AA      α(0)
     1   7 N        1.833    -0.245    27.250     7.736
     2   6 C        2.930     0.080    26.225     8.398
     3   6 C        2.919    -0.042    29.032     8.836
     4   6 C        2.924    -0.035    28.866     8.811
     5   6 C        2.972     0.005    27.898     8.664
     6   6 C        2.923    -0.042    29.052     8.839
     7   6 C        2.923    -0.065    29.619     8.925
     8   6 C        3.811    -0.068    21.797     6.645
     9   6 C        3.800     0.019    20.264     6.409
    10   6 C        2.855     0.076    26.292     8.404
    11   6 C        2.894    -0.067    29.658     8.929
    12   6 C        2.897    -0.013    28.345     8.729
    13   6 C        3.808    -0.068    21.794     6.645
    14   6 C        3.802    -0.048    21.435     6.592
    15   6 C        3.752    -0.105    22.567     6.774
    16   8 O        1.609    -0.609    25.394     6.801
    17   8 O        1.610    -0.590    24.944     6.741
    18   1 H        0.803     0.297     0.731     1.343
    19   1 H        0.805     0.295     0.737     1.348
    20   1 H        0.926     0.037     2.487     2.466
    21   1 H        0.926     0.036     2.498     2.472
    22   1 H        0.926     0.028     2.618     2.530
    23   1 H        0.926     0.054     2.267     2.354
    24   1 H        0.924     0.056     2.242     2.342
    25   1 H        0.924     0.062     2.177     2.307
    26   1 H        0.924     0.070     2.087     2.259
    27   1 H        0.860     0.180     1.212     1.724
    28   1 H        0.860     0.201     1.100     1.643
    29   1 H        0.925     0.036     2.500     2.473
    30   1 H        0.926     0.084     1.942     2.179
    31   1 H        0.925     0.036     2.505     2.475
    32   1 H        0.924     0.049     2.334     2.389
    33   1 H        0.924     0.071     2.072     2.251
    34   1 H        0.924     0.035     2.511     2.478
    35   1 H        0.924     0.029     2.599     2.521
    36   1 H        0.925     0.035     2.517     2.481
    37   1 H        0.925     0.034     2.528     2.486
    38   1 H        0.925     0.043     2.403     2.424
    39   1 H        0.805     0.295     0.735     1.347
    40   1 H        0.805     0.297     0.729     1.341
    41   8 O        1.608    -0.597    25.121     6.765
    42   1 H        0.805     0.291     0.749     1.360
    43   1 H        0.804     0.273     0.809     1.413
    44   7 N        2.692    -0.178    24.857     7.405
    45   6 C        2.753     0.263    22.557     7.777
    46   8 O        0.858    -0.433    22.357     6.339
    47   6 C        3.757    -0.155    23.544     6.918
    48   6 C        2.750     0.279    22.279     7.729
    49   8 O        0.859    -0.477    23.282     6.469
    50   1 H        0.925     0.072     2.063     2.246
    51   1 H        0.924     0.099     1.795     2.095
    52   1 H        0.925     0.049     2.329     2.386
    53   7 N        2.687    -0.175    24.779     7.393
    54   6 C        3.690    -0.043    21.538     6.642
    55   1 H        0.924     0.053     2.283     2.363
    56   1 H        0.924     0.050     2.319     2.381
    57   1 H        0.925     0.083     1.947     2.182

 Mol. C6AA /au·bohr⁶  :      29462.278929
 Mol. C8AA /au·bohr⁸  :     657862.039203
 Mol. α(0) /au        :        262.377725


Wiberg/Mayer (AO) data.
largest (>0.10) Wiberg bond orders for each atom

 ---------------------------------------------------------------------------
     #   Z sym  total        # sym  WBO       # sym  WBO       # sym  WBO
 ---------------------------------------------------------------------------
     1   7 N    3.159 --    10 C    1.718     2 C    1.124    12 C    0.115
     2   6 C    3.977 --     7 C    1.343     3 C    1.340     1 N    1.124
     3   6 C    3.989 --     4 C    1.468     2 C    1.340    20 H    0.968
                             6 C    0.100
     4   6 C    3.991 --     3 C    1.468     5 C    1.396    21 H    0.968
                             7 C    0.102
     5   6 C    3.981 --     6 C    1.404     4 C    1.396     8 C    1.011
     6   6 C    3.990 --     7 C    1.452     5 C    1.404    22 H    0.967
                             3 C    0.100
     7   6 C    3.977 --     6 C    1.452     2 C    1.343    23 H    0.962
                             4 C    0.102
     8   6 C    3.991 --     5 C    1.011     9 C    0.978    24 H    0.970
                            25 H    0.966
     9   6 C    3.962 --     8 C    0.978    44 N    0.976    26 H    0.950
                            45 C    0.915
    10   6 C    3.968 --     1 N    1.718    11 C    1.145    29 H    0.954
    11   6 C    3.985 --    12 C    1.781    10 C    1.145    30 H    0.947
    12   6 C    3.964 --    11 C    1.781    13 C    1.045    31 H    0.964
                             1 N    0.115
    13   6 C    3.993 --    12 C    1.045    14 C    0.982    33 H    0.970
                            32 H    0.951
    14   6 C    3.990 --    15 C    1.019    13 C    0.982    34 H    0.979
                            35 H    0.979
    15   6 C    3.995 --    14 C    1.019    37 H    0.988    38 H    0.987
                            36 H    0.986
    16   8 O    1.820 --    42 H    0.897    19 H    0.888
    17   8 O    1.855 --    39 H    0.908    40 H    0.883
    18   1 H    0.912 --    41 O    0.867
    19   1 H    0.913 --    16 O    0.888
    20   1 H    0.998 --     3 C    0.968
    21   1 H    0.998 --     4 C    0.968
    22   1 H    0.998 --     6 C    0.967
    23   1 H    0.997 --     7 C    0.962
    24   1 H    0.996 --     8 C    0.970
    25   1 H    0.995 --     8 C    0.966
    26   1 H    0.995 --     9 C    0.950
    27   1 H    0.967 --    44 N    0.935
    28   1 H    0.959 --    53 N    0.915
    29   1 H    0.998 --    10 C    0.954
    30   1 H    0.993 --    11 C    0.947
    31   1 H    0.998 --    12 C    0.964
    32   1 H    0.990 --    13 C    0.951
    33   1 H    0.995 --    13 C    0.970
    34   1 H    0.999 --    14 C    0.979
    35   1 H    0.999 --    14 C    0.979
    36   1 H    0.998 --    15 C    0.986
    37   1 H    0.999 --    15 C    0.988
    38   1 H    0.998 --    15 C    0.987
    39   1 H    0.913 --    17 O    0.908
    40   1 H    0.912 --    17 O    0.883
    41   8 O    1.820 --    43 H    0.925    18 H    0.867
    42   1 H    0.915 --    16 O    0.897
    43   1 H    0.926 --    41 O    0.925
    44   7 N    3.458 --    48 C    1.277     9 C    0.976    27 H    0.935
                            49 O    0.185
    45   6 C    3.955 --    46 O    1.682    53 N    1.286     9 C    0.915
    46   8 O    2.012 --    45 C    1.682    53 N    0.211
    47   6 C    3.990 --    48 C    0.994    50 H    0.980    52 H    0.978
                            51 H    0.944
    48   6 C    3.947 --    49 O    1.617    44 N    1.277    47 C    0.994
    49   8 O    1.965 --    48 C    1.617    44 N    0.185
    50   1 H    0.995 --    47 C    0.980
    51   1 H    0.990 --    47 C    0.944
    52   1 H    0.997 --    47 C    0.978
    53   7 N    3.464 --    45 C    1.286    54 C    1.005    28 H    0.915
                            46 O    0.211
    54   6 C    3.965 --    53 N    1.005    55 H    0.977    57 H    0.977
                            56 H    0.976
    55   1 H    0.997 --    54 C    0.977
    56   1 H    0.997 --    54 C    0.976
    57   1 H    0.993 --    54 C    0.977
 ---------------------------------------------------------------------------

Topologies differ in total number of bonds
Writing topology from bond orders to xtbtopo.mol

molecular dipole:
                 x           y           z       tot (Debye)
 q only:       -0.820       0.212      -0.254
   full:       -1.200       0.129      -0.313       3.170
molecular quadrupole (traceless):
                xx          xy          yy          xz          yz          zz
 q only:       -8.724       4.481       3.852      -9.453       2.742       4.872
  q+dip:      -11.902       2.074       5.446     -12.813       7.825       6.456
   full:      -13.305       3.132       4.042     -12.761       6.350       9.263

           -------------------------------------------------
          |               Frequency Printout                |
           -------------------------------------------------
 projected vibrational frequencies (cm⁻¹)
eigval :       -0.00    -0.00    -0.00    -0.00     0.00     0.00
eigval :      -14.47    20.25    22.37    31.01    36.10    41.13
eigval :       47.72    51.76    58.37    68.52    70.35    76.54
eigval :       80.95    84.57    99.37   108.32   126.13   127.70
eigval :      131.36   142.46   144.68   151.99   163.40   173.44
eigval :      175.42   183.55   189.46   219.56   224.61   232.77
eigval :      247.99   255.17   273.53   291.36   293.82   310.47
eigval :      337.65   358.59   382.19   386.01   394.76   406.43
eigval :      422.59   429.06   433.46   447.92   455.45   472.53
eigval :      492.38   509.08   516.33   557.16   561.37   576.07
eigval :      588.54   598.68   607.32   639.75   660.85   684.00
eigval :      703.21   727.55   772.75   783.17   797.06   820.23
eigval :      866.17   873.62   883.62   892.28   900.31   918.93
eigval :      923.87   930.06   938.47   979.32   999.52  1010.17
eigval :     1014.25  1025.39  1036.24  1041.61  1075.18  1088.67
eigval :     1105.18  1107.94  1115.72  1129.91  1142.57  1144.27
eigval :     1161.30  1163.91  1192.48  1207.47  1209.32  1214.87
eigval :     1219.06  1235.25  1244.58  1259.64  1267.59  1274.15
eigval :     1281.98  1292.80  1298.12  1315.05  1326.30  1346.01
eigval :     1365.48  1378.57  1393.64  1411.15  1416.63  1424.54
eigval :     1434.05  1450.40  1462.69  1463.48  1464.85  1477.04
eigval :     1481.85  1484.20  1493.93  1502.02  1505.43  1531.00
eigval :     1560.97  1568.15  1571.88  1593.64  1634.29  1666.76
eigval :     1692.87  1760.11  2914.17  2934.53  2956.82  2970.23
eigval :     2978.83  2988.39  2988.64  2990.57  3000.12  3001.21
eigval :     3012.56  3021.39  3026.38  3031.01  3031.23  3033.76
eigval :     3039.00  3057.79  3065.34  3077.32  3091.70  3092.80
eigval :     3097.57  3282.72  3348.59  3460.44  3475.25  3502.60
eigval :     3527.74  3558.25  3594.67
 reduced masses (amu)
   1: 12.26   2: 11.84   3: 11.59   4: 12.13   5: 11.52   6: 12.26   7: 13.65   8: 11.45
   9: 11.46  10: 13.24  11: 11.89  12: 12.68  13: 12.07  14: 13.15  15: 12.32  16: 11.50
  17: 11.89  18: 13.29  19: 11.88  20:  6.49  21: 10.74  22: 10.69  23: 12.00  24: 11.34
  25:  1.93  26: 12.78  27: 13.02  28: 11.56  29: 12.84  30: 10.48  31:  2.37  32: 10.88
  33: 11.11  34:  8.75  35:  4.00  36: 11.27  37:  7.22  38:  4.27  39:  2.58  40:  9.67
  41: 11.49  42: 11.02  43: 10.15  44:  8.69  45:  7.13  46:  3.84  47:  3.25  48:  9.41
  49:  7.37  50:  5.06  51:  8.05  52:  2.64  53:  5.33  54:  9.21  55:  3.53  56:  8.88
  57: 10.32  58:  9.44  59:  3.05  60:  2.05  61:  8.32  62:  9.88  63: 10.18  64:  7.55
  65: 10.75  66:  8.42  67: 10.78  68: 11.35  69: 10.75  70:  4.50  71:  3.33  72:  5.65
  73: 10.11  74:  4.14  75:  7.15  76:  4.81  77:  3.46  78:  3.04  79:  9.09  80:  3.96
  81:  6.22  82: 11.09  83:  5.45  84:  5.39  85:  8.55  86:  2.25  87:  8.47  88:  4.25
  89:  6.76  90:  8.93  91:  3.88  92:  7.24  93:  7.66  94:  7.39  95:  5.18  96:  7.12
  97:  8.58  98:  6.41  99:  3.18 100:  5.57 101:  4.86 102:  4.62 103:  4.61 104:  3.59
 105:  5.72 106:  6.86 107:  2.56 108:  3.58 109:  4.85 110:  3.34 111:  3.68 112:  7.01
 113:  9.59 114:  5.02 115:  5.22 116:  3.18 117:  2.62 118:  9.86 119:  3.14 120:  9.86
 121:  8.54 122:  1.71 123:  1.57 124:  2.05 125:  1.82 126:  3.01 127:  8.65 128:  2.49
 129:  1.87 130:  1.54 131:  1.61 132:  2.17 133: 11.55 134:  2.19 135:  2.16 136: 11.53
 137: 11.97 138: 12.01 139: 13.03 140: 13.20 141:  1.74 142:  1.74 143:  1.85 144:  1.93
 145:  1.59 146:  1.93 147:  1.47 148:  1.76 149:  1.55 150:  1.73 151:  1.74 152:  1.88
 153:  1.87 154:  1.73 155:  1.41 156:  1.81 157:  1.64 158:  1.78 159:  1.80 160:  1.79
 161:  1.87 162:  1.86 163:  1.83 164:  1.88 165:  1.88 166:  1.84 167:  1.89 168:  1.95
 169:  1.84 170:  1.76 171:  1.80
 IR intensities (km·mol⁻¹)
   1:  0.01   2:  0.06   3:  0.03   4:  0.00   5:  0.02   6:  0.10   7:  1.02   8:  0.15
   9:  0.04  10:  1.61  11:  0.95  12:  1.55  13:  1.45  14:  2.59  15:  4.41  16:  0.96
  17:  1.54  18:  5.67  19:  5.70  20:  0.93  21: 15.53  22:  6.26  23:  3.84  24: 10.67
  25:  0.15  26:  3.08  27: 10.00  28:  2.35  29:  2.70  30:  5.97  31:  2.29  32:  2.84
  33:  2.11  34:  2.57  35: 10.53  36:  3.69  37:  3.00  38:  0.38  39: 27.78  40:  3.43
  41:  3.78  42: 12.00  43:  0.62  44:  4.05  45:  9.66  46: 71.11  47:134.32  48: 17.04
  49: 17.45  50: 23.65  51: 52.37  52:263.98  53: 94.57  54:  5.10  55: 89.39  56: 19.39
  57:  4.95  58: 22.13  59:224.71  60:148.38  61:  3.98  62: 26.18  63: 19.73  64: 80.18
  65: 26.20  66:  6.86  67:  3.18  68:  1.74  69: 26.37  70:  1.78  71: 14.14  72: 28.76
  73:  2.23  74:  0.84  75:  5.19  76:  1.28  77: 13.27  78:  2.74  79:  0.73  80:  1.83
  81:  3.33  82: 19.33  83:  1.43  84: 35.20  85:  1.78  86: 20.70  87: 24.51  88: 22.16
  89: 21.68  90:  0.22  91:  0.49  92: 25.43  93: 25.92  94: 25.82  95:  1.15  96:  6.52
  97: 15.81  98:  2.02  99: 13.85 100:  2.89 101: 22.98 102:  5.53 103:  6.13 104:  0.59
 105: 27.09 106: 14.62 107:  0.39 108:  3.85 109: 26.42 110:  1.80 111:  3.87 112:  3.72
 113:  1.42 114: 16.66 115:  7.89 116: 30.79 117:  2.77 118:  8.41 119:  1.65 120:231.28
 121:214.93 122: 10.81 123: 11.39 124:  3.81 125:  9.03 126:  3.98 127: 43.24 128: 26.75
 129:  0.82 130:  2.07 131:  1.94 132:119.22 133:  2.67 134:186.57 135: 93.64 136: 53.59
 137:344.08 138:  6.56 139:310.31 140:550.92 141: 10.67 142: 22.25 143: 41.92 144: 30.29
 145: 28.66 146: 17.28 147: 46.85 148: 51.77 149: 18.81 150:  3.29 151: 11.77 152: 55.13
 153: 44.25 154:  6.70 155: 10.86 156: 83.05 157: 15.02 158:  7.58 159: 43.91 160: 21.55
 161: 41.24 162:  2.24 163:  4.14 164:432.59 165: 78.81 166: 10.12 167:123.79 168:161.68
 169:  9.71 170: 83.80 171: 18.50
 Raman intensities (Ä⁴*amu⁻¹)
   1:  0.00   2:  0.00   3:  0.00   4:  0.00   5:  0.00   6:  0.00   7:  0.00   8:  0.00
   9:  0.00  10:  0.00  11:  0.00  12:  0.00  13:  0.00  14:  0.00  15:  0.00  16:  0.00
  17:  0.00  18:  0.00  19:  0.00  20:  0.00  21:  0.00  22:  0.00  23:  0.00  24:  0.00
  25:  0.00  26:  0.00  27:  0.00  28:  0.00  29:  0.00  30:  0.00  31:  0.00  32:  0.00
  33:  0.00  34:  0.00  35:  0.00  36:  0.00  37:  0.00  38:  0.00  39:  0.00  40:  0.00
  41:  0.00  42:  0.00  43:  0.00  44:  0.00  45:  0.00  46:  0.00  47:  0.00  48:  0.00
  49:  0.00  50:  0.00  51:  0.00  52:  0.00  53:  0.00  54:  0.00  55:  0.00  56:  0.00
  57:  0.00  58:  0.00  59:  0.00  60:  0.00  61:  0.00  62:  0.00  63:  0.00  64:  0.00
  65:  0.00  66:  0.00  67:  0.00  68:  0.00  69:  0.00  70:  0.00  71:  0.00  72:  0.00
  73:  0.00  74:  0.00  75:  0.00  76:  0.00  77:  0.00  78:  0.00  79:  0.00  80:  0.00
  81:  0.00  82:  0.00  83:  0.00  84:  0.00  85:  0.00  86:  0.00  87:  0.00  88:  0.00
  89:  0.00  90:  0.00  91:  0.00  92:  0.00  93:  0.00  94:  0.00  95:  0.00  96:  0.00
  97:  0.00  98:  0.00  99:  0.00 100:  0.00 101:  0.00 102:  0.00 103:  0.00 104:  0.00
 105:  0.00 106:  0.00 107:  0.00 108:  0.00 109:  0.00 110:  0.00 111:  0.00 112:  0.00
 113:  0.00 114:  0.00 115:  0.00 116:  0.00 117:  0.00 118:  0.00 119:  0.00 120:  0.00
 121:  0.00 122:  0.00 123:  0.00 124:  0.00 125:  0.00 126:  0.00 127:  0.00 128:  0.00
 129:  0.00 130:  0.00 131:  0.00 132:  0.00 133:  0.00 134:  0.00 135:  0.00 136:  0.00
 137:  0.00 138:  0.00 139:  0.00 140:  0.00 141:  0.00 142:  0.00 143:  0.00 144:  0.00
 145:  0.00 146:  0.00 147:  0.00 148:  0.00 149:  0.00 150:  0.00 151:  0.00 152:  0.00
 153:  0.00 154:  0.00 155:  0.00 156:  0.00 157:  0.00 158:  0.00 159:  0.00 160:  0.00
 161:  0.00 162:  0.00 163:  0.00 164:  0.00 165:  0.00 166:  0.00 167:  0.00 168:  0.00
 169:  0.00 170:  0.00 171:  0.00
 output can be read by thermo (or use thermo option).
 writing <g98.out> molden fake output.
 recommended (thermochemical) frequency scaling factor: 1.0
           -------------------------------------------------
          |             Thermodynamic Functions             |
           -------------------------------------------------

Refinement of some symmetry elements was terminated before convergence was reached.
Some symmetry elements may remain unidentified.
Molecule has no symmetry elements
It seems to be the C1 point group
c1  symmetry found (for desy threshold:  0.10E+00) used in thermo
 inverting freq            1   14.4656730040480     

          ...................................................
          :                      SETUP                      :
          :.................................................:
          :  # frequencies                         165      :
          :  # imaginary freq.                       0      :
          :  linear?                             false      :
          :  only rotor calc.                    false      :
          :  symmetry                               c1      :
          :  rotational number                       1      :
          :  scaling factor                  1.0000000      :
          :  rotor cutoff                   50.0000000 cm⁻¹ :
          :  imag. cutoff                  -20.0000000 cm⁻¹ :
          :.................................................:

    mode    ω/cm⁻¹     T·S(HO)/kcal·mol⁻¹    T·S(FR)/kcal·mol⁻¹   T·S(vib)
   ------------------------------------------------------------------------
       1     14.47    -2.16981 (  0.70%)    -1.42388 ( 99.30%)    -1.42907
       2     20.25    -1.97062 (  2.62%)    -1.32425 ( 97.38%)    -1.34118
       3     22.37    -1.91161 (  3.85%)    -1.29472 ( 96.15%)    -1.31850
       4     31.01    -1.71842 ( 12.89%)    -1.19801 ( 87.11%)    -1.26510
       5     36.10    -1.62864 ( 21.36%)    -1.15303 ( 78.64%)    -1.25464
       6     41.13    -1.55161 ( 31.40%)    -1.11441 ( 68.60%)    -1.25168
       7     47.72    -1.46378 ( 45.35%)    -1.07033 ( 54.65%)    -1.24877
       8     51.76    -1.41594 ( 53.45%)    -1.04630 ( 46.55%)    -1.24386
       9     58.37    -1.34509 ( 65.01%)    -1.01067 ( 34.99%)    -1.22806
      10     68.52    -1.25089 ( 77.91%)    -0.96320 ( 22.09%)    -1.18733
      11     70.35    -1.23543 ( 79.67%)    -0.95539 ( 20.33%)    -1.17849
      12     76.54    -1.18593 ( 84.60%)    -0.93039 ( 15.40%)    -1.14657
      13     80.95    -1.15319 ( 87.29%)    -0.91382 ( 12.71%)    -1.12277
      14     84.57    -1.12758 ( 89.11%)    -0.90084 ( 10.89%)    -1.10289
      15     99.37    -1.03358 ( 93.98%)    -0.85307 (  6.02%)    -1.02271
      16    108.32    -0.98352 ( 95.66%)    -0.82751 (  4.34%)    -0.97674
      17    126.13    -0.89569 ( 97.59%)    -0.78242 (  2.41%)    -0.89296
      18    127.70    -0.88862 ( 97.70%)    -0.77877 (  2.30%)    -0.88610
      19    131.36    -0.87239 ( 97.94%)    -0.77039 (  2.06%)    -0.87029
      20    142.46    -0.82604 ( 98.51%)    -0.74636 (  1.49%)    -0.82485
      21    144.68    -0.81723 ( 98.59%)    -0.74178 (  1.41%)    -0.81617
      22    151.99    -0.78924 ( 98.84%)    -0.72718 (  1.16%)    -0.78852
      23    163.40    -0.74837 ( 99.13%)    -0.70574 (  0.87%)    -0.74800
      24    173.44    -0.71491 ( 99.31%)    -0.68807 (  0.69%)    -0.71473
      25    175.42    -0.70858 ( 99.34%)    -0.68471 (  0.66%)    -0.70843
      26    183.55    -0.68335 ( 99.45%)    -0.67129 (  0.55%)    -0.68329
      27    189.46    -0.66581 ( 99.52%)    -0.66191 (  0.48%)    -0.66579
      28    219.56    -0.58519 ( 99.73%)    -0.61823 (  0.27%)    -0.58528
      29    224.61    -0.57292 ( 99.76%)    -0.61148 (  0.24%)    -0.57301
      30    232.77    -0.55380 ( 99.79%)    -0.60091 (  0.21%)    -0.55390
      31    247.99    -0.52021 ( 99.84%)    -0.58215 (  0.16%)    -0.52031
      32    255.17    -0.50524 ( 99.85%)    -0.57370 (  0.15%)    -0.50535
      33    273.53    -0.46923 ( 99.89%)    -0.55311 (  0.11%)    -0.46932
      34    291.36    -0.43711 ( 99.91%)    -0.53441 (  0.09%)    -0.43719
      35    293.82    -0.43287 ( 99.92%)    -0.53192 (  0.08%)    -0.43295
   ------------------------------------------------------------------------

   temp. (K)  partition function   enthalpy   heat capacity  entropy
                                   cal/mol     cal/K/mol   cal/K/mol   J/K/mol
 298.15  VIB  0.455E+17            20021.635    109.270    130.510
         ROT  0.174E+08              888.752      2.981     36.108
         INT  0.791E+24            20910.387    112.251    166.618
         TR   0.687E+28             1481.254      4.968     43.594
         TOT                       22391.6411   117.2188   210.2116   879.5252

       T/K    H(0)-H(T)+PV         H(T)/Eh          T*S/Eh         G(T)/Eh
   ------------------------------------------------------------------------
    298.15    0.356834E-01    0.501539E+00    0.998783E-01    0.401661E+00
   ------------------------------------------------------------------------

         :::::::::::::::::::::::::::::::::::::::::::::::::::::
         ::                  THERMODYNAMIC                  ::
         :::::::::::::::::::::::::::::::::::::::::::::::::::::
         :: total free energy         -83.038637142567 Eh   ::
         ::.................................................::
         :: total energy              -83.440298285086 Eh   ::
         :: zero point energy           0.465856093986 Eh   ::
         :: G(RRHO) w/o ZPVE           -0.064194951467 Eh   ::
         :: G(RRHO) contrib.            0.401661142519 Eh   ::
         :::::::::::::::::::::::::::::::::::::::::::::::::::::
imag cut-off (cm-1) :    5.00
 found            1  significant imaginary frequency
 writing imag mode distorted coords to xtbhess.xyz
 for further optimization.

           -------------------------------------------------
          | TOTAL ENERGY              -83.440298285086 Eh   |
          | TOTAL ENTHALPY            -82.938758839737 Eh   |
          | TOTAL FREE ENERGY         -83.038637142567 Eh   |
          | GRADIENT NORM               0.013281770087 Eh/α |
          | HOMO-LUMO GAP               2.302717639883 eV   |
           -------------------------------------------------
########################################################################
[WARNING] Runtime exception occurred
-1- hessian_numhess: Hessian on incompletely optimized geometry!
########################################################################

------------------------------------------------------------------------
 * finished run on 2026/08/20 at 18:23:20.949     
------------------------------------------------------------------------
 total:
 * wall-time:     0 d,  0 h,  0 min, 23.313 sec
 *  cpu-time:     0 d,  0 h,  0 min, 23.016 sec
 * ratio c/w:     0.987 speedup
 SCF:
 * wall-time:     0 d,  0 h,  0 min,  0.095 sec
 *  cpu-time:     0 d,  0 h,  0 min,  0.109 sec
 * ratio c/w:     1.151 speedup
 analytical hessian:
 * wall-time:     0 d,  0 h,  0 min, 23.143 sec
 *  cpu-time:     0 d,  0 h,  0 min, 22.875 sec
 * ratio c/w:     0.988 speedup



================ STDERR ================

normal termination of xtb
