57
 xtb: 6.7.1pre (5071a88)
N           -0.13163862389011        0.28260175780601        0.55910009561018
C            1.24007884681284        0.10335123779430        0.48910292968682
C            2.13669724200463        0.86363567301033        1.24460505539275
C            3.49310081838081        0.63618728711604        1.14994819852589
C            4.00159813740474       -0.34765041500197        0.30887479534775
C            3.10640109056391       -1.14057370070854       -0.39765107637725
C            1.74294499916860       -0.93509592597569       -0.30245274143800
C            5.48300056343553       -0.47178812446599        0.10553285606189
C            5.93493854203588        0.58644113737532       -0.90517083573251
C           -0.70673485095958        1.41607559081946        0.43000188952560
C           -0.11057855007669        2.66260267918261        0.03129585608581
C           -0.80484596852955        3.79510588996881       -0.11892550587493
C           -0.19446644616854        5.05972791754182       -0.60623929827564
C           -0.89110758398363        5.56575764027956       -1.87610702698399
C           -0.25801532798684        6.85925221645223       -2.37223355913718
O            2.63409692283778        3.20773957549410       -1.65832525550943
O            1.31124153960910        0.89275544787192       -2.81008463350574
H           -1.04572086995309       -0.88565183147513       -0.62152574606010
H            2.16043470441971        2.50121984836831       -2.20985680939583
H            1.75765518439828        1.64148514696945        1.90100118359902
H            4.17639585779093        1.26289107176090        1.72697875388238
H            3.48573078365662       -1.94691153156311       -0.99926445637381
H            1.06987544589549       -1.57471755671182       -0.83094639026055
H            5.76748142483324       -1.45589622479562       -0.24335047676801
H            6.03039466567146       -0.28375731149440        1.04943982736607
H            5.60871334878139        1.58383825786205       -0.57959631714544
H            5.10602584841912       -0.62067734357619       -2.42218895970231
H            7.18218464064992        2.37372537615303       -2.05418847787062
H           -1.78012028610793        1.40665702533597        0.57495498908634
H            0.94693270148899        2.66714035357951       -0.19605797687633
H           -1.86566036562658        3.82226518181395        0.11990255322734
H           -0.29042512675208        5.83157748992510        0.18578870701612
H            0.85952282222530        4.90456504218774       -0.80186782748105
H           -0.81815547317563        4.80729812261838       -2.63675147728729
H           -1.96245979324419        5.72995220395006       -1.65518916243300
H           -0.75685401871709        7.20148289942680       -3.27103472553151
H           -0.36885947063997        7.65176473194538       -1.60695582967826
H            0.78693195232819        6.71818697613269       -2.56115707936202
H            0.35646542866454        0.74415464183093       -3.02744954386786
H            1.43566844041825        0.31046073491955       -2.01732165574048
O           -1.40895232456951       -1.47455889935382       -1.29424902557490
H            3.50607893565972        3.23133643138121       -2.02733648160737
H           -2.06845658812277       -1.96553308627043       -1.08571244490095
N            5.31499330277211        0.35001459716247       -2.19729431955175
C            7.46839429982064        0.61047410055370       -1.07272576875084
O            8.19377450947199       -0.28105726755779       -0.68325743219569
C            4.23580100080223        0.91682293781371       -4.27076941072337
C            4.98657485933347        1.34437464573630       -3.03834887118914
O            5.26299490142155        2.51542491075318       -2.78660477073489
H            4.30722809255090        1.64974909544681       -5.03300089363474
H            3.17446113589946        0.77219599048388       -4.00087464994113
H            4.60037381565048       -0.06169050484459       -4.64186900723129
N            7.88406102921471        1.72086181466766       -1.70285877528466
C            9.26849952478750        1.96764536716451       -2.02187616976321
H            9.58282602140022        2.92813290162593       -1.61438570251469
H            9.41428410315528        1.98967875822750       -3.11476815438020
H            9.85618712432923        1.16874417047964       -1.59874847803039
