57
 energy: -83.437298695353 gnorm: 0.000215423588 xtb: 6.7.1pre (5071a88)
N           -0.13351966163775       -0.63350979379179        0.68216812488513
C            1.24142885140184       -0.53097294067064        0.72264272100177
C            1.84488193147059        0.51237692457986        1.42773161235296
C            3.20613709641521        0.71378745007074        1.35126447268776
C            4.01055675275275       -0.11359207027143        0.57493605871738
C            3.41237270678830       -1.17017200959191       -0.10008595632271
C            2.04950860782507       -1.38458258848559       -0.02733393339763
C            5.47489827039578        0.18218845092008        0.41843295642196
C            5.67502711906760        1.43128814897841       -0.44371157297378
C           -0.93344381736328        0.55182230415806       -1.17891500518094
C            0.19038465530710        1.47654690713371       -1.13458689179402
C            0.12242057041570        2.68848096305794       -0.57989742619199
C            1.25218369352154        3.64979885091953       -0.52043289588137
C            1.02283342699889        4.83851339661039       -1.46480275257856
C            2.20440480946026        5.79855916728711       -1.42880737722273
O           -2.06736355911789        0.79018267283210       -0.77856046903628
O           -2.79736939330166       -1.72926905155315        0.45545741799268
H           -0.63447300946420       -0.14035998388348        1.41013735785130
H           -0.53983371643809       -1.53587604438982        0.47070544512486
H            1.22755582690679        1.16535996259579        2.02659059648935
H            3.65515896886266        1.52856634438846        1.90052832900688
H            4.02211670114644       -1.84192877778548       -0.68922524314412
H            1.59810864194915       -2.20820083175281       -0.56150226073485
H            5.99644254949168       -0.65303193624801       -0.05208088773221
H            5.94264624790405        0.36102009985342        1.38775745365857
H            5.28974488916387        2.32166605341461        0.06797521096523
H            4.74474042069851        0.36514286112110       -2.00709216835751
H            6.60625159524264        3.49447809662539       -1.44145539772607
H           -0.74604321309847       -0.35927878644065       -1.77086800644427
H            1.11782934568487        1.11979680018279       -1.55801199310440
H           -0.82280216400048        3.02295578063302       -0.17105699176989
H            1.34866582718831        4.03046594006031        0.49938334237877
H            2.18454947587798        3.15271127743446       -0.79198964626803
H            0.88750960482199        4.46082634582056       -2.48059041598664
H            0.10679545538307        5.36058054797640       -1.17896769536758
H            2.05264593757132        6.61477266513561       -2.13108504303838
H            2.32346857179138        6.22012759588433       -0.43304105607779
H            3.12182155818314        5.27795210092879       -1.69311219097703
H           -2.91314364998033       -1.26645454023105        1.29179451055377
H           -2.82905102172704       -1.03626850442799       -0.21586321167835
O           -2.45811800736343        0.84767616830513        1.92676475041198
H           -3.12363513522514        1.44206971246135        2.27612490625614
H           -2.42681968092702        1.00042383357153        0.96566653907604
N            4.92770602895225        1.30187501786665       -1.68359336716172
C            7.16899725263278        1.66179806298360       -0.76141946323800
O            8.02059547549875        0.81686870332724       -0.58085935789476
C            3.62400512451550        2.00841567297992       -3.57578030653764
C            4.45444866356315        2.35974219220242       -2.36414606985922
O            4.69350427316337        3.50898506545486       -2.02703597304379
H            2.90515093162322        1.22711893221998       -3.34143925518190
H            4.27867883443765        1.65409150529029       -4.37019020413709
H            3.10183172115004        2.89526424909413       -3.92323371624270
N            7.39820088493062        2.88660271152454       -1.26048880214015
C            8.70515577829253        3.31955716420626       -1.68975910952416
H            8.98936849879551        4.23631374242911       -1.17109998010477
H            8.71971756052146        3.50107047029474       -2.76635834725117
H            9.41416489177340        2.52965694657511       -1.44658136445667
