      -----------------------------------------------------------      
     |                   =====================                   |     
     |                           x T B                           |     
     |                   =====================                   |     
     |                         S. Grimme                         |     
     |          Mulliken Center for Theoretical Chemistry        |     
     |                    University of Bonn                     |     
      -----------------------------------------------------------      

   * xtb version 6.7.1pre (5071a88) compiled by 'Marcel@Raven' on 2024-07-23

   xtb is free software: you can redistribute it and/or modify it under
   the terms of the GNU Lesser General Public License as published by
   the Free Software Foundation, either version 3 of the License, or
   (at your option) any later version.
   
   xtb is distributed in the hope that it will be useful,
   but WITHOUT ANY WARRANTY; without even the implied warranty of
   MERCHANTABILITY or FITNESS FOR A PARTICULAR PURPOSE.  See the
   GNU Lesser General Public License for more details.
   
   Cite this work as:
   * C. Bannwarth, E. Caldeweyher, S. Ehlert, A. Hansen, P. Pracht,
     J. Seibert, S. Spicher, S. Grimme, WIREs Comput. Mol. Sci., 2020, 11,
     e01493. DOI: 10.1002/wcms.1493
   
   for GFN2-xTB:
   * C. Bannwarth, S. Ehlert and S. Grimme., J. Chem. Theory Comput., 2019,
     15, 1652-1671. DOI: 10.1021/acs.jctc.8b01176
   for GFN1-xTB:
   * S. Grimme, C. Bannwarth, P. Shushkov, J. Chem. Theory Comput., 2017,
     13, 1989-2009. DOI: 10.1021/acs.jctc.7b00118
   for GFN0-xTB:
   * P. Pracht, E. Caldeweyher, S. Ehlert, S. Grimme, ChemRxiv, 2019, preprint.
     DOI: 10.26434/chemrxiv.8326202.v1
   for GFN-FF:
   * S. Spicher and S. Grimme, Angew. Chem. Int. Ed., 2020, 59, 15665-15673.
     DOI: 10.1002/anie.202004239
   
   for ALPB and GBSA implicit solvation:
   * S. Ehlert, M. Stahn, S. Spicher, S. Grimme, J. Chem. Theory Comput.,
     2021, 17, 4250-4261. DOI: 10.1021/acs.jctc.1c00471
   
   for ddCOSMO and CPCM-X implicit solvation:
   * M. Stahn, S. Ehlert, S. Grimme, J. Phys. Chem. A,
     2023, XX, XXXX-XXXX. DOI: 10.1021/acs.jpca.3c04382
   
   for DFT-D4:
   * E. Caldeweyher, C. Bannwarth and S. Grimme, J. Chem. Phys., 2017,
     147, 034112. DOI: 10.1063/1.4993215
   * E. Caldeweyher, S. Ehlert, A. Hansen, H. Neugebauer, S. Spicher,
     C. Bannwarth and S. Grimme, J. Chem. Phys., 2019, 150, 154122.
     DOI: 10.1063/1.5090222
   * E. Caldeweyher, J.-M. Mewes, S. Ehlert and S. Grimme, Phys. Chem. Chem. Phys.
     2020, 22, 8499-8512. DOI: 10.1039/D0CP00502A
   
   for sTDA-xTB:
   * S. Grimme and C. Bannwarth, J. Chem. Phys., 2016, 145, 054103.
     DOI: 10.1063/1.4959605
   
   in the mass-spec context:
   * V. Asgeirsson, C. Bauer and S. Grimme, Chem. Sci., 2017, 8, 4879.
     DOI: 10.1039/c7sc00601b
   * J. Koopman and S. Grimme, ACS Omega 2019, 4, 12, 15120-15133.
     DOI: 10.1021/acsomega.9b02011
   
   for metadynamics refer to:
   * S. Grimme, J. Chem. Theory Comput., 2019, 155, 2847-2862
     DOI: 10.1021/acs.jctc.9b00143
   
   for SPH calculations refer to:
   * S. Spicher and S. Grimme, J. Chem. Theory Comput., 2021, 17, 1701-1714
     DOI: 10.1021/acs.jctc.0c01306
   
   for ONIOM refer to:
   * C. Plett, A. Katbashev, S. Ehlert, S. Grimme, M. Bursch,
     Phys. Chem. Chem. Phys., 2023, 25, 17860-17868. DOI: 10.1039/D3CP02178E
   
   for DIPRO refer to:
   * J. Kohn, N. Gildemeister, S. Grimme, D. Fazzi, A. Hansen,
     J. Chem. Phys., 2023, just accepted.
   
   for PTB refer to:
   * S. Grimme, M. Mueller, A. Hansen, J. Chem. Phys., 2023, 158, 124111.
     DOI: 10.1063/5.0137838
   
   with help from (in alphabetical order)
   P. Atkinson, C. Bannwarth, F. Bohle, G. Brandenburg, E. Caldeweyher
   M. Checinski, S. Dohm, S. Ehlert, S. Ehrlich, I. Gerasimov, C. Hölzer
   A. Katbashev, J. Kohn, J. Koopman, C. Lavigne, S. Lehtola, F. März, M. Müller,
   F. Musil, H. Neugebauer, J. Pisarek, C. Plett, P. Pracht, F. Pultar,
   J. Seibert, P. Shushkov, S. Spicher, M. Stahn, M. Steiner, T. Strunk,
   J. Stückrath, T. Rose, and J. Unsleber
   
 * started run on 2026/08/31 at 13:17:00.744     
   ID    Z sym.   atoms
    1    7 N      1, 44, 53
    2    6 C      2-15, 45, 47, 48, 54
    3    8 O      16, 17, 41, 46, 49
    4    1 H      18-40, 42, 43, 50-52, 55-57

           -------------------------------------------------
          |                Calculation Setup                |
           -------------------------------------------------

          program call               : C:\Users\Nayanika\Downloads\xtb-6.7.1pre-windows-x86_64\xtb-6.7.1\bin\xtb.exe D:\PhD_Thesis\LmrR_EVB\charges\fast_lmrr_5QM\xtb_preparation\stage2_five_xtb_protocols\GFN2_etemp500\RS1_1_to_TS1_2\RS1_1_to_TS1_2_RS_xtbopt.xyz --gfn 2 --chrg 0 --uhf 0 --etemp 500
          coordinate file            : D:\PhD_Thesis\LmrR_EVB\charges\fast_lmrr_5QM\xtb_preparation\stage2_five_xtb_protocols\GFN2_etemp500\RS1_1_to_TS1_2\RS1_1_to_TS1_2_RS_xtbopt.xyz
          omp threads                :                     1


molecular fragmentation (1/2 indicates fragments):
111111111222222221111111111122222222222222211111111111111
# atoms in fragment 1/2:    34    23
 fragment masses (1/2) :      235.28      134.17
CMA distance (Bohr)    :   7.311
constraining FC (au)   :  0.0500

           -------------------------------------------------
          |                 G F N 2 - x T B                 |
           -------------------------------------------------

        Reference                      10.1021/acs.jctc.8b01176
      * Hamiltonian:
        H0-scaling (s, p, d)           1.850000    2.230000    2.230000
        zeta-weighting                 0.500000
      * Dispersion:
        s8                             2.700000
        a1                             0.520000
        a2                             5.000000
        s9                             5.000000
      * Repulsion:
        kExp                           1.500000    1.000000
        rExp                           1.000000
      * Coulomb:
        alpha                          2.000000
        third order                    shell-resolved
        anisotropic                    true
        a3                             3.000000
        a5                             4.000000
        cn-shift                       1.200000
        cn-exp                         4.000000
        max-rad                        5.000000

q/qsh data taken from xtbrestart
CAMM data taken from xtbrestart

          ...................................................
          :                      SETUP                      :
          :.................................................:
          :  # basis functions                 135          :
          :  # atomic orbitals                 135          :
          :  # shells                           83          :
          :  # electrons                       148          :
          :  max. iterations                   250          :
          :  Hamiltonian                  GFN2-xTB          :
          :  restarted?                       true          :
          :  GBSA solvation                  false          :
          :  PC potential                    false          :
          :  electronic temp.          500.0000000     K    :
          :  accuracy                    1.0000000          :
          :  -> integral cutoff          0.2500000E+02      :
          :  -> integral neglect         0.1000000E-07      :
          :  -> SCF convergence          0.1000000E-05 Eh   :
          :  -> wf. convergence          0.1000000E-03 e    :
          :  Broyden damping             0.4000000          :
          :  net charge                          0          :
          :  unpaired electrons                  0          :
          ...................................................

 iter      E             dE          RMSdq      gap      omega  full diag
   1    -84.5272952 -0.845273E+02  0.246E+00    2.23       0.0  T
   2    -84.5388260 -0.115309E-01  0.147E+00    1.60       1.0  T
   3    -84.5207853  0.180407E-01  0.665E-01    1.04       1.0  T
   4    -84.5433918 -0.226065E-01  0.194E-01    1.02       1.0  T
   5    -84.5443539 -0.962133E-03  0.935E-02    1.03       1.0  T
   6    -84.5444623 -0.108365E-03  0.472E-02    1.07       1.0  T
   7    -84.5444968 -0.345150E-04  0.163E-02    1.07       1.0  T
   8    -84.5445013 -0.451991E-05  0.575E-03    1.06       2.3  T
   9    -84.5445020 -0.661197E-06  0.237E-03    1.06       5.6  T
  10    -84.5445020 -0.464689E-07  0.105E-03    1.06      12.6  T
  11    -84.5445020 -0.260120E-07  0.304E-04    1.06      43.5  T
  12    -84.5445020 -0.182938E-08  0.141E-04    1.06      94.2  T

   *** convergence criteria satisfied after 12 iterations ***

         #    Occupation            Energy/Eh            Energy/eV
      -------------------------------------------------------------
         1        2.0000           -0.7298833             -19.8611
       ...           ...                  ...                  ...
        68        2.0000           -0.4141724             -11.2702
        69        2.0000           -0.4105113             -11.1706
        70        2.0000           -0.3961015             -10.7785
        71        2.0000           -0.3941413             -10.7251
        72        2.0000           -0.3873808             -10.5412
        73        2.0000           -0.3763160             -10.2401
        74        2.0000           -0.3496034              -9.5132 (HOMO)
        75        0.0000           -0.3107243              -8.4552 (LUMO)
        76                         -0.2122855              -5.7766
        77                         -0.2114283              -5.7533
        78                         -0.2040173              -5.5516
        79                         -0.1934743              -5.2647
       ...                                ...                  ...
       135                          0.6704635              18.2442
      -------------------------------------------------------------
                  HL-Gap            0.0388792 Eh            1.0580 eV
             Fermi-level           -0.3301638 Eh           -8.9842 eV

 SCC (total)                   0 d,  0 h,  0 min,  0.190 sec
 SCC setup                      ...        0 min,  0.002 sec (  1.053%)
 Dispersion                     ...        0 min,  0.002 sec (  1.053%)
 classical contributions        ...        0 min,  0.001 sec (  0.526%)
 integral evaluation            ...        0 min,  0.018 sec (  9.474%)
 iterations                     ...        0 min,  0.100 sec ( 52.632%)
 molecular gradient             ...        0 min,  0.067 sec ( 35.263%)
 printout                       ...        0 min,  0.000 sec (  0.000%)

         :::::::::::::::::::::::::::::::::::::::::::::::::::::
         ::                     SUMMARY                     ::
         :::::::::::::::::::::::::::::::::::::::::::::::::::::
         :: total energy             -83.440822409853 Eh    ::
         :: gradient norm              0.000177674986 Eh/a0 ::
         :: HOMO-LUMO gap              1.057955819706 eV    ::
         ::.................................................::
         :: SCC energy               -84.542714282593 Eh    ::
         :: -> isotropic ES            0.177262095147 Eh    ::
         :: -> anisotropic ES         -0.004724769025 Eh    ::
         :: -> anisotropic XC          0.030274854744 Eh    ::
         :: -> dispersion             -0.058799723888 Eh    ::
         :: repulsion energy           1.101891872739 Eh    ::
         :: add. restraining           0.000000000000 Eh    ::
         :: total charge               0.000000000000 e     ::
         :::::::::::::::::::::::::::::::::::::::::::::::::::::

           -------------------------------------------------
          |                Property Printout                |
           -------------------------------------------------

    * Orbital Energies and Occupations

         #    Occupation            Energy/Eh            Energy/eV
      -------------------------------------------------------------
         1        2.0000           -0.7298833             -19.8611
       ...           ...                  ...                  ...
        62        2.0000           -0.4449434             -12.1075
        63        2.0000           -0.4358336             -11.8596
        64        2.0000           -0.4308154             -11.7231
        65        2.0000           -0.4281900             -11.6516
        66        2.0000           -0.4266310             -11.6092
        67        2.0000           -0.4201252             -11.4322
        68        2.0000           -0.4141724             -11.2702
        69        2.0000           -0.4105113             -11.1706
        70        2.0000           -0.3961015             -10.7785
        71        2.0000           -0.3941413             -10.7251
        72        2.0000           -0.3873808             -10.5412
        73        2.0000           -0.3763160             -10.2401
        74        2.0000           -0.3496034              -9.5132 (HOMO)
        75        0.0000           -0.3107243              -8.4552 (LUMO)
        76                         -0.2122855              -5.7766
        77                         -0.2114283              -5.7533
        78                         -0.2040173              -5.5516
        79                         -0.1934743              -5.2647
        80                         -0.1917581              -5.2180
        81                         -0.0808852              -2.2010
        82                         -0.0014481              -0.0394
        83                          0.0265065               0.7213
        84                          0.0313018               0.8518
        85                          0.0583221               1.5870
       ...                                ...                  ...
       135                          0.6704635              18.2442
      -------------------------------------------------------------
                  HL-Gap            0.0388792 Eh            1.0580 eV
             Fermi-level           -0.3301638 Eh           -8.9842 eV

     #   Z          covCN         q      C6AA      α(0)
     1   7 N        2.641    -0.293    27.561     7.797
     2   6 C        2.899     0.075    26.321     8.412
     3   6 C        2.922    -0.070    29.744     8.944
     4   6 C        2.924    -0.045    29.127     8.850
     5   6 C        2.972    -0.011    28.293     8.725
     6   6 C        2.924    -0.042    29.040     8.837
     7   6 C        2.924    -0.071    29.767     8.947
     8   6 C        3.809    -0.069    21.813     6.648
     9   6 C        3.791     0.019    20.267     6.411
    10   6 C        2.769     0.208    23.581     7.953
    11   6 C        2.891    -0.070    29.754     8.943
    12   6 C        2.899     0.003    27.959     8.670
    13   6 C        3.807    -0.063    21.712     6.633
    14   6 C        3.802    -0.050    21.470     6.597
    15   6 C        3.753    -0.107    22.606     6.780
    16   8 O        0.857    -0.388    21.441     6.208
    17   8 O        1.609    -0.603    25.270     6.785
    18   1 H        0.860     0.200     1.105     1.647
    19   1 H        0.860     0.150     1.398     1.852
    20   1 H        0.925     0.017     2.778     2.607
    21   1 H        0.925     0.022     2.708     2.574
    22   1 H        0.926     0.026     2.641     2.541
    23   1 H        0.926     0.047     2.361     2.403
    24   1 H        0.925     0.060     2.200     2.320
    25   1 H        0.924     0.043     2.403     2.424
    26   1 H        0.924     0.056     2.244     2.342
    27   1 H        0.860     0.194     1.135     1.669
    28   1 H        0.860     0.220     1.008     1.573
    29   1 H        0.923     0.037     2.490     2.468
    30   1 H        0.925     0.066     2.129     2.282
    31   1 H        0.925     0.064     2.150     2.293
    32   1 H        0.924     0.073     2.052     2.240
    33   1 H        0.924     0.059     2.215     2.328
    34   1 H        0.924     0.037     2.491     2.468
    35   1 H        0.924     0.038     2.472     2.459
    36   1 H        0.925     0.041     2.431     2.438
    37   1 H        0.925     0.041     2.440     2.443
    38   1 H        0.925     0.043     2.407     2.426
    39   1 H        0.804     0.316     0.674     1.289
    40   1 H        0.806     0.271     0.814     1.417
    41   8 O        1.609    -0.597    25.127     6.765
    42   1 H        0.804     0.317     0.671     1.287
    43   1 H        0.805     0.283     0.774     1.382
    44   7 N        2.688    -0.188    25.081     7.438
    45   6 C        2.753     0.264    22.540     7.774
    46   8 O        0.858    -0.455    22.819     6.405
    47   6 C        3.758    -0.148    23.404     6.897
    48   6 C        2.745     0.282    22.230     7.720
    49   8 O        0.858    -0.459    22.886     6.414
    50   1 H        0.925     0.068     2.106     2.269
    51   1 H        0.925     0.065     2.138     2.287
    52   1 H        0.925     0.067     2.121     2.278
    53   7 N        2.684    -0.180    24.903     7.412
    54   6 C        3.691    -0.041    21.488     6.633
    55   1 H        0.924     0.048     2.350     2.397
    56   1 H        0.924     0.050     2.319     2.382
    57   1 H        0.925     0.078     1.995     2.209

 Mol. C6AA /au·bohr⁶  :      29502.191819
 Mol. C8AA /au·bohr⁸  :     657493.529261
 Mol. α(0) /au        :        262.589805


Wiberg/Mayer (AO) data.
largest (>0.10) Wiberg bond orders for each atom

 ---------------------------------------------------------------------------
     #   Z sym  total        # sym  WBO       # sym  WBO       # sym  WBO
 ---------------------------------------------------------------------------
     1   7 N    3.255 --     2 C    1.175    19 H    0.956    18 H    0.920
     2   6 C    3.973 --     3 C    1.341     7 C    1.333     1 N    1.175
     3   6 C    3.985 --     4 C    1.462     2 C    1.341    20 H    0.969
     4   6 C    3.991 --     3 C    1.462     5 C    1.401    21 H    0.969
                             7 C    0.100
     5   6 C    3.986 --     4 C    1.401     6 C    1.393     8 C    1.011
     6   6 C    3.991 --     7 C    1.470     5 C    1.393    22 H    0.968
     7   6 C    3.987 --     6 C    1.470     2 C    1.333    23 H    0.963
                             4 C    0.100
     8   6 C    3.992 --     5 C    1.011    25 H    0.971    24 H    0.967
                             9 C    0.956
     9   6 C    3.962 --    44 N    0.977    26 H    0.963     8 C    0.956
                            45 C    0.924
    10   6 C    3.918 --    16 O    1.770    11 C    1.131    29 H    0.934
    11   6 C    3.987 --    12 C    1.772    10 C    1.131    30 H    0.954
    12   6 C    3.971 --    11 C    1.772    13 C    1.056    31 H    0.959
                            16 O    0.101
    13   6 C    3.994 --    12 C    1.056    14 C    0.980    33 H    0.972
                            32 H    0.937
    14   6 C    3.990 --    15 C    1.019    13 C    0.980    34 H    0.979
                            35 H    0.978
    15   6 C    3.994 --    14 C    1.019    37 H    0.987    38 H    0.987
                            36 H    0.985
    16   8 O    2.054 --    10 C    1.770    12 C    0.101
    17   8 O    1.836 --    40 H    0.922    39 H    0.853
    18   1 H    0.959 --     1 N    0.920
    19   1 H    0.977 --     1 N    0.956
    20   1 H    0.999 --     3 C    0.969
    21   1 H    0.999 --     4 C    0.969
    22   1 H    0.999 --     6 C    0.968
    23   1 H    0.997 --     7 C    0.963
    24   1 H    0.996 --     8 C    0.967
    25   1 H    0.997 --     8 C    0.971
    26   1 H    0.997 --     9 C    0.963
    27   1 H    0.962 --    44 N    0.923
    28   1 H    0.951 --    53 N    0.878
    29   1 H    0.999 --    10 C    0.934
    30   1 H    0.996 --    11 C    0.954
    31   1 H    0.996 --    12 C    0.959
    32   1 H    0.989 --    13 C    0.937
    33   1 H    0.997 --    13 C    0.972
    34   1 H    0.998 --    14 C    0.979
    35   1 H    0.999 --    14 C    0.978
    36   1 H    0.997 --    15 C    0.985
    37   1 H    0.998 --    15 C    0.987
    38   1 H    0.998 --    15 C    0.987
    39   1 H    0.900 --    17 O    0.853
    40   1 H    0.926 --    17 O    0.922
    41   8 O    1.861 --    43 H    0.917    42 H    0.858
    42   1 H    0.899 --    41 O    0.858
    43   1 H    0.920 --    41 O    0.917
    44   7 N    3.453 --    48 C    1.280     9 C    0.977    27 H    0.923
                            49 O    0.188
    45   6 C    3.958 --    46 O    1.655    53 N    1.310     9 C    0.924
    46   8 O    1.984 --    45 C    1.655    53 N    0.213
    47   6 C    3.992 --    48 C    0.986    50 H    0.980    52 H    0.974
                            51 H    0.962
    48   6 C    3.948 --    49 O    1.630    44 N    1.280    47 C    0.986
    49   8 O    2.002 --    48 C    1.630    44 N    0.188
    50   1 H    0.995 --    47 C    0.980
    51   1 H    0.995 --    47 C    0.962
    52   1 H    0.995 --    47 C    0.974
    53   7 N    3.473 --    45 C    1.310    54 C    1.007    28 H    0.878
                            46 O    0.213
    54   6 C    3.968 --    53 N    1.007    57 H    0.977    56 H    0.977
                            55 H    0.977
    55   1 H    0.998 --    54 C    0.977
    56   1 H    0.997 --    54 C    0.977
    57   1 H    0.994 --    54 C    0.977
 ---------------------------------------------------------------------------

Topologies differ in total number of bonds
Writing topology from bond orders to xtbtopo.mol

molecular dipole:
                 x           y           z       tot (Debye)
 q only:       -1.314       0.658      -0.608
   full:       -1.583       0.359      -0.726       4.519
molecular quadrupole (traceless):
                xx          xy          yy          xz          yz          zz
 q only:      -17.360      -8.663       8.568       2.648      -3.120       8.791
  q+dip:      -20.307     -15.182       9.813      -0.169       1.585      10.495
   full:      -21.813     -14.579       7.993       0.080       0.334      13.820


           -------------------------------------------------
          | TOTAL ENERGY              -83.440822409853 Eh   |
          | GRADIENT NORM               0.000177674986 Eh/α |
          | HOMO-LUMO GAP               1.057955819706 eV   |
           -------------------------------------------------

------------------------------------------------------------------------
 * finished run on 2026/08/31 at 13:17:01.154     
------------------------------------------------------------------------
 total:
 * wall-time:     0 d,  0 h,  0 min,  0.403 sec
 *  cpu-time:     0 d,  0 h,  0 min,  0.203 sec
 * ratio c/w:     0.504 speedup
 SCF:
 * wall-time:     0 d,  0 h,  0 min,  0.191 sec
 *  cpu-time:     0 d,  0 h,  0 min,  0.125 sec
 * ratio c/w:     0.654 speedup



===== STDERR =====

normal termination of xtb
