      -----------------------------------------------------------      
     |                   =====================                   |     
     |                           x T B                           |     
     |                   =====================                   |     
     |                         S. Grimme                         |     
     |          Mulliken Center for Theoretical Chemistry        |     
     |                    University of Bonn                     |     
      -----------------------------------------------------------      

   * xtb version 6.7.1pre (5071a88) compiled by 'Marcel@Raven' on 2024-07-23

   xtb is free software: you can redistribute it and/or modify it under
   the terms of the GNU Lesser General Public License as published by
   the Free Software Foundation, either version 3 of the License, or
   (at your option) any later version.
   
   xtb is distributed in the hope that it will be useful,
   but WITHOUT ANY WARRANTY; without even the implied warranty of
   MERCHANTABILITY or FITNESS FOR A PARTICULAR PURPOSE.  See the
   GNU Lesser General Public License for more details.
   
   Cite this work as:
   * C. Bannwarth, E. Caldeweyher, S. Ehlert, A. Hansen, P. Pracht,
     J. Seibert, S. Spicher, S. Grimme, WIREs Comput. Mol. Sci., 2020, 11,
     e01493. DOI: 10.1002/wcms.1493
   
   for GFN2-xTB:
   * C. Bannwarth, S. Ehlert and S. Grimme., J. Chem. Theory Comput., 2019,
     15, 1652-1671. DOI: 10.1021/acs.jctc.8b01176
   for GFN1-xTB:
   * S. Grimme, C. Bannwarth, P. Shushkov, J. Chem. Theory Comput., 2017,
     13, 1989-2009. DOI: 10.1021/acs.jctc.7b00118
   for GFN0-xTB:
   * P. Pracht, E. Caldeweyher, S. Ehlert, S. Grimme, ChemRxiv, 2019, preprint.
     DOI: 10.26434/chemrxiv.8326202.v1
   for GFN-FF:
   * S. Spicher and S. Grimme, Angew. Chem. Int. Ed., 2020, 59, 15665-15673.
     DOI: 10.1002/anie.202004239
   
   for ALPB and GBSA implicit solvation:
   * S. Ehlert, M. Stahn, S. Spicher, S. Grimme, J. Chem. Theory Comput.,
     2021, 17, 4250-4261. DOI: 10.1021/acs.jctc.1c00471
   
   for ddCOSMO and CPCM-X implicit solvation:
   * M. Stahn, S. Ehlert, S. Grimme, J. Phys. Chem. A,
     2023, XX, XXXX-XXXX. DOI: 10.1021/acs.jpca.3c04382
   
   for DFT-D4:
   * E. Caldeweyher, C. Bannwarth and S. Grimme, J. Chem. Phys., 2017,
     147, 034112. DOI: 10.1063/1.4993215
   * E. Caldeweyher, S. Ehlert, A. Hansen, H. Neugebauer, S. Spicher,
     C. Bannwarth and S. Grimme, J. Chem. Phys., 2019, 150, 154122.
     DOI: 10.1063/1.5090222
   * E. Caldeweyher, J.-M. Mewes, S. Ehlert and S. Grimme, Phys. Chem. Chem. Phys.
     2020, 22, 8499-8512. DOI: 10.1039/D0CP00502A
   
   for sTDA-xTB:
   * S. Grimme and C. Bannwarth, J. Chem. Phys., 2016, 145, 054103.
     DOI: 10.1063/1.4959605
   
   in the mass-spec context:
   * V. Asgeirsson, C. Bauer and S. Grimme, Chem. Sci., 2017, 8, 4879.
     DOI: 10.1039/c7sc00601b
   * J. Koopman and S. Grimme, ACS Omega 2019, 4, 12, 15120-15133.
     DOI: 10.1021/acsomega.9b02011
   
   for metadynamics refer to:
   * S. Grimme, J. Chem. Theory Comput., 2019, 155, 2847-2862
     DOI: 10.1021/acs.jctc.9b00143
   
   for SPH calculations refer to:
   * S. Spicher and S. Grimme, J. Chem. Theory Comput., 2021, 17, 1701-1714
     DOI: 10.1021/acs.jctc.0c01306
   
   for ONIOM refer to:
   * C. Plett, A. Katbashev, S. Ehlert, S. Grimme, M. Bursch,
     Phys. Chem. Chem. Phys., 2023, 25, 17860-17868. DOI: 10.1039/D3CP02178E
   
   for DIPRO refer to:
   * J. Kohn, N. Gildemeister, S. Grimme, D. Fazzi, A. Hansen,
     J. Chem. Phys., 2023, just accepted.
   
   for PTB refer to:
   * S. Grimme, M. Mueller, A. Hansen, J. Chem. Phys., 2023, 158, 124111.
     DOI: 10.1063/5.0137838
   
   with help from (in alphabetical order)
   P. Atkinson, C. Bannwarth, F. Bohle, G. Brandenburg, E. Caldeweyher
   M. Checinski, S. Dohm, S. Ehlert, S. Ehrlich, I. Gerasimov, C. Hölzer
   A. Katbashev, J. Kohn, J. Koopman, C. Lavigne, S. Lehtola, F. März, M. Müller,
   F. Musil, H. Neugebauer, J. Pisarek, C. Plett, P. Pracht, F. Pultar,
   J. Seibert, P. Shushkov, S. Spicher, M. Stahn, M. Steiner, T. Strunk,
   J. Stückrath, T. Rose, and J. Unsleber
   
 * started run on 2026/08/31 at 13:17:01.681     
   ID    Z sym.   atoms
    1    7 N      1, 44, 53
    2    6 C      2-15, 45, 47, 48, 54
    3    8 O      16, 17, 41, 46, 49
    4    1 H      18-40, 42, 43, 50-52, 55-57

           -------------------------------------------------
          |                Calculation Setup                |
           -------------------------------------------------

          program call               : C:\Users\Nayanika\Downloads\xtb-6.7.1pre-windows-x86_64\xtb-6.7.1\bin\xtb.exe D:\PhD_Thesis\LmrR_EVB\charges\fast_lmrr_5QM\xtb_preparation\stage2_five_xtb_protocols\GFN2_etemp500\RS1_1_to_TS1_2\RS1_1_to_TS1_2_PS_xtbopt.xyz --gfn 2 --chrg 0 --uhf 0 --etemp 500
          coordinate file            : D:\PhD_Thesis\LmrR_EVB\charges\fast_lmrr_5QM\xtb_preparation\stage2_five_xtb_protocols\GFN2_etemp500\RS1_1_to_TS1_2\RS1_1_to_TS1_2_PS_xtbopt.xyz
          omp threads                :                     1


molecular fragmentation (1/2 indicates fragments):
111111111222222221111111111122222222222222211111111111111
# atoms in fragment 1/2:    34    23
 fragment masses (1/2) :      235.28      134.17
CMA distance (Bohr)    :   9.685
constraining FC (au)   :  0.0500

           -------------------------------------------------
          |                 G F N 2 - x T B                 |
           -------------------------------------------------

        Reference                      10.1021/acs.jctc.8b01176
      * Hamiltonian:
        H0-scaling (s, p, d)           1.850000    2.230000    2.230000
        zeta-weighting                 0.500000
      * Dispersion:
        s8                             2.700000
        a1                             0.520000
        a2                             5.000000
        s9                             5.000000
      * Repulsion:
        kExp                           1.500000    1.000000
        rExp                           1.000000
      * Coulomb:
        alpha                          2.000000
        third order                    shell-resolved
        anisotropic                    true
        a3                             3.000000
        a5                             4.000000
        cn-shift                       1.200000
        cn-exp                         4.000000
        max-rad                        5.000000

q/qsh data taken from xtbrestart
CAMM data taken from xtbrestart

          ...................................................
          :                      SETUP                      :
          :.................................................:
          :  # basis functions                 135          :
          :  # atomic orbitals                 135          :
          :  # shells                           83          :
          :  # electrons                       148          :
          :  max. iterations                   250          :
          :  Hamiltonian                  GFN2-xTB          :
          :  restarted?                       true          :
          :  GBSA solvation                  false          :
          :  PC potential                    false          :
          :  electronic temp.          500.0000000     K    :
          :  accuracy                    1.0000000          :
          :  -> integral cutoff          0.2500000E+02      :
          :  -> integral neglect         0.1000000E-07      :
          :  -> SCF convergence          0.1000000E-05 Eh   :
          :  -> wf. convergence          0.1000000E-03 e    :
          :  Broyden damping             0.4000000          :
          :  net charge                          0          :
          :  unpaired electrons                  0          :
          ...................................................

 iter      E             dE          RMSdq      gap      omega  full diag
   1    -84.5376047 -0.845376E+02  0.237E+00    2.14       0.0  T
   2    -84.5392139 -0.160918E-02  0.141E+00    2.27       1.0  T
   3    -84.5351572  0.405664E-02  0.311E-01    2.17       1.0  T
   4    -84.5400192 -0.486196E-02  0.712E-02    2.25       1.0  T
   5    -84.5401344 -0.115255E-03  0.371E-02    2.25       1.0  T
   6    -84.5401452 -0.107855E-04  0.133E-02    2.25       1.0  T
   7    -84.5401495 -0.423569E-05  0.503E-03    2.25       2.6  T
   8    -84.5401498 -0.362021E-06  0.219E-03    2.25       6.0  T
   9    -84.5401500 -0.136869E-06  0.804E-04    2.25      16.5  T
  10    -84.5401500 -0.380511E-08  0.279E-04    2.25      47.4  T

   *** convergence criteria satisfied after 10 iterations ***

         #    Occupation            Energy/Eh            Energy/eV
      -------------------------------------------------------------
         1        2.0000           -0.7128943             -19.3988
       ...           ...                  ...                  ...
        68        2.0000           -0.4184686             -11.3871
        69        2.0000           -0.4111953             -11.1892
        70        2.0000           -0.4084294             -11.1139
        71        2.0000           -0.4009747             -10.9111
        72        2.0000           -0.4003192             -10.8932
        73        2.0000           -0.3882754             -10.5655
        74        2.0000           -0.3686475             -10.0314 (HOMO)
        75                         -0.2860103              -7.7827 (LUMO)
        76                         -0.2262337              -6.1561
        77                         -0.2236800              -6.0866
        78                         -0.2168702              -5.9013
        79                         -0.2090280              -5.6879
       ...                                ...                  ...
       135                          0.6566037              17.8671
      -------------------------------------------------------------
                  HL-Gap            0.0826371 Eh            2.2487 eV
             Fermi-level           -0.3273289 Eh           -8.9071 eV

 SCC (total)                   0 d,  0 h,  0 min,  0.381 sec
 SCC setup                      ...        0 min,  0.002 sec (  0.525%)
 Dispersion                     ...        0 min,  0.005 sec (  1.312%)
 classical contributions        ...        0 min,  0.000 sec (  0.000%)
 integral evaluation            ...        0 min,  0.020 sec (  5.249%)
 iterations                     ...        0 min,  0.251 sec ( 65.879%)
 molecular gradient             ...        0 min,  0.102 sec ( 26.772%)
 printout                       ...        0 min,  0.001 sec (  0.263%)

         :::::::::::::::::::::::::::::::::::::::::::::::::::::
         ::                     SUMMARY                     ::
         :::::::::::::::::::::::::::::::::::::::::::::::::::::
         :: total energy             -83.437298693201 Eh    ::
         :: gradient norm              0.000215814059 Eh/a0 ::
         :: HOMO-LUMO gap              2.248670600031 eV    ::
         ::.................................................::
         :: SCC energy               -84.538281147089 Eh    ::
         :: -> isotropic ES            0.177711442492 Eh    ::
         :: -> anisotropic ES         -0.002005185594 Eh    ::
         :: -> anisotropic XC          0.029677736704 Eh    ::
         :: -> dispersion             -0.057675008999 Eh    ::
         :: repulsion energy           1.100982453888 Eh    ::
         :: add. restraining           0.000000000000 Eh    ::
         :: total charge               0.000000000000 e     ::
         :::::::::::::::::::::::::::::::::::::::::::::::::::::

           -------------------------------------------------
          |                Property Printout                |
           -------------------------------------------------

    * Orbital Energies and Occupations

         #    Occupation            Energy/Eh            Energy/eV
      -------------------------------------------------------------
         1        2.0000           -0.7128943             -19.3988
       ...           ...                  ...                  ...
        62        2.0000           -0.4408536             -11.9962
        63        2.0000           -0.4379464             -11.9171
        64        2.0000           -0.4347288             -11.8296
        65        2.0000           -0.4294098             -11.6848
        66        2.0000           -0.4258581             -11.5882
        67        2.0000           -0.4226395             -11.5006
        68        2.0000           -0.4184686             -11.3871
        69        2.0000           -0.4111953             -11.1892
        70        2.0000           -0.4084294             -11.1139
        71        2.0000           -0.4009747             -10.9111
        72        2.0000           -0.4003192             -10.8932
        73        2.0000           -0.3882754             -10.5655
        74        2.0000           -0.3686475             -10.0314 (HOMO)
        75                         -0.2860103              -7.7827 (LUMO)
        76                         -0.2262337              -6.1561
        77                         -0.2236800              -6.0866
        78                         -0.2168702              -5.9013
        79                         -0.2090280              -5.6879
        80                         -0.1714788              -4.6662
        81                         -0.0942557              -2.5648
        82                         -0.0026910              -0.0732
        83                          0.0058461               0.1591
        84                          0.0175443               0.4774
        85                          0.0729610               1.9854
       ...                                ...                  ...
       135                          0.6566037              17.8671
      -------------------------------------------------------------
                  HL-Gap            0.0826371 Eh            2.2487 eV
             Fermi-level           -0.3273289 Eh           -8.9071 eV

     #   Z          covCN         q      C6AA      α(0)
     1   7 N        2.654    -0.266    26.887     7.701
     2   6 C        2.900     0.075    26.315     8.411
     3   6 C        2.923    -0.059    29.463     8.901
     4   6 C        2.924    -0.038    28.948     8.823
     5   6 C        2.970    -0.004    28.122     8.699
     6   6 C        2.924    -0.043    29.070     8.842
     7   6 C        2.922    -0.062    29.536     8.912
     8   6 C        3.811    -0.070    21.827     6.650
     9   6 C        3.797     0.020    20.246     6.407
    10   6 C        2.778     0.209    23.573     7.952
    11   6 C        2.890    -0.065    29.605     8.921
    12   6 C        2.896    -0.003    28.101     8.692
    13   6 C        3.808    -0.061    21.673     6.627
    14   6 C        3.802    -0.046    21.388     6.584
    15   6 C        3.753    -0.111    22.678     6.791
    16   8 O        0.856    -0.431    22.313     6.333
    17   8 O        1.610    -0.600    25.187     6.773
    18   1 H        0.860     0.201     1.099     1.642
    19   1 H        0.860     0.196     1.128     1.664
    20   1 H        0.926     0.033     2.545     2.495
    21   1 H        0.926     0.032     2.557     2.501
    22   1 H        0.925     0.027     2.635     2.538
    23   1 H        0.926     0.031     2.577     2.510
    24   1 H        0.924     0.062     2.180     2.309
    25   1 H        0.924     0.059     2.215     2.328
    26   1 H        0.924     0.062     2.174     2.306
    27   1 H        0.860     0.181     1.206     1.720
    28   1 H        0.860     0.204     1.086     1.633
    29   1 H        0.923     0.016     2.800     2.617
    30   1 H        0.926     0.037     2.492     2.468
    31   1 H        0.925     0.062     2.177     2.307
    32   1 H        0.924     0.053     2.279     2.361
    33   1 H        0.924     0.047     2.355     2.400
    34   1 H        0.924     0.030     2.584     2.514
    35   1 H        0.924     0.032     2.556     2.500
    36   1 H        0.925     0.035     2.514     2.479
    37   1 H        0.925     0.034     2.529     2.487
    38   1 H        0.925     0.062     2.171     2.304
    39   1 H        0.805     0.292     0.747     1.357
    40   1 H        0.805     0.299     0.723     1.336
    41   8 O        1.609    -0.608    25.378     6.799
    42   1 H        0.806     0.276     0.797     1.402
    43   1 H        0.804     0.320     0.665     1.281
    44   7 N        2.692    -0.181    24.917     7.414
    45   6 C        2.753     0.263    22.556     7.777
    46   8 O        0.858    -0.434    22.362     6.340
    47   6 C        3.757    -0.141    23.277     6.879
    48   6 C        2.749     0.277    22.313     7.735
    49   8 O        0.859    -0.462    22.959     6.424
    50   1 H        0.925     0.052     2.292     2.368
    51   1 H        0.925     0.063     2.162     2.300
    52   1 H        0.925     0.075     2.036     2.231
    53   7 N        2.686    -0.176    24.818     7.399
    54   6 C        3.690    -0.043    21.531     6.640
    55   1 H        0.924     0.053     2.284     2.364
    56   1 H        0.924     0.050     2.326     2.385
    57   1 H        0.925     0.083     1.949     2.183

 Mol. C6AA /au·bohr⁶  :      29532.017958
 Mol. C8AA /au·bohr⁸  :     657664.101220
 Mol. α(0) /au        :        262.715375


Wiberg/Mayer (AO) data.
largest (>0.10) Wiberg bond orders for each atom

 ---------------------------------------------------------------------------
     #   Z sym  total        # sym  WBO       # sym  WBO       # sym  WBO
 ---------------------------------------------------------------------------
     1   7 N    3.370 --     2 C    1.150    19 H    0.931    18 H    0.928
                            10 C    0.117
     2   6 C    3.971 --     7 C    1.352     3 C    1.340     1 N    1.150
     3   6 C    3.989 --     4 C    1.472     2 C    1.340    20 H    0.968
                             6 C    0.101
     4   6 C    3.992 --     3 C    1.472     5 C    1.395    21 H    0.969
                             7 C    0.103
     5   6 C    3.982 --     6 C    1.406     4 C    1.395     8 C    1.009
     6   6 C    3.991 --     7 C    1.457     5 C    1.406    22 H    0.968
                             3 C    0.101
     7   6 C    3.987 --     6 C    1.457     2 C    1.352    23 H    0.969
                             4 C    0.103
     8   6 C    3.990 --     5 C    1.009     9 C    0.982    24 H    0.970
                            25 H    0.965
     9   6 C    3.962 --     8 C    0.982    44 N    0.973    26 H    0.952
                            45 C    0.914
    10   6 C    3.930 --    16 O    1.695    11 C    1.092    29 H    0.939
                             1 N    0.117
    11   6 C    3.989 --    12 C    1.812    10 C    1.092    30 H    0.964
    12   6 C    3.980 --    11 C    1.812    13 C    1.045    31 H    0.962
    13   6 C    3.996 --    12 C    1.045    14 C    0.976    33 H    0.972
                            32 H    0.957
    14   6 C    3.994 --    15 C    1.018    34 H    0.980    35 H    0.979
                            13 C    0.976
    15   6 C    3.993 --    14 C    1.018    37 H    0.988    36 H    0.986
                            38 H    0.981
    16   8 O    2.012 --    10 C    1.695
    17   8 O    1.832 --    39 H    0.905    40 H    0.892
    18   1 H    0.959 --     1 N    0.928
    19   1 H    0.961 --     1 N    0.931
    20   1 H    0.999 --     3 C    0.968
    21   1 H    0.999 --     4 C    0.969
    22   1 H    0.999 --     6 C    0.968
    23   1 H    0.999 --     7 C    0.969
    24   1 H    0.996 --     8 C    0.970
    25   1 H    0.995 --     8 C    0.965
    26   1 H    0.996 --     9 C    0.952
    27   1 H    0.967 --    44 N    0.934
    28   1 H    0.958 --    53 N    0.909
    29   1 H    0.999 --    10 C    0.939
    30   1 H    0.999 --    11 C    0.964
    31   1 H    0.996 --    12 C    0.962
    32   1 H    0.997 --    13 C    0.957
    33   1 H    0.998 --    13 C    0.972
    34   1 H    0.999 --    14 C    0.980
    35   1 H    0.999 --    14 C    0.979
    36   1 H    0.997 --    15 C    0.986
    37   1 H    0.999 --    15 C    0.988
    38   1 H    0.996 --    15 C    0.981
    39   1 H    0.915 --    17 O    0.905
    40   1 H    0.910 --    17 O    0.892
    41   8 O    1.827 --    42 H    0.919    43 H    0.854
    42   1 H    0.924 --    41 O    0.919
    43   1 H    0.898 --    41 O    0.854
    44   7 N    3.458 --    48 C    1.278     9 C    0.973    27 H    0.934
                            49 O    0.192
    45   6 C    3.956 --    46 O    1.681    53 N    1.289     9 C    0.914
    46   8 O    2.013 --    45 C    1.681    53 N    0.212
    47   6 C    3.993 --    48 C    0.984    52 H    0.981    50 H    0.974
                            51 H    0.965
    48   6 C    3.950 --    49 O    1.636    44 N    1.278    47 C    0.984
    49   8 O    1.984 --    48 C    1.636    44 N    0.192
    50   1 H    0.997 --    47 C    0.974
    51   1 H    0.996 --    47 C    0.965
    52   1 H    0.994 --    47 C    0.981
    53   7 N    3.465 --    45 C    1.289    54 C    1.005    28 H    0.909
                            46 O    0.212
    54   6 C    3.965 --    53 N    1.005    55 H    0.977    57 H    0.977
                            56 H    0.976
    55   1 H    0.997 --    54 C    0.977
    56   1 H    0.997 --    54 C    0.976
    57   1 H    0.993 --    54 C    0.977
 ---------------------------------------------------------------------------

Topologies differ in total number of bonds
Writing topology from bond orders to xtbtopo.mol

molecular dipole:
                 x           y           z       tot (Debye)
 q only:        0.180       0.982      -0.411
   full:       -0.227       1.116      -0.597       3.267
molecular quadrupole (traceless):
                xx          xy          yy          xz          yz          zz
 q only:      -17.497       4.345       6.142     -11.219       1.987      11.355
  q+dip:      -25.125      -1.449       8.260     -15.780       8.237      16.865
   full:      -26.223      -1.157       6.854     -15.105       5.146      19.369


           -------------------------------------------------
          | TOTAL ENERGY              -83.437298693201 Eh   |
          | GRADIENT NORM               0.000215814059 Eh/α |
          | HOMO-LUMO GAP               2.248670600031 eV   |
           -------------------------------------------------

------------------------------------------------------------------------
 * finished run on 2026/08/31 at 13:17:02.151     
------------------------------------------------------------------------
 total:
 * wall-time:     0 d,  0 h,  0 min,  0.467 sec
 *  cpu-time:     0 d,  0 h,  0 min,  0.203 sec
 * ratio c/w:     0.435 speedup
 SCF:
 * wall-time:     0 d,  0 h,  0 min,  0.381 sec
 *  cpu-time:     0 d,  0 h,  0 min,  0.141 sec
 * ratio c/w:     0.369 speedup



===== STDERR =====

normal termination of xtb
