      -----------------------------------------------------------      
     |                   =====================                   |     
     |                           x T B                           |     
     |                   =====================                   |     
     |                         S. Grimme                         |     
     |          Mulliken Center for Theoretical Chemistry        |     
     |                    University of Bonn                     |     
      -----------------------------------------------------------      

   * xtb version 6.7.1pre (5071a88) compiled by 'Marcel@Raven' on 2024-07-23

   xtb is free software: you can redistribute it and/or modify it under
   the terms of the GNU Lesser General Public License as published by
   the Free Software Foundation, either version 3 of the License, or
   (at your option) any later version.
   
   xtb is distributed in the hope that it will be useful,
   but WITHOUT ANY WARRANTY; without even the implied warranty of
   MERCHANTABILITY or FITNESS FOR A PARTICULAR PURPOSE.  See the
   GNU Lesser General Public License for more details.
   
   Cite this work as:
   * C. Bannwarth, E. Caldeweyher, S. Ehlert, A. Hansen, P. Pracht,
     J. Seibert, S. Spicher, S. Grimme, WIREs Comput. Mol. Sci., 2020, 11,
     e01493. DOI: 10.1002/wcms.1493
   
   for GFN2-xTB:
   * C. Bannwarth, S. Ehlert and S. Grimme., J. Chem. Theory Comput., 2019,
     15, 1652-1671. DOI: 10.1021/acs.jctc.8b01176
   for GFN1-xTB:
   * S. Grimme, C. Bannwarth, P. Shushkov, J. Chem. Theory Comput., 2017,
     13, 1989-2009. DOI: 10.1021/acs.jctc.7b00118
   for GFN0-xTB:
   * P. Pracht, E. Caldeweyher, S. Ehlert, S. Grimme, ChemRxiv, 2019, preprint.
     DOI: 10.26434/chemrxiv.8326202.v1
   for GFN-FF:
   * S. Spicher and S. Grimme, Angew. Chem. Int. Ed., 2020, 59, 15665-15673.
     DOI: 10.1002/anie.202004239
   
   for ALPB and GBSA implicit solvation:
   * S. Ehlert, M. Stahn, S. Spicher, S. Grimme, J. Chem. Theory Comput.,
     2021, 17, 4250-4261. DOI: 10.1021/acs.jctc.1c00471
   
   for ddCOSMO and CPCM-X implicit solvation:
   * M. Stahn, S. Ehlert, S. Grimme, J. Phys. Chem. A,
     2023, XX, XXXX-XXXX. DOI: 10.1021/acs.jpca.3c04382
   
   for DFT-D4:
   * E. Caldeweyher, C. Bannwarth and S. Grimme, J. Chem. Phys., 2017,
     147, 034112. DOI: 10.1063/1.4993215
   * E. Caldeweyher, S. Ehlert, A. Hansen, H. Neugebauer, S. Spicher,
     C. Bannwarth and S. Grimme, J. Chem. Phys., 2019, 150, 154122.
     DOI: 10.1063/1.5090222
   * E. Caldeweyher, J.-M. Mewes, S. Ehlert and S. Grimme, Phys. Chem. Chem. Phys.
     2020, 22, 8499-8512. DOI: 10.1039/D0CP00502A
   
   for sTDA-xTB:
   * S. Grimme and C. Bannwarth, J. Chem. Phys., 2016, 145, 054103.
     DOI: 10.1063/1.4959605
   
   in the mass-spec context:
   * V. Asgeirsson, C. Bauer and S. Grimme, Chem. Sci., 2017, 8, 4879.
     DOI: 10.1039/c7sc00601b
   * J. Koopman and S. Grimme, ACS Omega 2019, 4, 12, 15120-15133.
     DOI: 10.1021/acsomega.9b02011
   
   for metadynamics refer to:
   * S. Grimme, J. Chem. Theory Comput., 2019, 155, 2847-2862
     DOI: 10.1021/acs.jctc.9b00143
   
   for SPH calculations refer to:
   * S. Spicher and S. Grimme, J. Chem. Theory Comput., 2021, 17, 1701-1714
     DOI: 10.1021/acs.jctc.0c01306
   
   for ONIOM refer to:
   * C. Plett, A. Katbashev, S. Ehlert, S. Grimme, M. Bursch,
     Phys. Chem. Chem. Phys., 2023, 25, 17860-17868. DOI: 10.1039/D3CP02178E
   
   for DIPRO refer to:
   * J. Kohn, N. Gildemeister, S. Grimme, D. Fazzi, A. Hansen,
     J. Chem. Phys., 2023, just accepted.
   
   for PTB refer to:
   * S. Grimme, M. Mueller, A. Hansen, J. Chem. Phys., 2023, 158, 124111.
     DOI: 10.1063/5.0137838
   
   with help from (in alphabetical order)
   P. Atkinson, C. Bannwarth, F. Bohle, G. Brandenburg, E. Caldeweyher
   M. Checinski, S. Dohm, S. Ehlert, S. Ehrlich, I. Gerasimov, C. Hölzer
   A. Katbashev, J. Kohn, J. Koopman, C. Lavigne, S. Lehtola, F. März, M. Müller,
   F. Musil, H. Neugebauer, J. Pisarek, C. Plett, P. Pracht, F. Pultar,
   J. Seibert, P. Shushkov, S. Spicher, M. Stahn, M. Steiner, T. Strunk,
   J. Stückrath, T. Rose, and J. Unsleber
   
 * started run on 2026/08/20 at 20:33:53.721     
   ID    Z sym.   atoms
    1    7 N      1, 44, 53
    2    6 C      2-15, 45, 47, 48, 54
    3    8 O      16, 17, 41, 46, 49
    4    1 H      18-40, 42, 43, 50-52, 55-57

           -------------------------------------------------
          |                Calculation Setup                |
           -------------------------------------------------

          program call               : C:\Users\Nayanika\Downloads\xtb-6.7.1pre-windows-x86_64\xtb-6.7.1\bin\xtb.exe D:\PhD_Thesis\LmrR_EVB\charges\fast_lmrr_5QM\xtb_preparation\RS1_1_to_TS1_2\RS1_1_to_TS1_2_TS.xyz --gfn 2 --opt tight --chrg 0 --uhf 0 --etemp 500
          coordinate file            : D:\PhD_Thesis\LmrR_EVB\charges\fast_lmrr_5QM\xtb_preparation\RS1_1_to_TS1_2\RS1_1_to_TS1_2_TS.xyz
          omp threads                :                     8


molecular fragmentation (1/2 indicates fragments):
111111111222222221111111111122222222222222211111111111111
# atoms in fragment 1/2:    34    23
 fragment masses (1/2) :      235.28      134.17
CMA distance (Bohr)    :  12.319
constraining FC (au)   :  0.0500

           -------------------------------------------------
          |                 G F N 2 - x T B                 |
           -------------------------------------------------

        Reference                      10.1021/acs.jctc.8b01176
      * Hamiltonian:
        H0-scaling (s, p, d)           1.850000    2.230000    2.230000
        zeta-weighting                 0.500000
      * Dispersion:
        s8                             2.700000
        a1                             0.520000
        a2                             5.000000
        s9                             5.000000
      * Repulsion:
        kExp                           1.500000    1.000000
        rExp                           1.000000
      * Coulomb:
        alpha                          2.000000
        third order                    shell-resolved
        anisotropic                    true
        a3                             3.000000
        a5                             4.000000
        cn-shift                       1.200000
        cn-exp                         4.000000
        max-rad                        5.000000

q/qsh data taken from xtbrestart
CAMM data taken from xtbrestart

          ...................................................
          :                      SETUP                      :
          :.................................................:
          :  # basis functions                 135          :
          :  # atomic orbitals                 135          :
          :  # shells                           83          :
          :  # electrons                       148          :
          :  max. iterations                   250          :
          :  Hamiltonian                  GFN2-xTB          :
          :  restarted?                       true          :
          :  GBSA solvation                  false          :
          :  PC potential                    false          :
          :  electronic temp.          500.0000000     K    :
          :  accuracy                    1.0000000          :
          :  -> integral cutoff          0.2500000E+02      :
          :  -> integral neglect         0.1000000E-07      :
          :  -> SCF convergence          0.1000000E-05 Eh   :
          :  -> wf. convergence          0.1000000E-03 e    :
          :  Broyden damping             0.4000000          :
          :  net charge                          0          :
          :  unpaired electrons                  0          :
          ...................................................

 iter      E             dE          RMSdq      gap      omega  full diag
   1    -84.2971124 -0.842971E+02  0.350E+00    3.22       0.0  T
   2    -84.3520437 -0.549313E-01  0.217E+00    2.12       1.0  T
   3    -84.3231125  0.289312E-01  0.131E+00    2.06       1.0  T
   4    -84.3624806 -0.393681E-01  0.436E-01    1.99       1.0  T
   5    -84.3701859 -0.770528E-02  0.995E-02    1.88       1.0  T
   6    -84.3702119 -0.260125E-04  0.611E-02    1.90       1.0  T
   7    -84.3702740 -0.621083E-04  0.235E-02    1.90       1.0  T
   8    -84.3702789 -0.491355E-05  0.723E-03    1.90       1.8  T
   9    -84.3702799 -0.938240E-06  0.391E-03    1.90       3.4  T
  10    -84.3702801 -0.211752E-06  0.939E-04    1.90      14.1  T
  11    -84.3702801 -0.101768E-07  0.402E-04    1.90      33.0  T

   *** convergence criteria satisfied after 11 iterations ***

         #    Occupation            Energy/Eh            Energy/eV
      -------------------------------------------------------------
         1        2.0000           -0.7094063             -19.3039
       ...           ...                  ...                  ...
        68        2.0000           -0.4023093             -10.9474
        69        2.0000           -0.3983721             -10.8403
        70        2.0000           -0.3903175             -10.6211
        71        2.0000           -0.3729124             -10.1475
        72        2.0000           -0.3603674              -9.8061
        73        2.0000           -0.3396927              -9.2435
        74        2.0000           -0.3013709              -8.2007 (HOMO)
        75                         -0.2316795              -6.3043 (LUMO)
        76                         -0.2192200              -5.9653
        77                         -0.2153957              -5.8612
        78                         -0.2082826              -5.6677
        79                         -0.1829973              -4.9796
       ...                                ...                  ...
       135                          0.6522037              17.7474
      -------------------------------------------------------------
                  HL-Gap            0.0696913 Eh            1.8964 eV
             Fermi-level           -0.2665255 Eh           -7.2525 eV

 SCC (total)                   0 d,  0 h,  0 min,  0.119 sec
 SCC setup                      ...        0 min,  0.000 sec (  0.000%)
 Dispersion                     ...        0 min,  0.001 sec (  0.840%)
 classical contributions        ...        0 min,  0.000 sec (  0.000%)
 integral evaluation            ...        0 min,  0.003 sec (  2.521%)
 iterations                     ...        0 min,  0.103 sec ( 86.555%)
 molecular gradient             ...        0 min,  0.011 sec (  9.244%)
 printout                       ...        0 min,  0.001 sec (  0.840%)

         :::::::::::::::::::::::::::::::::::::::::::::::::::::
         ::                     SUMMARY                     ::
         :::::::::::::::::::::::::::::::::::::::::::::::::::::
         :: total energy             -83.305257358587 Eh    ::
         :: gradient norm              0.164051040371 Eh/a0 ::
         :: HOMO-LUMO gap              1.896397373393 eV    ::
         ::.................................................::
         :: SCC energy               -84.369626100966 Eh    ::
         :: -> isotropic ES            0.201722790730 Eh    ::
         :: -> anisotropic ES          0.013943560206 Eh    ::
         :: -> anisotropic XC          0.029812756579 Eh    ::
         :: -> dispersion             -0.051798097950 Eh    ::
         :: repulsion energy           1.064368742379 Eh    ::
         :: add. restraining           0.000000000000 Eh    ::
         :: total charge              -0.000000000000 e     ::
         :::::::::::::::::::::::::::::::::::::::::::::::::::::

      ----------------------------------------------------------- 
     |                   =====================                   |
     |                        A N C O P T                        |
     |                   =====================                   |
     |               Approximate Normal Coordinate               |
     |                Rational Function Optimizer                |
      ----------------------------------------------------------- 
      ----------------------------------------------------------- 
     |                   =====================                   |
     |                        A N C O P T                        |
     |                   =====================                   |
     |               Approximate Normal Coordinate               |
     |                Rational Function Optimizer                |
      ----------------------------------------------------------- 

          ...................................................
          :                      SETUP                      :
          :.................................................:
          :   optimization level             tight          :
          :   max. optcycles                   285          :
          :   ANC micro-cycles                  20          :
          :   degrees of freedom               165          :
          :.................................................:
          :   RF solver                   davidson          :
          :   write xtbopt.log                true          :
          :   linear?                        false          :
          :   energy convergence         0.1000000E-05 Eh   :
          :   grad. convergence          0.8000000E-03 Eh/α :
          :   maxmium RF displ.          1.0000000          :
          :   Hlow (freq-cutoff)         0.1000000E-01      :
          :   Hmax (freq-cutoff)         5.0000000          :
          :   S6 in model hess.         20.0000000          :
          ...................................................

generating ANC from exact Hessian ...
Using Lindh-Hessian (1995)
 Shifting diagonal of input Hessian by   1.012279901036196E-002
 Lowest  eigenvalues of input Hessian
    0.010000    0.010081    0.010097    0.000000    0.000000    0.000000
    0.000000    0.000000    0.000000    0.010143    0.010161    0.010191
    0.010192    0.010282    0.010398    0.010511    0.010559    0.010585
 Highest eigenvalues
    1.899490    1.943617    1.980481    2.016653    2.236953    2.249130
 

........................................................................
.............................. CYCLE    1 ..............................
........................................................................

 iter      E             dE          RMSdq      gap      omega  full diag
   1    -84.3702801 -0.843703E+02  0.159E-04    1.90       0.0  T
   2    -84.3702801 -0.262872E-09  0.987E-05    1.90     134.1  T
   3    -84.3702801 -0.165599E-09  0.595E-05    1.90     222.7  T
     SCC iter.                  ...        0 min,  0.025 sec
     gradient                   ...        0 min,  0.009 sec
 * total energy  :   -83.3052574 Eh     change       -0.4318252E-08 Eh
   gradient norm :     0.1640521 Eh/α   predicted     0.0000000E+00 (-100.00%)
   displ. norm   :     0.5445889 α      lambda       -0.5713453E-01
   maximum displ.:     0.1855517 α      in ANC's #44, #47, #45, ...

........................................................................
.............................. CYCLE    2 ..............................
........................................................................

 iter      E             dE          RMSdq      gap      omega  full diag
   1    -84.4212262 -0.844212E+02  0.432E-01    2.21       0.0  T
   2    -84.4226160 -0.138976E-02  0.225E-01    2.50       1.0  T
   3    -84.4224062  0.209833E-03  0.129E-01    2.52       1.0  T
   4    -84.4227198 -0.313698E-03  0.519E-02    2.52       1.0  T
   5    -84.4227993 -0.794940E-04  0.116E-02    2.52       1.1  T
   6    -84.4228041 -0.474407E-05  0.522E-03    2.52       2.5  T
   7    -84.4228047 -0.628269E-06  0.228E-03    2.52       5.8  T
   8    -84.4228047 -0.313581E-07  0.107E-03    2.52      12.4  T
   9    -84.4228048 -0.258641E-07  0.345E-04    2.52      38.4  T
  10    -84.4228048 -0.167347E-08  0.142E-04    2.52      93.1  T
     SCC iter.                  ...        0 min,  0.092 sec
     gradient                   ...        0 min,  0.008 sec
 * total energy  :   -83.3458167 Eh     change       -0.4055929E-01 Eh
   gradient norm :     0.1124718 Eh/α   predicted    -0.3704265E-01 (  -8.67%)
   displ. norm   :     0.5287982 α      lambda       -0.3365565E-01
   maximum displ.:     0.1670780 α      in ANC's #47, #39, #99, ...

........................................................................
.............................. CYCLE    3 ..............................
........................................................................

 iter      E             dE          RMSdq      gap      omega  full diag
   1    -84.4539100 -0.844539E+02  0.420E-01    2.66       0.0  T
   2    -84.4565372 -0.262717E-02  0.206E-01    3.04       1.0  T
   3    -84.4565583 -0.211802E-04  0.106E-01    3.11       1.0  T
   4    -84.4565375  0.208563E-04  0.526E-02    3.12       1.0  T
   5    -84.4566369 -0.994214E-04  0.122E-02    3.12       1.1  T
   6    -84.4566410 -0.404657E-05  0.505E-03    3.12       2.6  T
   7    -84.4566416 -0.646177E-06  0.210E-03    3.12       6.3  T
   8    -84.4566416 -0.325136E-07  0.100E-03    3.12      13.2  T
   9    -84.4566416 -0.168865E-07  0.327E-04    3.12      40.5  T
  10    -84.4566416 -0.175054E-08  0.120E-04    3.12     110.5  T
     SCC iter.                  ...        0 min,  0.085 sec
     gradient                   ...        0 min,  0.008 sec
 * total energy  :   -83.3670816 Eh     change       -0.2126497E-01 Eh
   gradient norm :     0.0459440 Eh/α   predicted    -0.2153373E-01 (   1.26%)
   displ. norm   :     0.4771492 α      lambda       -0.9476308E-02
   maximum displ.:     0.1422697 α      in ANC's #15, #28, #39, ...

........................................................................
.............................. CYCLE    4 ..............................
........................................................................

 iter      E             dE          RMSdq      gap      omega  full diag
   1    -84.4631994 -0.844632E+02  0.180E-01    3.16       0.0  T
   2    -84.4635307 -0.331292E-03  0.958E-02    3.29       1.0  T
   3    -84.4635273  0.334752E-05  0.453E-02    3.33       1.0  T
   4    -84.4635360 -0.862692E-05  0.179E-02    3.34       1.0  T
   5    -84.4635494 -0.134086E-04  0.410E-03    3.34       3.2  T
   6    -84.4635495 -0.882264E-07  0.247E-03    3.34       5.4  T
   7    -84.4635496 -0.101711E-06  0.111E-03    3.34      12.0  T
   8    -84.4635496 -0.201203E-07  0.400E-04    3.34      33.1  T
   9    -84.4635496 -0.421163E-08  0.152E-04    3.34      86.9  T
     SCC iter.                  ...        0 min,  0.079 sec
     gradient                   ...        0 min,  0.008 sec
 * total energy  :   -83.3742036 Eh     change       -0.7121986E-02 Eh
   gradient norm :     0.0369708 Eh/α   predicted    -0.5816891E-02 ( -18.32%)
   displ. norm   :     0.5893668 α      lambda       -0.8150460E-02
   maximum displ.:     0.1841523 α      in ANC's #32, #28, #7, ...

........................................................................
.............................. CYCLE    5 ..............................
........................................................................

 iter      E             dE          RMSdq      gap      omega  full diag
   1    -84.4750748 -0.844751E+02  0.217E-01    3.42       0.0  T
   2    -84.4753074 -0.232632E-03  0.120E-01    3.52       1.0  T
   3    -84.4752849  0.224693E-04  0.503E-02    3.55       1.0  T
   4    -84.4753258 -0.408947E-04  0.159E-02    3.56       1.0  T
   5    -84.4753336 -0.776938E-05  0.566E-03    3.56       2.3  T
   6    -84.4753340 -0.381029E-06  0.333E-03    3.56       4.0  T
   7    -84.4753341 -0.170815E-06  0.123E-03    3.56      10.7  T
   8    -84.4753342 -0.300136E-07  0.478E-04    3.56      27.7  T
   9    -84.4753342 -0.544840E-08  0.169E-04    3.56      78.4  T
     SCC iter.                  ...        0 min,  0.079 sec
     gradient                   ...        0 min,  0.008 sec
 * total energy  :   -83.3791901 Eh     change       -0.4986447E-02 Eh
   gradient norm :     0.0317175 Eh/α   predicted    -0.5490799E-02 (  10.11%)
   displ. norm   :     0.6241758 α      lambda       -0.6501835E-02
   maximum displ.:     0.2692635 α      in ANC's #15, #32, #28, ...

........................................................................
.............................. CYCLE    6 ..............................
........................................................................

 iter      E             dE          RMSdq      gap      omega  full diag
   1    -84.4761717 -0.844762E+02  0.208E-01    3.56       0.0  T
   2    -84.4763906 -0.218942E-03  0.120E-01    3.55       1.0  T
   3    -84.4763589  0.316886E-04  0.509E-02    3.55       1.0  T
   4    -84.4763976 -0.386119E-04  0.205E-02    3.55       1.0  T
   5    -84.4764130 -0.154446E-04  0.623E-03    3.55       2.1  T
   6    -84.4764138 -0.833895E-06  0.321E-03    3.55       4.1  T
   7    -84.4764140 -0.128317E-06  0.116E-03    3.55      11.4  T
   8    -84.4764140 -0.819853E-08  0.353E-04    3.55      37.5  T
   9    -84.4764140 -0.227830E-08  0.140E-04    3.55      94.4  T
     SCC iter.                  ...        0 min,  0.079 sec
     gradient                   ...        0 min,  0.008 sec
 * total energy  :   -83.3832137 Eh     change       -0.4023662E-02 Eh
   gradient norm :     0.0449586 Eh/α   predicted    -0.4517455E-02 (  12.27%)
   displ. norm   :     0.5182738 α      lambda       -0.4832719E-02
   maximum displ.:     0.1854843 α      in ANC's #22, #17, #33, ...

........................................................................
.............................. CYCLE    7 ..............................
........................................................................

 iter      E             dE          RMSdq      gap      omega  full diag
   1    -84.4913947 -0.844914E+02  0.142E-01    3.49       0.0  T
   2    -84.4914859 -0.911881E-04  0.808E-02    3.42       1.0  T
   3    -84.4914739  0.120175E-04  0.319E-02    3.40       1.0  T
   4    -84.4914918 -0.179536E-04  0.108E-02    3.40       1.2  T
   5    -84.4914957 -0.388981E-05  0.388E-03    3.40       3.4  T
   6    -84.4914961 -0.322191E-06  0.192E-03    3.40       6.9  T
   7    -84.4914961 -0.566973E-07  0.816E-04    3.40      16.2  T
   8    -84.4914961 -0.656617E-08  0.272E-04    3.40      48.8  T
     SCC iter.                  ...        0 min,  0.068 sec
     gradient                   ...        0 min,  0.008 sec
 * total energy  :   -83.3868879 Eh     change       -0.3674150E-02 Eh
   gradient norm :     0.0314566 Eh/α   predicted    -0.3065420E-02 ( -16.57%)
   displ. norm   :     0.7053623 α      lambda       -0.5684568E-02
   maximum displ.:     0.2681200 α      in ANC's #22, #24, #33, ...

........................................................................
.............................. CYCLE    8 ..............................
........................................................................

 iter      E             dE          RMSdq      gap      omega  full diag
   1    -84.4914034 -0.844914E+02  0.193E-01    3.11       0.0  T
   2    -84.4914778 -0.743788E-04  0.112E-01    3.07       1.0  T
   3    -84.4914297  0.480373E-04  0.443E-02    3.04       1.0  T
   4    -84.4914919 -0.621501E-04  0.125E-02    3.05       1.1  T
   5    -84.4914956 -0.375463E-05  0.560E-03    3.05       2.4  T
   6    -84.4914963 -0.647314E-06  0.249E-03    3.05       5.3  T
   7    -84.4914963 -0.661603E-07  0.999E-04    3.05      13.3  T
   8    -84.4914964 -0.967648E-08  0.325E-04    3.05      40.8  T
     SCC iter.                  ...        0 min,  0.067 sec
     gradient                   ...        0 min,  0.008 sec
 * total energy  :   -83.3902011 Eh     change       -0.3313268E-02 Eh
   gradient norm :     0.0396003 Eh/α   predicted    -0.4256423E-02 (  28.47%)
   displ. norm   :     0.6355592 α      lambda       -0.5621458E-02
   maximum displ.:     0.2471311 α      in ANC's #22, #5, #24, ...

........................................................................
.............................. CYCLE    9 ..............................
........................................................................

 iter      E             dE          RMSdq      gap      omega  full diag
   1    -84.4982928 -0.844983E+02  0.182E-01    2.92       0.0  T
   2    -84.4983655 -0.727282E-04  0.106E-01    2.86       1.0  T
   3    -84.4982963  0.691715E-04  0.512E-02    2.82       1.0  T
   4    -84.4983866 -0.902345E-04  0.122E-02    2.82       1.1  T
   5    -84.4983888 -0.226537E-05  0.556E-03    2.83       2.4  T
   6    -84.4983896 -0.789415E-06  0.239E-03    2.83       5.6  T
   7    -84.4983897 -0.534132E-07  0.904E-04    2.83      14.7  T
   8    -84.4983897 -0.509797E-08  0.301E-04    2.83      44.0  T
     SCC iter.                  ...        0 min,  0.067 sec
     gradient                   ...        0 min,  0.009 sec
 * total energy  :   -83.3930929 Eh     change       -0.2891818E-02 Eh
   gradient norm :     0.0427201 Eh/α   predicted    -0.3946084E-02 (  36.46%)
   displ. norm   :     0.5416161 α      lambda       -0.4912945E-02
   maximum displ.:     0.2089262 α      in ANC's #22, #43, #24, ...

........................................................................
.............................. CYCLE   10 ..............................
........................................................................

 iter      E             dE          RMSdq      gap      omega  full diag
   1    -84.5073240 -0.845073E+02  0.198E-01    3.06       0.0  T
   2    -84.5076429 -0.318887E-03  0.115E-01    2.91       1.0  T
   3    -84.5075679  0.749967E-04  0.727E-02    2.87       1.0  T
   4    -84.5076832 -0.115289E-03  0.221E-02    2.86       1.0  T
   5    -84.5076951 -0.119330E-04  0.540E-03    2.86       2.5  T
   6    -84.5076961 -0.923220E-06  0.225E-03    2.87       5.9  T
   7    -84.5076962 -0.104099E-06  0.100E-03    2.87      13.2  T
   8    -84.5076962 -0.257762E-08  0.390E-04    2.87      34.0  T
   9    -84.5076962 -0.251180E-08  0.117E-04    2.87     113.2  T
     SCC iter.                  ...        0 min,  0.074 sec
     gradient                   ...        0 min,  0.008 sec
 * total energy  :   -83.3945439 Eh     change       -0.1450963E-02 Eh
   gradient norm :     0.0655485 Eh/α   predicted    -0.3177073E-02 ( 118.96%)
   displ. norm   :     0.4264368 α      lambda       -0.4357375E-02
   maximum displ.:     0.1656905 α      in ANC's #22, #27, #24, ...

........................................................................
.............................. CYCLE   11 ..............................
........................................................................

 iter      E             dE          RMSdq      gap      omega  full diag
   1    -84.4957221 -0.844957E+02  0.126E-01    2.61       0.0  T
   2    -84.4958361 -0.114048E-03  0.719E-02    2.64       1.0  T
   3    -84.4958215  0.146059E-04  0.373E-02    2.64       1.0  T
   4    -84.4958397 -0.181589E-04  0.165E-02    2.64       1.0  T
   5    -84.4958496 -0.986227E-05  0.365E-03    2.64       3.6  T
   6    -84.4958497 -0.155865E-06  0.181E-03    2.64       7.3  T
   7    -84.4958498 -0.844606E-07  0.796E-04    2.64      16.6  T
   8    -84.4958498 -0.458989E-08  0.287E-04    2.64      46.2  T
     SCC iter.                  ...        0 min,  0.070 sec
     gradient                   ...        0 min,  0.009 sec
 * total energy  :   -83.3973627 Eh     change       -0.2818744E-02 Eh
   gradient norm :     0.0305977 Eh/α   predicted    -0.2574882E-02 (  -8.65%)
   displ. norm   :     0.4386936 α      lambda       -0.3965870E-02
   maximum displ.:     0.1620054 α      in ANC's #27, #22, #2, ...

........................................................................
.............................. CYCLE   12 ..............................
........................................................................

 iter      E             dE          RMSdq      gap      omega  full diag
   1    -84.5166082 -0.845166E+02  0.138E-01    2.40       0.0  T
   2    -84.5168219 -0.213683E-03  0.795E-02    2.45       1.0  T
   3    -84.5168134  0.851977E-05  0.446E-02    2.45       1.0  T
   4    -84.5168284 -0.150880E-04  0.216E-02    2.45       1.0  T
   5    -84.5168460 -0.175417E-04  0.412E-03    2.45       3.2  T
   6    -84.5168462 -0.219684E-06  0.163E-03    2.45       8.1  T
   7    -84.5168462 -0.367469E-07  0.770E-04    2.45      17.2  T
   8    -84.5168462 -0.196222E-08  0.288E-04    2.45      46.0  T
     SCC iter.                  ...        0 min,  0.065 sec
     gradient                   ...        0 min,  0.009 sec
 * total energy  :   -83.3974953 Eh     change       -0.1326611E-03 Eh
   gradient norm :     0.0599711 Eh/α   predicted    -0.2364562E-02 (1682.41%)
   displ. norm   :     0.4143075 α      lambda       -0.5211260E-02
   maximum displ.:     0.1556804 α      in ANC's #27, #24, #22, ...

........................................................................
.............................. CYCLE   13 ..............................
........................................................................

 iter      E             dE          RMSdq      gap      omega  full diag
   1    -84.4996735 -0.844997E+02  0.138E-01    2.34       0.0  T
   2    -84.4998102 -0.136773E-03  0.801E-02    2.32       1.0  T
   3    -84.4998008  0.942646E-05  0.432E-02    2.31       1.0  T
   4    -84.4998193 -0.185082E-04  0.167E-02    2.30       1.0  T
   5    -84.4998312 -0.118511E-04  0.331E-03    2.30       4.0  T
   6    -84.4998313 -0.175792E-06  0.190E-03    2.31       7.0  T
   7    -84.4998314 -0.775436E-07  0.727E-04    2.31      18.2  T
   8    -84.4998314 -0.446437E-08  0.318E-04    2.31      41.7  T
     SCC iter.                  ...        0 min,  0.074 sec
     gradient                   ...        0 min,  0.009 sec
 * total energy  :   -83.3995940 Eh     change       -0.2098710E-02 Eh
   gradient norm :     0.0433056 Eh/α   predicted    -0.3052893E-02 (  45.47%)
   displ. norm   :     0.3345519 α      lambda       -0.3788030E-02
   maximum displ.:     0.1077535 α      in ANC's #2, #15, #43, ...

........................................................................
.............................. CYCLE   14 ..............................
........................................................................

 iter      E             dE          RMSdq      gap      omega  full diag
   1    -84.5014719 -0.845015E+02  0.130E-01    2.43       0.0  T
   2    -84.5015777 -0.105810E-03  0.761E-02    2.36       1.0  T
   3    -84.5015446  0.330582E-04  0.445E-02    2.34       1.0  T
   4    -84.5015890 -0.443502E-04  0.144E-02    2.34       1.0  T
   5    -84.5015963 -0.730926E-05  0.333E-03    2.34       4.0  T
   6    -84.5015965 -0.247533E-06  0.131E-03    2.35      10.1  T
   7    -84.5015966 -0.250179E-07  0.652E-04    2.35      20.3  T
   8    -84.5015966 -0.257727E-08  0.246E-04    2.34      53.8  T
     SCC iter.                  ...        0 min,  0.077 sec
     gradient                   ...        0 min,  0.009 sec
 * total energy  :   -83.4003522 Eh     change       -0.7582205E-03 Eh
   gradient norm :     0.0451264 Eh/α   predicted    -0.2106007E-02 ( 177.76%)
   displ. norm   :     0.3544040 α      lambda       -0.3034449E-02
   maximum displ.:     0.1219585 α      in ANC's #22, #27, #2, ...

........................................................................
.............................. CYCLE   15 ..............................
........................................................................

 iter      E             dE          RMSdq      gap      omega  full diag
   1    -84.5039193 -0.845039E+02  0.949E-02    2.24       0.0  T
   2    -84.5040132 -0.938788E-04  0.572E-02    2.25       1.0  T
   3    -84.5040102  0.295179E-05  0.337E-02    2.25       1.0  T
   4    -84.5040188 -0.856421E-05  0.152E-02    2.25       1.0  T
   5    -84.5040285 -0.969874E-05  0.257E-03    2.25       5.2  T
   6    -84.5040286 -0.575129E-07  0.133E-03    2.25      10.0  T
   7    -84.5040286 -0.456448E-07  0.620E-04    2.25      21.4  T
   8    -84.5040286 -0.385324E-08  0.240E-04    2.25      55.2  T
     SCC iter.                  ...        0 min,  0.081 sec
     gradient                   ...        0 min,  0.008 sec
 * total energy  :   -83.4020828 Eh     change       -0.1730589E-02 Eh
   gradient norm :     0.0209143 Eh/α   predicted    -0.1707795E-02 (  -1.32%)
   displ. norm   :     0.4606342 α      lambda       -0.2709846E-02
   maximum displ.:     0.1826192 α      in ANC's #27, #2, #20, ...

........................................................................
.............................. CYCLE   16 ..............................
........................................................................

 iter      E             dE          RMSdq      gap      omega  full diag
   1    -84.5172237 -0.845172E+02  0.136E-01    2.15       0.0  T
   2    -84.5173069 -0.831812E-04  0.792E-02    2.17       1.0  T
   3    -84.5172625  0.443784E-04  0.478E-02    2.18       1.0  T
   4    -84.5173233 -0.608477E-04  0.141E-02    2.18       1.0  T
   5    -84.5173300 -0.665253E-05  0.356E-03    2.17       3.7  T
   6    -84.5173301 -0.977923E-07  0.136E-03    2.17       9.7  T
   7    -84.5173301 -0.211042E-07  0.683E-04    2.17      19.4  T
   8    -84.5173301 -0.507501E-08  0.233E-04    2.17      56.9  T
     SCC iter.                  ...        0 min,  0.084 sec
     gradient                   ...        0 min,  0.009 sec
 * total energy  :   -83.4025160 Eh     change       -0.4331359E-03 Eh
   gradient norm :     0.0365887 Eh/α   predicted    -0.1642416E-02 ( 279.19%)
   displ. norm   :     0.4223164 α      lambda       -0.3215623E-02
   maximum displ.:     0.1931246 α      in ANC's #22, #2, #10, ...

........................................................................
.............................. CYCLE   17 ..............................
........................................................................

 iter      E             dE          RMSdq      gap      omega  full diag
   1    -84.5111136 -0.845111E+02  0.145E-01    2.00       0.0  T
   2    -84.5111696 -0.560172E-04  0.885E-02    2.00       1.0  T
   3    -84.5110886  0.809817E-04  0.595E-02    2.00       1.0  T
   4    -84.5112079 -0.119240E-03  0.909E-03    2.00       1.5  T
   5    -84.5112103 -0.242843E-05  0.312E-03    2.00       4.2  T
   6    -84.5112103 -0.161660E-07  0.165E-03    2.00       8.0  T
   7    -84.5112104 -0.714535E-07  0.519E-04    2.00      25.5  T
   8    -84.5112104 -0.313638E-08  0.237E-04    2.00      55.9  T
     SCC iter.                  ...        0 min,  0.080 sec
     gradient                   ...        0 min,  0.010 sec
 * total energy  :   -83.4039985 Eh     change       -0.1482517E-02 Eh
   gradient norm :     0.0372755 Eh/α   predicted    -0.1894571E-02 (  27.79%)
   displ. norm   :     0.4076006 α      lambda       -0.3142353E-02
   maximum displ.:     0.1455371 α      in ANC's #11, #2, #18, ...

........................................................................
.............................. CYCLE   18 ..............................
........................................................................

 iter      E             dE          RMSdq      gap      omega  full diag
   1    -84.5023145 -0.845023E+02  0.151E-01    2.07       0.0  T
   2    -84.5024465 -0.132044E-03  0.885E-02    2.02       1.0  T
   3    -84.5024166  0.299142E-04  0.469E-02    2.01       1.0  T
   4    -84.5024552 -0.386265E-04  0.175E-02    2.00       1.0  T
   5    -84.5024675 -0.122809E-04  0.504E-03    2.01       2.6  T
   6    -84.5024680 -0.517573E-06  0.230E-03    2.01       5.8  T
   7    -84.5024681 -0.977934E-07  0.115E-03    2.01      11.5  T
   8    -84.5024681 -0.751015E-08  0.362E-04    2.01      36.6  T
   9    -84.5024681 -0.439016E-08  0.935E-05    2.01     141.7  T
     SCC iter.                  ...        0 min,  0.089 sec
     gradient                   ...        0 min,  0.009 sec
 * total energy  :   -83.4043761 Eh     change       -0.3775743E-03 Eh
   gradient norm :     0.0484680 Eh/α   predicted    -0.1832215E-02 ( 385.26%)
   displ. norm   :     0.2880209 α      lambda       -0.3190868E-02
   maximum displ.:     0.1003896 α      in ANC's #2, #27, #10, ...

........................................................................
.............................. CYCLE   19 ..............................
........................................................................

 iter      E             dE          RMSdq      gap      omega  full diag
   1    -84.5110013 -0.845110E+02  0.103E-01    2.01       0.0  T
   2    -84.5111028 -0.101495E-03  0.618E-02    2.01       1.0  T
   3    -84.5110998  0.302461E-05  0.336E-02    2.02       1.0  T
   4    -84.5111063 -0.644913E-05  0.162E-02    2.02       1.0  T
   5    -84.5111180 -0.117218E-04  0.324E-03    2.02       4.1  T
   6    -84.5111181 -0.130713E-06  0.147E-03    2.02       9.0  T
   7    -84.5111181 -0.286483E-07  0.694E-04    2.02      19.1  T
   8    -84.5111181 -0.967134E-09  0.222E-04    2.02      59.7  T
     SCC iter.                  ...        0 min,  0.079 sec
     gradient                   ...        0 min,  0.007 sec
 * total energy  :   -83.4057495 Eh     change       -0.1373429E-02 Eh
   gradient norm :     0.0298454 Eh/α   predicted    -0.1727786E-02 (  25.80%)
   displ. norm   :     0.4419562 α      lambda       -0.3408033E-02
   maximum displ.:     0.1266656 α      in ANC's #2, #7, #22, ...

........................................................................
.............................. CYCLE   20 ..............................
........................................................................

 iter      E             dE          RMSdq      gap      omega  full diag
   1    -84.5218281 -0.845218E+02  0.158E-01    1.84       0.0  T
   2    -84.5221190 -0.290880E-03  0.934E-02    1.89       1.0  T
   3    -84.5221122  0.679340E-05  0.528E-02    1.90       1.0  T
   4    -84.5221326 -0.204561E-04  0.260E-02    1.90       1.0  T
   5    -84.5221588 -0.262250E-04  0.498E-03    1.90       2.7  T
   6    -84.5221591 -0.252235E-06  0.229E-03    1.90       5.8  T
   7    -84.5221592 -0.679672E-07  0.110E-03    1.90      12.1  T
   8    -84.5221592 -0.725380E-08  0.414E-04    1.90      32.0  T
   9    -84.5221592 -0.576293E-08  0.128E-04    1.90     103.7  T
     SCC iter.                  ...        0 min,  0.089 sec
     gradient                   ...        0 min,  0.004 sec
 * total energy  :   -83.4048602 Eh     change        0.8893413E-03 Eh
   gradient norm :     0.0641058 Eh/α   predicted    -0.2036857E-02 (-329.03%)
   displ. norm   :     0.2551719 α      lambda       -0.4436412E-02
   maximum displ.:     0.1157876 α      in ANC's #11, #39, #2, ...
 * RMSD in coord.:     0.8613075 α      energy gain  -0.9960279E-01 Eh

generating ANC from exact Hessian ...
Using Lindh-Hessian (1995)
 Shifting diagonal of input Hessian by   1.010774424019406E-002
 Lowest  eigenvalues of input Hessian
    0.010000    0.010049    0.010098    0.000000    0.000000    0.000000
    0.000000    0.000000    0.000000    0.010122    0.010149    0.010199
    0.010211    0.010224    0.010296    0.010444    0.010546    0.010592
 Highest eigenvalues
    1.934545    2.018670    2.128155    2.183504    2.300365    2.335477
 

........................................................................
.............................. CYCLE   21 ..............................
........................................................................

 iter      E             dE          RMSdq      gap      omega  full diag
   1    -84.5102458 -0.845102E+02  0.121E-01    1.91       0.0  T
   2    -84.5103971 -0.151324E-03  0.705E-02    1.89       1.0  T
   3    -84.5103994 -0.221557E-05  0.378E-02    1.89       1.0  T
   4    -84.5104019 -0.254615E-05  0.174E-02    1.89       1.0  T
   5    -84.5104150 -0.131372E-04  0.400E-03    1.89       3.3  T
   6    -84.5104153 -0.237474E-06  0.184E-03    1.89       7.2  T
   7    -84.5104153 -0.522985E-07  0.841E-04    1.89      15.8  T
   8    -84.5104153 -0.189472E-08  0.294E-04    1.89      45.1  T
     SCC iter.                  ...        0 min,  0.084 sec
     gradient                   ...        0 min,  0.014 sec
 * total energy  :   -83.4072396 Eh     change       -0.2379417E-02 Eh
   gradient norm :     0.0230632 Eh/α   predicted     0.0000000E+00 (-100.00%)
   displ. norm   :     0.2280656 α      lambda       -0.1261999E-02
   maximum displ.:     0.0694783 α      in ANC's #12, #26, #35, ...

........................................................................
.............................. CYCLE   22 ..............................
........................................................................

 iter      E             dE          RMSdq      gap      omega  full diag
   1    -84.5140280 -0.845140E+02  0.110E-01    1.91       0.0  T
   2    -84.5140357 -0.764541E-05  0.658E-02    1.91       1.0  T
   3    -84.5140118  0.238963E-04  0.245E-02    1.92       1.0  T
   4    -84.5140391 -0.273353E-04  0.471E-03    1.92       2.8  T
   5    -84.5140398 -0.659409E-06  0.206E-03    1.92       6.4  T
   6    -84.5140398 -0.346704E-08  0.791E-04    1.92      16.7  T
   7    -84.5140398 -0.133350E-07  0.253E-04    1.92      52.3  T
     SCC iter.                  ...        0 min,  0.066 sec
     gradient                   ...        0 min,  0.004 sec
 * total energy  :   -83.4081872 Eh     change       -0.9476665E-03 Eh
   gradient norm :     0.0085819 Eh/α   predicted    -0.6639547E-03 ( -29.94%)
   displ. norm   :     0.4318673 α      lambda       -0.1434560E-02
   maximum displ.:     0.1674860 α      in ANC's #12, #20, #5, ...

........................................................................
.............................. CYCLE   23 ..............................
........................................................................

 iter      E             dE          RMSdq      gap      omega  full diag
   1    -84.5129427 -0.845129E+02  0.161E-01    1.94       0.0  T
   2    -84.5129708 -0.281186E-04  0.958E-02    1.97       1.0  T
   3    -84.5128850  0.857461E-04  0.483E-02    2.00       1.0  T
   4    -84.5129856 -0.100560E-03  0.807E-03    1.99       1.6  T
   5    -84.5129872 -0.158436E-05  0.334E-03    1.99       4.0  T
   6    -84.5129873 -0.733503E-07  0.165E-03    1.99       8.0  T
   7    -84.5129873 -0.318575E-07  0.659E-04    1.99      20.1  T
   8    -84.5129873 -0.658507E-08  0.178E-04    1.99      74.2  T
     SCC iter.                  ...        0 min,  0.080 sec
     gradient                   ...        0 min,  0.017 sec
 * total energy  :   -83.4088786 Eh     change       -0.6913564E-03 Eh
   gradient norm :     0.0268413 Eh/α   predicted    -0.8515195E-03 (  23.17%)
   displ. norm   :     0.4352231 α      lambda       -0.1769296E-02
   maximum displ.:     0.1882481 α      in ANC's #12, #20, #7, ...

........................................................................
.............................. CYCLE   24 ..............................
........................................................................

 iter      E             dE          RMSdq      gap      omega  full diag
   1    -84.5171499 -0.845171E+02  0.153E-01    1.99       0.0  T
   2    -84.5171874 -0.375183E-04  0.903E-02    2.03       1.0  T
   3    -84.5171394  0.479951E-04  0.369E-02    2.05       1.0  T
   4    -84.5171960 -0.565643E-04  0.978E-03    2.05       1.4  T
   5    -84.5171989 -0.289681E-05  0.339E-03    2.05       3.9  T
   6    -84.5171990 -0.860591E-07  0.176E-03    2.04       7.5  T
   7    -84.5171990 -0.355288E-07  0.732E-04    2.04      18.1  T
   8    -84.5171990 -0.561653E-08  0.192E-04    2.04      69.0  T
     SCC iter.                  ...        0 min,  0.074 sec
     gradient                   ...        0 min,  0.009 sec
 * total energy  :   -83.4095971 Eh     change       -0.7184862E-03 Eh
   gradient norm :     0.0193970 Eh/α   predicted    -0.1052217E-02 (  46.45%)
   displ. norm   :     0.3580060 α      lambda       -0.1098133E-02
   maximum displ.:     0.1606255 α      in ANC's #12, #1, #11, ...

........................................................................
.............................. CYCLE   25 ..............................
........................................................................

 iter      E             dE          RMSdq      gap      omega  full diag
   1    -84.5147297 -0.845147E+02  0.901E-02    2.03       0.0  T
   2    -84.5147387 -0.904565E-05  0.537E-02    2.04       1.0  T
   3    -84.5147208  0.179444E-04  0.214E-02    2.04       1.0  T
   4    -84.5147409 -0.201031E-04  0.535E-03    2.04       2.5  T
   5    -84.5147420 -0.112584E-05  0.164E-03    2.04       8.1  T
   6    -84.5147420 -0.714525E-08  0.939E-04    2.04      14.1  T
   7    -84.5147420 -0.132063E-07  0.283E-04    2.04      46.8  T
     SCC iter.                  ...        0 min,  0.060 sec
     gradient                   ...        0 min,  0.009 sec
 * total energy  :   -83.4104658 Eh     change       -0.8687589E-03 Eh
   gradient norm :     0.0115247 Eh/α   predicted    -0.6194431E-03 ( -28.70%)
   displ. norm   :     0.6052103 α      lambda       -0.1548444E-02
   maximum displ.:     0.2726554 α      in ANC's #12, #1, #15, ...

........................................................................
.............................. CYCLE   26 ..............................
........................................................................

 iter      E             dE          RMSdq      gap      omega  full diag
   1    -84.5116969 -0.845117E+02  0.110E-01    2.03       0.0  T
   2    -84.5117306 -0.336657E-04  0.661E-02    2.05       1.0  T
   3    -84.5117143  0.162344E-04  0.260E-02    2.06       1.0  T
   4    -84.5117322 -0.178881E-04  0.101E-02    2.05       1.3  T
   5    -84.5117366 -0.441374E-05  0.248E-03    2.05       5.3  T
   6    -84.5117367 -0.628870E-07  0.138E-03    2.05       9.6  T
   7    -84.5117367 -0.281532E-07  0.563E-04    2.05      23.5  T
   8    -84.5117367 -0.195998E-08  0.202E-04    2.05      65.5  T
     SCC iter.                  ...        0 min,  0.066 sec
     gradient                   ...        0 min,  0.009 sec
 * total energy  :   -83.4114804 Eh     change       -0.1014517E-02 Eh
   gradient norm :     0.0188274 Eh/α   predicted    -0.1057805E-02 (   4.27%)
   displ. norm   :     0.5530236 α      lambda       -0.1192554E-02
   maximum displ.:     0.2711949 α      in ANC's #12, #1, #15, ...

........................................................................
.............................. CYCLE   27 ..............................
........................................................................

 iter      E             dE          RMSdq      gap      omega  full diag
   1    -84.5101666 -0.845102E+02  0.101E-01    2.05       0.0  T
   2    -84.5101840 -0.174277E-04  0.603E-02    2.06       1.0  T
   3    -84.5101577  0.263266E-04  0.272E-02    2.07       1.0  T
   4    -84.5101877 -0.299805E-04  0.720E-03    2.07       1.8  T
   5    -84.5101898 -0.210086E-05  0.205E-03    2.07       6.4  T
   6    -84.5101898 -0.145958E-07  0.114E-03    2.07      11.6  T
   7    -84.5101898 -0.171509E-07  0.378E-04    2.07      35.1  T
   8    -84.5101898 -0.177697E-08  0.112E-04    2.07     118.1  T
     SCC iter.                  ...        0 min,  0.068 sec
     gradient                   ...        0 min,  0.009 sec
 * total energy  :   -83.4123324 Eh     change       -0.8520518E-03 Eh
   gradient norm :     0.0182701 Eh/α   predicted    -0.7786408E-03 (  -8.62%)
   displ. norm   :     0.6202594 α      lambda       -0.1552041E-02
   maximum displ.:     0.2752382 α      in ANC's #12, #1, #20, ...

........................................................................
.............................. CYCLE   28 ..............................
........................................................................

 iter      E             dE          RMSdq      gap      omega  full diag
   1    -84.5190208 -0.845190E+02  0.120E-01    2.08       0.0  T
   2    -84.5190486 -0.277724E-04  0.703E-02    2.11       1.0  T
   3    -84.5190474  0.120054E-05  0.157E-02    2.13       1.0  T
   4    -84.5190516 -0.417354E-05  0.726E-03    2.12       1.8  T
   5    -84.5190530 -0.141924E-05  0.302E-03    2.12       4.4  T
   6    -84.5190532 -0.219849E-06  0.137E-03    2.12       9.7  T
   7    -84.5190533 -0.334864E-07  0.603E-04    2.12      22.0  T
   8    -84.5190533 -0.293778E-08  0.202E-04    2.12      65.5  T
     SCC iter.                  ...        0 min,  0.066 sec
     gradient                   ...        0 min,  0.013 sec
 * total energy  :   -83.4125180 Eh     change       -0.1856119E-03 Eh
   gradient norm :     0.0320426 Eh/α   predicted    -0.1074574E-02 ( 478.94%)
   displ. norm   :     0.3961978 α      lambda       -0.1904941E-02
   maximum displ.:     0.1746817 α      in ANC's #12, #1, #20, ...

........................................................................
.............................. CYCLE   29 ..............................
........................................................................

 iter      E             dE          RMSdq      gap      omega  full diag
   1    -84.5124250 -0.845124E+02  0.107E-01    2.12       0.0  T
   2    -84.5124493 -0.242639E-04  0.629E-02    2.15       1.0  T
   3    -84.5124451  0.422868E-05  0.165E-02    2.16       1.0  T
   4    -84.5124502 -0.515140E-05  0.774E-03    2.15       1.7  T
   5    -84.5124528 -0.255145E-05  0.246E-03    2.15       5.4  T
   6    -84.5124528 -0.710266E-07  0.120E-03    2.15      11.0  T
   7    -84.5124529 -0.221623E-07  0.498E-04    2.15      26.6  T
   8    -84.5124529 -0.529093E-08  0.153E-04    2.15      86.8  T
     SCC iter.                  ...        0 min,  0.066 sec
     gradient                   ...        0 min,  0.008 sec
 * total energy  :   -83.4137082 Eh     change       -0.1190161E-02 Eh
   gradient norm :     0.0175060 Eh/α   predicted    -0.1101987E-02 (  -7.41%)
   displ. norm   :     0.4123550 α      lambda       -0.1110542E-02
   maximum displ.:     0.1941861 α      in ANC's #1, #15, #12, ...

........................................................................
.............................. CYCLE   30 ..............................
........................................................................

 iter      E             dE          RMSdq      gap      omega  full diag
   1    -84.5152647 -0.845153E+02  0.847E-02    2.20       0.0  T
   2    -84.5152811 -0.164159E-04  0.505E-02    2.21       1.0  T
   3    -84.5152580  0.230850E-04  0.246E-02    2.22       1.0  T
   4    -84.5152863 -0.283001E-04  0.660E-03    2.22       2.0  T
   5    -84.5152875 -0.114379E-05  0.257E-03    2.22       5.2  T
   6    -84.5152876 -0.900493E-07  0.128E-03    2.22      10.4  T
   7    -84.5152876 -0.209417E-07  0.528E-04    2.22      25.1  T
   8    -84.5152876 -0.360899E-08  0.211E-04    2.22      62.7  T
     SCC iter.                  ...        0 min,  0.069 sec
     gradient                   ...        0 min,  0.009 sec
 * total energy  :   -83.4141190 Eh     change       -0.4108132E-03 Eh
   gradient norm :     0.0225034 Eh/α   predicted    -0.6496909E-03 (  58.15%)
   displ. norm   :     0.4552062 α      lambda       -0.1092947E-02
   maximum displ.:     0.2086310 α      in ANC's #1, #12, #20, ...

........................................................................
.............................. CYCLE   31 ..............................
........................................................................

 iter      E             dE          RMSdq      gap      omega  full diag
   1    -84.5144033 -0.845144E+02  0.822E-02    2.21       0.0  T
   2    -84.5144346 -0.312813E-04  0.485E-02    2.25       1.0  T
   3    -84.5144350 -0.367881E-06  0.128E-02    2.26       1.0  T
   4    -84.5144358 -0.803340E-06  0.394E-03    2.26       3.4  T
   5    -84.5144364 -0.603536E-06  0.166E-03    2.26       8.0  T
   6    -84.5144364 -0.524460E-07  0.801E-04    2.25      16.5  T
   7    -84.5144364 -0.379153E-08  0.458E-04    2.25      28.9  T
     SCC iter.                  ...        0 min,  0.064 sec
     gradient                   ...        0 min,  0.004 sec
 * total energy  :   -83.4149134 Eh     change       -0.7943836E-03 Eh
   gradient norm :     0.0129339 Eh/α   predicted    -0.6597115E-03 ( -16.95%)
   displ. norm   :     0.5204302 α      lambda       -0.1007410E-02
   maximum displ.:     0.2661392 α      in ANC's #1, #20, #12, ...

........................................................................
.............................. CYCLE   32 ..............................
........................................................................

 iter      E             dE          RMSdq      gap      omega  full diag
   1    -84.5214613 -0.845215E+02  0.904E-02    2.29       0.0  T
   2    -84.5214864 -0.251150E-04  0.528E-02    2.33       1.0  T
   3    -84.5214705  0.159183E-04  0.226E-02    2.34       1.0  T
   4    -84.5214882 -0.176735E-04  0.766E-03    2.34       1.7  T
   5    -84.5214910 -0.277358E-05  0.210E-03    2.34       6.3  T
   6    -84.5214910 -0.498434E-07  0.115E-03    2.34      11.5  T
   7    -84.5214910 -0.245744E-07  0.419E-04    2.34      31.6  T
   8    -84.5214910 -0.244704E-08  0.174E-04    2.34      75.9  T
     SCC iter.                  ...        0 min,  0.078 sec
     gradient                   ...        0 min,  0.005 sec
 * total energy  :   -83.4155618 Eh     change       -0.6484117E-03 Eh
   gradient norm :     0.0135943 Eh/α   predicted    -0.6401354E-03 (  -1.28%)
   displ. norm   :     0.6812449 α      lambda       -0.1032617E-02
   maximum displ.:     0.3349203 α      in ANC's #1, #20, #12, ...

........................................................................
.............................. CYCLE   33 ..............................
........................................................................

 iter      E             dE          RMSdq      gap      omega  full diag
   1    -84.5146002 -0.845146E+02  0.117E-01    2.34       0.0  T
   2    -84.5146327 -0.324753E-04  0.695E-02    2.38       1.0  T
   3    -84.5146214  0.112123E-04  0.206E-02    2.39       1.0  T
   4    -84.5146329 -0.114344E-04  0.958E-03    2.39       1.4  T
   5    -84.5146375 -0.463203E-05  0.274E-03    2.39       4.8  T
   6    -84.5146375 -0.186864E-07  0.157E-03    2.39       8.5  T
   7    -84.5146376 -0.503143E-07  0.504E-04    2.39      26.3  T
   8    -84.5146376 -0.541377E-08  0.180E-04    2.39      73.6  T
     SCC iter.                  ...        0 min,  0.078 sec
     gradient                   ...        0 min,  0.006 sec
 * total energy  :   -83.4162562 Eh     change       -0.6944433E-03 Eh
   gradient norm :     0.0200509 Eh/α   predicted    -0.7559277E-03 (   8.85%)
   displ. norm   :     0.4990617 α      lambda       -0.9186636E-03
   maximum displ.:     0.2579219 α      in ANC's #1, #20, #7, ...

........................................................................
.............................. CYCLE   34 ..............................
........................................................................

 iter      E             dE          RMSdq      gap      omega  full diag
   1    -84.5180166 -0.845180E+02  0.824E-02    2.42       0.0  T
   2    -84.5180276 -0.110646E-04  0.485E-02    2.44       1.0  T
   3    -84.5180012  0.263968E-04  0.255E-02    2.44       1.0  T
   4    -84.5180325 -0.312291E-04  0.440E-03    2.45       3.0  T
   5    -84.5180330 -0.481494E-06  0.175E-03    2.45       7.6  T
   6    -84.5180330 -0.258457E-07  0.960E-04    2.45      13.8  T
   7    -84.5180330 -0.162743E-07  0.379E-04    2.45      34.9  T
     SCC iter.                  ...        0 min,  0.067 sec
     gradient                   ...        0 min,  0.004 sec
 * total energy  :   -83.4168757 Eh     change       -0.6194830E-03 Eh
   gradient norm :     0.0173986 Eh/α   predicted    -0.5737357E-03 (  -7.38%)
   displ. norm   :     0.5699645 α      lambda       -0.1399160E-02
   maximum displ.:     0.2771578 α      in ANC's #1, #20, #5, ...

........................................................................
.............................. CYCLE   35 ..............................
........................................................................

 iter      E             dE          RMSdq      gap      omega  full diag
   1    -84.5156537 -0.845157E+02  0.111E-01    2.47       0.0  T
   2    -84.5156705 -0.167776E-04  0.660E-02    2.50       1.0  T
   3    -84.5156491  0.213956E-04  0.243E-02    2.50       1.0  T
   4    -84.5156748 -0.256883E-04  0.621E-03    2.50       2.1  T
   5    -84.5156759 -0.111496E-05  0.247E-03    2.50       5.4  T
   6    -84.5156759 -0.453482E-07  0.135E-03    2.50       9.8  T
   7    -84.5156760 -0.260487E-07  0.514E-04    2.50      25.8  T
   8    -84.5156760 -0.212864E-08  0.152E-04    2.50      87.4  T
     SCC iter.                  ...        0 min,  0.067 sec
     gradient                   ...        0 min,  0.006 sec
 * total energy  :   -83.4173559 Eh     change       -0.4802093E-03 Eh
   gradient norm :     0.0252733 Eh/α   predicted    -0.9268483E-03 (  93.01%)
   displ. norm   :     0.4201424 α      lambda       -0.1112681E-02
   maximum displ.:     0.2021475 α      in ANC's #1, #20, #12, ...

........................................................................
.............................. CYCLE   36 ..............................
........................................................................

 iter      E             dE          RMSdq      gap      omega  full diag
   1    -84.5149313 -0.845149E+02  0.880E-02    2.52       0.0  T
   2    -84.5149378 -0.655593E-05  0.523E-02    2.51       1.0  T
   3    -84.5149373  0.561783E-06  0.815E-03    2.51       1.6  T
   4    -84.5149395 -0.220094E-05  0.401E-03    2.51       3.3  T
   5    -84.5149399 -0.408823E-06  0.219E-03    2.51       6.0  T
   6    -84.5149399 -0.653109E-07  0.988E-04    2.51      13.4  T
   7    -84.5149399 -0.112680E-07  0.261E-04    2.51      50.8  T
     SCC iter.                  ...        0 min,  0.058 sec
     gradient                   ...        0 min,  0.011 sec
 * total energy  :   -83.4179688 Eh     change       -0.6128510E-03 Eh
   gradient norm :     0.0181457 Eh/α   predicted    -0.6545479E-03 (   6.80%)
   displ. norm   :     0.3996098 α      lambda       -0.9182903E-03
   maximum displ.:     0.1564491 α      in ANC's #1, #7, #5, ...

........................................................................
.............................. CYCLE   37 ..............................
........................................................................

 iter      E             dE          RMSdq      gap      omega  full diag
   1    -84.5230595 -0.845231E+02  0.952E-02    2.53       0.0  T
   2    -84.5230652 -0.567463E-05  0.560E-02    2.52       1.0  T
   3    -84.5230664 -0.115825E-05  0.537E-03    2.53       2.5  T
   4    -84.5230667 -0.312864E-06  0.292E-03    2.53       4.5  T
   5    -84.5230669 -0.201439E-06  0.144E-03    2.53       9.2  T
   6    -84.5230669 -0.352656E-07  0.773E-04    2.53      17.1  T
   7    -84.5230669 -0.813289E-08  0.337E-04    2.53      39.4  T
     SCC iter.                  ...        0 min,  0.062 sec
     gradient                   ...        0 min,  0.006 sec
 * total energy  :   -83.4182522 Eh     change       -0.2834162E-03 Eh
   gradient norm :     0.0189233 Eh/α   predicted    -0.5324658E-03 (  87.87%)
   displ. norm   :     0.5000272 α      lambda       -0.9199114E-03
   maximum displ.:     0.2210310 α      in ANC's #1, #12, #20, ...

........................................................................
.............................. CYCLE   38 ..............................
........................................................................

 iter      E             dE          RMSdq      gap      omega  full diag
   1    -84.5146341 -0.845146E+02  0.805E-02    2.51       0.0  T
   2    -84.5146458 -0.117140E-04  0.473E-02    2.52       1.0  T
   3    -84.5146460 -0.104133E-06  0.824E-03    2.52       1.6  T
   4    -84.5146468 -0.806928E-06  0.302E-03    2.52       4.4  T
   5    -84.5146470 -0.228399E-06  0.149E-03    2.52       8.9  T
   6    -84.5146470 -0.124595E-07  0.713E-04    2.52      18.6  T
   7    -84.5146470 -0.115126E-07  0.290E-04    2.52      45.7  T
     SCC iter.                  ...        0 min,  0.068 sec
     gradient                   ...        0 min,  0.007 sec
 * total energy  :   -83.4186167 Eh     change       -0.3644716E-03 Eh
   gradient norm :     0.0176577 Eh/α   predicted    -0.5749594E-03 (  57.75%)
   displ. norm   :     0.3684883 α      lambda       -0.1553216E-02
   maximum displ.:     0.2044651 α      in ANC's #5, #14, #19, ...

........................................................................
.............................. CYCLE   39 ..............................
........................................................................

 iter      E             dE          RMSdq      gap      omega  full diag
   1    -84.5304408 -0.845304E+02  0.114E-01    2.56       0.0  T
   2    -84.5304995 -0.586772E-04  0.667E-02    2.52       1.0  T
   3    -84.5305000 -0.435093E-06  0.186E-02    2.52       1.0  T
   4    -84.5305025 -0.255397E-05  0.606E-03    2.51       2.2  T
   5    -84.5305040 -0.146596E-05  0.265E-03    2.51       5.0  T
   6    -84.5305041 -0.119384E-06  0.126E-03    2.52      10.5  T
   7    -84.5305041 -0.191554E-07  0.584E-04    2.52      22.7  T
   8    -84.5305041 -0.350396E-08  0.264E-04    2.52      50.1  T
     SCC iter.                  ...        0 min,  0.068 sec
     gradient                   ...        0 min,  0.008 sec
 * total energy  :   -83.4179976 Eh     change        0.6191121E-03 Eh
   gradient norm :     0.0389206 Eh/α   predicted    -0.8820604E-03 (-242.47%)
   displ. norm   :     0.2369253 α      lambda       -0.2753226E-02
   maximum displ.:     0.1231992 α      in ANC's #26, #7, #1, ...

........................................................................
.............................. CYCLE   40 ..............................
........................................................................

 iter      E             dE          RMSdq      gap      omega  full diag
   1    -84.5191648 -0.845192E+02  0.125E-01    2.41       0.0  T
   2    -84.5192726 -0.107753E-03  0.784E-02    2.46       1.0  T
   3    -84.5192627  0.986942E-05  0.301E-02    2.47       1.0  T
   4    -84.5192726 -0.984953E-05  0.150E-02    2.47       1.0  T
   5    -84.5192829 -0.102888E-04  0.369E-03    2.47       3.6  T
   6    -84.5192831 -0.289549E-06  0.186E-03    2.47       7.1  T
   7    -84.5192832 -0.462696E-07  0.851E-04    2.47      15.6  T
   8    -84.5192832 -0.248740E-08  0.357E-04    2.47      37.1  T
     SCC iter.                  ...        0 min,  0.068 sec
     gradient                   ...        0 min,  0.008 sec
 * total energy  :   -83.4188390 Eh     change       -0.8414689E-03 Eh
   gradient norm :     0.0305554 Eh/α   predicted    -0.1453888E-02 (  72.78%)
   displ. norm   :     0.3187640 α      lambda       -0.3013084E-02
   maximum displ.:     0.1430032 α      in ANC's #25, #21, #18, ...

........................................................................
.............................. CYCLE   41 ..............................
........................................................................

 iter      E             dE          RMSdq      gap      omega  full diag
   1    -84.5181236 -0.845181E+02  0.158E-01    2.62       0.0  T
   2    -84.5185024 -0.378798E-03  0.915E-02    2.52       1.0  T
   3    -84.5185064 -0.401496E-05  0.463E-02    2.51       1.0  T
   4    -84.5184981  0.834926E-05  0.234E-02    2.51       1.0  T
   5    -84.5185225 -0.244231E-04  0.550E-03    2.51       2.4  T
   6    -84.5185233 -0.834168E-06  0.236E-03    2.51       5.6  T
   7    -84.5185234 -0.737067E-07  0.116E-03    2.51      11.4  T
   8    -84.5185234 -0.877850E-08  0.455E-04    2.51      29.1  T
   9    -84.5185234 -0.343643E-08  0.136E-04    2.51      97.2  T
     SCC iter.                  ...        0 min,  0.078 sec
     gradient                   ...        0 min,  0.010 sec
 * total energy  :   -83.4170309 Eh     change        0.1808114E-02 Eh
   gradient norm :     0.0592459 Eh/α   predicted    -0.1659626E-02 (-191.79%)
   displ. norm   :     0.2132080 α      lambda       -0.4889278E-02
   maximum displ.:     0.0884287 α      in ANC's #25, #5, #21, ...

........................................................................
.............................. CYCLE   42 ..............................
........................................................................

 iter      E             dE          RMSdq      gap      omega  full diag
   1    -84.5229974 -0.845230E+02  0.115E-01    2.42       0.0  T
   2    -84.5232032 -0.205753E-03  0.652E-02    2.49       1.0  T
   3    -84.5232065 -0.329761E-05  0.334E-02    2.50       1.0  T
   4    -84.5232014  0.508168E-05  0.161E-02    2.50       1.0  T
   5    -84.5232133 -0.118790E-04  0.394E-03    2.50       3.4  T
   6    -84.5232137 -0.403700E-06  0.169E-03    2.50       7.9  T
   7    -84.5232137 -0.429738E-07  0.785E-04    2.50      16.9  T
   8    -84.5232137 -0.430066E-08  0.300E-04    2.50      44.2  T
     SCC iter.                  ...        0 min,  0.068 sec
     gradient                   ...        0 min,  0.003 sec
 * total energy  :   -83.4195827 Eh     change       -0.2551844E-02 Eh
   gradient norm :     0.0091985 Eh/α   predicted    -0.2555767E-02 (   0.15%)
   displ. norm   :     0.5396730 α      lambda       -0.6851737E-03
   maximum displ.:     0.2327424 α      in ANC's #5, #1, #7, ...
 * RMSD in coord.:     1.0409627 α      energy gain  -0.1472260E-01 Eh

generating ANC from exact Hessian ...
Using Lindh-Hessian (1995)
 Shifting diagonal of input Hessian by   1.004433089831434E-002
 Lowest  eigenvalues of input Hessian
    0.010000    0.000000    0.010027    0.000000    0.000000    0.000000
    0.000000    0.000000    0.010091    0.010102    0.010145    0.010200
    0.010226    0.010262    0.010409    0.010483    0.010581    0.010643
 Highest eigenvalues
    1.944620    2.015206    2.111289    2.164760    2.321811    2.340007
 

........................................................................
.............................. CYCLE   43 ..............................
........................................................................

 iter      E             dE          RMSdq      gap      omega  full diag
   1    -84.5174222 -0.845174E+02  0.106E-01    2.49       0.0  T
   2    -84.5174285 -0.636320E-05  0.628E-02    2.48       1.0  T
   3    -84.5174290 -0.439921E-06  0.635E-03    2.48       2.1  T
   4    -84.5174298 -0.859593E-06  0.318E-03    2.48       4.2  T
   5    -84.5174301 -0.296048E-06  0.132E-03    2.48      10.1  T
   6    -84.5174302 -0.185675E-07  0.664E-04    2.48      19.9  T
   7    -84.5174302 -0.296352E-08  0.296E-04    2.48      44.8  T
     SCC iter.                  ...        0 min,  0.060 sec
     gradient                   ...        0 min,  0.005 sec
 * total energy  :   -83.4199267 Eh     change       -0.3439890E-03 Eh
   gradient norm :     0.0171301 Eh/α   predicted     0.0000000E+00 (-100.00%)
   displ. norm   :     0.1607763 α      lambda       -0.6233426E-03
   maximum displ.:     0.0885388 α      in ANC's #21, #5, #3, ...

........................................................................
.............................. CYCLE   44 ..............................
........................................................................

 iter      E             dE          RMSdq      gap      omega  full diag
   1    -84.5228427 -0.845228E+02  0.559E-02    2.48       0.0  T
   2    -84.5228455 -0.285874E-05  0.346E-02    2.48       1.0  T
   3    -84.5228362  0.933065E-05  0.145E-02    2.48       1.0  T
   4    -84.5228474 -0.111954E-04  0.276E-03    2.48       4.8  T
   5    -84.5228475 -0.158390E-06  0.133E-03    2.48       9.9  T
   6    -84.5228476 -0.185670E-07  0.556E-04    2.48      23.8  T
   7    -84.5228476 -0.594603E-08  0.181E-04    2.48      73.3  T
     SCC iter.                  ...        0 min,  0.060 sec
     gradient                   ...        0 min,  0.008 sec
 * total energy  :   -83.4203676 Eh     change       -0.4408481E-03 Eh
   gradient norm :     0.0087516 Eh/α   predicted    -0.3197309E-03 ( -27.47%)
   displ. norm   :     0.3216692 α      lambda       -0.7124289E-03
   maximum displ.:     0.1292755 α      in ANC's #7, #15, #21, ...

........................................................................
.............................. CYCLE   45 ..............................
........................................................................

 iter      E             dE          RMSdq      gap      omega  full diag
   1    -84.5284837 -0.845285E+02  0.680E-02    2.48       0.0  T
   2    -84.5284869 -0.315552E-05  0.411E-02    2.48       1.0  T
   3    -84.5284829  0.401592E-05  0.108E-02    2.48       1.2  T
   4    -84.5284881 -0.525770E-05  0.312E-03    2.48       4.2  T
   5    -84.5284884 -0.225597E-06  0.146E-03    2.48       9.1  T
   6    -84.5284884 -0.322553E-07  0.595E-04    2.48      22.3  T
   7    -84.5284884 -0.462794E-08  0.246E-04    2.48      53.9  T
     SCC iter.                  ...        0 min,  0.057 sec
     gradient                   ...        0 min,  0.009 sec
 * total energy  :   -83.4208312 Eh     change       -0.4636198E-03 Eh
   gradient norm :     0.0075144 Eh/α   predicted    -0.3931706E-03 ( -15.20%)
   displ. norm   :     0.4759926 α      lambda       -0.7697057E-03
   maximum displ.:     0.2500478 α      in ANC's #21, #7, #6, ...

........................................................................
.............................. CYCLE   46 ..............................
........................................................................

 iter      E             dE          RMSdq      gap      omega  full diag
   1    -84.5277967 -0.845278E+02  0.103E-01    2.47       0.0  T
   2    -84.5278055 -0.877019E-05  0.629E-02    2.46       1.0  T
   3    -84.5277731  0.323851E-04  0.278E-02    2.46       1.0  T
   4    -84.5278116 -0.384782E-04  0.472E-03    2.45       2.8  T
   5    -84.5278119 -0.323549E-06  0.244E-03    2.45       5.4  T
   6    -84.5278120 -0.100800E-06  0.103E-03    2.45      12.9  T
   7    -84.5278120 -0.135080E-07  0.330E-04    2.45      40.1  T
   8    -84.5278120 -0.159055E-08  0.107E-04    2.45     124.1  T
     SCC iter.                  ...        0 min,  0.068 sec
     gradient                   ...        0 min,  0.008 sec
 * total energy  :   -83.4213088 Eh     change       -0.4775961E-03 Eh
   gradient norm :     0.0186592 Eh/α   predicted    -0.4720481E-03 (  -1.16%)
   displ. norm   :     0.4397143 α      lambda       -0.9195931E-03
   maximum displ.:     0.2373800 α      in ANC's #7, #6, #9, ...

........................................................................
.............................. CYCLE   47 ..............................
........................................................................

 iter      E             dE          RMSdq      gap      omega  full diag
   1    -84.5286966 -0.845287E+02  0.615E-02    2.44       0.0  T
   2    -84.5287035 -0.684186E-05  0.359E-02    2.42       1.0  T
   3    -84.5286902  0.132777E-04  0.193E-02    2.41       1.0  T
   4    -84.5287063 -0.160559E-04  0.346E-03    2.41       3.8  T
   5    -84.5287065 -0.241276E-06  0.148E-03    2.41       8.9  T
   6    -84.5287065 -0.410557E-07  0.761E-04    2.41      17.4  T
   7    -84.5287065 -0.820127E-08  0.293E-04    2.41      45.1  T
     SCC iter.                  ...        0 min,  0.053 sec
     gradient                   ...        0 min,  0.009 sec
 * total energy  :   -83.4220225 Eh     change       -0.7137094E-03 Eh
   gradient norm :     0.0097786 Eh/α   predicted    -0.5486967E-03 ( -23.12%)
   displ. norm   :     0.7176496 α      lambda       -0.1201915E-02
   maximum displ.:     0.3534627 α      in ANC's #7, #6, #12, ...

........................................................................
.............................. CYCLE   48 ..............................
........................................................................

 iter      E             dE          RMSdq      gap      omega  full diag
   1    -84.5193661 -0.845194E+02  0.116E-01    2.39       0.0  T
   2    -84.5193830 -0.168540E-04  0.694E-02    2.36       1.0  T
   3    -84.5193256  0.573668E-04  0.380E-02    2.36       1.0  T
   4    -84.5193944 -0.687984E-04  0.581E-03    2.35       2.3  T
   5    -84.5193948 -0.430504E-06  0.289E-03    2.36       4.6  T
   6    -84.5193949 -0.103906E-06  0.155E-03    2.36       8.6  T
   7    -84.5193950 -0.420335E-07  0.475E-04    2.36      27.9  T
   8    -84.5193950 -0.328767E-08  0.169E-04    2.36      78.6  T
     SCC iter.                  ...        0 min,  0.066 sec
     gradient                   ...        0 min,  0.011 sec
 * total energy  :   -83.4220645 Eh     change       -0.4195239E-04 Eh
   gradient norm :     0.0371420 Eh/α   predicted    -0.9104614E-03 (2070.23%)
   displ. norm   :     0.3216351 α      lambda       -0.2555859E-02
   maximum displ.:     0.1906080 α      in ANC's #7, #6, #21, ...

........................................................................
.............................. CYCLE   49 ..............................
........................................................................

 iter      E             dE          RMSdq      gap      omega  full diag
   1    -84.5241400 -0.845241E+02  0.715E-02    2.36       0.0  T
   2    -84.5241502 -0.101707E-04  0.423E-02    2.35       1.0  T
   3    -84.5241481  0.211006E-05  0.120E-02    2.35       1.1  T
   4    -84.5241525 -0.440531E-05  0.572E-03    2.34       2.3  T
   5    -84.5241534 -0.882213E-06  0.191E-03    2.34       6.9  T
   6    -84.5241534 -0.507287E-07  0.105E-03    2.34      12.6  T
   7    -84.5241534 -0.151156E-07  0.386E-04    2.34      34.3  T
   8    -84.5241534 -0.240985E-08  0.914E-05    2.34     145.0  T
     SCC iter.                  ...        0 min,  0.068 sec
     gradient                   ...        0 min,  0.005 sec
 * total energy  :   -83.4234422 Eh     change       -0.1377784E-02 Eh
   gradient norm :     0.0121097 Eh/α   predicted    -0.1410135E-02 (   2.35%)
   displ. norm   :     0.6385002 α      lambda       -0.1145508E-02
   maximum displ.:     0.3736414 α      in ANC's #7, #6, #3, ...

........................................................................
.............................. CYCLE   50 ..............................
........................................................................

 iter      E             dE          RMSdq      gap      omega  full diag
   1    -84.5252567 -0.845253E+02  0.773E-02    2.34       0.0  T
   2    -84.5252660 -0.926180E-05  0.456E-02    2.32       1.0  T
   3    -84.5252471  0.189105E-04  0.219E-02    2.31       1.0  T
   4    -84.5252690 -0.219441E-04  0.421E-03    2.31       3.1  T
   5    -84.5252695 -0.519205E-06  0.158E-03    2.31       8.4  T
   6    -84.5252696 -0.399142E-07  0.895E-04    2.31      14.8  T
   7    -84.5252696 -0.118079E-07  0.296E-04    2.31      44.8  T
     SCC iter.                  ...        0 min,  0.065 sec
     gradient                   ...        0 min,  0.010 sec
 * total energy  :   -83.4244411 Eh     change       -0.9988326E-03 Eh
   gradient norm :     0.0123372 Eh/α   predicted    -0.8062621E-03 ( -19.28%)
   displ. norm   :     0.6843652 α      lambda       -0.1592795E-02
   maximum displ.:     0.3753156 α      in ANC's #7, #10, #6, ...

........................................................................
.............................. CYCLE   51 ..............................
........................................................................

 iter      E             dE          RMSdq      gap      omega  full diag
   1    -84.5329893 -0.845330E+02  0.104E-01    2.34       0.0  T
   2    -84.5330089 -0.196254E-04  0.627E-02    2.31       1.0  T
   3    -84.5329977  0.112631E-04  0.204E-02    2.31       1.0  T
   4    -84.5330141 -0.164383E-04  0.782E-03    2.30       1.7  T
   5    -84.5330160 -0.194337E-05  0.346E-03    2.30       3.8  T
   6    -84.5330161 -0.298712E-07  0.183E-03    2.30       7.3  T
   7    -84.5330162 -0.877188E-07  0.455E-04    2.30      29.1  T
   8    -84.5330162 -0.494011E-08  0.171E-04    2.30      77.4  T
     SCC iter.                  ...        0 min,  0.067 sec
     gradient                   ...        0 min,  0.009 sec
 * total energy  :   -83.4250420 Eh     change       -0.6009572E-03 Eh
   gradient norm :     0.0258473 Eh/α   predicted    -0.1169395E-02 (  94.59%)
   displ. norm   :     0.3274384 α      lambda       -0.1234390E-02
   maximum displ.:     0.1401545 α      in ANC's #21, #7, #6, ...

........................................................................
.............................. CYCLE   52 ..............................
........................................................................

 iter      E             dE          RMSdq      gap      omega  full diag
   1    -84.5245166 -0.845245E+02  0.857E-02    2.30       0.0  T
   2    -84.5245391 -0.224930E-04  0.499E-02    2.29       1.0  T
   3    -84.5245316  0.751500E-05  0.195E-02    2.28       1.0  T
   4    -84.5245434 -0.118090E-04  0.782E-03    2.28       1.7  T
   5    -84.5245447 -0.138300E-05  0.260E-03    2.28       5.1  T
   6    -84.5245450 -0.217106E-06  0.118E-03    2.28      11.3  T
   7    -84.5245450 -0.133841E-07  0.475E-04    2.28      27.9  T
   8    -84.5245450 -0.297480E-08  0.107E-04    2.28     123.4  T
     SCC iter.                  ...        0 min,  0.067 sec
     gradient                   ...        0 min,  0.006 sec
 * total energy  :   -83.4250078 Eh     change        0.3422251E-04 Eh
   gradient norm :     0.0222828 Eh/α   predicted    -0.6833728E-03 (*******%)
   displ. norm   :     0.4801866 α      lambda       -0.2304393E-02
   maximum displ.:     0.2821182 α      in ANC's #7, #21, #5, ...

........................................................................
.............................. CYCLE   53 ..............................
........................................................................

 iter      E             dE          RMSdq      gap      omega  full diag
   1    -84.5337017 -0.845337E+02  0.809E-02    2.29       0.0  T
   2    -84.5337221 -0.204468E-04  0.476E-02    2.31       1.0  T
   3    -84.5336966  0.254640E-04  0.293E-02    2.30       1.0  T
   4    -84.5337306 -0.340068E-04  0.671E-03    2.31       2.0  T
   5    -84.5337313 -0.618373E-06  0.243E-03    2.31       5.5  T
   6    -84.5337314 -0.178895E-06  0.109E-03    2.31      12.1  T
   7    -84.5337315 -0.249982E-07  0.507E-04    2.31      26.1  T
   8    -84.5337315 -0.207929E-08  0.142E-04    2.31      93.1  T
     SCC iter.                  ...        0 min,  0.064 sec
     gradient                   ...        0 min,  0.012 sec
 * total energy  :   -83.4256661 Eh     change       -0.6582870E-03 Eh
   gradient norm :     0.0213565 Eh/α   predicted    -0.1417867E-02 ( 115.39%)
   displ. norm   :     0.3580766 α      lambda       -0.1363486E-02
   maximum displ.:     0.2098806 α      in ANC's #10, #12, #3, ...

........................................................................
.............................. CYCLE   54 ..............................
........................................................................

 iter      E             dE          RMSdq      gap      omega  full diag
   1    -84.5315840 -0.845316E+02  0.800E-02    2.31       0.0  T
   2    -84.5315914 -0.740604E-05  0.486E-02    2.31       1.0  T
   3    -84.5315945 -0.304409E-05  0.750E-03    2.31       1.8  T
   4    -84.5315950 -0.555805E-06  0.492E-03    2.31       2.7  T
   5    -84.5315956 -0.510462E-06  0.210E-03    2.31       6.3  T
   6    -84.5315956 -0.609788E-07  0.797E-04    2.31      16.6  T
   7    -84.5315956 -0.701056E-08  0.254E-04    2.31      52.1  T
     SCC iter.                  ...        0 min,  0.066 sec
     gradient                   ...        0 min,  0.009 sec
 * total energy  :   -83.4262349 Eh     change       -0.5687617E-03 Eh
   gradient norm :     0.0241428 Eh/α   predicted    -0.7691554E-03 (  35.23%)
   displ. norm   :     0.2393508 α      lambda       -0.8031391E-03
   maximum displ.:     0.1114709 α      in ANC's #3, #2, #9, ...

........................................................................
.............................. CYCLE   55 ..............................
........................................................................

 iter      E             dE          RMSdq      gap      omega  full diag
   1    -84.5316445 -0.845316E+02  0.449E-02    2.30       0.0  T
   2    -84.5316489 -0.444850E-05  0.261E-02    2.30       1.0  T
   3    -84.5316463  0.264945E-05  0.993E-03    2.30       1.3  T
   4    -84.5316498 -0.354809E-05  0.341E-03    2.30       3.9  T
   5    -84.5316501 -0.319884E-06  0.120E-03    2.30      11.0  T
   6    -84.5316501 -0.185007E-07  0.592E-04    2.30      22.4  T
   7    -84.5316501 -0.482828E-08  0.296E-04    2.30      44.7  T
     SCC iter.                  ...        0 min,  0.053 sec
     gradient                   ...        0 min,  0.014 sec
 * total energy  :   -83.4264820 Eh     change       -0.2471819E-03 Eh
   gradient norm :     0.0219299 Eh/α   predicted    -0.4245785E-03 (  71.77%)
   displ. norm   :     0.3030807 α      lambda       -0.1078920E-02
   maximum displ.:     0.1371587 α      in ANC's #2, #3, #5, ...

........................................................................
.............................. CYCLE   56 ..............................
........................................................................

 iter      E             dE          RMSdq      gap      omega  full diag
   1    -84.5278717 -0.845279E+02  0.575E-02    2.30       0.0  T
   2    -84.5278763 -0.454804E-05  0.348E-02    2.30       1.0  T
   3    -84.5278699  0.631760E-05  0.121E-02    2.30       1.1  T
   4    -84.5278781 -0.813621E-05  0.295E-03    2.30       4.5  T
   5    -84.5278783 -0.191770E-06  0.157E-03    2.30       8.4  T
   6    -84.5278783 -0.490238E-07  0.766E-04    2.30      17.3  T
   7    -84.5278783 -0.113842E-07  0.259E-04    2.30      51.1  T
     SCC iter.                  ...        0 min,  0.062 sec
     gradient                   ...        0 min,  0.007 sec
 * total energy  :   -83.4272158 Eh     change       -0.7337350E-03 Eh
   gradient norm :     0.0105973 Eh/α   predicted    -0.5890160E-03 ( -19.72%)
   displ. norm   :     0.5346099 α      lambda       -0.9558007E-03
   maximum displ.:     0.2380582 α      in ANC's #3, #2, #6, ...

........................................................................
.............................. CYCLE   57 ..............................
........................................................................

 iter      E             dE          RMSdq      gap      omega  full diag
   1    -84.5263043 -0.845263E+02  0.744E-02    2.29       0.0  T
   2    -84.5263119 -0.760222E-05  0.450E-02    2.29       1.0  T
   3    -84.5262994  0.124705E-04  0.167E-02    2.29       1.0  T
   4    -84.5263153 -0.158829E-04  0.379E-03    2.29       3.5  T
   5    -84.5263156 -0.332316E-06  0.211E-03    2.29       6.3  T
   6    -84.5263157 -0.614372E-07  0.104E-03    2.29      12.8  T
   7    -84.5263157 -0.238447E-07  0.281E-04    2.29      47.1  T
   8    -84.5263157 -0.820052E-09  0.127E-04    2.29     104.4  T
     SCC iter.                  ...        0 min,  0.074 sec
     gradient                   ...        0 min,  0.009 sec
 * total energy  :   -83.4276303 Eh     change       -0.4145670E-03 Eh
   gradient norm :     0.0275522 Eh/α   predicted    -0.6144896E-03 (  48.22%)
   displ. norm   :     0.4120833 α      lambda       -0.1145171E-02
   maximum displ.:     0.2031179 α      in ANC's #3, #2, #10, ...

........................................................................
.............................. CYCLE   58 ..............................
........................................................................

 iter      E             dE          RMSdq      gap      omega  full diag
   1    -84.5284066 -0.845284E+02  0.582E-02    2.30       0.0  T
   2    -84.5284122 -0.560246E-05  0.355E-02    2.31       1.0  T
   3    -84.5284056  0.654733E-05  0.142E-02    2.31       1.0  T
   4    -84.5284157 -0.100861E-04  0.422E-03    2.31       3.1  T
   5    -84.5284159 -0.204619E-06  0.247E-03    2.31       5.4  T
   6    -84.5284160 -0.432922E-07  0.104E-03    2.31      12.7  T
   7    -84.5284160 -0.337273E-07  0.257E-04    2.31      51.6  T
   8    -84.5284160 -0.751342E-09  0.124E-04    2.31     106.8  T
     SCC iter.                  ...        0 min,  0.069 sec
     gradient                   ...        0 min,  0.009 sec
 * total energy  :   -83.4282503 Eh     change       -0.6199203E-03 Eh
   gradient norm :     0.0210250 Eh/α   predicted    -0.6698195E-03 (   8.05%)
   displ. norm   :     0.3851425 α      lambda       -0.1376893E-02
   maximum displ.:     0.1959447 α      in ANC's #3, #2, #4, ...

........................................................................
.............................. CYCLE   59 ..............................
........................................................................

 iter      E             dE          RMSdq      gap      omega  full diag
   1    -84.5364874 -0.845365E+02  0.664E-02    2.30       0.0  T
   2    -84.5364915 -0.412466E-05  0.392E-02    2.30       1.0  T
   3    -84.5364923 -0.741807E-06  0.518E-03    2.31       2.6  T
   4    -84.5364927 -0.400384E-06  0.275E-03    2.30       4.8  T
   5    -84.5364928 -0.121825E-06  0.131E-03    2.31      10.1  T
   6    -84.5364928 -0.299690E-07  0.625E-04    2.30      21.2  T
   7    -84.5364928 -0.235258E-08  0.296E-04    2.31      44.7  T
     SCC iter.                  ...        0 min,  0.050 sec
     gradient                   ...        0 min,  0.018 sec
 * total energy  :   -83.4285426 Eh     change       -0.2922872E-03 Eh
   gradient norm :     0.0251706 Eh/α   predicted    -0.7905688E-03 ( 170.48%)
   displ. norm   :     0.4476803 α      lambda       -0.1359873E-02
   maximum displ.:     0.2079719 α      in ANC's #3, #2, #5, ...

........................................................................
.............................. CYCLE   60 ..............................
........................................................................

 iter      E             dE          RMSdq      gap      omega  full diag
   1    -84.5302890 -0.845303E+02  0.768E-02    2.29       0.0  T
   2    -84.5302963 -0.730228E-05  0.463E-02    2.29       1.0  T
   3    -84.5302910  0.534139E-05  0.118E-02    2.29       1.1  T
   4    -84.5302987 -0.771372E-05  0.383E-03    2.29       3.5  T
   5    -84.5302991 -0.370594E-06  0.185E-03    2.29       7.2  T
   6    -84.5302991 -0.444887E-07  0.104E-03    2.29      12.7  T
   7    -84.5302991 -0.264639E-07  0.400E-04    2.29      33.1  T
   8    -84.5302991 -0.140332E-08  0.101E-04    2.29     130.6  T
     SCC iter.                  ...        0 min,  0.063 sec
     gradient                   ...        0 min,  0.017 sec
 * total energy  :   -83.4293528 Eh     change       -0.8102096E-03 Eh
   gradient norm :     0.0121831 Eh/α   predicted    -0.8162080E-03 (   0.74%)
   displ. norm   :     0.4883605 α      lambda       -0.7191959E-03
   maximum displ.:     0.2636577 α      in ANC's #3, #2, #6, ...

........................................................................
.............................. CYCLE   61 ..............................
........................................................................

 iter      E             dE          RMSdq      gap      omega  full diag
   1    -84.5303835 -0.845304E+02  0.562E-02    2.29       0.0  T
   2    -84.5303881 -0.453691E-05  0.340E-02    2.29       1.0  T
   3    -84.5303771  0.109415E-04  0.157E-02    2.29       1.0  T
   4    -84.5303904 -0.132833E-04  0.314E-03    2.29       4.2  T
   5    -84.5303907 -0.257664E-06  0.156E-03    2.29       8.5  T
   6    -84.5303907 -0.263320E-07  0.820E-04    2.29      16.2  T
   7    -84.5303907 -0.128317E-07  0.171E-04    2.29      77.4  T
     SCC iter.                  ...        0 min,  0.059 sec
     gradient                   ...        0 min,  0.008 sec
 * total energy  :   -83.4297947 Eh     change       -0.4419412E-03 Eh
   gradient norm :     0.0156247 Eh/α   predicted    -0.4453614E-03 (   0.77%)
   displ. norm   :     0.3715071 α      lambda       -0.5287258E-03
   maximum displ.:     0.2098752 α      in ANC's #3, #6, #4, ...

........................................................................
.............................. CYCLE   62 ..............................
........................................................................

 iter      E             dE          RMSdq      gap      omega  full diag
   1    -84.5332236 -0.845332E+02  0.456E-02    2.30       0.0  T
   2    -84.5332256 -0.196853E-05  0.271E-02    2.29       1.0  T
   3    -84.5332243  0.126126E-05  0.617E-03    2.29       2.1  T
   4    -84.5332260 -0.173044E-05  0.233E-03    2.29       5.7  T
   5    -84.5332262 -0.155266E-06  0.103E-03    2.29      12.8  T
   6    -84.5332262 -0.131117E-07  0.490E-04    2.29      27.1  T
   7    -84.5332262 -0.495193E-08  0.209E-04    2.29      63.3  T
     SCC iter.                  ...        0 min,  0.059 sec
     gradient                   ...        0 min,  0.004 sec
 * total energy  :   -83.4301796 Eh     change       -0.3849178E-03 Eh
   gradient norm :     0.0081342 Eh/α   predicted    -0.3008531E-03 ( -21.84%)
   displ. norm   :     0.3570619 α      lambda       -0.4262606E-03
   maximum displ.:     0.1840659 α      in ANC's #3, #4, #6, ...

........................................................................
.............................. CYCLE   63 ..............................
........................................................................

 iter      E             dE          RMSdq      gap      omega  full diag
   1    -84.5349958 -0.845350E+02  0.577E-02    2.30       0.0  T
   2    -84.5349990 -0.320057E-05  0.350E-02    2.31       1.0  T
   3    -84.5349939  0.510318E-05  0.115E-02    2.31       1.2  T
   4    -84.5350001 -0.615885E-05  0.288E-03    2.31       4.6  T
   5    -84.5350003 -0.237530E-06  0.126E-03    2.31      10.5  T
   6    -84.5350003 -0.102940E-07  0.652E-04    2.31      20.3  T
   7    -84.5350003 -0.894593E-08  0.174E-04    2.31      76.0  T
     SCC iter.                  ...        0 min,  0.052 sec
     gradient                   ...        0 min,  0.013 sec
 * total energy  :   -83.4304575 Eh     change       -0.2778726E-03 Eh
   gradient norm :     0.0087589 Eh/α   predicted    -0.2403057E-03 ( -13.52%)
   displ. norm   :     0.2890726 α      lambda       -0.4059826E-03
   maximum displ.:     0.1132449 α      in ANC's #9, #11, #15, ...

........................................................................
.............................. CYCLE   64 ..............................
........................................................................

 iter      E             dE          RMSdq      gap      omega  full diag
   1    -84.5370900 -0.845371E+02  0.545E-02    2.33       0.0  T
   2    -84.5370957 -0.571841E-05  0.320E-02    2.35       1.0  T
   3    -84.5370934  0.233021E-05  0.107E-02    2.35       1.2  T
   4    -84.5370969 -0.352682E-05  0.313E-03    2.35       4.2  T
   5    -84.5370971 -0.190247E-06  0.138E-03    2.35       9.6  T
   6    -84.5370972 -0.402856E-07  0.716E-04    2.35      18.5  T
   7    -84.5370972 -0.111846E-07  0.302E-04    2.35      43.9  T
     SCC iter.                  ...        0 min,  0.062 sec
     gradient                   ...        0 min,  0.004 sec
 * total energy  :   -83.4306418 Eh     change       -0.1843288E-03 Eh
   gradient norm :     0.0128031 Eh/α   predicted    -0.2199555E-03 (  19.33%)
   displ. norm   :     0.2907317 α      lambda       -0.3238443E-03
   maximum displ.:     0.1283575 α      in ANC's #9, #4, #3, ...

........................................................................
.............................. CYCLE   65 ..............................
........................................................................

 iter      E             dE          RMSdq      gap      omega  full diag
   1    -84.5312942 -0.845313E+02  0.493E-02    2.34       0.0  T
   2    -84.5312970 -0.278412E-05  0.295E-02    2.35       1.0  T
   3    -84.5312956  0.134771E-05  0.700E-03    2.36       1.9  T
   4    -84.5312974 -0.178536E-05  0.260E-03    2.36       5.1  T
   5    -84.5312976 -0.241955E-06  0.110E-03    2.36      12.1  T
   6    -84.5312976 -0.714522E-08  0.636E-04    2.36      20.8  T
   7    -84.5312976 -0.995711E-08  0.148E-04    2.36      89.5  T
     SCC iter.                  ...        0 min,  0.068 sec
     gradient                   ...        0 min,  0.010 sec
 * total energy  :   -83.4308355 Eh     change       -0.1937137E-03 Eh
   gradient norm :     0.0108891 Eh/α   predicted    -0.1756131E-03 (  -9.34%)
   displ. norm   :     0.2396333 α      lambda       -0.3702504E-03
   maximum displ.:     0.1310689 α      in ANC's #11, #9, #2, ...

........................................................................
.............................. CYCLE   66 ..............................
........................................................................

 iter      E             dE          RMSdq      gap      omega  full diag
   1    -84.5327520 -0.845328E+02  0.458E-02    2.36       0.0  T
   2    -84.5327579 -0.592120E-05  0.260E-02    2.37       1.0  T
   3    -84.5327574  0.497745E-06  0.728E-03    2.38       1.8  T
   4    -84.5327581 -0.661516E-06  0.315E-03    2.38       4.2  T
   5    -84.5327585 -0.399798E-06  0.104E-03    2.38      12.7  T
   6    -84.5327585 -0.139091E-07  0.581E-04    2.38      22.8  T
   7    -84.5327585 -0.548589E-08  0.215E-04    2.38      61.6  T
     SCC iter.                  ...        0 min,  0.062 sec
     gradient                   ...        0 min,  0.008 sec
 * total energy  :   -83.4310348 Eh     change       -0.1992325E-03 Eh
   gradient norm :     0.0105345 Eh/α   predicted    -0.1957587E-03 (  -1.74%)
   displ. norm   :     0.3655665 α      lambda       -0.4185621E-03
   maximum displ.:     0.2225920 α      in ANC's #11, #9, #4, ...
 * RMSD in coord.:     0.8809336 α      energy gain  -0.1145202E-01 Eh

generating ANC from exact Hessian ...
Using Lindh-Hessian (1995)
 Shifting diagonal of input Hessian by   1.019824512203937E-002
 Lowest  eigenvalues of input Hessian
    0.010000    0.010054    0.000000    0.000000    0.000000    0.000000
    0.000000    0.000000    0.010263    0.010357    0.010391    0.010493
    0.010523    0.010760    0.010914    0.010948    0.011105    0.011257
 Highest eigenvalues
    1.953532    2.012053    2.113393    2.168819    2.319805    2.342400
 

........................................................................
.............................. CYCLE   67 ..............................
........................................................................

 iter      E             dE          RMSdq      gap      omega  full diag
   1    -84.5279416 -0.845279E+02  0.707E-02    2.38       0.0  T
   2    -84.5279558 -0.142345E-04  0.407E-02    2.41       1.0  T
   3    -84.5279550  0.771657E-06  0.108E-02    2.41       1.2  T
   4    -84.5279562 -0.116380E-05  0.438E-03    2.41       3.0  T
   5    -84.5279570 -0.822472E-06  0.158E-03    2.41       8.4  T
   6    -84.5279571 -0.358789E-07  0.831E-04    2.41      15.9  T
   7    -84.5279571 -0.913437E-08  0.307E-04    2.41      43.1  T
     SCC iter.                  ...        0 min,  0.052 sec
     gradient                   ...        0 min,  0.011 sec
 * total energy  :   -83.4312974 Eh     change       -0.2626107E-03 Eh
   gradient norm :     0.0098141 Eh/α   predicted     0.0000000E+00 (-100.00%)
   displ. norm   :     0.1018958 α      lambda       -0.3006150E-03
   maximum displ.:     0.0414200 α      in ANC's #22, #31, #7, ...

........................................................................
.............................. CYCLE   68 ..............................
........................................................................

 iter      E             dE          RMSdq      gap      omega  full diag
   1    -84.5325659 -0.845326E+02  0.293E-02    2.42       0.0  T
   2    -84.5325669 -0.102770E-05  0.177E-02    2.41       1.0  T
   3    -84.5325656  0.134295E-05  0.616E-03    2.42       2.2  T
   4    -84.5325672 -0.158769E-05  0.187E-03    2.41       7.1  T
   5    -84.5325673 -0.132317E-06  0.661E-04    2.41      20.0  T
   6    -84.5325673 -0.101674E-08  0.296E-04    2.41      44.7  T
     SCC iter.                  ...        0 min,  0.034 sec
     gradient                   ...        0 min,  0.020 sec
 * total energy  :   -83.4315109 Eh     change       -0.2135478E-03 Eh
   gradient norm :     0.0034755 Eh/α   predicted    -0.1518902E-03 ( -28.87%)
   displ. norm   :     0.1775011 α      lambda       -0.2281136E-03
   maximum displ.:     0.0774647 α      in ANC's #7, #22, #9, ...

........................................................................
.............................. CYCLE   69 ..............................
........................................................................

 iter      E             dE          RMSdq      gap      omega  full diag
   1    -84.5359872 -0.845360E+02  0.425E-02    2.42       0.0  T
   2    -84.5359885 -0.125992E-05  0.256E-02    2.41       1.0  T
   3    -84.5359884  0.122529E-06  0.394E-03    2.41       3.4  T
   4    -84.5359889 -0.507196E-06  0.167E-03    2.41       8.0  T
   5    -84.5359889 -0.507112E-07  0.900E-04    2.41      14.7  T
   6    -84.5359889 -0.103471E-07  0.386E-04    2.41      34.3  T
     SCC iter.                  ...        0 min,  0.049 sec
     gradient                   ...        0 min,  0.007 sec
 * total energy  :   -83.4316749 Eh     change       -0.1639375E-03 Eh
   gradient norm :     0.0044262 Eh/α   predicted    -0.1176668E-03 ( -28.22%)
   displ. norm   :     0.2709239 α      lambda       -0.2213894E-03
   maximum displ.:     0.1166331 α      in ANC's #7, #9, #19, ...

........................................................................
.............................. CYCLE   70 ..............................
........................................................................

 iter      E             dE          RMSdq      gap      omega  full diag
   1    -84.5364604 -0.845365E+02  0.546E-02    2.41       0.0  T
   2    -84.5364623 -0.185004E-05  0.329E-02    2.41       1.0  T
   3    -84.5364608  0.152179E-05  0.686E-03    2.41       1.9  T
   4    -84.5364628 -0.205786E-05  0.240E-03    2.41       5.5  T
   5    -84.5364630 -0.159054E-06  0.108E-03    2.41      12.3  T
   6    -84.5364630 -0.999160E-08  0.495E-04    2.41      26.7  T
   7    -84.5364630 -0.415776E-08  0.175E-04    2.41      75.7  T
     SCC iter.                  ...        0 min,  0.052 sec
     gradient                   ...        0 min,  0.009 sec
 * total energy  :   -83.4318409 Eh     change       -0.1660384E-03 Eh
   gradient norm :     0.0089814 Eh/α   predicted    -0.1188204E-03 ( -28.44%)
   displ. norm   :     0.3628149 α      lambda       -0.2789454E-03
   maximum displ.:     0.1745384 α      in ANC's #9, #7, #19, ...

........................................................................
.............................. CYCLE   71 ..............................
........................................................................

 iter      E             dE          RMSdq      gap      omega  full diag
   1    -84.5347065 -0.845347E+02  0.655E-02    2.41       0.0  T
   2    -84.5347086 -0.208634E-05  0.393E-02    2.41       1.0  T
   3    -84.5347057  0.288997E-05  0.857E-03    2.41       1.5  T
   4    -84.5347093 -0.357239E-05  0.254E-03    2.41       5.2  T
   5    -84.5347094 -0.178637E-06  0.120E-03    2.41      11.1  T
   6    -84.5347094 -0.590568E-08  0.527E-04    2.41      25.1  T
   7    -84.5347095 -0.744564E-08  0.152E-04    2.41      87.2  T
     SCC iter.                  ...        0 min,  0.054 sec
     gradient                   ...        0 min,  0.004 sec
 * total energy  :   -83.4320417 Eh     change       -0.2008285E-03 Eh
   gradient norm :     0.0114192 Eh/α   predicted    -0.1578467E-03 ( -21.40%)
   displ. norm   :     0.4322369 α      lambda       -0.3829187E-03
   maximum displ.:     0.1970098 α      in ANC's #9, #7, #19, ...

........................................................................
.............................. CYCLE   72 ..............................
........................................................................

 iter      E             dE          RMSdq      gap      omega  full diag
   1    -84.5319076 -0.845319E+02  0.646E-02    2.42       0.0  T
   2    -84.5319117 -0.411657E-05  0.383E-02    2.41       1.0  T
   3    -84.5319047  0.704550E-05  0.128E-02    2.42       1.0  T
   4    -84.5319130 -0.828304E-05  0.333E-03    2.41       4.0  T
   5    -84.5319133 -0.373990E-06  0.142E-03    2.41       9.3  T
   6    -84.5319134 -0.132437E-07  0.748E-04    2.41      17.7  T
   7    -84.5319134 -0.128846E-07  0.278E-04    2.41      47.6  T
     SCC iter.                  ...        0 min,  0.052 sec
     gradient                   ...        0 min,  0.005 sec
 * total energy  :   -83.4323066 Eh     change       -0.2648787E-03 Eh
   gradient norm :     0.0079612 Eh/α   predicted    -0.2272320E-03 ( -14.21%)
   displ. norm   :     0.4545252 α      lambda       -0.4183339E-03
   maximum displ.:     0.2182383 α      in ANC's #9, #7, #1, ...

........................................................................
.............................. CYCLE   73 ..............................
........................................................................

 iter      E             dE          RMSdq      gap      omega  full diag
   1    -84.5298302 -0.845298E+02  0.676E-02    2.41       0.0  T
   2    -84.5298325 -0.234446E-05  0.406E-02    2.41       1.0  T
   3    -84.5298322  0.356484E-06  0.606E-03    2.41       2.2  T
   4    -84.5298334 -0.127251E-05  0.247E-03    2.41       5.4  T
   5    -84.5298335 -0.734433E-07  0.139E-03    2.41       9.6  T
   6    -84.5298335 -0.285963E-07  0.544E-04    2.41      24.4  T
   7    -84.5298336 -0.793156E-08  0.188E-04    2.41      70.5  T
     SCC iter.                  ...        0 min,  0.054 sec
     gradient                   ...        0 min,  0.005 sec
 * total energy  :   -83.4325981 Eh     change       -0.2915194E-03 Eh
   gradient norm :     0.0100780 Eh/α   predicted    -0.2523802E-03 ( -13.43%)
   displ. norm   :     0.4256677 α      lambda       -0.4840781E-03
   maximum displ.:     0.2191285 α      in ANC's #7, #1, #3, ...

........................................................................
.............................. CYCLE   74 ..............................
........................................................................

 iter      E             dE          RMSdq      gap      omega  full diag
   1    -84.5330914 -0.845331E+02  0.563E-02    2.41       0.0  T
   2    -84.5330954 -0.396259E-05  0.332E-02    2.41       1.0  T
   3    -84.5330906  0.480277E-05  0.117E-02    2.42       1.1  T
   4    -84.5330963 -0.576026E-05  0.334E-03    2.41       4.0  T
   5    -84.5330967 -0.394154E-06  0.134E-03    2.41       9.9  T
   6    -84.5330967 -0.150673E-07  0.663E-04    2.41      20.0  T
   7    -84.5330967 -0.768060E-08  0.251E-04    2.41      52.7  T
     SCC iter.                  ...        0 min,  0.059 sec
     gradient                   ...        0 min,  0.008 sec
 * total energy  :   -83.4328485 Eh     change       -0.2503611E-03 Eh
   gradient norm :     0.0096274 Eh/α   predicted    -0.2859070E-03 (  14.20%)
   displ. norm   :     0.5917732 α      lambda       -0.4839958E-03
   maximum displ.:     0.2972066 α      in ANC's #7, #9, #1, ...

........................................................................
.............................. CYCLE   75 ..............................
........................................................................

 iter      E             dE          RMSdq      gap      omega  full diag
   1    -84.5245720 -0.845246E+02  0.943E-02    2.42       0.0  T
   2    -84.5245799 -0.790445E-05  0.562E-02    2.42       1.0  T
   3    -84.5245771  0.286978E-05  0.121E-02    2.42       1.1  T
   4    -84.5245825 -0.548980E-05  0.509E-03    2.42       2.6  T
   5    -84.5245831 -0.559461E-06  0.232E-03    2.42       5.7  T
   6    -84.5245832 -0.667519E-07  0.107E-03    2.42      12.3  T
   7    -84.5245832 -0.120165E-07  0.447E-04    2.42      29.6  T
   8    -84.5245832 -0.482257E-08  0.954E-05    2.42     138.9  T
     SCC iter.                  ...        0 min,  0.057 sec
     gradient                   ...        0 min,  0.012 sec
 * total energy  :   -83.4325440 Eh     change        0.3044745E-03 Eh
   gradient norm :     0.0306962 Eh/α   predicted    -0.3267449E-03 (-207.31%)
   displ. norm   :     0.1298394 α      lambda       -0.1451623E-02
   maximum displ.:     0.0721538 α      in ANC's #22, #18, #17, ...

........................................................................
.............................. CYCLE   76 ..............................
........................................................................

 iter      E             dE          RMSdq      gap      omega  full diag
   1    -84.5300439 -0.845300E+02  0.516E-02    2.42       0.0  T
   2    -84.5300514 -0.753766E-05  0.300E-02    2.41       1.0  T
   3    -84.5300519 -0.466978E-06  0.817E-03    2.41       1.6  T
   4    -84.5300532 -0.130022E-05  0.440E-03    2.41       3.0  T
   5    -84.5300537 -0.468637E-06  0.182E-03    2.41       7.3  T
   6    -84.5300537 -0.621904E-07  0.964E-04    2.41      13.7  T
   7    -84.5300538 -0.816391E-08  0.389E-04    2.41      34.1  T
     SCC iter.                  ...        0 min,  0.052 sec
     gradient                   ...        0 min,  0.010 sec
 * total energy  :   -83.4330849 Eh     change       -0.5408434E-03 Eh
   gradient norm :     0.0166114 Eh/α   predicted    -0.7380520E-03 (  36.46%)
   displ. norm   :     0.1527286 α      lambda       -0.6149450E-03
   maximum displ.:     0.0908460 α      in ANC's #14, #9, #18, ...

........................................................................
.............................. CYCLE   77 ..............................
........................................................................

 iter      E             dE          RMSdq      gap      omega  full diag
   1    -84.5371076 -0.845371E+02  0.535E-02    2.42       0.0  T
   2    -84.5371122 -0.463940E-05  0.321E-02    2.42       1.0  T
   3    -84.5371124 -0.161887E-06  0.634E-03    2.42       2.1  T
   4    -84.5371133 -0.893313E-06  0.291E-03    2.42       4.6  T
   5    -84.5371135 -0.212882E-06  0.142E-03    2.42       9.3  T
   6    -84.5371136 -0.414647E-07  0.648E-04    2.42      20.5  T
   7    -84.5371136 -0.482395E-08  0.332E-04    2.42      39.8  T
     SCC iter.                  ...        0 min,  0.055 sec
     gradient                   ...        0 min,  0.008 sec
 * total energy  :   -83.4330736 Eh     change        0.1128729E-04 Eh
   gradient norm :     0.0164681 Eh/α   predicted    -0.3146464E-03 (*******%)
   displ. norm   :     0.2659766 α      lambda       -0.4551776E-03
   maximum displ.:     0.1395688 α      in ANC's #7, #1, #3, ...

........................................................................
.............................. CYCLE   78 ..............................
........................................................................

 iter      E             dE          RMSdq      gap      omega  full diag
   1    -84.5333387 -0.845333E+02  0.463E-02    2.42       0.0  T
   2    -84.5333400 -0.128447E-05  0.279E-02    2.41       1.0  T
   3    -84.5333360  0.402531E-05  0.951E-03    2.42       1.4  T
   4    -84.5333407 -0.475427E-05  0.182E-03    2.41       7.3  T
   5    -84.5333408 -0.479614E-07  0.989E-04    2.41      13.4  T
   6    -84.5333408 -0.199949E-07  0.413E-04    2.41      32.0  T
     SCC iter.                  ...        0 min,  0.048 sec
     gradient                   ...        0 min,  0.003 sec
 * total energy  :   -83.4333850 Eh     change       -0.3113809E-03 Eh
   gradient norm :     0.0056080 Eh/α   predicted    -0.2436939E-03 ( -21.74%)
   displ. norm   :     0.4332309 α      lambda       -0.2897772E-03
   maximum displ.:     0.2242260 α      in ANC's #7, #3, #1, ...

........................................................................
.............................. CYCLE   79 ..............................
........................................................................

 iter      E             dE          RMSdq      gap      omega  full diag
   1    -84.5303860 -0.845304E+02  0.606E-02    2.42       0.0  T
   2    -84.5303885 -0.247884E-05  0.364E-02    2.41       1.0  T
   3    -84.5303854  0.307032E-05  0.907E-03    2.41       1.5  T
   4    -84.5303895 -0.408406E-05  0.262E-03    2.41       5.0  T
   5    -84.5303896 -0.969304E-07  0.139E-03    2.41       9.5  T
   6    -84.5303896 -0.409541E-07  0.599E-04    2.41      22.1  T
   7    -84.5303896 -0.542872E-08  0.230E-04    2.41      57.5  T
     SCC iter.                  ...        0 min,  0.062 sec
     gradient                   ...        0 min,  0.007 sec
 * total energy  :   -83.4335194 Eh     change       -0.1344378E-03 Eh
   gradient norm :     0.0123886 Eh/α   predicted    -0.1720864E-03 (  28.00%)
   displ. norm   :     0.3370212 α      lambda       -0.2366092E-03
   maximum displ.:     0.1832256 α      in ANC's #7, #3, #1, ...

........................................................................
.............................. CYCLE   80 ..............................
........................................................................

 iter      E             dE          RMSdq      gap      omega  full diag
   1    -84.5291971 -0.845292E+02  0.415E-02    2.42       0.0  T
   2    -84.5291988 -0.170714E-05  0.247E-02    2.41       1.0  T
   3    -84.5291932  0.556414E-05  0.114E-02    2.41       1.2  T
   4    -84.5291997 -0.644636E-05  0.198E-03    2.41       6.7  T
   5    -84.5291998 -0.122779E-06  0.821E-04    2.41      16.1  T
   6    -84.5291998 -0.639008E-08  0.459E-04    2.41      28.9  T
     SCC iter.                  ...        0 min,  0.051 sec
     gradient                   ...        0 min,  0.008 sec
 * total energy  :   -83.4336902 Eh     change       -0.1707914E-03 Eh
   gradient norm :     0.0094925 Eh/α   predicted    -0.1317440E-03 ( -22.86%)
   displ. norm   :     0.3922596 α      lambda       -0.5100442E-03
   maximum displ.:     0.1889127 α      in ANC's #3, #7, #1, ...

........................................................................
.............................. CYCLE   81 ..............................
........................................................................

 iter      E             dE          RMSdq      gap      omega  full diag
   1    -84.5409479 -0.845409E+02  0.508E-02    2.41       0.0  T
   2    -84.5409569 -0.899630E-05  0.297E-02    2.40       1.0  T
   3    -84.5409541  0.273630E-05  0.123E-02    2.40       1.1  T
   4    -84.5409575 -0.342607E-05  0.485E-03    2.40       2.7  T
   5    -84.5409586 -0.100598E-05  0.143E-03    2.40       9.2  T
   6    -84.5409586 -0.127539E-07  0.770E-04    2.40      17.2  T
   7    -84.5409586 -0.979817E-08  0.267E-04    2.40      49.5  T
     SCC iter.                  ...        0 min,  0.053 sec
     gradient                   ...        0 min,  0.004 sec
 * total energy  :   -83.4338375 Eh     change       -0.1473365E-03 Eh
   gradient norm :     0.0133137 Eh/α   predicted    -0.2942646E-03 (  99.72%)
   displ. norm   :     0.5093187 α      lambda       -0.4177743E-03
   maximum displ.:     0.2496960 α      in ANC's #7, #3, #1, ...

........................................................................
.............................. CYCLE   82 ..............................
........................................................................

 iter      E             dE          RMSdq      gap      omega  full diag
   1    -84.5337782 -0.845338E+02  0.689E-02    2.41       0.0  T
   2    -84.5337863 -0.814410E-05  0.409E-02    2.40       1.0  T
   3    -84.5337819  0.443813E-05  0.128E-02    2.40       1.0  T
   4    -84.5337873 -0.539706E-05  0.477E-03    2.40       2.8  T
   5    -84.5337882 -0.947156E-06  0.168E-03    2.40       7.9  T
   6    -84.5337883 -0.159091E-07  0.828E-04    2.40      16.0  T
   7    -84.5337883 -0.980494E-08  0.281E-04    2.40      47.1  T
     SCC iter.                  ...        0 min,  0.051 sec
     gradient                   ...        0 min,  0.006 sec
 * total energy  :   -83.4341157 Eh     change       -0.2781935E-03 Eh
   gradient norm :     0.0064910 Eh/α   predicted    -0.2630795E-03 (  -5.43%)
   displ. norm   :     0.5586860 α      lambda       -0.2230390E-03
   maximum displ.:     0.2749395 α      in ANC's #7, #3, #1, ...

........................................................................
.............................. CYCLE   83 ..............................
........................................................................

 iter      E             dE          RMSdq      gap      omega  full diag
   1    -84.5290124 -0.845290E+02  0.649E-02    2.41       0.0  T
   2    -84.5290154 -0.298647E-05  0.388E-02    2.40       1.0  T
   3    -84.5290067  0.872167E-05  0.142E-02    2.40       1.0  T
   4    -84.5290169 -0.102437E-04  0.281E-03    2.40       4.7  T
   5    -84.5290171 -0.177181E-06  0.139E-03    2.40       9.5  T
   6    -84.5290171 -0.220656E-07  0.680E-04    2.40      19.5  T
   7    -84.5290171 -0.767177E-08  0.254E-04    2.40      52.1  T
     SCC iter.                  ...        0 min,  0.114 sec
     gradient                   ...        0 min,  0.005 sec
 * total energy  :   -83.4342267 Eh     change       -0.1110005E-03 Eh
   gradient norm :     0.0102037 Eh/α   predicted    -0.1463345E-03 (  31.83%)
   displ. norm   :     0.2387507 α      lambda       -0.1873590E-03
   maximum displ.:     0.1312815 α      in ANC's #3, #1, #7, ...

........................................................................
.............................. CYCLE   84 ..............................
........................................................................

 iter      E             dE          RMSdq      gap      omega  full diag
   1    -84.5319494 -0.845319E+02  0.228E-02    2.40       0.0  T
   2    -84.5319500 -0.551881E-06  0.135E-02    2.40       1.0  T
   3    -84.5319495  0.462583E-06  0.375E-03    2.41       3.5  T
   4    -84.5319500 -0.544277E-06  0.130E-03    2.40      10.2  T
   5    -84.5319501 -0.674121E-07  0.440E-04    2.40      30.1  T
   6    -84.5319501 -0.198422E-08  0.192E-04    2.40      68.9  T
     SCC iter.                  ...        0 min,  0.068 sec
     gradient                   ...        0 min,  0.010 sec
 * total energy  :   -83.4343742 Eh     change       -0.1475226E-03 Eh
   gradient norm :     0.0055396 Eh/α   predicted    -0.9902151E-04 ( -32.88%)
   displ. norm   :     0.4758422 α      lambda       -0.2549333E-03
   maximum displ.:     0.2694809 α      in ANC's #3, #1, #7, ...

........................................................................
.............................. CYCLE   85 ..............................
........................................................................

 iter      E             dE          RMSdq      gap      omega  full diag
   1    -84.5371017 -0.845371E+02  0.441E-02    2.41       0.0  T
   2    -84.5371037 -0.197498E-05  0.262E-02    2.41       1.0  T
   3    -84.5371018  0.186501E-05  0.749E-03    2.41       1.8  T
   4    -84.5371040 -0.225118E-05  0.233E-03    2.41       5.7  T
   5    -84.5371042 -0.201038E-06  0.897E-04    2.41      14.8  T
   6    -84.5371043 -0.705654E-08  0.418E-04    2.41      31.7  T
     SCC iter.                  ...        0 min,  0.056 sec
     gradient                   ...        0 min,  0.009 sec
 * total energy  :   -83.4345484 Eh     change       -0.1741800E-03 Eh
   gradient norm :     0.0036498 Eh/α   predicted    -0.1563329E-03 ( -10.25%)
   displ. norm   :     0.6525197 α      lambda       -0.2045257E-03
   maximum displ.:     0.3540591 α      in ANC's #3, #1, #7, ...

........................................................................
.............................. CYCLE   86 ..............................
........................................................................

 iter      E             dE          RMSdq      gap      omega  full diag
   1    -84.5351385 -0.845351E+02  0.667E-02    2.42       0.0  T
   2    -84.5351442 -0.570703E-05  0.396E-02    2.41       1.0  T
   3    -84.5351386  0.556016E-05  0.128E-02    2.41       1.0  T
   4    -84.5351449 -0.627773E-05  0.422E-03    2.41       3.1  T
   5    -84.5351457 -0.786801E-06  0.128E-03    2.41      10.3  T
   6    -84.5351457 -0.922128E-08  0.616E-04    2.41      21.5  T
   7    -84.5351457 -0.522292E-08  0.243E-04    2.41      54.5  T
     SCC iter.                  ...        0 min,  0.062 sec
     gradient                   ...        0 min,  0.008 sec
 * total energy  :   -83.4346965 Eh     change       -0.1480377E-03 Eh
   gradient norm :     0.0047047 Eh/α   predicted    -0.1458069E-03 (  -1.51%)
   displ. norm   :     0.4494771 α      lambda       -0.1607667E-03
   maximum displ.:     0.2585729 α      in ANC's #3, #1, #5, ...

........................................................................
.............................. CYCLE   87 ..............................
........................................................................

 iter      E             dE          RMSdq      gap      omega  full diag
   1    -84.5367687 -0.845368E+02  0.449E-02    2.42       0.0  T
   2    -84.5367701 -0.135393E-05  0.267E-02    2.41       1.0  T
   3    -84.5367689  0.112177E-05  0.592E-03    2.41       2.2  T
   4    -84.5367704 -0.145176E-05  0.192E-03    2.41       6.9  T
   5    -84.5367705 -0.107823E-06  0.853E-04    2.41      15.5  T
   6    -84.5367705 -0.104431E-07  0.389E-04    2.41      34.1  T
     SCC iter.                  ...        0 min,  0.054 sec
     gradient                   ...        0 min,  0.006 sec
 * total energy  :   -83.4348204 Eh     change       -0.1239756E-03 Eh
   gradient norm :     0.0047421 Eh/α   predicted    -0.9662533E-04 ( -22.06%)
   displ. norm   :     0.4638014 α      lambda       -0.2178594E-03
   maximum displ.:     0.2564067 α      in ANC's #3, #1, #5, ...

........................................................................
.............................. CYCLE   88 ..............................
........................................................................

 iter      E             dE          RMSdq      gap      omega  full diag
   1    -84.5385777 -0.845386E+02  0.498E-02    2.41       0.0  T
   2    -84.5385797 -0.199148E-05  0.293E-02    2.40       1.0  T
   3    -84.5385793  0.451722E-06  0.501E-03    2.40       2.6  T
   4    -84.5385800 -0.752541E-06  0.209E-03    2.40       6.4  T
   5    -84.5385801 -0.136979E-06  0.920E-04    2.40      14.4  T
   6    -84.5385802 -0.110755E-07  0.431E-04    2.40      30.7  T
     SCC iter.                  ...        0 min,  0.054 sec
     gradient                   ...        0 min,  0.005 sec
 * total energy  :   -83.4349760 Eh     change       -0.1555228E-03 Eh
   gradient norm :     0.0054336 Eh/α   predicted    -0.1323652E-03 ( -14.89%)
   displ. norm   :     0.4967940 α      lambda       -0.2243360E-03
   maximum displ.:     0.2494864 α      in ANC's #3, #5, #1, ...

........................................................................
.............................. CYCLE   89 ..............................
........................................................................

 iter      E             dE          RMSdq      gap      omega  full diag
   1    -84.5389887 -0.845390E+02  0.615E-02    2.40       0.0  T
   2    -84.5389922 -0.354035E-05  0.362E-02    2.39       1.0  T
   3    -84.5389911  0.109209E-05  0.642E-03    2.39       2.1  T
   4    -84.5389929 -0.174903E-05  0.226E-03    2.39       5.9  T
   5    -84.5389930 -0.169250E-06  0.952E-04    2.39      13.9  T
   6    -84.5389930 -0.106511E-07  0.448E-04    2.39      29.5  T
     SCC iter.                  ...        0 min,  0.052 sec
     gradient                   ...        0 min,  0.005 sec
 * total energy  :   -83.4350993 Eh     change       -0.1233023E-03 Eh
   gradient norm :     0.0077300 Eh/α   predicted    -0.1398535E-03 (  13.42%)
   displ. norm   :     0.4673817 α      lambda       -0.2409766E-03
   maximum displ.:     0.2437020 α      in ANC's #3, #5, #1, ...

........................................................................
.............................. CYCLE   90 ..............................
........................................................................

 iter      E             dE          RMSdq      gap      omega  full diag
   1    -84.5357973 -0.845358E+02  0.532E-02    2.38       0.0  T
   2    -84.5357993 -0.198968E-05  0.314E-02    2.37       1.0  T
   3    -84.5357959  0.346935E-05  0.943E-03    2.37       1.4  T
   4    -84.5357999 -0.400188E-05  0.215E-03    2.37       6.2  T
   5    -84.5358000 -0.147502E-06  0.858E-04    2.37      15.4  T
   6    -84.5358000 -0.507801E-08  0.460E-04    2.37      28.8  T
     SCC iter.                  ...        0 min,  0.054 sec
     gradient                   ...        0 min,  0.003 sec
 * total energy  :   -83.4352574 Eh     change       -0.1581444E-03 Eh
   gradient norm :     0.0048443 Eh/α   predicted    -0.1468114E-03 (  -7.17%)
   displ. norm   :     0.3390311 α      lambda       -0.2112473E-03
   maximum displ.:     0.1522740 α      in ANC's #5, #7, #9, ...

........................................................................
.............................. CYCLE   91 ..............................
........................................................................

 iter      E             dE          RMSdq      gap      omega  full diag
   1    -84.5367646 -0.845368E+02  0.488E-02    2.36       0.0  T
   2    -84.5367683 -0.374464E-05  0.287E-02    2.35       1.0  T
   3    -84.5367675  0.840570E-06  0.669E-03    2.35       2.0  T
   4    -84.5367687 -0.116482E-05  0.247E-03    2.35       5.4  T
   5    -84.5367689 -0.237977E-06  0.954E-04    2.35      13.9  T
   6    -84.5367689 -0.105542E-07  0.519E-04    2.35      25.5  T
     SCC iter.                  ...        0 min,  0.053 sec
     gradient                   ...        0 min,  0.006 sec
 * total energy  :   -83.4353773 Eh     change       -0.1198603E-03 Eh
   gradient norm :     0.0081023 Eh/α   predicted    -0.1177690E-03 (  -1.74%)
   displ. norm   :     0.4239762 α      lambda       -0.2443501E-03
   maximum displ.:     0.1937827 α      in ANC's #3, #5, #1, ...

........................................................................
.............................. CYCLE   92 ..............................
........................................................................

 iter      E             dE          RMSdq      gap      omega  full diag
   1    -84.5341678 -0.845342E+02  0.496E-02    2.34       0.0  T
   2    -84.5341708 -0.294558E-05  0.293E-02    2.33       1.0  T
   3    -84.5341663  0.446073E-05  0.109E-02    2.33       1.2  T
   4    -84.5341713 -0.500019E-05  0.261E-03    2.33       5.1  T
   5    -84.5341716 -0.270013E-06  0.799E-04    2.33      16.6  T
   6    -84.5341716 -0.602553E-08  0.436E-04    2.33      30.4  T
     SCC iter.                  ...        0 min,  0.052 sec
     gradient                   ...        0 min,  0.007 sec
 * total energy  :   -83.4355267 Eh     change       -0.1494631E-03 Eh
   gradient norm :     0.0071788 Eh/α   predicted    -0.1441378E-03 (  -3.56%)
   displ. norm   :     0.3578138 α      lambda       -0.1865779E-03
   maximum displ.:     0.1676417 α      in ANC's #5, #3, #9, ...
 * RMSD in coord.:     1.0459432 α      energy gain  -0.4491953E-02 Eh

generating ANC from exact Hessian ...
Using Lindh-Hessian (1995)
 Shifting diagonal of input Hessian by   1.010684791255504E-002
 Lowest  eigenvalues of input Hessian
    0.010000    0.000000    0.000000    0.000000    0.000000    0.000000
    0.000000    0.010151    0.010200    0.010283    0.010333    0.010371
    0.010646    0.010672    0.010845    0.010941    0.011283    0.011472
 Highest eigenvalues
    1.953911    2.016042    2.119147    2.180499    2.320936    2.350482
 

........................................................................
.............................. CYCLE   93 ..............................
........................................................................

 iter      E             dE          RMSdq      gap      omega  full diag
   1    -84.5354129 -0.845354E+02  0.433E-02    2.32       0.0  T
   2    -84.5354164 -0.351531E-05  0.254E-02    2.31       1.0  T
   3    -84.5354149  0.152814E-05  0.751E-03    2.31       1.8  T
   4    -84.5354165 -0.163872E-05  0.293E-03    2.31       4.5  T
   5    -84.5354169 -0.385675E-06  0.736E-04    2.31      18.0  T
   6    -84.5354169 -0.832078E-08  0.385E-04    2.31      34.4  T
     SCC iter.                  ...        0 min,  0.048 sec
     gradient                   ...        0 min,  0.005 sec
 * total energy  :   -83.4356514 Eh     change       -0.1246535E-03 Eh
   gradient norm :     0.0052774 Eh/α   predicted     0.0000000E+00 (-100.00%)
   displ. norm   :     0.0533994 α      lambda       -0.7132179E-04
   maximum displ.:     0.0190129 α      in ANC's #3, #20, #15, ...

........................................................................
.............................. CYCLE   94 ..............................
........................................................................

 iter      E             dE          RMSdq      gap      omega  full diag
   1    -84.5362657 -0.845363E+02  0.141E-02    2.31       0.0  T
   2    -84.5362662 -0.485723E-06  0.834E-03    2.31       1.6  T
   3    -84.5362661  0.837669E-07  0.247E-03    2.30       5.4  T
   4    -84.5362663 -0.134143E-06  0.957E-04    2.30      13.8  T
   5    -84.5362663 -0.367621E-07  0.371E-04    2.30      35.7  T
     SCC iter.                  ...        0 min,  0.045 sec
     gradient                   ...        0 min,  0.011 sec
 * total energy  :   -83.4357091 Eh     change       -0.5770334E-04 Eh
   gradient norm :     0.0019137 Eh/α   predicted    -0.3813318E-04 ( -33.92%)
   displ. norm   :     0.1550813 α      lambda       -0.7131357E-04
   maximum displ.:     0.0670436 α      in ANC's #3, #20, #5, ...

........................................................................
.............................. CYCLE   95 ..............................
........................................................................

 iter      E             dE          RMSdq      gap      omega  full diag
   1    -84.5374295 -0.845374E+02  0.326E-02    2.30       0.0  T
   2    -84.5374316 -0.204022E-05  0.191E-02    2.30       1.0  T
   3    -84.5374313  0.262787E-06  0.438E-03    2.29       3.0  T
   4    -84.5374318 -0.502555E-06  0.137E-03    2.29       9.7  T
   5    -84.5374319 -0.795106E-07  0.640E-04    2.29      20.7  T
   6    -84.5374319 -0.439630E-08  0.285E-04    2.29      46.4  T
     SCC iter.                  ...        0 min,  0.047 sec
     gradient                   ...        0 min,  0.006 sec
 * total energy  :   -83.4357629 Eh     change       -0.5381406E-04 Eh
   gradient norm :     0.0039389 Eh/α   predicted    -0.3603836E-04 ( -33.03%)
   displ. norm   :     0.0569756 α      lambda       -0.2721095E-04
   maximum displ.:     0.0289668 α      in ANC's #3, #5, #20, ...

........................................................................
.............................. CYCLE   96 ..............................
........................................................................

 iter      E             dE          RMSdq      gap      omega  full diag
   1    -84.5374577 -0.845375E+02  0.107E-02    2.29       0.0  T
   2    -84.5374578 -0.762121E-07  0.627E-03    2.29       2.1  T
   3    -84.5374577  0.140917E-06  0.177E-03    2.29       7.5  T
   4    -84.5374578 -0.161123E-06  0.424E-04    2.29      31.2  T
   5    -84.5374579 -0.611139E-08  0.160E-04    2.29      82.7  T
     SCC iter.                  ...        0 min,  0.048 sec
     gradient                   ...        0 min,  0.006 sec
 * total energy  :   -83.4357887 Eh     change       -0.2582738E-04 Eh
   gradient norm :     0.0030738 Eh/α   predicted    -0.1395187E-04 ( -45.98%)
   displ. norm   :     0.2699667 α      lambda       -0.1171809E-03
   maximum displ.:     0.1342523 α      in ANC's #3, #5, #20, ...

........................................................................
.............................. CYCLE   97 ..............................
........................................................................

 iter      E             dE          RMSdq      gap      omega  full diag
   1    -84.5369404 -0.845369E+02  0.526E-02    2.29       0.0  T
   2    -84.5369420 -0.159951E-05  0.310E-02    2.28       1.0  T
   3    -84.5369394  0.257163E-05  0.751E-03    2.28       1.8  T
   4    -84.5369424 -0.294472E-05  0.204E-03    2.28       6.5  T
   5    -84.5369425 -0.147970E-06  0.764E-04    2.28      17.3  T
   6    -84.5369425 -0.328360E-08  0.398E-04    2.28      33.3  T
     SCC iter.                  ...        0 min,  0.057 sec
     gradient                   ...        0 min,  0.009 sec
 * total energy  :   -83.4358717 Eh     change       -0.8298165E-04 Eh
   gradient norm :     0.0017428 Eh/α   predicted    -0.6286071E-04 ( -24.25%)
   displ. norm   :     0.3550802 α      lambda       -0.5615887E-04
   maximum displ.:     0.1861144 α      in ANC's #3, #5, #2, ...

........................................................................
.............................. CYCLE   98 ..............................
........................................................................

 iter      E             dE          RMSdq      gap      omega  full diag
   1    -84.5361637 -0.845362E+02  0.663E-02    2.28       0.0  T
   2    -84.5361654 -0.166846E-05  0.391E-02    2.27       1.0  T
   3    -84.5361637  0.171340E-05  0.652E-03    2.27       2.0  T
   4    -84.5361658 -0.208417E-05  0.219E-03    2.27       6.0  T
   5    -84.5361659 -0.161454E-06  0.881E-04    2.27      15.0  T
   6    -84.5361659 -0.315059E-08  0.420E-04    2.27      31.5  T
     SCC iter.                  ...        0 min,  0.052 sec
     gradient                   ...        0 min,  0.006 sec
 * total energy  :   -83.4359199 Eh     change       -0.4819550E-04 Eh
   gradient norm :     0.0038416 Eh/α   predicted    -0.2965740E-04 ( -38.46%)
   displ. norm   :     0.1072472 α      lambda       -0.3518819E-04
   maximum displ.:     0.0628537 α      in ANC's #3, #5, #2, ...

........................................................................
.............................. CYCLE   99 ..............................
........................................................................

 iter      E             dE          RMSdq      gap      omega  full diag
   1    -84.5368805 -0.845369E+02  0.201E-02    2.27       0.0  T
   2    -84.5368806 -0.185314E-06  0.118E-02    2.27       1.1  T
   3    -84.5368806  0.400998E-07  0.137E-03    2.27       9.7  T
   4    -84.5368807 -0.590874E-07  0.632E-04    2.27      20.9  T
   5    -84.5368807 -0.148788E-07  0.258E-04    2.27      51.4  T
     SCC iter.                  ...        0 min,  0.049 sec
     gradient                   ...        0 min,  0.010 sec
 * total energy  :   -83.4359488 Eh     change       -0.2885442E-04 Eh
   gradient norm :     0.0027514 Eh/α   predicted    -0.1779740E-04 ( -38.32%)
   displ. norm   :     0.1753792 α      lambda       -0.6296753E-04
   maximum displ.:     0.1091788 α      in ANC's #3, #2, #5, ...

........................................................................
.............................. CYCLE  100 ..............................
........................................................................

 iter      E             dE          RMSdq      gap      omega  full diag
   1    -84.5386013 -0.845386E+02  0.278E-02    2.27       0.0  T
   2    -84.5386016 -0.326904E-06  0.163E-02    2.27       1.0  T
   3    -84.5386004  0.118084E-05  0.499E-03    2.27       2.7  T
   4    -84.5386018 -0.134097E-05  0.875E-04    2.27      15.1  T
   5    -84.5386018 -0.211504E-07  0.414E-04    2.27      32.0  T
   6    -84.5386018 -0.143616E-08  0.205E-04    2.27      64.7  T
     SCC iter.                  ...        0 min,  0.051 sec
     gradient                   ...        0 min,  0.005 sec
 * total energy  :   -83.4359937 Eh     change       -0.4490903E-04 Eh
   gradient norm :     0.0016261 Eh/α   predicted    -0.3245273E-04 ( -27.74%)
   displ. norm   :     0.2801357 α      lambda       -0.3942328E-04
   maximum displ.:     0.1767915 α      in ANC's #3, #2, #5, ...

........................................................................
.............................. CYCLE  101 ..............................
........................................................................

 iter      E             dE          RMSdq      gap      omega  full diag
   1    -84.5383245 -0.845383E+02  0.436E-02    2.27       0.0  T
   2    -84.5383249 -0.430492E-06  0.258E-02    2.27       1.0  T
   3    -84.5383237  0.119923E-05  0.501E-03    2.27       2.6  T
   4    -84.5383252 -0.143156E-05  0.112E-03    2.27      11.8  T
   5    -84.5383252 -0.234989E-07  0.628E-04    2.27      21.1  T
   6    -84.5383252 -0.323948E-08  0.245E-04    2.27      54.0  T
     SCC iter.                  ...        0 min,  0.038 sec
     gradient                   ...        0 min,  0.020 sec
 * total energy  :   -83.4360361 Eh     change       -0.4240675E-04 Eh
   gradient norm :     0.0020155 Eh/α   predicted    -0.2040281E-04 ( -51.89%)
   displ. norm   :     0.1314333 α      lambda       -0.3186071E-04
   maximum displ.:     0.0851236 α      in ANC's #3, #2, #5, ...

........................................................................
.............................. CYCLE  102 ..............................
........................................................................

 iter      E             dE          RMSdq      gap      omega  full diag
   1    -84.5383332 -0.845383E+02  0.170E-02    2.27       0.0  T
   2    -84.5383333 -0.543266E-07  0.101E-02    2.27       1.3  T
   3    -84.5383332  0.316524E-07  0.102E-03    2.27      12.9  T
   4    -84.5383333 -0.557884E-07  0.394E-04    2.27      33.6  T
   5    -84.5383333 -0.214436E-08  0.221E-04    2.27      59.8  T
     SCC iter.                  ...        0 min,  0.049 sec
     gradient                   ...        0 min,  0.009 sec
 * total energy  :   -83.4360642 Eh     change       -0.2815675E-04 Eh
   gradient norm :     0.0021808 Eh/α   predicted    -0.1620584E-04 ( -42.44%)
   displ. norm   :     0.2104382 α      lambda       -0.5946163E-04
   maximum displ.:     0.1343032 α      in ANC's #3, #2, #5, ...

........................................................................
.............................. CYCLE  103 ..............................
........................................................................

 iter      E             dE          RMSdq      gap      omega  full diag
   1    -84.5379097 -0.845379E+02  0.253E-02    2.27       0.0  T
   2    -84.5379099 -0.182744E-06  0.150E-02    2.28       1.0  T
   3    -84.5379097  0.218832E-06  0.208E-03    2.28       6.4  T
   4    -84.5379100 -0.286610E-06  0.648E-04    2.28      20.4  T
   5    -84.5379100 -0.969858E-08  0.366E-04    2.28      36.2  T
     SCC iter.                  ...        0 min,  0.046 sec
     gradient                   ...        0 min,  0.008 sec
 * total energy  :   -83.4361167 Eh     change       -0.5249717E-04 Eh
   gradient norm :     0.0020935 Eh/α   predicted    -0.3104941E-04 ( -40.86%)
   displ. norm   :     0.3195721 α      lambda       -0.8503379E-04
   maximum displ.:     0.2020673 α      in ANC's #3, #2, #5, ...

........................................................................
.............................. CYCLE  104 ..............................
........................................................................

 iter      E             dE          RMSdq      gap      omega  full diag
   1    -84.5372808 -0.845373E+02  0.355E-02    2.28       0.0  T
   2    -84.5372811 -0.314702E-06  0.210E-02    2.28       1.0  T
   3    -84.5372810  0.145794E-06  0.224E-03    2.28       5.9  T
   4    -84.5372812 -0.246216E-06  0.795E-04    2.28      16.7  T
   5    -84.5372812 -0.118157E-07  0.416E-04    2.28      31.9  T
     SCC iter.                  ...        0 min,  0.042 sec
     gradient                   ...        0 min,  0.009 sec
 * total energy  :   -83.4361891 Eh     change       -0.7235682E-04 Eh
   gradient norm :     0.0028179 Eh/α   predicted    -0.4686321E-04 ( -35.23%)
   displ. norm   :     0.3699547 α      lambda       -0.8733225E-04
   maximum displ.:     0.2348147 α      in ANC's #3, #2, #5, ...

........................................................................
.............................. CYCLE  105 ..............................
........................................................................

 iter      E             dE          RMSdq      gap      omega  full diag
   1    -84.5368734 -0.845369E+02  0.391E-02    2.29       0.0  T
   2    -84.5368737 -0.322718E-06  0.232E-02    2.29       1.0  T
   3    -84.5368735  0.175807E-06  0.257E-03    2.29       5.1  T
   4    -84.5368738 -0.287095E-06  0.867E-04    2.29      15.3  T
   5    -84.5368738 -0.108588E-07  0.475E-04    2.29      27.9  T
     SCC iter.                  ...        0 min,  0.040 sec
     gradient                   ...        0 min,  0.012 sec
 * total energy  :   -83.4362620 Eh     change       -0.7293202E-04 Eh
   gradient norm :     0.0029640 Eh/α   predicted    -0.4964277E-04 ( -31.93%)
   displ. norm   :     0.3645079 α      lambda       -0.7881907E-04
   maximum displ.:     0.2345607 α      in ANC's #3, #2, #5, ...

........................................................................
.............................. CYCLE  106 ..............................
........................................................................

 iter      E             dE          RMSdq      gap      omega  full diag
   1    -84.5368496 -0.845368E+02  0.370E-02    2.29       0.0  T
   2    -84.5368500 -0.361389E-06  0.219E-02    2.29       1.0  T
   3    -84.5368494  0.621855E-06  0.385E-03    2.29       3.4  T
   4    -84.5368501 -0.735070E-06  0.103E-03    2.29      12.9  T
   5    -84.5368501 -0.311245E-07  0.463E-04    2.29      28.6  T
   6    -84.5368501 -0.187957E-08  0.218E-04    2.29      60.7  T
     SCC iter.                  ...        0 min,  0.052 sec
     gradient                   ...        0 min,  0.010 sec
 * total energy  :   -83.4363294 Eh     change       -0.6734123E-04 Eh
   gradient norm :     0.0025322 Eh/α   predicted    -0.4464813E-04 ( -33.70%)
   displ. norm   :     0.3670868 α      lambda       -0.7929675E-04
   maximum displ.:     0.2404635 α      in ANC's #3, #2, #5, ...

........................................................................
.............................. CYCLE  107 ..............................
........................................................................

 iter      E             dE          RMSdq      gap      omega  full diag
   1    -84.5371858 -0.845372E+02  0.364E-02    2.29       0.0  T
   2    -84.5371866 -0.711799E-06  0.215E-02    2.28       1.0  T
   3    -84.5371848  0.174346E-05  0.606E-03    2.28       2.2  T
   4    -84.5371867 -0.191893E-05  0.132E-03    2.28      10.0  T
   5    -84.5371868 -0.695915E-07  0.418E-04    2.28      31.7  T
   6    -84.5371868 -0.734488E-09  0.212E-04    2.28      62.5  T
     SCC iter.                  ...        0 min,  0.050 sec
     gradient                   ...        0 min,  0.010 sec
 * total energy  :   -83.4363987 Eh     change       -0.6933998E-04 Eh
   gradient norm :     0.0019403 Eh/α   predicted    -0.4499220E-04 ( -35.11%)
   displ. norm   :     0.6094683 α      lambda       -0.8856983E-04
   maximum displ.:     0.4040044 α      in ANC's #3, #2, #5, ...

........................................................................
.............................. CYCLE  108 ..............................
........................................................................

 iter      E             dE          RMSdq      gap      omega  full diag
   1    -84.5374172 -0.845374E+02  0.619E-02    2.27       0.0  T
   2    -84.5374207 -0.344856E-05  0.365E-02    2.26       1.0  T
   3    -84.5374138  0.681821E-05  0.122E-02    2.26       1.1  T
   4    -84.5374213 -0.741754E-05  0.286E-03    2.25       4.6  T
   5    -84.5374216 -0.365459E-06  0.689E-04    2.26      19.2  T
   6    -84.5374216 -0.179574E-08  0.355E-04    2.26      37.4  T
     SCC iter.                  ...        0 min,  0.055 sec
     gradient                   ...        0 min,  0.008 sec
 * total energy  :   -83.4365086 Eh     change       -0.1098867E-03 Eh
   gradient norm :     0.0023915 Eh/α   predicted    -0.5159711E-04 ( -53.05%)
   displ. norm   :     0.3721830 α      lambda       -0.8064701E-04
   maximum displ.:     0.2505639 α      in ANC's #3, #2, #5, ...

........................................................................
.............................. CYCLE  109 ..............................
........................................................................

 iter      E             dE          RMSdq      gap      omega  full diag
   1    -84.5381239 -0.845381E+02  0.387E-02    2.25       0.0  T
   2    -84.5381256 -0.163002E-05  0.227E-02    2.24       1.0  T
   3    -84.5381231  0.247019E-05  0.762E-03    2.24       1.7  T
   4    -84.5381258 -0.266881E-05  0.195E-03    2.24       6.8  T
   5    -84.5381260 -0.175462E-06  0.438E-04    2.24      30.3  T
   6    -84.5381260 -0.937845E-09  0.246E-04    2.24      53.9  T
     SCC iter.                  ...        0 min,  0.051 sec
     gradient                   ...        0 min,  0.003 sec
 * total energy  :   -83.4365789 Eh     change       -0.7030993E-04 Eh
   gradient norm :     0.0027510 Eh/α   predicted    -0.4590972E-04 ( -34.70%)
   displ. norm   :     0.4587093 α      lambda       -0.1054444E-03
   maximum displ.:     0.3094001 α      in ANC's #3, #2, #5, ...

........................................................................
.............................. CYCLE  110 ..............................
........................................................................

 iter      E             dE          RMSdq      gap      omega  full diag
   1    -84.5383949 -0.845384E+02  0.529E-02    2.23       0.0  T
   2    -84.5383980 -0.309041E-05  0.310E-02    2.21       1.0  T
   3    -84.5383935  0.453161E-05  0.104E-02    2.21       1.3  T
   4    -84.5383984 -0.490327E-05  0.269E-03    2.21       4.9  T
   5    -84.5383987 -0.334960E-06  0.637E-04    2.21      20.8  T
   6    -84.5383987 -0.235747E-08  0.367E-04    2.21      36.1  T
     SCC iter.                  ...        0 min,  0.054 sec
     gradient                   ...        0 min,  0.007 sec
 * total energy  :   -83.4366666 Eh     change       -0.8768070E-04 Eh
   gradient norm :     0.0023980 Eh/α   predicted    -0.6381829E-04 ( -27.22%)
   displ. norm   :     0.4230481 α      lambda       -0.8921347E-04
   maximum displ.:     0.2887915 α      in ANC's #3, #2, #5, ...

........................................................................
.............................. CYCLE  111 ..............................
........................................................................

 iter      E             dE          RMSdq      gap      omega  full diag
   1    -84.5384924 -0.845385E+02  0.495E-02    2.20       0.0  T
   2    -84.5384947 -0.237088E-05  0.290E-02    2.19       1.0  T
   3    -84.5384912  0.358059E-05  0.917E-03    2.19       1.4  T
   4    -84.5384950 -0.387711E-05  0.229E-03    2.18       5.8  T
   5    -84.5384953 -0.244856E-06  0.562E-04    2.19      23.6  T
   6    -84.5384953 -0.266638E-08  0.327E-04    2.19      40.5  T
     SCC iter.                  ...        0 min,  0.048 sec
     gradient                   ...        0 min,  0.016 sec
 * total energy  :   -83.4367449 Eh     change       -0.7834140E-04 Eh
   gradient norm :     0.0019356 Eh/α   predicted    -0.5259458E-04 ( -32.86%)
   displ. norm   :     0.6286719 α      lambda       -0.8929025E-04
   maximum displ.:     0.4377596 α      in ANC's #3, #2, #5, ...

........................................................................
.............................. CYCLE  112 ..............................
........................................................................

 iter      E             dE          RMSdq      gap      omega  full diag
   1    -84.5397766 -0.845398E+02  0.724E-02    2.17       0.0  T
   2    -84.5397811 -0.448003E-05  0.424E-02    2.16       1.0  T
   3    -84.5397755  0.552708E-05  0.115E-02    2.15       1.1  T
   4    -84.5397815 -0.594052E-05  0.322E-03    2.15       4.1  T
   5    -84.5397820 -0.488647E-06  0.836E-04    2.15      15.9  T
   6    -84.5397820 -0.730633E-08  0.484E-04    2.15      27.3  T
     SCC iter.                  ...        0 min,  0.050 sec
     gradient                   ...        0 min,  0.007 sec
 * total energy  :   -83.4368558 Eh     change       -0.1108458E-03 Eh
   gradient norm :     0.0022654 Eh/α   predicted    -0.5249103E-04 ( -52.65%)
   displ. norm   :     0.4195914 α      lambda       -0.9053755E-04
   maximum displ.:     0.2940762 α      in ANC's #3, #2, #5, ...

........................................................................
.............................. CYCLE  113 ..............................
........................................................................

 iter      E             dE          RMSdq      gap      omega  full diag
   1    -84.5382341 -0.845382E+02  0.497E-02    2.14       0.0  T
   2    -84.5382355 -0.135978E-05  0.293E-02    2.13       1.0  T
   3    -84.5382333  0.220350E-05  0.707E-03    2.13       1.9  T
   4    -84.5382357 -0.241918E-05  0.182E-03    2.13       7.3  T
   5    -84.5382359 -0.143851E-06  0.569E-04    2.13      23.3  T
   6    -84.5382359 -0.747960E-09  0.291E-04    2.13      45.6  T
     SCC iter.                  ...        0 min,  0.052 sec
     gradient                   ...        0 min,  0.009 sec
 * total energy  :   -83.4369297 Eh     change       -0.7394297E-04 Eh
   gradient norm :     0.0031323 Eh/α   predicted    -0.5324261E-04 ( -28.00%)
   displ. norm   :     0.3652411 α      lambda       -0.9467657E-04
   maximum displ.:     0.2627605 α      in ANC's #3, #2, #1, ...

........................................................................
.............................. CYCLE  114 ..............................
........................................................................

 iter      E             dE          RMSdq      gap      omega  full diag
   1    -84.5394762 -0.845395E+02  0.399E-02    2.13       0.0  T
   2    -84.5394767 -0.480096E-06  0.235E-02    2.12       1.0  T
   3    -84.5394759  0.753551E-06  0.418E-03    2.12       3.2  T
   4    -84.5394768 -0.871664E-06  0.110E-03    2.12      12.0  T
   5    -84.5394768 -0.421183E-07  0.440E-04    2.12      30.1  T
   6    -84.5394768 -0.550244E-10  0.216E-04    2.12      61.3  T
     SCC iter.                  ...        0 min,  0.051 sec
     gradient                   ...        0 min,  0.005 sec
 * total energy  :   -83.4370153 Eh     change       -0.8557421E-04 Eh
   gradient norm :     0.0023871 Eh/α   predicted    -0.5365448E-04 ( -37.30%)
   displ. norm   :     0.5613513 α      lambda       -0.1377965E-03
   maximum displ.:     0.4032688 α      in ANC's #3, #2, #1, ...

........................................................................
.............................. CYCLE  115 ..............................
........................................................................

 iter      E             dE          RMSdq      gap      omega  full diag
   1    -84.5398288 -0.845398E+02  0.580E-02    2.12       0.0  T
   2    -84.5398294 -0.668806E-06  0.343E-02    2.12       1.0  T
   3    -84.5398285  0.914318E-06  0.476E-03    2.12       2.8  T
   4    -84.5398297 -0.114774E-05  0.132E-03    2.12      10.0  T
   5    -84.5398297 -0.438031E-07  0.666E-04    2.12      19.9  T
   6    -84.5398297 -0.258376E-08  0.293E-04    2.12      45.2  T
     SCC iter.                  ...        0 min,  0.051 sec
     gradient                   ...        0 min,  0.008 sec
 * total energy  :   -83.4371322 Eh     change       -0.1169171E-03 Eh
   gradient norm :     0.0026620 Eh/α   predicted    -0.9061286E-04 ( -22.50%)
   displ. norm   :     0.5845081 α      lambda       -0.1356438E-03
   maximum displ.:     0.4256343 α      in ANC's #3, #2, #1, ...

........................................................................
.............................. CYCLE  116 ..............................
........................................................................

 iter      E             dE          RMSdq      gap      omega  full diag
   1    -84.5404752 -0.845405E+02  0.600E-02    2.12       0.0  T
   2    -84.5404757 -0.531679E-06  0.354E-02    2.12       1.0  T
   3    -84.5404757  0.681663E-07  0.248E-03    2.12       5.4  T
   4    -84.5404760 -0.288262E-06  0.114E-03    2.12      11.7  T
   5    -84.5404760 -0.184747E-07  0.560E-04    2.12      23.6  T
   6    -84.5404760 -0.296032E-08  0.232E-04    2.12      57.1  T
     SCC iter.                  ...        0 min,  0.056 sec
     gradient                   ...        0 min,  0.007 sec
 * total energy  :   -83.4372385 Eh     change       -0.1063077E-03 Eh
   gradient norm :     0.0028645 Eh/α   predicted    -0.9099767E-04 ( -14.40%)
   displ. norm   :     0.5665969 α      lambda       -0.1223717E-03
   maximum displ.:     0.4148628 α      in ANC's #3, #2, #1, ...

........................................................................
.............................. CYCLE  117 ..............................
........................................................................

 iter      E             dE          RMSdq      gap      omega  full diag
   1    -84.5401877 -0.845402E+02  0.583E-02    2.11       0.0  T
   2    -84.5401883 -0.601235E-06  0.345E-02    2.12       1.0  T
   3    -84.5401878  0.568718E-06  0.377E-03    2.12       3.5  T
   4    -84.5401886 -0.804642E-06  0.119E-03    2.12      11.2  T
   5    -84.5401886 -0.207083E-07  0.658E-04    2.12      20.1  T
   6    -84.5401886 -0.620953E-08  0.290E-04    2.12      45.6  T
     SCC iter.                  ...        0 min,  0.059 sec
     gradient                   ...        0 min,  0.008 sec
 * total energy  :   -83.4373220 Eh     change       -0.8353020E-04 Eh
   gradient norm :     0.0039302 Eh/α   predicted    -0.8083012E-04 (  -3.23%)
   displ. norm   :     0.5166106 α      lambda       -0.1032380E-03
   maximum displ.:     0.3765322 α      in ANC's #3, #2, #1, ...

........................................................................
.............................. CYCLE  118 ..............................
........................................................................

 iter      E             dE          RMSdq      gap      omega  full diag
   1    -84.5392195 -0.845392E+02  0.511E-02    2.12       0.0  T
   2    -84.5392201 -0.572896E-06  0.301E-02    2.12       1.0  T
   3    -84.5392196  0.499587E-06  0.369E-03    2.12       3.6  T
   4    -84.5392203 -0.654947E-06  0.125E-03    2.12      10.6  T
   5    -84.5392203 -0.442607E-07  0.596E-04    2.12      22.2  T
   6    -84.5392203 -0.241110E-08  0.272E-04    2.12      48.7  T
     SCC iter.                  ...        0 min,  0.049 sec
     gradient                   ...        0 min,  0.011 sec
 * total energy  :   -83.4373980 Eh     change       -0.7598948E-04 Eh
   gradient norm :     0.0031898 Eh/α   predicted    -0.6539824E-04 ( -13.94%)
   displ. norm   :     0.5731482 α      lambda       -0.1253636E-03
   maximum displ.:     0.4217561 α      in ANC's #3, #1, #2, ...

........................................................................
.............................. CYCLE  119 ..............................
........................................................................

 iter      E             dE          RMSdq      gap      omega  full diag
   1    -84.5400992 -0.845401E+02  0.563E-02    2.13       0.0  T
   2    -84.5401000 -0.794535E-06  0.332E-02    2.13       1.0  T
   3    -84.5400995  0.504479E-06  0.380E-03    2.14       3.5  T
   4    -84.5401002 -0.757095E-06  0.113E-03    2.14      11.7  T
   5    -84.5401002 -0.205668E-07  0.572E-04    2.13      23.2  T
   6    -84.5401003 -0.188021E-08  0.273E-04    2.13      48.5  T
     SCC iter.                  ...        0 min,  0.051 sec
     gradient                   ...        0 min,  0.011 sec
 * total energy  :   -83.4374763 Eh     change       -0.7825067E-04 Eh
   gradient norm :     0.0053584 Eh/α   predicted    -0.8327765E-04 (   6.42%)
   displ. norm   :     0.4608453 α      lambda       -0.1237775E-03
   maximum displ.:     0.3440295 α      in ANC's #3, #1, #2, ...

........................................................................
.............................. CYCLE  120 ..............................
........................................................................

 iter      E             dE          RMSdq      gap      omega  full diag
   1    -84.5434038 -0.845434E+02  0.498E-02    2.14       0.0  T
   2    -84.5434050 -0.118709E-05  0.292E-02    2.15       1.0  T
   3    -84.5434044  0.559788E-06  0.424E-03    2.15       3.1  T
   4    -84.5434051 -0.747144E-06  0.165E-03    2.15       8.0  T
   5    -84.5434052 -0.891784E-07  0.695E-04    2.15      19.1  T
   6    -84.5434052 -0.550826E-08  0.397E-04    2.15      33.3  T
     SCC iter.                  ...        0 min,  0.050 sec
     gradient                   ...        0 min,  0.008 sec
 * total energy  :   -83.4375298 Eh     change       -0.5357359E-04 Eh
   gradient norm :     0.0059171 Eh/α   predicted    -0.7503522E-04 (  40.06%)
   displ. norm   :     0.5060978 α      lambda       -0.1134602E-03
   maximum displ.:     0.3726145 α      in ANC's #3, #2, #1, ...
 * RMSD in coord.:     1.0582260 α      energy gain  -0.2003120E-02 Eh

generating ANC from exact Hessian ...
Using Lindh-Hessian (1995)
 Shifting diagonal of input Hessian by   1.011033334130347E-002
 Lowest  eigenvalues of input Hessian
    0.010000    0.000000    0.000000    0.000000    0.000000    0.000000
    0.000000    0.010142    0.010225    0.010302    0.010383    0.010483
    0.010635    0.010721    0.010855    0.010990    0.011397    0.011544
 Highest eigenvalues
    1.953913    2.016868    2.120723    2.197182    2.313064    2.347320
 

........................................................................
.............................. CYCLE  121 ..............................
........................................................................

 iter      E             dE          RMSdq      gap      omega  full diag
   1    -84.5388971 -0.845389E+02  0.539E-02    2.15       0.0  T
   2    -84.5388978 -0.754601E-06  0.318E-02    2.14       1.0  T
   3    -84.5388974  0.397411E-06  0.362E-03    2.14       3.7  T
   4    -84.5388980 -0.557095E-06  0.140E-03    2.14       9.4  T
   5    -84.5388980 -0.612984E-07  0.673E-04    2.14      19.7  T
   6    -84.5388980 -0.279670E-08  0.310E-04    2.14      42.7  T
     SCC iter.                  ...        0 min,  0.037 sec
     gradient                   ...        0 min,  0.017 sec
 * total energy  :   -83.4375977 Eh     change       -0.6789007E-04 Eh
   gradient norm :     0.0043465 Eh/α   predicted     0.0000000E+00 (-100.00%)
   displ. norm   :     0.0466797 α      lambda       -0.6111030E-04
   maximum displ.:     0.0158065 α      in ANC's #2, #19, #8, ...

........................................................................
.............................. CYCLE  122 ..............................
........................................................................

 iter      E             dE          RMSdq      gap      omega  full diag
   1    -84.5409014 -0.845409E+02  0.126E-02    2.14       0.0  T
   2    -84.5409016 -0.280546E-06  0.766E-03    2.14       1.7  T
   3    -84.5409015  0.167038E-06  0.231E-03    2.14       5.7  T
   4    -84.5409017 -0.226617E-06  0.816E-04    2.14      16.2  T
   5    -84.5409017 -0.257755E-07  0.355E-04    2.14      37.3  T
     SCC iter.                  ...        0 min,  0.040 sec
     gradient                   ...        0 min,  0.008 sec
 * total energy  :   -83.4376407 Eh     change       -0.4295523E-04 Eh
   gradient norm :     0.0014924 Eh/α   predicted    -0.3107951E-04 ( -27.65%)
   displ. norm   :     0.1122799 α      lambda       -0.4162541E-04
   maximum displ.:     0.0451967 α      in ANC's #2, #1, #10, ...

........................................................................
.............................. CYCLE  123 ..............................
........................................................................

 iter      E             dE          RMSdq      gap      omega  full diag
   1    -84.5429421 -0.845429E+02  0.218E-02    2.13       0.0  T
   2    -84.5429430 -0.843113E-06  0.129E-02    2.13       1.0  T
   3    -84.5429426  0.400230E-06  0.391E-03    2.12       3.4  T
   4    -84.5429431 -0.519214E-06  0.137E-03    2.12       9.7  T
   5    -84.5429432 -0.650455E-07  0.562E-04    2.12      23.6  T
   6    -84.5429432 -0.482788E-08  0.294E-04    2.12      45.0  T
     SCC iter.                  ...        0 min,  0.047 sec
     gradient                   ...        0 min,  0.010 sec
 * total energy  :   -83.4376813 Eh     change       -0.4060642E-04 Eh
   gradient norm :     0.0024255 Eh/α   predicted    -0.2093142E-04 ( -48.45%)
   displ. norm   :     0.1004250 α      lambda       -0.3706975E-04
   maximum displ.:     0.0429664 α      in ANC's #2, #1, #10, ...

........................................................................
.............................. CYCLE  124 ..............................
........................................................................

 iter      E             dE          RMSdq      gap      omega  full diag
   1    -84.5427139 -0.845427E+02  0.181E-02    2.12       0.0  T
   2    -84.5427143 -0.364190E-06  0.107E-02    2.12       1.2  T
   3    -84.5427140  0.332105E-06  0.299E-03    2.11       4.4  T
   4    -84.5427144 -0.388680E-06  0.992E-04    2.11      13.4  T
   5    -84.5427144 -0.356720E-07  0.367E-04    2.11      36.1  T
     SCC iter.                  ...        0 min,  0.036 sec
     gradient                   ...        0 min,  0.005 sec
 * total energy  :   -83.4377138 Eh     change       -0.3247349E-04 Eh
   gradient norm :     0.0021469 Eh/α   predicted    -0.1872247E-04 ( -42.35%)
   displ. norm   :     0.2752644 α      lambda       -0.8716576E-04
   maximum displ.:     0.1202746 α      in ANC's #2, #1, #10, ...

........................................................................
.............................. CYCLE  125 ..............................
........................................................................

 iter      E             dE          RMSdq      gap      omega  full diag
   1    -84.5410973 -0.845411E+02  0.478E-02    2.10       0.0  T
   2    -84.5411001 -0.275725E-05  0.282E-02    2.09       1.0  T
   3    -84.5410986  0.141418E-05  0.668E-03    2.08       2.0  T
   4    -84.5411003 -0.164928E-05  0.273E-03    2.08       4.9  T
   5    -84.5411006 -0.301996E-06  0.965E-04    2.09      13.7  T
   6    -84.5411006 -0.128982E-07  0.493E-04    2.09      26.9  T
     SCC iter.                  ...        0 min,  0.050 sec
     gradient                   ...        0 min,  0.010 sec
 * total energy  :   -83.4377674 Eh     change       -0.5367101E-04 Eh
   gradient norm :     0.0030921 Eh/α   predicted    -0.4689026E-04 ( -12.63%)
   displ. norm   :     0.1305326 α      lambda       -0.3494688E-04
   maximum displ.:     0.0607075 α      in ANC's #2, #1, #4, ...

........................................................................
.............................. CYCLE  126 ..............................
........................................................................

 iter      E             dE          RMSdq      gap      omega  full diag
   1    -84.5408207 -0.845408E+02  0.213E-02    2.08       0.0  T
   2    -84.5408210 -0.275783E-06  0.125E-02    2.08       1.1  T
   3    -84.5408210 -0.418673E-08  0.120E-03    2.08      11.0  T
   4    -84.5408210 -0.287862E-07  0.553E-04    2.08      23.9  T
   5    -84.5408210 -0.714162E-08  0.278E-04    2.08      47.7  T
     SCC iter.                  ...        0 min,  0.040 sec
     gradient                   ...        0 min,  0.005 sec
 * total energy  :   -83.4377935 Eh     change       -0.2609887E-04 Eh
   gradient norm :     0.0021030 Eh/α   predicted    -0.1777692E-04 ( -31.89%)
   displ. norm   :     0.1908969 α      lambda       -0.4997872E-04
   maximum displ.:     0.0922571 α      in ANC's #2, #1, #4, ...

........................................................................
.............................. CYCLE  127 ..............................
........................................................................

 iter      E             dE          RMSdq      gap      omega  full diag
   1    -84.5408041 -0.845408E+02  0.271E-02    2.08       0.0  T
   2    -84.5408045 -0.486524E-06  0.159E-02    2.07       1.0  T
   3    -84.5408042  0.307115E-06  0.294E-03    2.07       4.5  T
   4    -84.5408046 -0.345428E-06  0.114E-03    2.07      11.6  T
   5    -84.5408046 -0.565046E-07  0.374E-04    2.07      35.4  T
   6    -84.5408046 -0.184012E-08  0.178E-04    2.07      74.2  T
     SCC iter.                  ...        0 min,  0.046 sec
     gradient                   ...        0 min,  0.009 sec
 * total energy  :   -83.4378343 Eh     change       -0.4071759E-04 Eh
   gradient norm :     0.0017797 Eh/α   predicted    -0.2590396E-04 ( -36.38%)
   displ. norm   :     0.5046441 α      lambda       -0.8136429E-04
   maximum displ.:     0.2473366 α      in ANC's #2, #1, #4, ...

........................................................................
.............................. CYCLE  128 ..............................
........................................................................

 iter      E             dE          RMSdq      gap      omega  full diag
   1    -84.5402333 -0.845402E+02  0.714E-02    2.07       0.0  T
   2    -84.5402352 -0.197093E-05  0.421E-02    2.06       1.0  T
   3    -84.5402292  0.599811E-05  0.111E-02    2.05       1.2  T
   4    -84.5402360 -0.675693E-05  0.224E-03    2.06       5.9  T
   5    -84.5402361 -0.146292E-06  0.911E-04    2.06      14.5  T
   6    -84.5402361 -0.590676E-08  0.426E-04    2.06      31.1  T
     SCC iter.                  ...        0 min,  0.046 sec
     gradient                   ...        0 min,  0.006 sec
 * total energy  :   -83.4379206 Eh     change       -0.8636108E-04 Eh
   gradient norm :     0.0037781 Eh/α   predicted    -0.4528844E-04 ( -47.56%)
   displ. norm   :     0.2538706 α      lambda       -0.7029685E-04
   maximum displ.:     0.1262057 α      in ANC's #2, #1, #4, ...

........................................................................
.............................. CYCLE  129 ..............................
........................................................................

 iter      E             dE          RMSdq      gap      omega  full diag
   1    -84.5413754 -0.845414E+02  0.331E-02    2.06       0.0  T
   2    -84.5413758 -0.416940E-06  0.195E-02    2.06       1.0  T
   3    -84.5413736  0.222022E-05  0.665E-03    2.06       2.0  T
   4    -84.5413760 -0.246998E-05  0.105E-03    2.06      12.6  T
   5    -84.5413761 -0.374822E-07  0.394E-04    2.06      33.6  T
   6    -84.5413761 -0.338929E-10  0.183E-04    2.06      72.2  T
     SCC iter.                  ...        0 min,  0.040 sec
     gradient                   ...        0 min,  0.014 sec
 * total energy  :   -83.4379756 Eh     change       -0.5503058E-04 Eh
   gradient norm :     0.0041069 Eh/α   predicted    -0.3741765E-04 ( -32.01%)
   displ. norm   :     0.4578227 α      lambda       -0.1041709E-03
   maximum displ.:     0.2357734 α      in ANC's #2, #1, #5, ...

........................................................................
.............................. CYCLE  130 ..............................
........................................................................

 iter      E             dE          RMSdq      gap      omega  full diag
   1    -84.5409225 -0.845409E+02  0.621E-02    2.05       0.0  T
   2    -84.5409238 -0.133382E-05  0.367E-02    2.05       1.0  T
   3    -84.5409182  0.557713E-05  0.105E-02    2.05       1.3  T
   4    -84.5409245 -0.625659E-05  0.202E-03    2.05       6.6  T
   5    -84.5409246 -0.123930E-06  0.866E-04    2.05      15.3  T
   6    -84.5409246 -0.147216E-08  0.417E-04    2.05      31.8  T
     SCC iter.                  ...        0 min,  0.051 sec
     gradient                   ...        0 min,  0.009 sec
 * total energy  :   -83.4380504 Eh     change       -0.7478817E-04 Eh
   gradient norm :     0.0036495 Eh/α   predicted    -0.6300366E-04 ( -15.76%)
   displ. norm   :     0.3439889 α      lambda       -0.8292779E-04
   maximum displ.:     0.1807430 α      in ANC's #2, #1, #5, ...

........................................................................
.............................. CYCLE  131 ..............................
........................................................................

 iter      E             dE          RMSdq      gap      omega  full diag
   1    -84.5418649 -0.845419E+02  0.457E-02    2.06       0.0  T
   2    -84.5418660 -0.116578E-05  0.270E-02    2.06       1.0  T
   3    -84.5418609  0.512557E-05  0.100E-02    2.06       1.3  T
   4    -84.5418666 -0.568325E-05  0.171E-03    2.06       7.8  T
   5    -84.5418667 -0.116538E-06  0.550E-04    2.06      24.1  T
   6    -84.5418667 -0.196113E-08  0.308E-04    2.06      42.9  T
     SCC iter.                  ...        0 min,  0.046 sec
     gradient                   ...        0 min,  0.006 sec
 * total energy  :   -83.4381117 Eh     change       -0.6123169E-04 Eh
   gradient norm :     0.0022116 Eh/α   predicted    -0.4637107E-04 ( -24.27%)
   displ. norm   :     0.4056408 α      lambda       -0.8042809E-04
   maximum displ.:     0.2221590 α      in ANC's #2, #1, #5, ...

........................................................................
.............................. CYCLE  132 ..............................
........................................................................

 iter      E             dE          RMSdq      gap      omega  full diag
   1    -84.5414886 -0.845415E+02  0.536E-02    2.06       0.0  T
   2    -84.5414895 -0.923212E-06  0.316E-02    2.07       1.0  T
   3    -84.5414863  0.315142E-05  0.764E-03    2.07       1.7  T
   4    -84.5414898 -0.350489E-05  0.161E-03    2.07       8.2  T
   5    -84.5414899 -0.932428E-07  0.633E-04    2.07      20.9  T
   6    -84.5414899 -0.205024E-08  0.334E-04    2.07      39.7  T
     SCC iter.                  ...        0 min,  0.050 sec
     gradient                   ...        0 min,  0.007 sec
 * total energy  :   -83.4381770 Eh     change       -0.6537173E-04 Eh
   gradient norm :     0.0020769 Eh/α   predicted    -0.4683511E-04 ( -28.36%)
   displ. norm   :     0.3358002 α      lambda       -0.8944768E-04
   maximum displ.:     0.1901517 α      in ANC's #2, #1, #5, ...

........................................................................
.............................. CYCLE  133 ..............................
........................................................................

 iter      E             dE          RMSdq      gap      omega  full diag
   1    -84.5426145 -0.845426E+02  0.446E-02    2.07       0.0  T
   2    -84.5426155 -0.103698E-05  0.261E-02    2.08       1.0  T
   3    -84.5426140  0.158251E-05  0.562E-03    2.08       2.4  T
   4    -84.5426157 -0.175485E-05  0.157E-03    2.08       8.4  T
   5    -84.5426158 -0.104575E-06  0.541E-04    2.08      24.5  T
   6    -84.5426158 -0.404815E-08  0.281E-04    2.08      47.1  T
     SCC iter.                  ...        0 min,  0.045 sec
     gradient                   ...        0 min,  0.009 sec
 * total energy  :   -83.4382467 Eh     change       -0.6968365E-04 Eh
   gradient norm :     0.0030478 Eh/α   predicted    -0.4976768E-04 ( -28.58%)
   displ. norm   :     0.4531307 α      lambda       -0.9483178E-04
   maximum displ.:     0.2587204 α      in ANC's #2, #1, #5, ...

........................................................................
.............................. CYCLE  134 ..............................
........................................................................

 iter      E             dE          RMSdq      gap      omega  full diag
   1    -84.5406862 -0.845407E+02  0.608E-02    2.08       0.0  T
   2    -84.5406874 -0.119167E-05  0.357E-02    2.09       1.0  T
   3    -84.5406856  0.179681E-05  0.620E-03    2.09       2.1  T
   4    -84.5406877 -0.206319E-05  0.173E-03    2.09       7.6  T
   5    -84.5406878 -0.107557E-06  0.675E-04    2.09      19.6  T
   6    -84.5406878 -0.268177E-08  0.347E-04    2.09      38.2  T
     SCC iter.                  ...        0 min,  0.048 sec
     gradient                   ...        0 min,  0.010 sec
 * total energy  :   -83.4383200 Eh     change       -0.7328405E-04 Eh
   gradient norm :     0.0036800 Eh/α   predicted    -0.5715767E-04 ( -22.01%)
   displ. norm   :     0.3524704 α      lambda       -0.9423423E-04
   maximum displ.:     0.2058547 α      in ANC's #2, #5, #1, ...

........................................................................
.............................. CYCLE  135 ..............................
........................................................................

 iter      E             dE          RMSdq      gap      omega  full diag
   1    -84.5418191 -0.845418E+02  0.461E-02    2.09       0.0  T
   2    -84.5418205 -0.145558E-05  0.269E-02    2.10       1.0  T
   3    -84.5418194  0.110061E-05  0.556E-03    2.11       2.4  T
   4    -84.5418207 -0.125149E-05  0.176E-03    2.11       7.5  T
   5    -84.5418208 -0.129062E-06  0.640E-04    2.11      20.7  T
   6    -84.5418208 -0.831909E-08  0.317E-04    2.11      41.8  T
     SCC iter.                  ...        0 min,  0.044 sec
     gradient                   ...        0 min,  0.009 sec
 * total energy  :   -83.4383920 Eh     change       -0.7197419E-04 Eh
   gradient norm :     0.0031269 Eh/α   predicted    -0.5297445E-04 ( -26.40%)
   displ. norm   :     0.4811933 α      lambda       -0.1047155E-03
   maximum displ.:     0.2886273 α      in ANC's #2, #5, #1, ...

........................................................................
.............................. CYCLE  136 ..............................
........................................................................

 iter      E             dE          RMSdq      gap      omega  full diag
   1    -84.5409778 -0.845410E+02  0.628E-02    2.11       0.0  T
   2    -84.5409796 -0.174277E-05  0.369E-02    2.12       1.0  T
   3    -84.5409765  0.313282E-05  0.859E-03    2.12       1.5  T
   4    -84.5409800 -0.354588E-05  0.193E-03    2.12       6.9  T
   5    -84.5409801 -0.133960E-06  0.819E-04    2.12      16.2  T
   6    -84.5409802 -0.121472E-07  0.401E-04    2.12      33.0  T
     SCC iter.                  ...        0 min,  0.048 sec
     gradient                   ...        0 min,  0.012 sec
 * total energy  :   -83.4384670 Eh     change       -0.7501045E-04 Eh
   gradient norm :     0.0033362 Eh/α   predicted    -0.6448216E-04 ( -14.04%)
   displ. norm   :     0.3103743 α      lambda       -0.8777492E-04
   maximum displ.:     0.1906061 α      in ANC's #2, #5, #1, ...

........................................................................
.............................. CYCLE  137 ..............................
........................................................................

 iter      E             dE          RMSdq      gap      omega  full diag
   1    -84.5418304 -0.845418E+02  0.407E-02    2.13       0.0  T
   2    -84.5418310 -0.639491E-06  0.239E-02    2.13       1.0  T
   3    -84.5418302  0.816625E-06  0.481E-03    2.13       2.8  T
   4    -84.5418312 -0.102776E-05  0.108E-03    2.14      12.3  T
   5    -84.5418312 -0.247663E-07  0.577E-04    2.14      23.0  T
   6    -84.5418313 -0.544793E-08  0.272E-04    2.14      48.8  T
     SCC iter.                  ...        0 min,  0.049 sec
     gradient                   ...        0 min,  0.007 sec
 * total energy  :   -83.4385241 Eh     change       -0.5711019E-04 Eh
   gradient norm :     0.0023817 Eh/α   predicted    -0.4811830E-04 ( -15.74%)
   displ. norm   :     0.2578446 α      lambda       -0.5356075E-04
   maximum displ.:     0.1618102 α      in ANC's #2, #5, #1, ...

........................................................................
.............................. CYCLE  138 ..............................
........................................................................

 iter      E             dE          RMSdq      gap      omega  full diag
   1    -84.5424924 -0.845425E+02  0.344E-02    2.14       0.0  T
   2    -84.5424929 -0.419836E-06  0.203E-02    2.14       1.0  T
   3    -84.5424923  0.571435E-06  0.395E-03    2.14       3.4  T
   4    -84.5424930 -0.701207E-06  0.108E-03    2.14      12.2  T
   5    -84.5424930 -0.346656E-07  0.523E-04    2.14      25.3  T
   6    -84.5424930 -0.251013E-08  0.233E-04    2.14      56.7  T
     SCC iter.                  ...        0 min,  0.043 sec
     gradient                   ...        0 min,  0.013 sec
 * total energy  :   -83.4385617 Eh     change       -0.3763982E-04 Eh
   gradient norm :     0.0025494 Eh/α   predicted    -0.2856335E-04 ( -24.11%)
   displ. norm   :     0.1721845 α      lambda       -0.4093169E-04
   maximum displ.:     0.1134694 α      in ANC's #2, #1, #5, ...

........................................................................
.............................. CYCLE  139 ..............................
........................................................................

 iter      E             dE          RMSdq      gap      omega  full diag
   1    -84.5423554 -0.845424E+02  0.251E-02    2.13       0.0  T
   2    -84.5423560 -0.594349E-06  0.146E-02    2.13       1.0  T
   3    -84.5423560  0.320385E-07  0.187E-03    2.13       7.1  T
   4    -84.5423561 -0.797895E-07  0.730E-04    2.13      18.2  T
   5    -84.5423561 -0.195749E-07  0.350E-04    2.13      37.9  T
     SCC iter.                  ...        0 min,  0.035 sec
     gradient                   ...        0 min,  0.015 sec
 * total energy  :   -83.4385932 Eh     change       -0.3145549E-04 Eh
   gradient norm :     0.0022691 Eh/α   predicted    -0.2107600E-04 ( -33.00%)
   displ. norm   :     0.1613518 α      lambda       -0.4326518E-04
   maximum displ.:     0.1012201 α      in ANC's #2, #1, #5, ...

........................................................................
.............................. CYCLE  140 ..............................
........................................................................

 iter      E             dE          RMSdq      gap      omega  full diag
   1    -84.5428228 -0.845428E+02  0.253E-02    2.12       0.0  T
   2    -84.5428239 -0.114337E-05  0.146E-02    2.11       1.0  T
   3    -84.5428238  0.179257E-06  0.322E-03    2.11       4.1  T
   4    -84.5428240 -0.226351E-06  0.140E-03    2.11       9.5  T
   5    -84.5428241 -0.872608E-07  0.485E-04    2.11      27.3  T
   6    -84.5428241 -0.335962E-08  0.264E-04    2.11      50.2  T
     SCC iter.                  ...        0 min,  0.049 sec
     gradient                   ...        0 min,  0.005 sec
 * total energy  :   -83.4386237 Eh     change       -0.3049263E-04 Eh
   gradient norm :     0.0017287 Eh/α   predicted    -0.2220001E-04 ( -27.20%)
   displ. norm   :     0.2861657 α      lambda       -0.3789950E-04
   maximum displ.:     0.1920193 α      in ANC's #2, #1, #5, ...

........................................................................
.............................. CYCLE  141 ..............................
........................................................................

 iter      E             dE          RMSdq      gap      omega  full diag
   1    -84.5418203 -0.845418E+02  0.428E-02    2.09       0.0  T
   2    -84.5418228 -0.251036E-05  0.249E-02    2.08       1.0  T
   3    -84.5418222  0.622758E-06  0.496E-03    2.07       2.7  T
   4    -84.5418230 -0.802674E-06  0.188E-03    2.07       7.0  T
   5    -84.5418232 -0.161845E-06  0.695E-04    2.08      19.1  T
   6    -84.5418232 -0.462481E-08  0.413E-04    2.08      32.1  T
     SCC iter.                  ...        0 min,  0.047 sec
     gradient                   ...        0 min,  0.007 sec
 * total energy  :   -83.4386517 Eh     change       -0.2802342E-04 Eh
   gradient norm :     0.0036260 Eh/α   predicted    -0.1964087E-04 ( -29.91%)
   displ. norm   :     0.1089587 α      lambda       -0.2853924E-04
   maximum displ.:     0.0710867 α      in ANC's #2, #3, #5, ...

........................................................................
.............................. CYCLE  142 ..............................
........................................................................

 iter      E             dE          RMSdq      gap      omega  full diag
   1    -84.5417634 -0.845418E+02  0.152E-02    2.07       0.0  T
   2    -84.5417636 -0.214682E-06  0.885E-03    2.07       1.5  T
   3    -84.5417633  0.353774E-06  0.287E-03    2.07       4.6  T
   4    -84.5417637 -0.418041E-06  0.659E-04    2.07      20.1  T
   5    -84.5417637 -0.121973E-07  0.275E-04    2.07      48.2  T
     SCC iter.                  ...        0 min,  0.044 sec
     gradient                   ...        0 min,  0.004 sec
 * total energy  :   -83.4386725 Eh     change       -0.2082655E-04 Eh
   gradient norm :     0.0021943 Eh/α   predicted    -0.1444276E-04 ( -30.65%)
   displ. norm   :     0.1739306 α      lambda       -0.4176026E-04
   maximum displ.:     0.1087185 α      in ANC's #2, #9, #3, ...

........................................................................
.............................. CYCLE  143 ..............................
........................................................................

 iter      E             dE          RMSdq      gap      omega  full diag
   1    -84.5426348 -0.845426E+02  0.223E-02    2.06       0.0  T
   2    -84.5426352 -0.376876E-06  0.130E-02    2.06       1.0  T
   3    -84.5426344  0.786777E-06  0.413E-03    2.06       3.2  T
   4    -84.5426353 -0.929895E-06  0.929E-04    2.06      14.3  T
   5    -84.5426354 -0.245167E-07  0.438E-04    2.06      30.2  T
     SCC iter.                  ...        0 min,  0.035 sec
     gradient                   ...        0 min,  0.021 sec
 * total energy  :   -83.4387013 Eh     change       -0.2878014E-04 Eh
   gradient norm :     0.0017737 Eh/α   predicted    -0.2151573E-04 ( -25.24%)
   displ. norm   :     0.2703192 α      lambda       -0.2823282E-04
   maximum displ.:     0.1873713 α      in ANC's #2, #3, #9, ...

........................................................................
.............................. CYCLE  144 ..............................
........................................................................

 iter      E             dE          RMSdq      gap      omega  full diag
   1    -84.5419317 -0.845419E+02  0.332E-02    2.05       0.0  T
   2    -84.5419323 -0.599807E-06  0.195E-02    2.05       1.0  T
   3    -84.5419314  0.978706E-06  0.441E-03    2.05       3.0  T
   4    -84.5419326 -0.123836E-05  0.102E-03    2.05      13.0  T
   5    -84.5419326 -0.132819E-07  0.585E-04    2.05      22.6  T
   6    -84.5419326 -0.489649E-08  0.277E-04    2.05      47.8  T
     SCC iter.                  ...        0 min,  0.044 sec
     gradient                   ...        0 min,  0.011 sec
 * total energy  :   -83.4387255 Eh     change       -0.2419244E-04 Eh
   gradient norm :     0.0024372 Eh/α   predicted    -0.1457879E-04 ( -39.74%)
   displ. norm   :     0.1029364 α      lambda       -0.2226343E-04
   maximum displ.:     0.0664551 α      in ANC's #2, #9, #3, ...

........................................................................
.............................. CYCLE  145 ..............................
........................................................................

 iter      E             dE          RMSdq      gap      omega  full diag
   1    -84.5419446 -0.845419E+02  0.108E-02    2.05       0.0  T
   2    -84.5419447 -0.110560E-06  0.633E-03    2.05       2.1  T
   3    -84.5419446  0.124211E-06  0.176E-03    2.05       7.5  T
   4    -84.5419447 -0.148511E-06  0.519E-04    2.05      25.5  T
   5    -84.5419447 -0.981163E-08  0.225E-04    2.05      59.0  T
     SCC iter.                  ...        0 min,  0.043 sec
     gradient                   ...        0 min,  0.006 sec
 * total energy  :   -83.4387429 Eh     change       -0.1736752E-04 Eh
   gradient norm :     0.0021993 Eh/α   predicted    -0.1125347E-04 ( -35.20%)
   displ. norm   :     0.1898736 α      lambda       -0.4549186E-04
   maximum displ.:     0.1053168 α      in ANC's #2, #3, #9, ...

........................................................................
.............................. CYCLE  146 ..............................
........................................................................

 iter      E             dE          RMSdq      gap      omega  full diag
   1    -84.5427338 -0.845427E+02  0.191E-02    2.06       0.0  T
   2    -84.5427344 -0.614197E-06  0.112E-02    2.07       1.2  T
   3    -84.5427332  0.125842E-05  0.568E-03    2.07       2.3  T
   4    -84.5427347 -0.149420E-05  0.114E-03    2.07      11.6  T
   5    -84.5427347 -0.449709E-07  0.459E-04    2.07      28.9  T
   6    -84.5427347 -0.305853E-08  0.237E-04    2.07      55.8  T
     SCC iter.                  ...        0 min,  0.053 sec
     gradient                   ...        0 min,  0.008 sec
 * total energy  :   -83.4387748 Eh     change       -0.3191176E-04 Eh
   gradient norm :     0.0025492 Eh/α   predicted    -0.2356824E-04 ( -26.15%)
   displ. norm   :     0.2277450 α      lambda       -0.3851553E-04
   maximum displ.:     0.1464429 α      in ANC's #2, #3, #1, ...

........................................................................
.............................. CYCLE  147 ..............................
........................................................................

 iter      E             dE          RMSdq      gap      omega  full diag
   1    -84.5414750 -0.845415E+02  0.221E-02    2.08       0.0  T
   2    -84.5414760 -0.959252E-06  0.130E-02    2.08       1.0  T
   3    -84.5414742  0.176273E-05  0.691E-03    2.08       1.9  T
   4    -84.5414763 -0.207123E-05  0.141E-03    2.08       9.4  T
   5    -84.5414764 -0.844325E-07  0.429E-04    2.08      30.9  T
   6    -84.5414764 -0.253122E-08  0.238E-04    2.08      55.6  T
     SCC iter.                  ...        0 min,  0.046 sec
     gradient                   ...        0 min,  0.009 sec
 * total energy  :   -83.4388010 Eh     change       -0.2623326E-04 Eh
   gradient norm :     0.0030182 Eh/α   predicted    -0.2026128E-04 ( -22.76%)
   displ. norm   :     0.2463102 α      lambda       -0.3308600E-04
   maximum displ.:     0.1570177 α      in ANC's #2, #3, #4, ...

........................................................................
.............................. CYCLE  148 ..............................
........................................................................

 iter      E             dE          RMSdq      gap      omega  full diag
   1    -84.5409701 -0.845410E+02  0.226E-02    2.09       0.0  T
   2    -84.5409710 -0.835482E-06  0.133E-02    2.10       1.0  T
   3    -84.5409691  0.191722E-05  0.698E-03    2.10       1.9  T
   4    -84.5409713 -0.224235E-05  0.119E-03    2.10      11.2  T
   5    -84.5409713 -0.476321E-07  0.471E-04    2.10      28.1  T
   6    -84.5409713 -0.315657E-08  0.258E-04    2.10      51.4  T
     SCC iter.                  ...        0 min,  0.044 sec
     gradient                   ...        0 min,  0.010 sec
 * total energy  :   -83.4388258 Eh     change       -0.2479408E-04 Eh
   gradient norm :     0.0026540 Eh/α   predicted    -0.1754957E-04 ( -29.22%)
   displ. norm   :     0.2579636 α      lambda       -0.3852616E-04
   maximum displ.:     0.1688911 α      in ANC's #2, #3, #4, ...

........................................................................
.............................. CYCLE  149 ..............................
........................................................................

 iter      E             dE          RMSdq      gap      omega  full diag
   1    -84.5408089 -0.845408E+02  0.275E-02    2.11       0.0  T
   2    -84.5408101 -0.122981E-05  0.161E-02    2.12       1.0  T
   3    -84.5408076  0.252571E-05  0.796E-03    2.12       1.7  T
   4    -84.5408105 -0.291632E-05  0.144E-03    2.12       9.2  T
   5    -84.5408106 -0.744591E-07  0.522E-04    2.12      25.4  T
   6    -84.5408106 -0.404147E-08  0.281E-04    2.12      47.1  T
     SCC iter.                  ...        0 min,  0.045 sec
     gradient                   ...        0 min,  0.007 sec
 * total energy  :   -83.4388549 Eh     change       -0.2911892E-04 Eh
   gradient norm :     0.0020375 Eh/α   predicted    -0.2054924E-04 ( -29.43%)
   displ. norm   :     0.2428747 α      lambda       -0.3731756E-04
   maximum displ.:     0.1622119 α      in ANC's #2, #3, #4, ...

........................................................................
.............................. CYCLE  150 ..............................
........................................................................

 iter      E             dE          RMSdq      gap      omega  full diag
   1    -84.5408841 -0.845409E+02  0.321E-02    2.12       0.0  T
   2    -84.5408852 -0.109574E-05  0.188E-02    2.13       1.0  T
   3    -84.5408835  0.169501E-05  0.643E-03    2.13       2.1  T
   4    -84.5408854 -0.190364E-05  0.153E-03    2.14       8.7  T
   5    -84.5408855 -0.968980E-07  0.546E-04    2.14      24.3  T
   6    -84.5408855 -0.492795E-08  0.284E-04    2.14      46.6  T
     SCC iter.                  ...        0 min,  0.042 sec
     gradient                   ...        0 min,  0.016 sec
 * total energy  :   -83.4388818 Eh     change       -0.2685128E-04 Eh
   gradient norm :     0.0020658 Eh/α   predicted    -0.1976392E-04 ( -26.39%)
   displ. norm   :     0.2208029 α      lambda       -0.2809848E-04
   maximum displ.:     0.1531795 α      in ANC's #2, #3, #4, ...
 * RMSD in coord.:     0.7102381 α      energy gain  -0.1351946E-02 Eh

generating ANC from exact Hessian ...
Using Lindh-Hessian (1995)
 Shifting diagonal of input Hessian by   1.011404653254651E-002
 Lowest  eigenvalues of input Hessian
    0.010000    0.000000    0.000000    0.000000    0.000000    0.000000
    0.000000    0.010169    0.010196    0.010330    0.010444    0.010512
    0.010589    0.010742    0.010889    0.010984    0.011410    0.011545
 Highest eigenvalues
    1.957144    2.015471    2.116835    2.200727    2.312781    2.347998
 

........................................................................
.............................. CYCLE  151 ..............................
........................................................................

 iter      E             dE          RMSdq      gap      omega  full diag
   1    -84.5409849 -0.845410E+02  0.324E-02    2.13       0.0  T
   2    -84.5409854 -0.476784E-06  0.190E-02    2.14       1.0  T
   3    -84.5409847  0.692875E-06  0.403E-03    2.14       3.3  T
   4    -84.5409855 -0.811509E-06  0.107E-03    2.14      12.4  T
   5    -84.5409856 -0.380422E-07  0.477E-04    2.14      27.7  T
   6    -84.5409856 -0.350573E-08  0.224E-04    2.14      59.2  T
     SCC iter.                  ...        0 min,  0.051 sec
     gradient                   ...        0 min,  0.009 sec
 * total energy  :   -83.4389018 Eh     change       -0.2002997E-04 Eh
   gradient norm :     0.0020552 Eh/α   predicted     0.0000000E+00 (-100.00%)
   displ. norm   :     0.0245333 α      lambda       -0.1615513E-04
   maximum displ.:     0.0120737 α      in ANC's #10, #23, #4, ...

........................................................................
.............................. CYCLE  152 ..............................
........................................................................

 iter      E             dE          RMSdq      gap      omega  full diag
   1    -84.5418120 -0.845418E+02  0.728E-03    2.14       0.0  T
   2    -84.5418121 -0.863780E-07  0.427E-03    2.14       3.1  T
   3    -84.5418121  0.673666E-08  0.844E-04    2.13      15.7  T
   4    -84.5418121 -0.134429E-07  0.287E-04    2.13      46.1  T
     SCC iter.                  ...        0 min,  0.030 sec
     gradient                   ...        0 min,  0.009 sec
 * total energy  :   -83.4389141 Eh     change       -0.1230534E-04 Eh
   gradient norm :     0.0009069 Eh/α   predicted    -0.8215706E-05 ( -33.23%)
   displ. norm   :     0.0786162 α      lambda       -0.1844982E-04
   maximum displ.:     0.0354707 α      in ANC's #10, #4, #23, ...

........................................................................
.............................. CYCLE  153 ..............................
........................................................................

 iter      E             dE          RMSdq      gap      omega  full diag
   1    -84.5429877 -0.845430E+02  0.215E-02    2.13       0.0  T
   2    -84.5429884 -0.683463E-06  0.127E-02    2.12       1.0  T
   3    -84.5429877  0.713247E-06  0.425E-03    2.12       3.1  T
   4    -84.5429885 -0.790299E-06  0.137E-03    2.12       9.7  T
   5    -84.5429885 -0.825647E-07  0.424E-04    2.12      31.2  T
   6    -84.5429885 -0.178294E-08  0.237E-04    2.12      55.9  T
     SCC iter.                  ...        0 min,  0.046 sec
     gradient                   ...        0 min,  0.004 sec
 * total energy  :   -83.4389290 Eh     change       -0.1486446E-04 Eh
   gradient norm :     0.0017076 Eh/α   predicted    -0.9250827E-05 ( -37.77%)
   displ. norm   :     0.0492519 α      lambda       -0.7722220E-05
   maximum displ.:     0.0217015 α      in ANC's #4, #10, #9, ...

........................................................................
.............................. CYCLE  154 ..............................
........................................................................

 iter      E             dE          RMSdq      gap      omega  full diag
   1    -84.5424438 -0.845424E+02  0.139E-02    2.12       0.0  T
   2    -84.5424441 -0.222308E-06  0.831E-03    2.12       1.6  T
   3    -84.5424437  0.372791E-06  0.289E-03    2.12       4.6  T
   4    -84.5424441 -0.420999E-06  0.770E-04    2.12      17.2  T
   5    -84.5424441 -0.233354E-07  0.272E-04    2.12      48.7  T
     SCC iter.                  ...        0 min,  0.037 sec
     gradient                   ...        0 min,  0.007 sec
 * total energy  :   -83.4389378 Eh     change       -0.8766356E-05 Eh
   gradient norm :     0.0013398 Eh/α   predicted    -0.3865441E-05 ( -55.91%)
   displ. norm   :     0.1075724 α      lambda       -0.1345554E-04
   maximum displ.:     0.0482306 α      in ANC's #4, #9, #10, ...

........................................................................
.............................. CYCLE  155 ..............................
........................................................................

 iter      E             dE          RMSdq      gap      omega  full diag
   1    -84.5412910 -0.845413E+02  0.260E-02    2.11       0.0  T
   2    -84.5412914 -0.414179E-06  0.156E-02    2.11       1.0  T
   3    -84.5412907  0.713929E-06  0.406E-03    2.11       3.3  T
   4    -84.5412916 -0.860872E-06  0.107E-03    2.11      12.3  T
   5    -84.5412916 -0.313155E-07  0.516E-04    2.11      25.7  T
   6    -84.5412916 -0.298147E-08  0.259E-04    2.11      51.2  T
     SCC iter.                  ...        0 min,  0.045 sec
     gradient                   ...        0 min,  0.008 sec
 * total energy  :   -83.4389450 Eh     change       -0.7198506E-05 Eh
   gradient norm :     0.0016957 Eh/α   predicted    -0.6810993E-05 (  -5.38%)
   displ. norm   :     0.0326598 α      lambda       -0.7310348E-05
   maximum displ.:     0.0153234 α      in ANC's #4, #9, #1, ...

........................................................................
.............................. CYCLE  156 ..............................
........................................................................

 iter      E             dE          RMSdq      gap      omega  full diag
   1    -84.5416369 -0.845416E+02  0.101E-02    2.11       0.0  T
   2    -84.5416369 -0.409389E-07  0.599E-03    2.11       2.2  T
   3    -84.5416367  0.200926E-06  0.205E-03    2.11       6.5  T
   4    -84.5416369 -0.227361E-06  0.329E-04    2.11      40.2  T
   5    -84.5416369 -0.259749E-08  0.166E-04    2.11      79.6  T
     SCC iter.                  ...        0 min,  0.044 sec
     gradient                   ...        0 min,  0.005 sec
 * total energy  :   -83.4389514 Eh     change       -0.6469489E-05 Eh
   gradient norm :     0.0008940 Eh/α   predicted    -0.3661735E-05 ( -43.40%)
   displ. norm   :     0.0342571 α      lambda       -0.3277096E-05
   maximum displ.:     0.0171121 α      in ANC's #4, #9, #1, ...

........................................................................
.............................. CYCLE  157 ..............................
........................................................................

 iter      E             dE          RMSdq      gap      omega  full diag
   1    -84.5420104 -0.845420E+02  0.595E-03    2.11       0.0  T
   2    -84.5420104 -0.585782E-07  0.352E-03    2.11       3.8  T
   3    -84.5420103  0.159124E-06  0.200E-03    2.11       6.6  T
   4    -84.5420105 -0.190597E-06  0.313E-04    2.11      42.3  T
   5    -84.5420105 -0.277755E-08  0.135E-04    2.11      98.3  T
     SCC iter.                  ...        0 min,  0.040 sec
     gradient                   ...        0 min,  0.004 sec
 * total energy  :   -83.4389554 Eh     change       -0.3966919E-05 Eh
   gradient norm :     0.0004929 Eh/α   predicted    -0.1642278E-05 ( -58.60%)
   displ. norm   :     0.0856011 α      lambda       -0.5441009E-05
   maximum displ.:     0.0428017 α      in ANC's #4, #9, #1, ...

........................................................................
.............................. CYCLE  158 ..............................
........................................................................

 iter      E             dE          RMSdq      gap      omega  full diag
   1    -84.5422198 -0.845422E+02  0.138E-02    2.12       0.0  T
   2    -84.5422201 -0.332251E-06  0.815E-03    2.12       1.6  T
   3    -84.5422193  0.772877E-06  0.438E-03    2.12       3.0  T
   4    -84.5422202 -0.908458E-06  0.732E-04    2.12      18.1  T
   5    -84.5422203 -0.172818E-07  0.278E-04    2.12      47.6  T
     SCC iter.                  ...        0 min,  0.047 sec
     gradient                   ...        0 min,  0.005 sec
 * total energy  :   -83.4389610 Eh     change       -0.5580483E-05 Eh
   gradient norm :     0.0005800 Eh/α   predicted    -0.2736159E-05 ( -50.97%)
   displ. norm   :     0.0699385 α      lambda       -0.2812188E-05
   maximum displ.:     0.0353212 α      in ANC's #4, #1, #9, ...

........................................................................
.............................. CYCLE  159 ..............................
........................................................................

 iter      E             dE          RMSdq      gap      omega  full diag
   1    -84.5421421 -0.845421E+02  0.103E-02    2.13       0.0  T
   2    -84.5421422 -0.185170E-06  0.604E-03    2.13       2.2  T
   3    -84.5421419  0.300613E-06  0.274E-03    2.13       4.8  T
   4    -84.5421423 -0.344465E-06  0.586E-04    2.13      22.6  T
   5    -84.5421423 -0.132970E-07  0.206E-04    2.13      64.4  T
     SCC iter.                  ...        0 min,  0.038 sec
     gradient                   ...        0 min,  0.007 sec
 * total energy  :   -83.4389641 Eh     change       -0.3102325E-05 Eh
   gradient norm :     0.0005674 Eh/α   predicted    -0.1409467E-05 ( -54.57%)
   displ. norm   :     0.0694808 α      lambda       -0.2562210E-05
   maximum displ.:     0.0343245 α      in ANC's #4, #1, #9, ...

........................................................................
.............................. CYCLE  160 ..............................
........................................................................

 iter      E             dE          RMSdq      gap      omega  full diag
   1    -84.5419957 -0.845420E+02  0.867E-03    2.14       0.0  T
   2    -84.5419959 -0.151466E-06  0.511E-03    2.14       2.6  T
   3    -84.5419956  0.258077E-06  0.260E-03    2.14       5.1  T
   4    -84.5419959 -0.299780E-06  0.509E-04    2.14      26.0  T
   5    -84.5419959 -0.971242E-08  0.171E-04    2.14      77.5  T
     SCC iter.                  ...        0 min,  0.036 sec
     gradient                   ...        0 min,  0.004 sec
 * total energy  :   -83.4389669 Eh     change       -0.2864796E-05 Eh
   gradient norm :     0.0004411 Eh/α   predicted    -0.1286572E-05 ( -55.09%)
   displ. norm   :     0.0663377 α      lambda       -0.2394271E-05
   maximum displ.:     0.0323349 α      in ANC's #1, #4, #3, ...

........................................................................
.............................. CYCLE  161 ..............................
........................................................................

 iter      E             dE          RMSdq      gap      omega  full diag
   1    -84.5418301 -0.845418E+02  0.698E-03    2.14       0.0  T
   2    -84.5418302 -0.576909E-07  0.412E-03    2.15       3.2  T
   3    -84.5418301  0.104426E-06  0.156E-03    2.15       8.5  T
   4    -84.5418302 -0.118048E-06  0.350E-04    2.15      37.8  T
   5    -84.5418302 -0.462211E-08  0.125E-04    2.15     106.0  T
     SCC iter.                  ...        0 min,  0.038 sec
     gradient                   ...        0 min,  0.009 sec
 * total energy  :   -83.4389696 Eh     change       -0.2678609E-05 Eh
   gradient norm :     0.0003519 Eh/α   predicted    -0.1204178E-05 ( -55.04%)
   displ. norm   :     0.0569988 α      lambda       -0.2082674E-05
   maximum displ.:     0.0300989 α      in ANC's #1, #4, #3, ...

........................................................................
.............................. CYCLE  162 ..............................
........................................................................

 iter      E             dE          RMSdq      gap      omega  full diag
   1    -84.5418013 -0.845418E+02  0.605E-03    2.15       0.0  T
   2    -84.5418013 -0.170184E-07  0.358E-03    2.15       3.7  T
   3    -84.5418013  0.367320E-07  0.915E-04    2.15      14.5  T
   4    -84.5418013 -0.439078E-07  0.224E-04    2.15      59.2  T
     SCC iter.                  ...        0 min,  0.030 sec
     gradient                   ...        0 min,  0.006 sec
 * total energy  :   -83.4389721 Eh     change       -0.2450086E-05 Eh
   gradient norm :     0.0004563 Eh/α   predicted    -0.1044573E-05 ( -57.37%)
   displ. norm   :     0.0604247 α      lambda       -0.2235101E-05
   maximum displ.:     0.0331418 α      in ANC's #1, #3, #4, ...

........................................................................
.............................. CYCLE  163 ..............................
........................................................................

 iter      E             dE          RMSdq      gap      omega  full diag
   1    -84.5417603 -0.845418E+02  0.750E-03    2.14       0.0  T
   2    -84.5417604 -0.443312E-07  0.440E-03    2.14       3.0  T
   3    -84.5417604  0.313735E-07  0.991E-04    2.14      13.4  T
   4    -84.5417604 -0.417362E-07  0.237E-04    2.14      55.8  T
     SCC iter.                  ...        0 min,  0.035 sec
     gradient                   ...        0 min,  0.009 sec
 * total energy  :   -83.4389747 Eh     change       -0.2607003E-05 Eh
   gradient norm :     0.0004371 Eh/α   predicted    -0.1121458E-05 ( -56.98%)
   displ. norm   :     0.0690279 α      lambda       -0.2176289E-05
   maximum displ.:     0.0382911 α      in ANC's #1, #3, #4, ...

........................................................................
.............................. CYCLE  164 ..............................
........................................................................

 iter      E             dE          RMSdq      gap      omega  full diag
   1    -84.5418658 -0.845419E+02  0.949E-03    2.14       0.0  T
   2    -84.5418659 -0.763296E-07  0.557E-03    2.14       2.4  T
   3    -84.5418659  0.534080E-07  0.129E-03    2.14      10.2  T
   4    -84.5418659 -0.715555E-07  0.305E-04    2.14      43.4  T
   5    -84.5418659 -0.211803E-08  0.138E-04    2.14      96.1  T
     SCC iter.                  ...        0 min,  0.036 sec
     gradient                   ...        0 min,  0.009 sec
 * total energy  :   -83.4389772 Eh     change       -0.2508225E-05 Eh
   gradient norm :     0.0003599 Eh/α   predicted    -0.1094670E-05 ( -56.36%)
   displ. norm   :     0.0662065 α      lambda       -0.1936587E-05
   maximum displ.:     0.0378694 α      in ANC's #1, #3, #4, ...

........................................................................
.............................. CYCLE  165 ..............................
........................................................................

 iter      E             dE          RMSdq      gap      omega  full diag
   1    -84.5418818 -0.845419E+02  0.920E-03    2.13       0.0  T
   2    -84.5418819 -0.807149E-07  0.539E-03    2.13       2.5  T
   3    -84.5418819  0.363708E-07  0.117E-03    2.13      11.3  T
   4    -84.5418819 -0.491325E-07  0.304E-04    2.13      43.6  T
   5    -84.5418819 -0.252685E-08  0.130E-04    2.13     101.5  T
     SCC iter.                  ...        0 min,  0.034 sec
     gradient                   ...        0 min,  0.011 sec
 * total energy  :   -83.4389794 Eh     change       -0.2180466E-05 Eh
   gradient norm :     0.0004840 Eh/α   predicted    -0.9750063E-06 ( -55.28%)
   displ. norm   :     0.0698837 α      lambda       -0.2032770E-05
   maximum displ.:     0.0397350 α      in ANC's #1, #3, #4, ...

........................................................................
.............................. CYCLE  166 ..............................
........................................................................

 iter      E             dE          RMSdq      gap      omega  full diag
   1    -84.5420097 -0.845420E+02  0.970E-03    2.13       0.0  T
   2    -84.5420098 -0.430471E-07  0.572E-03    2.13       2.3  T
   3    -84.5420098  0.112909E-07  0.753E-04    2.13      17.6  T
   4    -84.5420098 -0.227813E-07  0.266E-04    2.13      49.8  T
     SCC iter.                  ...        0 min,  0.033 sec
     gradient                   ...        0 min,  0.005 sec
 * total energy  :   -83.4389818 Eh     change       -0.2483478E-05 Eh
   gradient norm :     0.0003658 Eh/α   predicted    -0.1021375E-05 ( -58.87%)
   displ. norm   :     0.1022911 α      lambda       -0.2936400E-05
   maximum displ.:     0.0576616 α      in ANC's #1, #3, #4, ...

........................................................................
.............................. CYCLE  167 ..............................
........................................................................

 iter      E             dE          RMSdq      gap      omega  full diag
   1    -84.5419740 -0.845420E+02  0.137E-02    2.12       0.0  T
   2    -84.5419740 -0.522067E-07  0.811E-03    2.12       1.6  T
   3    -84.5419741 -0.479639E-08  0.691E-04    2.12      19.2  T
   4    -84.5419741 -0.147738E-07  0.334E-04    2.12      39.6  T
     SCC iter.                  ...        0 min,  0.020 sec
     gradient                   ...        0 min,  0.018 sec
 * total energy  :   -83.4389855 Eh     change       -0.3656813E-05 Eh
   gradient norm :     0.0005163 Eh/α   predicted    -0.1478260E-05 ( -59.58%)
   displ. norm   :     0.1505378 α      lambda       -0.4266515E-05
   maximum displ.:     0.0847657 α      in ANC's #1, #3, #4, ...

........................................................................
.............................. CYCLE  168 ..............................
........................................................................

 iter      E             dE          RMSdq      gap      omega  full diag
   1    -84.5419444 -0.845419E+02  0.192E-02    2.12       0.0  T
   2    -84.5419445 -0.105901E-06  0.113E-02    2.13       1.2  T
   3    -84.5419442  0.284043E-06  0.254E-03    2.13       5.2  T
   4    -84.5419446 -0.338428E-06  0.536E-04    2.13      24.7  T
   5    -84.5419446 -0.510597E-08  0.296E-04    2.13      44.7  T
     SCC iter.                  ...        0 min,  0.042 sec
     gradient                   ...        0 min,  0.006 sec
 * total energy  :   -83.4389905 Eh     change       -0.5029970E-05 Eh
   gradient norm :     0.0006852 Eh/α   predicted    -0.2156527E-05 ( -57.13%)
   displ. norm   :     0.1843083 α      lambda       -0.4518658E-05
   maximum displ.:     0.1038412 α      in ANC's #1, #3, #4, ...

........................................................................
.............................. CYCLE  169 ..............................
........................................................................

 iter      E             dE          RMSdq      gap      omega  full diag
   1    -84.5415972 -0.845416E+02  0.234E-02    2.13       0.0  T
   2    -84.5415974 -0.206229E-06  0.139E-02    2.13       1.0  T
   3    -84.5415971  0.293515E-06  0.277E-03    2.13       4.8  T
   4    -84.5415974 -0.364245E-06  0.726E-04    2.13      18.2  T
   5    -84.5415974 -0.117046E-07  0.387E-04    2.13      34.2  T
     SCC iter.                  ...        0 min,  0.047 sec
     gradient                   ...        0 min,  0.005 sec
 * total energy  :   -83.4389956 Eh     change       -0.5110872E-05 Eh
   gradient norm :     0.0006473 Eh/α   predicted    -0.2296487E-05 ( -55.07%)
   displ. norm   :     0.1768879 α      lambda       -0.4463700E-05
   maximum displ.:     0.1006889 α      in ANC's #1, #3, #4, ...

........................................................................
.............................. CYCLE  170 ..............................
........................................................................

 iter      E             dE          RMSdq      gap      omega  full diag
   1    -84.5415857 -0.845416E+02  0.214E-02    2.14       0.0  T
   2    -84.5415861 -0.351626E-06  0.126E-02    2.14       1.1  T
   3    -84.5415853  0.741689E-06  0.417E-03    2.14       3.2  T
   4    -84.5415862 -0.836497E-06  0.840E-04    2.14      15.8  T
   5    -84.5415862 -0.260097E-07  0.348E-04    2.14      38.0  T
     SCC iter.                  ...        0 min,  0.047 sec
     gradient                   ...        0 min,  0.005 sec
 * total energy  :   -83.4390007 Eh     change       -0.5014764E-05 Eh
   gradient norm :     0.0005895 Eh/α   predicted    -0.2266102E-05 ( -54.81%)
   displ. norm   :     0.1314519 α      lambda       -0.3414575E-05
   maximum displ.:     0.0756292 α      in ANC's #1, #3, #4, ...

........................................................................
.............................. CYCLE  171 ..............................
........................................................................

 iter      E             dE          RMSdq      gap      omega  full diag
   1    -84.5416233 -0.845416E+02  0.164E-02    2.14       0.0  T
   2    -84.5416235 -0.178022E-06  0.964E-03    2.15       1.4  T
   3    -84.5416231  0.419795E-06  0.305E-03    2.15       4.3  T
   4    -84.5416236 -0.470704E-06  0.617E-04    2.15      21.5  T
   5    -84.5416236 -0.140599E-07  0.244E-04    2.15      54.3  T
     SCC iter.                  ...        0 min,  0.039 sec
     gradient                   ...        0 min,  0.005 sec
 * total energy  :   -83.4390048 Eh     change       -0.4145705E-05 Eh
   gradient norm :     0.0003881 Eh/α   predicted    -0.1722254E-05 ( -58.46%)
   displ. norm   :     0.1416993 α      lambda       -0.3767813E-05
   maximum displ.:     0.0826111 α      in ANC's #3, #1, #4, ...

........................................................................
.............................. CYCLE  172 ..............................
........................................................................

 iter      E             dE          RMSdq      gap      omega  full diag
   1    -84.5415610 -0.845416E+02  0.177E-02    2.15       0.0  T
   2    -84.5415611 -0.165716E-06  0.105E-02    2.15       1.3  T
   3    -84.5415606  0.531137E-06  0.328E-03    2.15       4.0  T
   4    -84.5415612 -0.596661E-06  0.599E-04    2.15      22.1  T
   5    -84.5415612 -0.115815E-07  0.245E-04    2.15      54.0  T
     SCC iter.                  ...        0 min,  0.038 sec
     gradient                   ...        0 min,  0.008 sec
 * total energy  :   -83.4390093 Eh     change       -0.4459392E-05 Eh
   gradient norm :     0.0005380 Eh/α   predicted    -0.1904759E-05 ( -57.29%)
   displ. norm   :     0.1039610 α      lambda       -0.2898204E-05
   maximum displ.:     0.0633503 α      in ANC's #3, #1, #4, ...

........................................................................
.............................. CYCLE  173 ..............................
........................................................................

 iter      E             dE          RMSdq      gap      omega  full diag
   1    -84.5416380 -0.845416E+02  0.138E-02    2.15       0.0  T
   2    -84.5416381 -0.699334E-07  0.813E-03    2.15       1.6  T
   3    -84.5416377  0.335442E-06  0.251E-03    2.15       5.3  T
   4    -84.5416381 -0.377301E-06  0.411E-04    2.15      32.2  T
   5    -84.5416381 -0.458631E-08  0.192E-04    2.15      68.9  T
     SCC iter.                  ...        0 min,  0.038 sec
     gradient                   ...        0 min,  0.009 sec
 * total energy  :   -83.4390129 Eh     change       -0.3597598E-05 Eh
   gradient norm :     0.0004631 Eh/α   predicted    -0.1457869E-05 ( -59.48%)
   displ. norm   :     0.0952047 α      lambda       -0.2759308E-05
   maximum displ.:     0.0592560 α      in ANC's #3, #1, #4, ...

........................................................................
.............................. CYCLE  174 ..............................
........................................................................

 iter      E             dE          RMSdq      gap      omega  full diag
   1    -84.5416243 -0.845416E+02  0.133E-02    2.15       0.0  T
   2    -84.5416243 -0.515217E-07  0.785E-03    2.15       1.7  T
   3    -84.5416242  0.150429E-06  0.168E-03    2.15       7.9  T
   4    -84.5416243 -0.175045E-06  0.375E-04    2.15      35.3  T
   5    -84.5416243 -0.398592E-08  0.188E-04    2.15      70.5  T
     SCC iter.                  ...        0 min,  0.036 sec
     gradient                   ...        0 min,  0.011 sec
 * total energy  :   -83.4390165 Eh     change       -0.3624210E-05 Eh
   gradient norm :     0.0003508 Eh/α   predicted    -0.1388527E-05 ( -61.69%)
   displ. norm   :     0.1039998 α      lambda       -0.3152190E-05
   maximum displ.:     0.0659844 α      in ANC's #3, #1, #4, ...

........................................................................
.............................. CYCLE  175 ..............................
........................................................................

 iter      E             dE          RMSdq      gap      omega  full diag
   1    -84.5416544 -0.845417E+02  0.155E-02    2.15       0.0  T
   2    -84.5416545 -0.605373E-07  0.915E-03    2.15       1.4  T
   3    -84.5416544  0.120444E-06  0.154E-03    2.15       8.6  T
   4    -84.5416545 -0.145506E-06  0.391E-04    2.15      33.9  T
   5    -84.5416545 -0.405154E-08  0.206E-04    2.15      64.2  T
     SCC iter.                  ...        0 min,  0.037 sec
     gradient                   ...        0 min,  0.009 sec
 * total energy  :   -83.4390206 Eh     change       -0.4147635E-05 Eh
   gradient norm :     0.0002827 Eh/α   predicted    -0.1587691E-05 ( -61.72%)
   displ. norm   :     0.1155989 α      lambda       -0.3325367E-05
   maximum displ.:     0.0739774 α      in ANC's #3, #1, #4, ...

........................................................................
.............................. CYCLE  176 ..............................
........................................................................

 iter      E             dE          RMSdq      gap      omega  full diag
   1    -84.5416279 -0.845416E+02  0.177E-02    2.15       0.0  T
   2    -84.5416279 -0.654443E-07  0.104E-02    2.15       1.3  T
   3    -84.5416279  0.604539E-07  0.120E-03    2.15      11.0  T
   4    -84.5416280 -0.843800E-07  0.383E-04    2.15      34.6  T
   5    -84.5416280 -0.313476E-08  0.218E-04    2.15      60.7  T
     SCC iter.                  ...        0 min,  0.039 sec
     gradient                   ...        0 min,  0.009 sec
 * total energy  :   -83.4390249 Eh     change       -0.4308045E-05 Eh
   gradient norm :     0.0003036 Eh/α   predicted    -0.1675837E-05 ( -61.10%)
   displ. norm   :     0.1145498 α      lambda       -0.2992824E-05
   maximum displ.:     0.0738789 α      in ANC's #3, #1, #2, ...

........................................................................
.............................. CYCLE  177 ..............................
........................................................................

 iter      E             dE          RMSdq      gap      omega  full diag
   1    -84.5416027 -0.845416E+02  0.181E-02    2.15       0.0  T
   2    -84.5416027 -0.562087E-07  0.107E-02    2.15       1.2  T
   3    -84.5416027  0.235733E-07  0.901E-04    2.15      14.7  T
   4    -84.5416027 -0.436982E-07  0.336E-04    2.15      39.4  T
     SCC iter.                  ...        0 min,  0.030 sec
     gradient                   ...        0 min,  0.006 sec
 * total energy  :   -83.4390288 Eh     change       -0.3840743E-05 Eh
   gradient norm :     0.0003591 Eh/α   predicted    -0.1507655E-05 ( -60.75%)
   displ. norm   :     0.1067602 α      lambda       -0.2547369E-05
   maximum displ.:     0.0700503 α      in ANC's #3, #1, #2, ...

........................................................................
.............................. CYCLE  178 ..............................
........................................................................

 iter      E             dE          RMSdq      gap      omega  full diag
   1    -84.5416214 -0.845416E+02  0.165E-02    2.15       0.0  T
   2    -84.5416214 -0.459368E-07  0.973E-03    2.15       1.4  T
   3    -84.5416214  0.571307E-07  0.117E-03    2.15      11.4  T
   4    -84.5416214 -0.751750E-07  0.358E-04    2.15      37.0  T
   5    -84.5416214 -0.277862E-08  0.185E-04    2.15      71.6  T
     SCC iter.                  ...        0 min,  0.041 sec
     gradient                   ...        0 min,  0.004 sec
 * total energy  :   -83.4390321 Eh     change       -0.3266898E-05 Eh
   gradient norm :     0.0004354 Eh/α   predicted    -0.1283486E-05 ( -60.71%)
   displ. norm   :     0.1036618 α      lambda       -0.2294390E-05
   maximum displ.:     0.0675928 α      in ANC's #3, #1, #2, ...

........................................................................
.............................. CYCLE  179 ..............................
........................................................................

 iter      E             dE          RMSdq      gap      omega  full diag
   1    -84.5415459 -0.845415E+02  0.163E-02    2.15       0.0  T
   2    -84.5415459 -0.495874E-07  0.963E-03    2.15       1.4  T
   3    -84.5415459  0.372259E-07  0.104E-03    2.15      12.7  T
   4    -84.5415459 -0.525788E-07  0.355E-04    2.15      37.3  T
   5    -84.5415459 -0.304661E-08  0.186E-04    2.15      71.2  T
     SCC iter.                  ...        0 min,  0.037 sec
     gradient                   ...        0 min,  0.009 sec
 * total energy  :   -83.4390349 Eh     change       -0.2815977E-05 Eh
   gradient norm :     0.0002884 Eh/α   predicted    -0.1156690E-05 ( -58.92%)
   displ. norm   :     0.0975631 α      lambda       -0.2122625E-05
   maximum displ.:     0.0651836 α      in ANC's #3, #1, #2, ...

........................................................................
.............................. CYCLE  180 ..............................
........................................................................

 iter      E             dE          RMSdq      gap      omega  full diag
   1    -84.5415238 -0.845415E+02  0.140E-02    2.16       0.0  T
   2    -84.5415238 -0.533454E-07  0.825E-03    2.16       1.6  T
   3    -84.5415237  0.790043E-07  0.131E-03    2.16      10.1  T
   4    -84.5415238 -0.937171E-07  0.358E-04    2.16      37.0  T
   5    -84.5415238 -0.408552E-08  0.170E-04    2.16      78.0  T
     SCC iter.                  ...        0 min,  0.035 sec
     gradient                   ...        0 min,  0.007 sec
 * total energy  :   -83.4390376 Eh     change       -0.2703222E-05 Eh
   gradient norm :     0.0003296 Eh/α   predicted    -0.1066750E-05 ( -60.54%)
   displ. norm   :     0.0889537 α      lambda       -0.1909623E-05
   maximum displ.:     0.0590691 α      in ANC's #3, #1, #2, ...

........................................................................
.............................. CYCLE  181 ..............................
........................................................................

 iter      E             dE          RMSdq      gap      omega  full diag
   1    -84.5415528 -0.845416E+02  0.121E-02    2.16       0.0  T
   2    -84.5415529 -0.499665E-07  0.713E-03    2.16       1.9  T
   3    -84.5415528  0.841828E-07  0.132E-03    2.16      10.0  T
   4    -84.5415529 -0.957837E-07  0.347E-04    2.16      38.2  T
   5    -84.5415529 -0.450471E-08  0.143E-04    2.16      92.3  T
     SCC iter.                  ...        0 min,  0.039 sec
     gradient                   ...        0 min,  0.007 sec
 * total energy  :   -83.4390402 Eh     change       -0.2636777E-05 Eh
   gradient norm :     0.0003492 Eh/α   predicted    -0.9607109E-06 ( -63.56%)
   displ. norm   :     0.1398267 α      lambda       -0.3114897E-05
   maximum displ.:     0.0918241 α      in ANC's #3, #1, #2, ...

........................................................................
.............................. CYCLE  182 ..............................
........................................................................

 iter      E             dE          RMSdq      gap      omega  full diag
   1    -84.5413581 -0.845414E+02  0.182E-02    2.16       0.0  T
   2    -84.5413583 -0.125194E-06  0.107E-02    2.16       1.2  T
   3    -84.5413579  0.330224E-06  0.255E-03    2.16       5.2  T
   4    -84.5413583 -0.370085E-06  0.535E-04    2.16      24.8  T
   5    -84.5413583 -0.103718E-07  0.222E-04    2.16      59.7  T
     SCC iter.                  ...        0 min,  0.037 sec
     gradient                   ...        0 min,  0.009 sec
 * total energy  :   -83.4390445 Eh     change       -0.4260707E-05 Eh
   gradient norm :     0.0004143 Eh/α   predicted    -0.1575074E-05 ( -63.03%)
   displ. norm   :     0.2318200 α      lambda       -0.5057741E-05
   maximum displ.:     0.1524104 α      in ANC's #3, #1, #2, ...

........................................................................
.............................. CYCLE  183 ..............................
........................................................................

 iter      E             dE          RMSdq      gap      omega  full diag
   1    -84.5412995 -0.845413E+02  0.291E-02    2.17       0.0  T
   2    -84.5412999 -0.356243E-06  0.171E-02    2.17       1.0  T
   3    -84.5412990  0.900682E-06  0.420E-03    2.17       3.1  T
   4    -84.5413000 -0.100433E-05  0.913E-04    2.17      14.5  T
   5    -84.5413000 -0.320403E-07  0.353E-04    2.17      37.5  T
   6    -84.5413000 -0.962856E-09  0.191E-04    2.17      69.4  T
     SCC iter.                  ...        0 min,  0.046 sec
     gradient                   ...        0 min,  0.006 sec
 * total energy  :   -83.4390512 Eh     change       -0.6714561E-05 Eh
   gradient norm :     0.0004664 Eh/α   predicted    -0.2590727E-05 ( -61.42%)
   displ. norm   :     0.3769337 α      lambda       -0.7369164E-05
   maximum displ.:     0.2457653 α      in ANC's #3, #1, #2, ...
 * RMSD in coord.:     0.2323295 α      energy gain  -0.1693904E-03 Eh

generating ANC from exact Hessian ...
Using Lindh-Hessian (1995)
 Shifting diagonal of input Hessian by   1.011272604566490E-002
 Lowest  eigenvalues of input Hessian
    0.010000    0.000000    0.000000    0.000000    0.000000    0.000000
    0.000000    0.010160    0.010191    0.010315    0.010426    0.010515
    0.010569    0.010745    0.010912    0.011074    0.011404    0.011545
 Highest eigenvalues
    1.958001    2.014649    2.114981    2.198481    2.313600    2.347133
 

........................................................................
.............................. CYCLE  184 ..............................
........................................................................

 iter      E             dE          RMSdq      gap      omega  full diag
   1    -84.5404634 -0.845405E+02  0.473E-02    2.17       0.0  T
   2    -84.5404643 -0.877963E-06  0.278E-02    2.18       1.0  T
   3    -84.5404619  0.237093E-05  0.686E-03    2.18       1.9  T
   4    -84.5404645 -0.264998E-05  0.143E-03    2.18       9.3  T
   5    -84.5404646 -0.756546E-07  0.564E-04    2.18      23.5  T
   6    -84.5404646 -0.237206E-08  0.289E-04    2.18      45.8  T
     SCC iter.                  ...        0 min,  0.050 sec
     gradient                   ...        0 min,  0.009 sec
 * total energy  :   -83.4390601 Eh     change       -0.8868638E-05 Eh
   gradient norm :     0.0010540 Eh/α   predicted     0.0000000E+00 (-100.00%)
   displ. norm   :     0.0161378 α      lambda       -0.1040850E-05
   maximum displ.:     0.0066808 α      in ANC's #14, #2, #12, ...

........................................................................
.............................. CYCLE  185 ..............................
........................................................................

 iter      E             dE          RMSdq      gap      omega  full diag
   1    -84.5414535 -0.845415E+02  0.385E-03    2.18       0.0  T
   2    -84.5414535 -0.443158E-07  0.226E-03    2.18       5.9  T
   3    -84.5414535  0.521096E-08  0.736E-04    2.18      18.0  T
   4    -84.5414535 -0.128690E-07  0.164E-04    2.18      80.7  T
     SCC iter.                  ...        0 min,  0.022 sec
     gradient                   ...        0 min,  0.016 sec
 * total energy  :   -83.4390636 Eh     change       -0.3556450E-05 Eh
   gradient norm :     0.0003841 Eh/α   predicted    -0.1832957E-05 ( -48.46%)
   displ. norm   :     0.0276737 α      lambda       -0.2650576E-05
   maximum displ.:     0.0125345 α      in ANC's #2, #14, #9, ...

........................................................................
.............................. CYCLE  186 ..............................
........................................................................

 iter      E             dE          RMSdq      gap      omega  full diag
   1    -84.5417817 -0.845418E+02  0.520E-03    2.18       0.0  T
   2    -84.5417817 -0.362791E-07  0.306E-03    2.18       4.3  T
   3    -84.5417817  0.998784E-08  0.659E-04    2.18      20.1  T
   4    -84.5417817 -0.166747E-07  0.249E-04    2.18      53.2  T
     SCC iter.                  ...        0 min,  0.029 sec
     gradient                   ...        0 min,  0.009 sec
 * total energy  :   -83.4390664 Eh     change       -0.2823113E-05 Eh
   gradient norm :     0.0005244 Eh/α   predicted    -0.1331079E-05 ( -52.85%)
   displ. norm   :     0.0482241 α      lambda       -0.3177874E-05
   maximum displ.:     0.0236063 α      in ANC's #2, #14, #22, ...

........................................................................
.............................. CYCLE  187 ..............................
........................................................................

 iter      E             dE          RMSdq      gap      omega  full diag
   1    -84.5417604 -0.845418E+02  0.863E-03    2.18       0.0  T
   2    -84.5417605 -0.469277E-07  0.509E-03    2.18       2.6  T
   3    -84.5417604  0.782331E-07  0.138E-03    2.18       9.6  T
   4    -84.5417605 -0.987556E-07  0.375E-04    2.18      35.3  T
   5    -84.5417605 -0.269067E-08  0.193E-04    2.18      68.8  T
     SCC iter.                  ...        0 min,  0.036 sec
     gradient                   ...        0 min,  0.009 sec
 * total energy  :   -83.4390686 Eh     change       -0.2189889E-05 Eh
   gradient norm :     0.0006712 Eh/α   predicted    -0.1619077E-05 ( -26.07%)
   displ. norm   :     0.0311535 α      lambda       -0.2223732E-05
   maximum displ.:     0.0170375 α      in ANC's #2, #9, #7, ...

........................................................................
.............................. CYCLE  188 ..............................
........................................................................

 iter      E             dE          RMSdq      gap      omega  full diag
   1    -84.5415489 -0.845415E+02  0.603E-03    2.17       0.0  T
   2    -84.5415489 -0.314633E-07  0.355E-03    2.17       3.7  T
   3    -84.5415489  0.175579E-07  0.689E-04    2.17      19.2  T
   4    -84.5415489 -0.213363E-07  0.300E-04    2.17      44.2  T
     SCC iter.                  ...        0 min,  0.032 sec
     gradient                   ...        0 min,  0.007 sec
 * total energy  :   -83.4390707 Eh     change       -0.2074309E-05 Eh
   gradient norm :     0.0003743 Eh/α   predicted    -0.1113078E-05 ( -46.34%)
   displ. norm   :     0.0296471 α      lambda       -0.1678032E-05
   maximum displ.:     0.0171672 α      in ANC's #2, #7, #10, ...

........................................................................
.............................. CYCLE  189 ..............................
........................................................................

 iter      E             dE          RMSdq      gap      omega  full diag
   1    -84.5414133 -0.845414E+02  0.425E-03    2.17       0.0  T
   2    -84.5414133 -0.978851E-08  0.252E-03    2.17       5.3  T
   3    -84.5414133  0.844116E-08  0.471E-04    2.17      28.1  T
   4    -84.5414133 -0.117214E-07  0.172E-04    2.17      77.2  T
     SCC iter.                  ...        0 min,  0.028 sec
     gradient                   ...        0 min,  0.011 sec
 * total energy  :   -83.4390727 Eh     change       -0.2054529E-05 Eh
   gradient norm :     0.0003703 Eh/α   predicted    -0.8397995E-06 ( -59.12%)
   displ. norm   :     0.0622663 α      lambda       -0.2936241E-05
   maximum displ.:     0.0358547 α      in ANC's #2, #7, #3, ...

........................................................................
.............................. CYCLE  190 ..............................
........................................................................

 iter      E             dE          RMSdq      gap      omega  full diag
   1    -84.5412281 -0.845412E+02  0.816E-03    2.17       0.0  T
   2    -84.5412281 -0.290695E-07  0.484E-03    2.17       2.7  T
   3    -84.5412281  0.144434E-07  0.730E-04    2.17      18.2  T
   4    -84.5412281 -0.271126E-07  0.291E-04    2.17      45.6  T
     SCC iter.                  ...        0 min,  0.035 sec
     gradient                   ...        0 min,  0.010 sec
 * total energy  :   -83.4390760 Eh     change       -0.3254999E-05 Eh
   gradient norm :     0.0004897 Eh/α   predicted    -0.1476136E-05 ( -54.65%)
   displ. norm   :     0.0671026 α      lambda       -0.2217443E-05
   maximum displ.:     0.0400055 α      in ANC's #2, #7, #1, ...

........................................................................
.............................. CYCLE  191 ..............................
........................................................................

 iter      E             dE          RMSdq      gap      omega  full diag
   1    -84.5412849 -0.845413E+02  0.838E-03    2.17       0.0  T
   2    -84.5412849 -0.275977E-07  0.496E-03    2.17       2.7  T
   3    -84.5412849  0.305729E-08  0.575E-04    2.17      23.1  T
   4    -84.5412849 -0.130361E-07  0.258E-04    2.17      51.3  T
     SCC iter.                  ...        0 min,  0.034 sec
     gradient                   ...        0 min,  0.004 sec
 * total energy  :   -83.4390787 Eh     change       -0.2738327E-05 Eh
   gradient norm :     0.0004613 Eh/α   predicted    -0.1114845E-05 ( -59.29%)
   displ. norm   :     0.0723081 α      lambda       -0.2395076E-05
   maximum displ.:     0.0442784 α      in ANC's #2, #1, #3, ...

........................................................................
.............................. CYCLE  192 ..............................
........................................................................

 iter      E             dE          RMSdq      gap      omega  full diag
   1    -84.5414314 -0.845414E+02  0.836E-03    2.17       0.0  T
   2    -84.5414315 -0.337075E-07  0.494E-03    2.17       2.7  T
   3    -84.5414314  0.799596E-07  0.135E-03    2.17       9.8  T
   4    -84.5414315 -0.945918E-07  0.291E-04    2.17      45.5  T
   5    -84.5414315 -0.199871E-08  0.141E-04    2.17      93.9  T
     SCC iter.                  ...        0 min,  0.036 sec
     gradient                   ...        0 min,  0.006 sec
 * total energy  :   -83.4390819 Eh     change       -0.3177107E-05 Eh
   gradient norm :     0.0003434 Eh/α   predicted    -0.1202912E-05 ( -62.14%)
   displ. norm   :     0.0893296 α      lambda       -0.3150043E-05
   maximum displ.:     0.0564248 α      in ANC's #2, #1, #3, ...

........................................................................
.............................. CYCLE  193 ..............................
........................................................................

 iter      E             dE          RMSdq      gap      omega  full diag
   1    -84.5415848 -0.845416E+02  0.993E-03    2.17       0.0  T
   2    -84.5415849 -0.667325E-07  0.585E-03    2.18       2.3  T
   3    -84.5415846  0.214563E-06  0.217E-03    2.18       6.1  T
   4    -84.5415849 -0.244451E-06  0.370E-04    2.18      35.8  T
   5    -84.5415849 -0.398985E-08  0.162E-04    2.18      81.8  T
     SCC iter.                  ...        0 min,  0.043 sec
     gradient                   ...        0 min,  0.008 sec
 * total energy  :   -83.4390861 Eh     change       -0.4154840E-05 Eh
   gradient norm :     0.0002741 Eh/α   predicted    -0.1583151E-05 ( -61.90%)
   displ. norm   :     0.0965166 α      lambda       -0.3250141E-05
   maximum displ.:     0.0628525 α      in ANC's #2, #1, #3, ...

........................................................................
.............................. CYCLE  194 ..............................
........................................................................

 iter      E             dE          RMSdq      gap      omega  full diag
   1    -84.5416131 -0.845416E+02  0.101E-02    2.18       0.0  T
   2    -84.5416132 -0.898861E-07  0.591E-03    2.18       2.2  T
   3    -84.5416130  0.241453E-06  0.234E-03    2.18       5.7  T
   4    -84.5416133 -0.274126E-06  0.413E-04    2.18      32.1  T
   5    -84.5416133 -0.581051E-08  0.165E-04    2.18      80.1  T
     SCC iter.                  ...        0 min,  0.038 sec
     gradient                   ...        0 min,  0.007 sec
 * total energy  :   -83.4390903 Eh     change       -0.4266988E-05 Eh
   gradient norm :     0.0002841 Eh/α   predicted    -0.1635300E-05 ( -61.68%)
   displ. norm   :     0.0836257 α      lambda       -0.2706396E-05
   maximum displ.:     0.0562938 α      in ANC's #2, #1, #3, ...

........................................................................
.............................. CYCLE  195 ..............................
........................................................................

 iter      E             dE          RMSdq      gap      omega  full diag
   1    -84.5415628 -0.845416E+02  0.854E-03    2.18       0.0  T
   2    -84.5415628 -0.791047E-07  0.501E-03    2.18       2.6  T
   3    -84.5415626  0.221900E-06  0.228E-03    2.18       5.8  T
   4    -84.5415629 -0.252389E-06  0.369E-04    2.18      35.9  T
   5    -84.5415629 -0.505972E-08  0.139E-04    2.18      95.1  T
     SCC iter.                  ...        0 min,  0.037 sec
     gradient                   ...        0 min,  0.009 sec
 * total energy  :   -83.4390940 Eh     change       -0.3661780E-05 Eh
   gradient norm :     0.0002809 Eh/α   predicted    -0.1362369E-05 ( -62.79%)
   displ. norm   :     0.0656267 α      lambda       -0.2345268E-05
   maximum displ.:     0.0458357 α      in ANC's #2, #1, #3, ...

........................................................................
.............................. CYCLE  196 ..............................
........................................................................

 iter      E             dE          RMSdq      gap      omega  full diag
   1    -84.5415117 -0.845415E+02  0.645E-03    2.19       0.0  T
   2    -84.5415118 -0.487476E-07  0.378E-03    2.19       3.5  T
   3    -84.5415117  0.955677E-07  0.152E-03    2.19       8.7  T
   4    -84.5415118 -0.106917E-06  0.314E-04    2.19      42.2  T
   5    -84.5415118 -0.429841E-08  0.105E-04    2.19     126.2  T
     SCC iter.                  ...        0 min,  0.036 sec
     gradient                   ...        0 min,  0.013 sec
 * total energy  :   -83.4390972 Eh     change       -0.3244904E-05 Eh
   gradient norm :     0.0002475 Eh/α   predicted    -0.1176955E-05 ( -63.73%)
   displ. norm   :     0.0578579 α      lambda       -0.2372869E-05
   maximum displ.:     0.0412359 α      in ANC's #2, #1, #3, ...

........................................................................
.............................. CYCLE  197 ..............................
........................................................................

 iter      E             dE          RMSdq      gap      omega  full diag
   1    -84.5414539 -0.845415E+02  0.615E-03    2.19       0.0  T
   2    -84.5414539 -0.324842E-07  0.362E-03    2.19       3.7  T
   3    -84.5414538  0.659885E-07  0.123E-03    2.19      10.8  T
   4    -84.5414539 -0.727520E-07  0.269E-04    2.19      49.2  T
   5    -84.5414539 -0.324168E-08  0.901E-05    2.19     147.0  T
     SCC iter.                  ...        0 min,  0.033 sec
     gradient                   ...        0 min,  0.016 sec
 * total energy  :   -83.4391006 Eh     change       -0.3319282E-05 Eh
   gradient norm :     0.0002171 Eh/α   predicted    -0.1189391E-05 ( -64.17%)
   displ. norm   :     0.0659673 α      lambda       -0.2824528E-05
   maximum displ.:     0.0469707 α      in ANC's #2, #1, #3, ...

........................................................................
.............................. CYCLE  198 ..............................
........................................................................

 iter      E             dE          RMSdq      gap      omega  full diag
   1    -84.5413754 -0.845414E+02  0.784E-03    2.19       0.0  T
   2    -84.5413754 -0.266913E-07  0.462E-03    2.19       2.9  T
   3    -84.5413754  0.381991E-07  0.932E-04    2.19      14.2  T
   4    -84.5413755 -0.431077E-07  0.269E-04    2.19      49.2  T
     SCC iter.                  ...        0 min,  0.031 sec
     gradient                   ...        0 min,  0.006 sec
 * total energy  :   -83.4391045 Eh     change       -0.3969940E-05 Eh
   gradient norm :     0.0001967 Eh/α   predicted    -0.1419357E-05 ( -64.25%)
   displ. norm   :     0.0807108 α      lambda       -0.3377781E-05
   maximum displ.:     0.0570470 α      in ANC's #2, #1, #3, ...

........................................................................
.............................. CYCLE  199 ..............................
........................................................................

 iter      E             dE          RMSdq      gap      omega  full diag
   1    -84.5413091 -0.845413E+02  0.103E-02    2.19       0.0  T
   2    -84.5413091 -0.292026E-07  0.609E-03    2.19       2.2  T
   3    -84.5413091  0.323541E-07  0.878E-04    2.19      15.1  T
   4    -84.5413091 -0.382211E-07  0.307E-04    2.19      43.2  T
     SCC iter.                  ...        0 min,  0.031 sec
     gradient                   ...        0 min,  0.009 sec
 * total energy  :   -83.4391092 Eh     change       -0.4688431E-05 Eh
   gradient norm :     0.0002336 Eh/α   predicted    -0.1696572E-05 ( -63.81%)
   displ. norm   :     0.0955952 α      lambda       -0.3816187E-05
   maximum displ.:     0.0671905 α      in ANC's #2, #1, #3, ...

........................................................................
.............................. CYCLE  200 ..............................
........................................................................

 iter      E             dE          RMSdq      gap      omega  full diag
   1    -84.5412419 -0.845412E+02  0.129E-02    2.19       0.0  T
   2    -84.5412419 -0.320980E-07  0.758E-03    2.19       1.7  T
   3    -84.5412419  0.350631E-07  0.924E-04    2.19      14.3  T
   4    -84.5412420 -0.451228E-07  0.316E-04    2.19      41.9  T
     SCC iter.                  ...        0 min,  0.035 sec
     gradient                   ...        0 min,  0.009 sec
 * total energy  :   -83.4391145 Eh     change       -0.5308910E-05 Eh
   gradient norm :     0.0003066 Eh/α   predicted    -0.1917196E-05 ( -63.89%)
   displ. norm   :     0.1096308 α      lambda       -0.4285352E-05
   maximum displ.:     0.0767394 α      in ANC's #2, #1, #3, ...

........................................................................
.............................. CYCLE  201 ..............................
........................................................................

 iter      E             dE          RMSdq      gap      omega  full diag
   1    -84.5412001 -0.845412E+02  0.153E-02    2.19       0.0  T
   2    -84.5412001 -0.420991E-07  0.900E-03    2.19       1.5  T
   3    -84.5412000  0.555594E-07  0.113E-03    2.19      11.7  T
   4    -84.5412001 -0.700590E-07  0.362E-04    2.19      36.6  T
   5    -84.5412001 -0.349374E-08  0.167E-04    2.19      79.5  T
     SCC iter.                  ...        0 min,  0.035 sec
     gradient                   ...        0 min,  0.012 sec
 * total energy  :   -83.4391206 Eh     change       -0.6060519E-05 Eh
   gradient norm :     0.0003673 Eh/α   predicted    -0.2155360E-05 ( -64.44%)
   displ. norm   :     0.1365753 α      lambda       -0.5418381E-05
   maximum displ.:     0.0952438 α      in ANC's #2, #1, #3, ...

........................................................................
.............................. CYCLE  202 ..............................
........................................................................

 iter      E             dE          RMSdq      gap      omega  full diag
   1    -84.5411607 -0.845412E+02  0.194E-02    2.19       0.0  T
   2    -84.5411607 -0.743011E-07  0.114E-02    2.19       1.2  T
   3    -84.5411606  0.107695E-06  0.152E-03    2.19       8.7  T
   4    -84.5411608 -0.133124E-06  0.463E-04    2.19      28.6  T
   5    -84.5411608 -0.574514E-08  0.219E-04    2.19      60.5  T
     SCC iter.                  ...        0 min,  0.034 sec
     gradient                   ...        0 min,  0.014 sec
 * total energy  :   -83.4391283 Eh     change       -0.7712106E-05 Eh
   gradient norm :     0.0004013 Eh/α   predicted    -0.2734391E-05 ( -64.54%)
   displ. norm   :     0.1851436 α      lambda       -0.7416935E-05
   maximum displ.:     0.1286630 α      in ANC's #2, #1, #3, ...

........................................................................
.............................. CYCLE  203 ..............................
........................................................................

 iter      E             dE          RMSdq      gap      omega  full diag
   1    -84.5410746 -0.845411E+02  0.266E-02    2.19       0.0  T
   2    -84.5410747 -0.151845E-06  0.157E-02    2.20       1.0  T
   3    -84.5410745  0.224207E-06  0.219E-03    2.20       6.1  T
   4    -84.5410748 -0.272639E-06  0.657E-04    2.20      20.1  T
   5    -84.5410748 -0.125289E-07  0.296E-04    2.20      44.7  T
     SCC iter.                  ...        0 min,  0.043 sec
     gradient                   ...        0 min,  0.007 sec
 * total energy  :   -83.4391389 Eh     change       -0.1056996E-04 Eh
   gradient norm :     0.0004848 Eh/α   predicted    -0.3766516E-05 ( -64.37%)
   displ. norm   :     0.2616303 α      lambda       -0.1043990E-04
   maximum displ.:     0.1814911 α      in ANC's #2, #1, #3, ...

........................................................................
.............................. CYCLE  204 ..............................
........................................................................

 iter      E             dE          RMSdq      gap      omega  full diag
   1    -84.5408934 -0.845409E+02  0.377E-02    2.20       0.0  T
   2    -84.5408938 -0.347970E-06  0.222E-02    2.20       1.0  T
   3    -84.5408931  0.684150E-06  0.375E-03    2.20       3.5  T
   4    -84.5408939 -0.799949E-06  0.963E-04    2.20      13.8  T
   5    -84.5408939 -0.276914E-07  0.423E-04    2.20      31.3  T
     SCC iter.                  ...        0 min,  0.034 sec
     gradient                   ...        0 min,  0.020 sec
 * total energy  :   -83.4391536 Eh     change       -0.1467874E-04 Eh
   gradient norm :     0.0006279 Eh/α   predicted    -0.5380611E-05 ( -63.34%)
   displ. norm   :     0.3481800 α      lambda       -0.1359246E-04
   maximum displ.:     0.2416485 α      in ANC's #2, #1, #3, ...

........................................................................
.............................. CYCLE  205 ..............................
........................................................................

 iter      E             dE          RMSdq      gap      omega  full diag
   1    -84.5405146 -0.845405E+02  0.497E-02    2.20       0.0  T
   2    -84.5405153 -0.680069E-06  0.293E-02    2.20       1.0  T
   3    -84.5405139  0.133070E-05  0.526E-03    2.20       2.5  T
   4    -84.5405155 -0.153971E-05  0.133E-03    2.20      10.0  T
   5    -84.5405155 -0.562253E-07  0.562E-04    2.20      23.6  T
   6    -84.5405155 -0.212559E-08  0.275E-04    2.20      48.1  T
     SCC iter.                  ...        0 min,  0.050 sec
     gradient                   ...        0 min,  0.009 sec
 * total energy  :   -83.4391722 Eh     change       -0.1863072E-04 Eh
   gradient norm :     0.0010434 Eh/α   predicted    -0.7164456E-05 ( -61.54%)
   displ. norm   :     0.4227571 α      lambda       -0.1638087E-04
   maximum displ.:     0.2943444 α      in ANC's #2, #1, #3, ...

........................................................................
.............................. CYCLE  206 ..............................
........................................................................

 iter      E             dE          RMSdq      gap      omega  full diag
   1    -84.5400665 -0.845401E+02  0.600E-02    2.21       0.0  T
   2    -84.5400676 -0.113763E-05  0.354E-02    2.21       1.0  T
   3    -84.5400652  0.241164E-05  0.711E-03    2.21       1.9  T
   4    -84.5400680 -0.274893E-05  0.167E-03    2.21       7.9  T
   5    -84.5400681 -0.950887E-07  0.674E-04    2.21      19.7  T
   6    -84.5400681 -0.295788E-08  0.331E-04    2.21      40.0  T
     SCC iter.                  ...        0 min,  0.048 sec
     gradient                   ...        0 min,  0.003 sec
 * total energy  :   -83.4391936 Eh     change       -0.2141291E-04 Eh
   gradient norm :     0.0014058 Eh/α   predicted    -0.8842736E-05 ( -58.70%)
   displ. norm   :     0.4599151 α      lambda       -0.1790654E-04
   maximum displ.:     0.3226291 α      in ANC's #2, #1, #3, ...

........................................................................
.............................. CYCLE  207 ..............................
........................................................................

 iter      E             dE          RMSdq      gap      omega  full diag
   1    -84.5397468 -0.845397E+02  0.642E-02    2.22       0.0  T
   2    -84.5397483 -0.148641E-05  0.378E-02    2.22       1.0  T
   3    -84.5397450  0.331994E-05  0.838E-03    2.22       1.6  T
   4    -84.5397487 -0.376432E-05  0.187E-03    2.23       7.1  T
   5    -84.5397488 -0.119632E-06  0.751E-04    2.22      17.6  T
   6    -84.5397489 -0.385873E-08  0.380E-04    2.22      34.8  T
     SCC iter.                  ...        0 min,  0.043 sec
     gradient                   ...        0 min,  0.012 sec
 * total energy  :   -83.4392159 Eh     change       -0.2226465E-04 Eh
   gradient norm :     0.0019625 Eh/α   predicted    -0.9797046E-05 ( -56.00%)
   displ. norm   :     0.5994474 α      lambda       -0.2415581E-04
   maximum displ.:     0.4237685 α      in ANC's #2, #1, #3, ...

........................................................................
.............................. CYCLE  208 ..............................
........................................................................

 iter      E             dE          RMSdq      gap      omega  full diag
   1    -84.5394711 -0.845395E+02  0.822E-02    2.23       0.0  T
   2    -84.5394739 -0.279890E-05  0.484E-02    2.24       1.0  T
   3    -84.5394694  0.450406E-05  0.100E-02    2.24       1.3  T
   4    -84.5394745 -0.511901E-05  0.259E-03    2.25       5.1  T
   5    -84.5394748 -0.258162E-06  0.978E-04    2.24      13.5  T
   6    -84.5394748 -0.797330E-08  0.504E-04    2.24      26.3  T
     SCC iter.                  ...        0 min,  0.049 sec
     gradient                   ...        0 min,  0.005 sec
 * total energy  :   -83.4392400 Eh     change       -0.2412936E-04 Eh
   gradient norm :     0.0017867 Eh/α   predicted    -0.1400906E-04 ( -41.94%)
   displ. norm   :     0.4327531 α      lambda       -0.2175272E-04
   maximum displ.:     0.3107352 α      in ANC's #2, #1, #3, ...

........................................................................
.............................. CYCLE  209 ..............................
........................................................................

 iter      E             dE          RMSdq      gap      omega  full diag
   1    -84.5399144 -0.845399E+02  0.602E-02    2.25       0.0  T
   2    -84.5399164 -0.197110E-05  0.355E-02    2.26       1.0  T
   3    -84.5399109  0.555963E-05  0.109E-02    2.26       1.2  T
   4    -84.5399171 -0.628167E-05  0.204E-03    2.26       6.5  T
   5    -84.5399173 -0.132762E-06  0.865E-04    2.26      15.3  T
   6    -84.5399173 -0.650758E-08  0.446E-04    2.26      29.7  T
     SCC iter.                  ...        0 min,  0.044 sec
     gradient                   ...        0 min,  0.018 sec
 * total energy  :   -83.4392537 Eh     change       -0.1373251E-04 Eh
   gradient norm :     0.0038773 Eh/α   predicted    -0.1178341E-04 ( -14.19%)
   displ. norm   :     0.0563554 α      lambda       -0.2574940E-04
   maximum displ.:     0.0301976 α      in ANC's #2, #4, #7, ...

........................................................................
.............................. CYCLE  210 ..............................
........................................................................

 iter      E             dE          RMSdq      gap      omega  full diag
   1    -84.5424930 -0.845425E+02  0.989E-03    2.26       0.0  T
   2    -84.5424933 -0.273087E-06  0.575E-03    2.27       2.3  T
   3    -84.5424933  0.256519E-07  0.175E-03    2.27       7.6  T
   4    -84.5424933 -0.683326E-07  0.602E-04    2.27      22.0  T
   5    -84.5424933 -0.861381E-08  0.311E-04    2.27      42.6  T
     SCC iter.                  ...        0 min,  0.040 sec
     gradient                   ...        0 min,  0.009 sec
 * total energy  :   -83.4392663 Eh     change       -0.1262305E-04 Eh
   gradient norm :     0.0020949 Eh/α   predicted    -0.1291684E-04 (   2.33%)
   displ. norm   :     0.1692755 α      lambda       -0.1998549E-04
   maximum displ.:     0.1185123 α      in ANC's #2, #1, #3, ...

........................................................................
.............................. CYCLE  211 ..............................
........................................................................

 iter      E             dE          RMSdq      gap      omega  full diag
   1    -84.5413440 -0.845413E+02  0.239E-02    2.27       0.0  T
   2    -84.5413445 -0.500863E-06  0.141E-02    2.27       1.0  T
   3    -84.5413444  0.419000E-07  0.206E-03    2.27       6.4  T
   4    -84.5413446 -0.108461E-06  0.897E-04    2.27      14.8  T
   5    -84.5413446 -0.237715E-07  0.414E-04    2.27      32.0  T
     SCC iter.                  ...        0 min,  0.045 sec
     gradient                   ...        0 min,  0.003 sec
 * total energy  :   -83.4392798 Eh     change       -0.1341296E-04 Eh
   gradient norm :     0.0012981 Eh/α   predicted    -0.1028345E-04 ( -23.33%)
   displ. norm   :     0.3130158 α      lambda       -0.1718925E-04
   maximum displ.:     0.2180225 α      in ANC's #2, #1, #3, ...

........................................................................
.............................. CYCLE  212 ..............................
........................................................................

 iter      E             dE          RMSdq      gap      omega  full diag
   1    -84.5392592 -0.845393E+02  0.453E-02    2.27       0.0  T
   2    -84.5392608 -0.159390E-05  0.267E-02    2.28       1.0  T
   3    -84.5392600  0.816065E-06  0.532E-03    2.28       2.5  T
   4    -84.5392611 -0.105895E-05  0.203E-03    2.28       6.5  T
   5    -84.5392612 -0.152719E-06  0.827E-04    2.28      16.0  T
   6    -84.5392612 -0.698392E-08  0.422E-04    2.28      31.4  T
     SCC iter.                  ...        0 min,  0.046 sec
     gradient                   ...        0 min,  0.009 sec
 * total energy  :   -83.4392957 Eh     change       -0.1595533E-04 Eh
   gradient norm :     0.0020372 Eh/α   predicted    -0.8970475E-05 ( -43.78%)
   displ. norm   :     0.1204551 α      lambda       -0.1856132E-04
   maximum displ.:     0.0650265 α      in ANC's #2, #10, #11, ...

........................................................................
.............................. CYCLE  213 ..............................
........................................................................

 iter      E             dE          RMSdq      gap      omega  full diag
   1    -84.5395393 -0.845395E+02  0.200E-02    2.29       0.0  T
   2    -84.5395396 -0.374438E-06  0.119E-02    2.29       1.1  T
   3    -84.5395396  0.458895E-07  0.206E-03    2.29       6.4  T
   4    -84.5395397 -0.122368E-06  0.104E-03    2.29      12.7  T
   5    -84.5395397 -0.374732E-07  0.432E-04    2.29      30.6  T
   6    -84.5395397 -0.187936E-08  0.188E-04    2.29      70.6  T
     SCC iter.                  ...        0 min,  0.046 sec
     gradient                   ...        0 min,  0.004 sec
 * total energy  :   -83.4393098 Eh     change       -0.1408461E-04 Eh
   gradient norm :     0.0019259 Eh/α   predicted    -0.9416873E-05 ( -33.14%)
   displ. norm   :     0.2619970 α      lambda       -0.2964578E-04
   maximum displ.:     0.1098774 α      in ANC's #11, #2, #13, ...

........................................................................
.............................. CYCLE  214 ..............................
........................................................................

 iter      E             dE          RMSdq      gap      omega  full diag
   1    -84.5409496 -0.845409E+02  0.471E-02    2.29       0.0  T
   2    -84.5409510 -0.144974E-05  0.282E-02    2.30       1.0  T
   3    -84.5409512 -0.143351E-06  0.353E-03    2.30       3.7  T
   4    -84.5409515 -0.292330E-06  0.194E-03    2.30       6.8  T
   5    -84.5409516 -0.898209E-07  0.917E-04    2.30      14.4  T
   6    -84.5409516 -0.163842E-07  0.370E-04    2.30      35.8  T
     SCC iter.                  ...        0 min,  0.045 sec
     gradient                   ...        0 min,  0.009 sec
 * total energy  :   -83.4393245 Eh     change       -0.1473333E-04 Eh
   gradient norm :     0.0033484 Eh/α   predicted    -0.1527665E-04 (   3.69%)
   displ. norm   :     0.0632652 α      lambda       -0.1632077E-04
   maximum displ.:     0.0464069 α      in ANC's #2, #1, #3, ...

........................................................................
.............................. CYCLE  215 ..............................
........................................................................

 iter      E             dE          RMSdq      gap      omega  full diag
   1    -84.5410625 -0.845411E+02  0.809E-03    2.30       0.0  T
   2    -84.5410625 -0.713436E-07  0.478E-03    2.30       2.8  T
   3    -84.5410624  0.846537E-07  0.153E-03    2.30       8.7  T
   4    -84.5410625 -0.102760E-06  0.441E-04    2.30      30.0  T
   5    -84.5410626 -0.632056E-08  0.174E-04    2.30      76.3  T
     SCC iter.                  ...        0 min,  0.031 sec
     gradient                   ...        0 min,  0.017 sec
 * total energy  :   -83.4393369 Eh     change       -0.1237601E-04 Eh
   gradient norm :     0.0016429 Eh/α   predicted    -0.8194783E-05 ( -33.78%)
   displ. norm   :     0.1538425 α      lambda       -0.1995741E-04
   maximum displ.:     0.1069557 α      in ANC's #2, #1, #24, ...

........................................................................
.............................. CYCLE  216 ..............................
........................................................................

 iter      E             dE          RMSdq      gap      omega  full diag
   1    -84.5413733 -0.845414E+02  0.217E-02    2.30       0.0  T
   2    -84.5413741 -0.733727E-06  0.128E-02    2.29       1.0  T
   3    -84.5413723  0.170420E-05  0.663E-03    2.29       2.0  T
   4    -84.5413744 -0.202612E-05  0.123E-03    2.29      10.8  T
   5    -84.5413744 -0.419533E-07  0.461E-04    2.29      28.7  T
   6    -84.5413744 -0.102017E-08  0.225E-04    2.29      59.0  T
     SCC iter.                  ...        0 min,  0.046 sec
     gradient                   ...        0 min,  0.004 sec
 * total energy  :   -83.4393540 Eh     change       -0.1705472E-04 Eh
   gradient norm :     0.0018818 Eh/α   predicted    -0.1008661E-04 ( -40.86%)
   displ. norm   :     0.2332912 α      lambda       -0.1440133E-04
   maximum displ.:     0.1608258 α      in ANC's #2, #1, #11, ...

........................................................................
.............................. CYCLE  217 ..............................
........................................................................

 iter      E             dE          RMSdq      gap      omega  full diag
   1    -84.5400450 -0.845400E+02  0.351E-02    2.29       0.0  T
   2    -84.5400458 -0.817049E-06  0.211E-02    2.28       1.0  T
   3    -84.5400440  0.184395E-05  0.662E-03    2.29       2.0  T
   4    -84.5400462 -0.226329E-05  0.145E-03    2.28       9.1  T
   5    -84.5400463 -0.371893E-07  0.653E-04    2.28      20.3  T
   6    -84.5400463 -0.237789E-08  0.280E-04    2.28      47.3  T
     SCC iter.                  ...        0 min,  0.045 sec
     gradient                   ...        0 min,  0.010 sec
 * total energy  :   -83.4393663 Eh     change       -0.1233313E-04 Eh
   gradient norm :     0.0039358 Eh/α   predicted    -0.7376066E-05 ( -40.19%)
   displ. norm   :     0.2105938 α      lambda       -0.4884255E-04
   maximum displ.:     0.0868178 α      in ANC's #12, #7, #11, ...

........................................................................
.............................. CYCLE  218 ..............................
........................................................................

 iter      E             dE          RMSdq      gap      omega  full diag
   1    -84.5408073 -0.845408E+02  0.413E-02    2.27       0.0  T
   2    -84.5408110 -0.368080E-05  0.244E-02    2.26       1.0  T
   3    -84.5408048  0.623272E-05  0.135E-02    2.26       1.0  T
   4    -84.5408122 -0.743862E-05  0.270E-03    2.25       4.9  T
   5    -84.5408125 -0.257903E-06  0.884E-04    2.26      15.0  T
   6    -84.5408125 -0.112731E-07  0.475E-04    2.26      27.9  T
     SCC iter.                  ...        0 min,  0.047 sec
     gradient                   ...        0 min,  0.010 sec
 * total energy  :   -83.4393875 Eh     change       -0.2121733E-04 Eh
   gradient norm :     0.0050140 Eh/α   predicted    -0.2550753E-04 (  20.22%)
   displ. norm   :     0.0772555 α      lambda       -0.3095028E-04
   maximum displ.:     0.0504059 α      in ANC's #2, #1, #16, ...

........................................................................
.............................. CYCLE  219 ..............................
........................................................................

 iter      E             dE          RMSdq      gap      omega  full diag
   1    -84.5411131 -0.845411E+02  0.135E-02    2.25       0.0  T
   2    -84.5411133 -0.174520E-06  0.788E-03    2.25       1.7  T
   3    -84.5411133  0.453627E-07  0.149E-03    2.25       8.9  T
   4    -84.5411133 -0.864039E-07  0.646E-04    2.25      20.5  T
   5    -84.5411134 -0.106540E-07  0.312E-04    2.25      42.5  T
     SCC iter.                  ...        0 min,  0.036 sec
     gradient                   ...        0 min,  0.010 sec
 * total energy  :   -83.4394030 Eh     change       -0.1553045E-04 Eh
   gradient norm :     0.0024525 Eh/α   predicted    -0.1556805E-04 (   0.24%)
   displ. norm   :     0.1514277 α      lambda       -0.2948674E-04
   maximum displ.:     0.1031857 α      in ANC's #2, #1, #4, ...
 * RMSD in coord.:     0.4432012 α      energy gain  -0.3518648E-03 Eh

generating ANC from exact Hessian ...
Using Lindh-Hessian (1995)
 Shifting diagonal of input Hessian by   1.009609412018181E-002
 Lowest  eigenvalues of input Hessian
    0.010000    0.000000    0.000000    0.000000    0.000000    0.000000
    0.000000    0.010210    0.010352    0.010373    0.010428    0.010566
    0.010666    0.010745    0.010998    0.011376    0.011464    0.011501
 Highest eigenvalues
    1.958054    2.016227    2.113830    2.191258    2.316313    2.348055
 

........................................................................
.............................. CYCLE  220 ..............................
........................................................................

 iter      E             dE          RMSdq      gap      omega  full diag
   1    -84.5409129 -0.845409E+02  0.246E-02    2.25       0.0  T
   2    -84.5409133 -0.386089E-06  0.149E-02    2.25       1.0  T
   3    -84.5409123  0.968856E-06  0.491E-03    2.25       2.7  T
   4    -84.5409135 -0.120745E-05  0.103E-03    2.25      12.8  T
   5    -84.5409136 -0.143542E-07  0.570E-04    2.25      23.2  T
   6    -84.5409136 -0.463734E-08  0.223E-04    2.25      59.5  T
     SCC iter.                  ...        0 min,  0.046 sec
     gradient                   ...        0 min,  0.006 sec
 * total energy  :   -83.4394265 Eh     change       -0.2349101E-04 Eh
   gradient norm :     0.0025516 Eh/α   predicted     0.0000000E+00 (-100.00%)
   displ. norm   :     0.0377184 α      lambda       -0.3047051E-04
   maximum displ.:     0.0182254 α      in ANC's #20, #11, #29, ...

........................................................................
.............................. CYCLE  221 ..............................
........................................................................

 iter      E             dE          RMSdq      gap      omega  full diag
   1    -84.5413206 -0.845413E+02  0.144E-02    2.26       0.0  T
   2    -84.5413208 -0.238436E-06  0.887E-03    2.26       1.5  T
   3    -84.5413205  0.296978E-06  0.299E-03    2.26       4.4  T
   4    -84.5413209 -0.397613E-06  0.774E-04    2.26      17.1  T
   5    -84.5413209 -0.182777E-07  0.334E-04    2.26      39.6  T
     SCC iter.                  ...        0 min,  0.039 sec
     gradient                   ...        0 min,  0.013 sec
 * total energy  :   -83.4394502 Eh     change       -0.2366779E-04 Eh
   gradient norm :     0.0011500 Eh/α   predicted    -0.1526536E-04 ( -35.50%)
   displ. norm   :     0.1577945 α      lambda       -0.5315510E-04
   maximum displ.:     0.0821139 α      in ANC's #11, #20, #29, ...

........................................................................
.............................. CYCLE  222 ..............................
........................................................................

 iter      E             dE          RMSdq      gap      omega  full diag
   1    -84.5413204 -0.845413E+02  0.562E-02    2.26       0.0  T
   2    -84.5413232 -0.279794E-05  0.347E-02    2.27       1.0  T
   3    -84.5413226  0.521662E-06  0.602E-03    2.28       2.2  T
   4    -84.5413241 -0.145937E-05  0.242E-03    2.28       5.5  T
   5    -84.5413243 -0.181695E-06  0.112E-03    2.28      11.8  T
   6    -84.5413243 -0.318154E-08  0.558E-04    2.27      23.7  T
   7    -84.5413243 -0.116369E-07  0.140E-04    2.27      94.3  T
     SCC iter.                  ...        0 min,  0.048 sec
     gradient                   ...        0 min,  0.014 sec
 * total energy  :   -83.4394910 Eh     change       -0.4077552E-04 Eh
   gradient norm :     0.0067968 Eh/α   predicted    -0.2687825E-04 ( -34.08%)
   displ. norm   :     0.0363486 α      lambda       -0.3584357E-04
   maximum displ.:     0.0164636 α      in ANC's #11, #20, #14, ...

........................................................................
.............................. CYCLE  223 ..............................
........................................................................

 iter      E             dE          RMSdq      gap      omega  full diag
   1    -84.5415247 -0.845415E+02  0.971E-03    2.28       0.0  T
   2    -84.5415248 -0.140495E-06  0.579E-03    2.28       2.3  T
   3    -84.5415246  0.172770E-06  0.217E-03    2.28       6.1  T
   4    -84.5415248 -0.202634E-06  0.605E-04    2.28      21.9  T
   5    -84.5415248 -0.127049E-07  0.207E-04    2.28      63.9  T
     SCC iter.                  ...        0 min,  0.043 sec
     gradient                   ...        0 min,  0.007 sec
 * total energy  :   -83.4395223 Eh     change       -0.3132665E-04 Eh
   gradient norm :     0.0050476 Eh/α   predicted    -0.1796322E-04 ( -42.66%)
   displ. norm   :     0.2531040 α      lambda       -0.1572944E-03
   maximum displ.:     0.1217183 α      in ANC's #20, #11, #14, ...

........................................................................
.............................. CYCLE  224 ..............................
........................................................................

 iter      E             dE          RMSdq      gap      omega  full diag
   1    -84.5397095 -0.845397E+02  0.786E-02    2.29       0.0  T
   2    -84.5397145 -0.498791E-05  0.481E-02    2.31       1.0  T
   3    -84.5397151 -0.669761E-06  0.528E-03    2.31       2.5  T
   4    -84.5397157 -0.575258E-06  0.255E-03    2.31       5.2  T
   5    -84.5397159 -0.152584E-06  0.127E-03    2.31      10.5  T
   6    -84.5397159 -0.626312E-08  0.609E-04    2.31      21.8  T
   7    -84.5397159 -0.108832E-07  0.219E-04    2.31      60.6  T
     SCC iter.                  ...        0 min,  0.054 sec
     gradient                   ...        0 min,  0.013 sec
 * total energy  :   -83.4395878 Eh     change       -0.6544859E-04 Eh
   gradient norm :     0.0122773 Eh/α   predicted    -0.8370689E-04 (  27.90%)
   displ. norm   :     0.0670710 α      lambda       -0.1941963E-03
   maximum displ.:     0.0369085 α      in ANC's #4, #12, #2, ...

........................................................................
.............................. CYCLE  225 ..............................
........................................................................

 iter      E             dE          RMSdq      gap      omega  full diag
   1    -84.5413358 -0.845413E+02  0.212E-02    2.31       0.0  T
   2    -84.5413372 -0.139491E-05  0.123E-02    2.31       1.1  T
   3    -84.5413373 -0.145068E-06  0.320E-03    2.31       4.1  T
   4    -84.5413375 -0.142029E-06  0.151E-03    2.31       8.8  T
   5    -84.5413375 -0.552609E-07  0.613E-04    2.31      21.6  T
   6    -84.5413375 -0.917426E-08  0.296E-04    2.31      44.7  T
     SCC iter.                  ...        0 min,  0.046 sec
     gradient                   ...        0 min,  0.004 sec
 * total energy  :   -83.4396418 Eh     change       -0.5406956E-04 Eh
   gradient norm :     0.0048090 Eh/α   predicted    -0.9753500E-04 (  80.39%)
   displ. norm   :     0.0982954 α      lambda       -0.8774285E-04
   maximum displ.:     0.0506463 α      in ANC's #20, #11, #14, ...

........................................................................
.............................. CYCLE  226 ..............................
........................................................................

 iter      E             dE          RMSdq      gap      omega  full diag
   1    -84.5405147 -0.845405E+02  0.343E-02    2.31       0.0  T
   2    -84.5405152 -0.465940E-06  0.211E-02    2.31       1.0  T
   3    -84.5405129  0.225667E-05  0.705E-03    2.32       1.9  T
   4    -84.5405156 -0.269566E-05  0.106E-03    2.31      12.6  T
   5    -84.5405156 -0.779949E-09  0.529E-04    2.31      25.0  T
   6    -84.5405156 -0.559127E-08  0.157E-04    2.31      84.3  T
     SCC iter.                  ...        0 min,  0.044 sec
     gradient                   ...        0 min,  0.018 sec
 * total energy  :   -83.4397103 Eh     change       -0.6849618E-04 Eh
   gradient norm :     0.0038051 Eh/α   predicted    -0.4429567E-04 ( -35.33%)
   displ. norm   :     0.2207174 α      lambda       -0.1137286E-03
   maximum displ.:     0.1105340 α      in ANC's #20, #4, #11, ...

........................................................................
.............................. CYCLE  227 ..............................
........................................................................

 iter      E             dE          RMSdq      gap      omega  full diag
   1    -84.5381593 -0.845382E+02  0.703E-02    2.32       0.0  T
   2    -84.5381616 -0.231125E-05  0.432E-02    2.32       1.0  T
   3    -84.5381508  0.108261E-04  0.156E-02    2.32       1.0  T
   4    -84.5381637 -0.128689E-04  0.239E-03    2.32       5.5  T
   5    -84.5381637 -0.182826E-07  0.110E-03    2.32      12.1  T
   6    -84.5381637 -0.231558E-07  0.440E-04    2.32      30.1  T
   7    -84.5381637 -0.516590E-08  0.144E-04    2.32      92.1  T
     SCC iter.                  ...        0 min,  0.048 sec
     gradient                   ...        0 min,  0.015 sec
 * total energy  :   -83.4396660 Eh     change        0.4436597E-04 Eh
   gradient norm :     0.0175421 Eh/α   predicted    -0.5963456E-04 (-234.42%)
   displ. norm   :     0.1295817 α      lambda       -0.2833676E-03
   maximum displ.:     0.0650596 α      in ANC's #20, #11, #14, ...

........................................................................
.............................. CYCLE  228 ..............................
........................................................................

 iter      E             dE          RMSdq      gap      omega  full diag
   1    -84.5408271 -0.845408E+02  0.421E-02    2.31       0.0  T
   2    -84.5408290 -0.187489E-05  0.255E-02    2.30       1.0  T
   3    -84.5408292 -0.183592E-06  0.382E-03    2.30       3.5  T
   4    -84.5408294 -0.242644E-06  0.207E-03    2.30       6.4  T
   5    -84.5408296 -0.122617E-06  0.935E-04    2.30      14.2  T
   6    -84.5408296 -0.108350E-07  0.440E-04    2.30      30.1  T
     SCC iter.                  ...        0 min,  0.049 sec
     gradient                   ...        0 min,  0.009 sec
 * total energy  :   -83.4397779 Eh     change       -0.1119683E-03 Eh
   gradient norm :     0.0041128 Eh/α   predicted    -0.1440667E-03 (  28.67%)
   displ. norm   :     0.0561214 α      lambda       -0.3942813E-04
   maximum displ.:     0.0282125 α      in ANC's #4, #20, #2, ...

........................................................................
.............................. CYCLE  229 ..............................
........................................................................

 iter      E             dE          RMSdq      gap      omega  full diag
   1    -84.5408519 -0.845409E+02  0.142E-02    2.30       0.0  T
   2    -84.5408520 -0.101296E-06  0.869E-03    2.30       1.5  T
   3    -84.5408516  0.472212E-06  0.322E-03    2.30       4.1  T
   4    -84.5408521 -0.547198E-06  0.491E-04    2.30      27.0  T
   5    -84.5408521 -0.343393E-08  0.252E-04    2.30      52.6  T
     SCC iter.                  ...        0 min,  0.037 sec
     gradient                   ...        0 min,  0.005 sec
 * total energy  :   -83.4398144 Eh     change       -0.3647915E-04 Eh
   gradient norm :     0.0035840 Eh/α   predicted    -0.1978214E-04 ( -45.77%)
   displ. norm   :     0.4752061 α      lambda       -0.2869148E-03
   maximum displ.:     0.2412603 α      in ANC's #4, #20, #2, ...

........................................................................
.............................. CYCLE  230 ..............................
........................................................................

 iter      E             dE          RMSdq      gap      omega  full diag
   1    -84.5372528 -0.845373E+02  0.119E-01    2.29       0.0  T
   2    -84.5372619 -0.909935E-05  0.725E-02    2.27       1.0  T
   3    -84.5372115  0.504159E-04  0.336E-02    2.28       1.0  T
   4    -84.5372696 -0.581566E-04  0.440E-03    2.27       3.0  T
   5    -84.5372699 -0.249650E-06  0.227E-03    2.27       5.8  T
   6    -84.5372699 -0.528668E-07  0.106E-03    2.27      12.5  T
   7    -84.5372700 -0.193454E-07  0.326E-04    2.27      40.6  T
   8    -84.5372700 -0.153013E-08  0.859E-05    2.27     154.2  T
     SCC iter.                  ...        0 min,  0.058 sec
     gradient                   ...        0 min,  0.011 sec
 * total energy  :   -83.4398111 Eh     change        0.3285787E-05 Eh
   gradient norm :     0.0212229 Eh/α   predicted    -0.1758334E-03 (*******%)
   displ. norm   :     0.1916432 α      lambda       -0.5419593E-03
   maximum displ.:     0.0796728 α      in ANC's #20, #4, #11, ...

........................................................................
.............................. CYCLE  231 ..............................
........................................................................

 iter      E             dE          RMSdq      gap      omega  full diag
   1    -84.5410480 -0.845410E+02  0.582E-02    2.27       0.0  T
   2    -84.5410510 -0.294533E-05  0.354E-02    2.27       1.0  T
   3    -84.5410424  0.851886E-05  0.143E-02    2.27       1.0  T
   4    -84.5410528 -0.103935E-04  0.287E-03    2.28       4.6  T
   5    -84.5410529 -0.778105E-07  0.105E-03    2.27      12.6  T
   6    -84.5410529 -0.142374E-07  0.542E-04    2.27      24.4  T
   7    -84.5410529 -0.305235E-08  0.190E-04    2.27      69.7  T
     SCC iter.                  ...        0 min,  0.053 sec
     gradient                   ...        0 min,  0.009 sec
 * total energy  :   -83.4399712 Eh     change       -0.1600569E-03 Eh
   gradient norm :     0.0016763 Eh/α   predicted    -0.2809877E-03 (  75.55%)
   displ. norm   :     0.1814368 α      lambda       -0.6420394E-04
   maximum displ.:     0.0953750 α      in ANC's #4, #2, #9, ...

........................................................................
.............................. CYCLE  232 ..............................
........................................................................

 iter      E             dE          RMSdq      gap      omega  full diag
   1    -84.5405711 -0.845406E+02  0.405E-02    2.27       0.0  T
   2    -84.5405725 -0.136326E-05  0.247E-02    2.26       1.0  T
   3    -84.5405667  0.580001E-05  0.117E-02    2.26       1.1  T
   4    -84.5405734 -0.672984E-05  0.167E-03    2.26       7.9  T
   5    -84.5405735 -0.509425E-07  0.848E-04    2.26      15.6  T
   6    -84.5405735 -0.121431E-07  0.395E-04    2.26      33.5  T
     SCC iter.                  ...        0 min,  0.046 sec
     gradient                   ...        0 min,  0.006 sec
 * total energy  :   -83.4400566 Eh     change       -0.8541105E-04 Eh
   gradient norm :     0.0036586 Eh/α   predicted    -0.3256003E-04 ( -61.88%)
   displ. norm   :     0.3991550 α      lambda       -0.1650900E-03
   maximum displ.:     0.2127986 α      in ANC's #4, #2, #9, ...

........................................................................
.............................. CYCLE  233 ..............................
........................................................................

 iter      E             dE          RMSdq      gap      omega  full diag
   1    -84.5375835 -0.845376E+02  0.828E-02    2.25       0.0  T
   2    -84.5375896 -0.617183E-05  0.501E-02    2.24       1.0  T
   3    -84.5375696  0.200641E-04  0.220E-02    2.24       1.0  T
   4    -84.5375931 -0.235168E-04  0.375E-03    2.24       3.5  T
   5    -84.5375933 -0.233724E-06  0.183E-03    2.24       7.2  T
   6    -84.5375934 -0.751863E-07  0.791E-04    2.24      16.7  T
   7    -84.5375934 -0.698552E-08  0.298E-04    2.24      44.4  T
     SCC iter.                  ...        0 min,  0.054 sec
     gradient                   ...        0 min,  0.005 sec
 * total energy  :   -83.4400463 Eh     change        0.1030281E-04 Eh
   gradient norm :     0.0172792 Eh/α   predicted    -0.9549156E-04 (*******%)
   displ. norm   :     0.1716922 α      lambda       -0.2511606E-03
   maximum displ.:     0.0910822 α      in ANC's #4, #2, #11, ...

........................................................................
.............................. CYCLE  234 ..............................
........................................................................

 iter      E             dE          RMSdq      gap      omega  full diag
   1    -84.5406467 -0.845406E+02  0.411E-02    2.24       0.0  T
   2    -84.5406486 -0.183118E-05  0.248E-02    2.25       1.0  T
   3    -84.5406438  0.472666E-05  0.108E-02    2.25       1.2  T
   4    -84.5406495 -0.568980E-05  0.218E-03    2.25       6.1  T
   5    -84.5406496 -0.613053E-07  0.948E-04    2.25      14.0  T
   6    -84.5406496 -0.192532E-07  0.441E-04    2.25      30.0  T
     SCC iter.                  ...        0 min,  0.047 sec
     gradient                   ...        0 min,  0.008 sec
 * total energy  :   -83.4401451 Eh     change       -0.9878999E-04 Eh
   gradient norm :     0.0042534 Eh/α   predicted    -0.1297261E-03 (  31.31%)
   displ. norm   :     0.0859849 α      lambda       -0.3672293E-04
   maximum displ.:     0.0417518 α      in ANC's #4, #2, #9, ...

........................................................................
.............................. CYCLE  235 ..............................
........................................................................

 iter      E             dE          RMSdq      gap      omega  full diag
   1    -84.5406817 -0.845407E+02  0.152E-02    2.25       0.0  T
   2    -84.5406818 -0.136808E-06  0.925E-03    2.25       1.4  T
   3    -84.5406816  0.259121E-06  0.263E-03    2.25       5.0  T
   4    -84.5406819 -0.325797E-06  0.569E-04    2.25      23.3  T
   5    -84.5406819 -0.473786E-08  0.328E-04    2.25      40.4  T
     SCC iter.                  ...        0 min,  0.039 sec
     gradient                   ...        0 min,  0.010 sec
 * total energy  :   -83.4401785 Eh     change       -0.3337852E-04 Eh
   gradient norm :     0.0037415 Eh/α   predicted    -0.1837598E-04 ( -44.95%)
   displ. norm   :     0.3759657 α      lambda       -0.3035348E-03
   maximum displ.:     0.1646648 α      in ANC's #4, #2, #5, ...

........................................................................
.............................. CYCLE  236 ..............................
........................................................................

 iter      E             dE          RMSdq      gap      omega  full diag
   1    -84.5399968 -0.845400E+02  0.651E-02    2.25       0.0  T
   2    -84.5399993 -0.257605E-05  0.394E-02    2.25       1.0  T
   3    -84.5399947  0.468983E-05  0.110E-02    2.25       1.2  T
   4    -84.5400005 -0.582227E-05  0.253E-03    2.24       5.2  T
   5    -84.5400006 -0.104629E-06  0.132E-03    2.25      10.1  T
   6    -84.5400006 -0.450620E-07  0.520E-04    2.25      25.5  T
   7    -84.5400006 -0.306038E-08  0.206E-04    2.25      64.3  T
     SCC iter.                  ...        0 min,  0.045 sec
     gradient                   ...        0 min,  0.018 sec
 * total energy  :   -83.4402611 Eh     change       -0.8268002E-04 Eh
   gradient norm :     0.0084192 Eh/α   predicted    -0.9270361E-04 (  12.12%)
   displ. norm   :     0.1110479 α      lambda       -0.1885964E-03
   maximum displ.:     0.0492079 α      in ANC's #5, #2, #11, ...

........................................................................
.............................. CYCLE  237 ..............................
........................................................................

 iter      E             dE          RMSdq      gap      omega  full diag
   1    -84.5404150 -0.845404E+02  0.181E-02    2.25       0.0  T
   2    -84.5404152 -0.229441E-06  0.110E-02    2.25       1.2  T
   3    -84.5404150  0.202251E-06  0.230E-03    2.25       5.8  T
   4    -84.5404153 -0.277420E-06  0.808E-04    2.25      16.4  T
   5    -84.5404153 -0.184654E-07  0.374E-04    2.25      35.4  T
     SCC iter.                  ...        0 min,  0.040 sec
     gradient                   ...        0 min,  0.009 sec
 * total energy  :   -83.4403133 Eh     change       -0.5215395E-04 Eh
   gradient norm :     0.0040123 Eh/α   predicted    -0.3756935E-04 ( -27.96%)
   displ. norm   :     0.1718427 α      lambda       -0.2722782E-03
   maximum displ.:     0.0831987 α      in ANC's #5, #2, #10, ...

........................................................................
.............................. CYCLE  238 ..............................
........................................................................

 iter      E             dE          RMSdq      gap      omega  full diag
   1    -84.5417191 -0.845417E+02  0.260E-02    2.26       0.0  T
   2    -84.5417194 -0.292218E-06  0.157E-02    2.26       1.0  T
   3    -84.5417194  0.417215E-08  0.162E-03    2.26       8.2  T
   4    -84.5417195 -0.989830E-07  0.737E-04    2.26      18.0  T
   5    -84.5417195 -0.116377E-07  0.290E-04    2.26      45.6  T
     SCC iter.                  ...        0 min,  0.040 sec
     gradient                   ...        0 min,  0.005 sec
 * total energy  :   -83.4403605 Eh     change       -0.4719402E-04 Eh
   gradient norm :     0.0023818 Eh/α   predicted    -0.4012264E-04 ( -14.98%)
   displ. norm   :     0.2902179 α      lambda       -0.3412984E-03
   maximum displ.:     0.1363443 α      in ANC's #5, #2, #11, ...

........................................................................
.............................. CYCLE  239 ..............................
........................................................................

 iter      E             dE          RMSdq      gap      omega  full diag
   1    -84.5399902 -0.845400E+02  0.475E-02    2.26       0.0  T
   2    -84.5399916 -0.133371E-05  0.287E-02    2.26       1.0  T
   3    -84.5399906  0.901928E-06  0.550E-03    2.26       2.4  T
   4    -84.5399920 -0.136231E-05  0.192E-03    2.26       6.9  T
   5    -84.5399921 -0.785113E-07  0.770E-04    2.26      17.2  T
   6    -84.5399921 -0.125006E-07  0.362E-04    2.26      36.6  T
     SCC iter.                  ...        0 min,  0.049 sec
     gradient                   ...        0 min,  0.016 sec
 * total energy  :   -83.4403893 Eh     change       -0.2879668E-04 Eh
   gradient norm :     0.0061738 Eh/α   predicted    -0.4319405E-04 (  50.00%)
   displ. norm   :     0.1314852 α      lambda       -0.3454567E-03
   maximum displ.:     0.0686420 α      in ANC's #5, #4, #11, ...

........................................................................
.............................. CYCLE  240 ..............................
........................................................................

 iter      E             dE          RMSdq      gap      omega  full diag
   1    -84.5409167 -0.845409E+02  0.199E-02    2.26       0.0  T
   2    -84.5409171 -0.367411E-06  0.118E-02    2.27       1.1  T
   3    -84.5409167  0.351572E-06  0.321E-03    2.27       4.1  T
   4    -84.5409172 -0.461324E-06  0.765E-04    2.27      17.3  T
   5    -84.5409172 -0.149269E-07  0.393E-04    2.27      33.7  T
     SCC iter.                  ...        0 min,  0.040 sec
     gradient                   ...        0 min,  0.009 sec
 * total energy  :   -83.4404453 Eh     change       -0.5606046E-04 Eh
   gradient norm :     0.0027070 Eh/α   predicted    -0.3985568E-04 ( -28.91%)
   displ. norm   :     0.1850517 α      lambda       -0.3760783E-03
   maximum displ.:     0.0938262 α      in ANC's #5, #4, #11, ...

........................................................................
.............................. CYCLE  241 ..............................
........................................................................

 iter      E             dE          RMSdq      gap      omega  full diag
   1    -84.5413442 -0.845413E+02  0.252E-02    2.26       0.0  T
   2    -84.5413446 -0.403672E-06  0.151E-02    2.26       1.0  T
   3    -84.5413441  0.550324E-06  0.382E-03    2.26       3.5  T
   4    -84.5413448 -0.698875E-06  0.804E-04    2.26      16.5  T
   5    -84.5413448 -0.100580E-07  0.425E-04    2.26      31.2  T
     SCC iter.                  ...        0 min,  0.033 sec
     gradient                   ...        0 min,  0.013 sec
 * total energy  :   -83.4404878 Eh     change       -0.4251244E-04 Eh
   gradient norm :     0.0022542 Eh/α   predicted    -0.3655052E-04 ( -14.02%)
   displ. norm   :     0.1784658 α      lambda       -0.3537455E-03
   maximum displ.:     0.0921317 α      in ANC's #5, #4, #11, ...

........................................................................
.............................. CYCLE  242 ..............................
........................................................................

 iter      E             dE          RMSdq      gap      omega  full diag
   1    -84.5407962 -0.845408E+02  0.263E-02    2.26       0.0  T
   2    -84.5407970 -0.763208E-06  0.159E-02    2.26       1.0  T
   3    -84.5407944  0.258535E-05  0.768E-03    2.26       1.7  T
   4    -84.5407975 -0.305275E-05  0.135E-03    2.26       9.8  T
   5    -84.5407975 -0.436469E-07  0.653E-04    2.26      20.3  T
   6    -84.5407975 -0.655673E-08  0.295E-04    2.26      44.9  T
     SCC iter.                  ...        0 min,  0.048 sec
     gradient                   ...        0 min,  0.010 sec
 * total energy  :   -83.4405155 Eh     change       -0.2763299E-04 Eh
   gradient norm :     0.0040157 Eh/α   predicted    -0.2905448E-04 (   5.14%)
   displ. norm   :     0.1196821 α      lambda       -0.2271690E-03
   maximum displ.:     0.0743490 α      in ANC's #4, #5, #16, ...

........................................................................
.............................. CYCLE  243 ..............................
........................................................................

 iter      E             dE          RMSdq      gap      omega  full diag
   1    -84.5405777 -0.845406E+02  0.169E-02    2.25       0.0  T
   2    -84.5405780 -0.264913E-06  0.101E-02    2.25       1.3  T
   3    -84.5405776  0.330469E-06  0.279E-03    2.25       4.8  T
   4    -84.5405781 -0.415951E-06  0.711E-04    2.25      18.6  T
   5    -84.5405781 -0.148290E-07  0.370E-04    2.25      35.8  T
     SCC iter.                  ...        0 min,  0.039 sec
     gradient                   ...        0 min,  0.005 sec
 * total energy  :   -83.4405387 Eh     change       -0.2323744E-04 Eh
   gradient norm :     0.0026918 Eh/α   predicted    -0.1668980E-04 ( -28.18%)
   displ. norm   :     0.1460883 α      lambda       -0.3765654E-03
   maximum displ.:     0.1013570 α      in ANC's #4, #1, #5, ...

........................................................................
.............................. CYCLE  244 ..............................
........................................................................

 iter      E             dE          RMSdq      gap      omega  full diag
   1    -84.5408662 -0.845409E+02  0.229E-02    2.25       0.0  T
   2    -84.5408667 -0.524804E-06  0.136E-02    2.25       1.0  T
   3    -84.5408663  0.344184E-06  0.322E-03    2.25       4.1  T
   4    -84.5408668 -0.489253E-06  0.120E-03    2.25      11.0  T
   5    -84.5408669 -0.456267E-07  0.598E-04    2.25      22.2  T
   6    -84.5408669 -0.384645E-08  0.296E-04    2.25      44.8  T
     SCC iter.                  ...        0 min,  0.042 sec
     gradient                   ...        0 min,  0.011 sec
 * total energy  :   -83.4405569 Eh     change       -0.1820868E-04 Eh
   gradient norm :     0.0044271 Eh/α   predicted    -0.2477583E-04 (  36.07%)
   displ. norm   :     0.1277320 α      lambda       -0.3620158E-03
   maximum displ.:     0.0575971 α      in ANC's #4, #5, #1, ...

........................................................................
.............................. CYCLE  245 ..............................
........................................................................

 iter      E             dE          RMSdq      gap      omega  full diag
   1    -84.5396774 -0.845397E+02  0.211E-02    2.25       0.0  T
   2    -84.5396776 -0.224968E-06  0.126E-02    2.24       1.1  T
   3    -84.5396774  0.196958E-06  0.230E-03    2.24       5.8  T
   4    -84.5396777 -0.287814E-06  0.821E-04    2.24      16.1  T
   5    -84.5396777 -0.136743E-07  0.417E-04    2.24      31.7  T
     SCC iter.                  ...        0 min,  0.041 sec
     gradient                   ...        0 min,  0.007 sec
 * total energy  :   -83.4405714 Eh     change       -0.1443465E-04 Eh
   gradient norm :     0.0037794 Eh/α   predicted    -0.1989523E-04 (  37.83%)
   displ. norm   :     0.0952861 α      lambda       -0.2937353E-03
   maximum displ.:     0.0383865 α      in ANC's #5, #4, #11, ...

........................................................................
.............................. CYCLE  246 ..............................
........................................................................

 iter      E             dE          RMSdq      gap      omega  full diag
   1    -84.5408832 -0.845409E+02  0.179E-02    2.24       0.0  T
   2    -84.5408834 -0.206611E-06  0.106E-02    2.24       1.2  T
   3    -84.5408833  0.142961E-06  0.208E-03    2.24       6.4  T
   4    -84.5408835 -0.214102E-06  0.694E-04    2.24      19.1  T
   5    -84.5408835 -0.635343E-08  0.386E-04    2.24      34.3  T
     SCC iter.                  ...        0 min,  0.045 sec
     gradient                   ...        0 min,  0.005 sec
 * total energy  :   -83.4405835 Eh     change       -0.1216812E-04 Eh
   gradient norm :     0.0024979 Eh/α   predicted    -0.1811475E-04 (  48.87%)
   displ. norm   :     0.0362891 α      lambda       -0.2015995E-03
   maximum displ.:     0.0126679 α      in ANC's #7, #6, #12, ...

........................................................................
.............................. CYCLE  247 ..............................
........................................................................

 iter      E             dE          RMSdq      gap      omega  full diag
   1    -84.5409862 -0.845410E+02  0.808E-03    2.24       0.0  T
   2    -84.5409863 -0.168642E-06  0.483E-03    2.25       2.7  T
   3    -84.5409863  0.296714E-07  0.149E-03    2.25       8.9  T
   4    -84.5409864 -0.635233E-07  0.559E-04    2.25      23.7  T
   5    -84.5409864 -0.922924E-08  0.261E-04    2.25      50.7  T
     SCC iter.                  ...        0 min,  0.034 sec
     gradient                   ...        0 min,  0.020 sec
 * total energy  :   -83.4405998 Eh     change       -0.1630831E-04 Eh
   gradient norm :     0.0013352 Eh/α   predicted    -0.1186674E-04 ( -27.23%)
   displ. norm   :     0.1164925 α      lambda       -0.1785859E-03
   maximum displ.:     0.0637426 α      in ANC's #4, #6, #1, ...

........................................................................
.............................. CYCLE  248 ..............................
........................................................................

 iter      E             dE          RMSdq      gap      omega  full diag
   1    -84.5406563 -0.845407E+02  0.176E-02    2.25       0.0  T
   2    -84.5406567 -0.409198E-06  0.105E-02    2.25       1.3  T
   3    -84.5406567  0.585186E-08  0.184E-03    2.25       7.2  T
   4    -84.5406568 -0.808143E-07  0.835E-04    2.25      15.9  T
   5    -84.5406568 -0.180193E-07  0.463E-04    2.25      28.6  T
     SCC iter.                  ...        0 min,  0.037 sec
     gradient                   ...        0 min,  0.004 sec
 * total energy  :   -83.4406154 Eh     change       -0.1553451E-04 Eh
   gradient norm :     0.0023324 Eh/α   predicted    -0.8865942E-05 ( -42.93%)
   displ. norm   :     0.0738077 α      lambda       -0.1223573E-03
   maximum displ.:     0.0513084 α      in ANC's #4, #6, #1, ...

........................................................................
.............................. CYCLE  249 ..............................
........................................................................

 iter      E             dE          RMSdq      gap      omega  full diag
   1    -84.5407003 -0.845407E+02  0.957E-03    2.25       0.0  T
   2    -84.5407003 -0.508660E-07  0.570E-03    2.25       2.3  T
   3    -84.5407002  0.977008E-07  0.152E-03    2.25       8.7  T
   4    -84.5407003 -0.116471E-06  0.377E-04    2.25      35.1  T
   5    -84.5407003 -0.412639E-08  0.177E-04    2.25      74.7  T
     SCC iter.                  ...        0 min,  0.036 sec
     gradient                   ...        0 min,  0.009 sec
 * total energy  :   -83.4406249 Eh     change       -0.9494501E-05 Eh
   gradient norm :     0.0020247 Eh/α   predicted    -0.5573772E-05 ( -41.29%)
   displ. norm   :     0.1721698 α      lambda       -0.3438229E-03
   maximum displ.:     0.1175391 α      in ANC's #4, #6, #1, ...

........................................................................
.............................. CYCLE  250 ..............................
........................................................................

 iter      E             dE          RMSdq      gap      omega  full diag
   1    -84.5408321 -0.845408E+02  0.226E-02    2.25       0.0  T
   2    -84.5408324 -0.288221E-06  0.135E-02    2.25       1.0  T
   3    -84.5408312  0.112834E-05  0.498E-03    2.25       2.7  T
   4    -84.5408325 -0.130503E-05  0.831E-04    2.25      15.9  T
   5    -84.5408326 -0.142373E-07  0.424E-04    2.25      31.2  T
   6    -84.5408326 -0.798863E-09  0.206E-04    2.25      64.3  T
     SCC iter.                  ...        0 min,  0.037 sec
     gradient                   ...        0 min,  0.016 sec
 * total energy  :   -83.4406430 Eh     change       -0.1817601E-04 Eh
   gradient norm :     0.0008868 Eh/α   predicted    -0.1623109E-04 ( -10.70%)
   displ. norm   :     0.2149963 α      lambda       -0.1546500E-03
   maximum displ.:     0.1511806 α      in ANC's #4, #6, #1, ...

........................................................................
.............................. CYCLE  251 ..............................
........................................................................

 iter      E             dE          RMSdq      gap      omega  full diag
   1    -84.5404999 -0.845405E+02  0.266E-02    2.25       0.0  T
   2    -84.5405001 -0.263745E-06  0.159E-02    2.26       1.0  T
   3    -84.5404990  0.111821E-05  0.498E-03    2.26       2.7  T
   4    -84.5405003 -0.131878E-05  0.881E-04    2.26      15.0  T
   5    -84.5405003 -0.837179E-08  0.519E-04    2.26      25.5  T
   6    -84.5405003 -0.470202E-08  0.188E-04    2.26      70.4  T
     SCC iter.                  ...        0 min,  0.045 sec
     gradient                   ...        0 min,  0.008 sec
 * total energy  :   -83.4406530 Eh     change       -0.9949163E-05 Eh
   gradient norm :     0.0016416 Eh/α   predicted    -0.6749989E-05 ( -32.16%)
   displ. norm   :     0.0508564 α      lambda       -0.7435853E-04
   maximum displ.:     0.0333625 α      in ANC's #4, #6, #11, ...

........................................................................
.............................. CYCLE  252 ..............................
........................................................................

 iter      E             dE          RMSdq      gap      omega  full diag
   1    -84.5408968 -0.845409E+02  0.816E-03    2.26       0.0  T
   2    -84.5408969 -0.117352E-06  0.478E-03    2.26       2.8  T
   3    -84.5408969  0.156220E-07  0.105E-03    2.25      12.6  T
   4    -84.5408970 -0.250533E-07  0.499E-04    2.25      26.5  T
   5    -84.5408970 -0.105728E-07  0.201E-04    2.25      66.0  T
     SCC iter.                  ...        0 min,  0.038 sec
     gradient                   ...        0 min,  0.008 sec
 * total energy  :   -83.4406611 Eh     change       -0.8109248E-05 Eh
   gradient norm :     0.0009240 Eh/α   predicted    -0.3386781E-05 ( -58.24%)
   displ. norm   :     0.1073835 α      lambda       -0.1415548E-03
   maximum displ.:     0.0563184 α      in ANC's #4, #11, #6, ...

........................................................................
.............................. CYCLE  253 ..............................
........................................................................

 iter      E             dE          RMSdq      gap      omega  full diag
   1    -84.5411170 -0.845411E+02  0.215E-02    2.25       0.0  T
   2    -84.5411176 -0.511639E-06  0.127E-02    2.25       1.0  T
   3    -84.5411174  0.115295E-06  0.234E-03    2.25       5.7  T
   4    -84.5411176 -0.159611E-06  0.118E-03    2.25      11.2  T
   5    -84.5411177 -0.593838E-07  0.424E-04    2.25      31.2  T
   6    -84.5411177 -0.293814E-08  0.181E-04    2.25      73.2  T
     SCC iter.                  ...        0 min,  0.044 sec
     gradient                   ...        0 min,  0.008 sec
 * total energy  :   -83.4406729 Eh     change       -0.1184482E-04 Eh
   gradient norm :     0.0009903 Eh/α   predicted    -0.6043145E-05 ( -48.98%)
   displ. norm   :     0.0935217 α      lambda       -0.9567296E-04
   maximum displ.:     0.0447321 α      in ANC's #4, #11, #19, ...

........................................................................
.............................. CYCLE  254 ..............................
........................................................................

 iter      E             dE          RMSdq      gap      omega  full diag
   1    -84.5409329 -0.845409E+02  0.213E-02    2.25       0.0  T
   2    -84.5409331 -0.198653E-06  0.127E-02    2.25       1.0  T
   3    -84.5409329  0.189883E-06  0.236E-03    2.25       5.6  T
   4    -84.5409332 -0.264287E-06  0.746E-04    2.25      17.8  T
   5    -84.5409332 -0.968299E-08  0.375E-04    2.25      35.4  T
     SCC iter.                  ...        0 min,  0.031 sec
     gradient                   ...        0 min,  0.017 sec
 * total energy  :   -83.4406810 Eh     change       -0.8069234E-05 Eh
   gradient norm :     0.0012037 Eh/α   predicted    -0.3775781E-05 ( -53.21%)
   displ. norm   :     0.1317542 α      lambda       -0.1515023E-03
   maximum displ.:     0.0572836 α      in ANC's #10, #4, #3, ...

........................................................................
.............................. CYCLE  255 ..............................
........................................................................

 iter      E             dE          RMSdq      gap      omega  full diag
   1    -84.5407347 -0.845407E+02  0.314E-02    2.25       0.0  T
   2    -84.5407351 -0.420853E-06  0.186E-02    2.24       1.0  T
   3    -84.5407342  0.900893E-06  0.455E-03    2.24       2.9  T
   4    -84.5407353 -0.109068E-05  0.102E-03    2.24      13.0  T
   5    -84.5407353 -0.154159E-07  0.571E-04    2.24      23.2  T
   6    -84.5407353 -0.667265E-08  0.252E-04    2.24      52.6  T
     SCC iter.                  ...        0 min,  0.047 sec
     gradient                   ...        0 min,  0.009 sec
 * total energy  :   -83.4406916 Eh     change       -0.1059084E-04 Eh
   gradient norm :     0.0011808 Eh/α   predicted    -0.5676761E-05 ( -46.40%)
   displ. norm   :     0.0869112 α      lambda       -0.7671063E-04
   maximum displ.:     0.0560355 α      in ANC's #4, #3, #10, ...

........................................................................
.............................. CYCLE  256 ..............................
........................................................................

 iter      E             dE          RMSdq      gap      omega  full diag
   1    -84.5408145 -0.845408E+02  0.194E-02    2.24       0.0  T
   2    -84.5408146 -0.122942E-06  0.116E-02    2.24       1.1  T
   3    -84.5408145  0.124017E-06  0.182E-03    2.24       7.3  T
   4    -84.5408146 -0.178123E-06  0.546E-04    2.24      24.2  T
   5    -84.5408146 -0.340810E-08  0.319E-04    2.24      41.5  T
     SCC iter.                  ...        0 min,  0.036 sec
     gradient                   ...        0 min,  0.006 sec
 * total energy  :   -83.4406968 Eh     change       -0.5152522E-05 Eh
   gradient norm :     0.0013609 Eh/α   predicted    -0.2729272E-05 ( -47.03%)
   displ. norm   :     0.1156645 α      lambda       -0.1556584E-03
   maximum displ.:     0.0728573 α      in ANC's #4, #3, #10, ...

........................................................................
.............................. CYCLE  257 ..............................
........................................................................

 iter      E             dE          RMSdq      gap      omega  full diag
   1    -84.5412108 -0.845412E+02  0.193E-02    2.24       0.0  T
   2    -84.5412111 -0.280272E-06  0.114E-02    2.24       1.2  T
   3    -84.5412105  0.606215E-06  0.383E-03    2.24       3.5  T
   4    -84.5412112 -0.730907E-06  0.889E-04    2.24      14.9  T
   5    -84.5412113 -0.225280E-07  0.439E-04    2.24      30.2  T
     SCC iter.                  ...        0 min,  0.033 sec
     gradient                   ...        0 min,  0.012 sec
 * total energy  :   -83.4406988 Eh     change       -0.2029601E-05 Eh
   gradient norm :     0.0024031 Eh/α   predicted    -0.5383465E-05 ( 165.25%)
   displ. norm   :     0.0368301 α      lambda       -0.1112672E-03
   maximum displ.:     0.0257542 α      in ANC's #4, #6, #3, ...

........................................................................
.............................. CYCLE  258 ..............................
........................................................................

 iter      E             dE          RMSdq      gap      omega  full diag
   1    -84.5410577 -0.845411E+02  0.595E-03    2.24       0.0  T
   2    -84.5410577 -0.330537E-07  0.356E-03    2.24       3.7  T
   3    -84.5410576  0.135645E-06  0.183E-03    2.24       7.2  T
   4    -84.5410578 -0.158586E-06  0.272E-04    2.24      48.8  T
   5    -84.5410578 -0.178728E-08  0.131E-04    2.24     100.9  T
     SCC iter.                  ...        0 min,  0.042 sec
     gradient                   ...        0 min,  0.008 sec
 * total energy  :   -83.4407044 Eh     change       -0.5653878E-05 Eh
   gradient norm :     0.0011348 Eh/α   predicted    -0.3857954E-05 ( -31.76%)
   displ. norm   :     0.0554868 α      lambda       -0.1014185E-03
   maximum displ.:     0.0280962 α      in ANC's #4, #3, #12, ...
 * RMSD in coord.:     0.3486009 α      energy gain  -0.1301397E-02 Eh

generating ANC from exact Hessian ...
Using Lindh-Hessian (1995)
 Shifting diagonal of input Hessian by   1.011256699759146E-002
 Lowest  eigenvalues of input Hessian
    0.010000    0.000000    0.000000    0.000000    0.000000    0.000000
    0.000000    0.010222    0.010343    0.010359    0.010462    0.010557
    0.010733    0.010758    0.011056    0.011345    0.011499    0.011568
 Highest eigenvalues
    1.957077    2.015359    2.113640    2.190524    2.316836    2.348300
 

........................................................................
.............................. CYCLE  259 ..............................
........................................................................

 iter      E             dE          RMSdq      gap      omega  full diag
   1    -84.5410409 -0.845410E+02  0.940E-03    2.25       0.0  T
   2    -84.5410411 -0.187897E-06  0.553E-03    2.25       2.4  T
   3    -84.5410408  0.287966E-06  0.305E-03    2.25       4.3  T
   4    -84.5410411 -0.357195E-06  0.611E-04    2.25      21.7  T
   5    -84.5410411 -0.110073E-07  0.269E-04    2.25      49.2  T
     SCC iter.                  ...        0 min,  0.040 sec
     gradient                   ...        0 min,  0.009 sec
 * total energy  :   -83.4407083 Eh     change       -0.3891103E-05 Eh
   gradient norm :     0.0018285 Eh/α   predicted     0.0000000E+00 (-100.00%)
   displ. norm   :     0.0176088 α      lambda       -0.4526449E-05
   maximum displ.:     0.0081095 α      in ANC's #4, #2, #28, ...

........................................................................
.............................. CYCLE  260 ..............................
........................................................................

 iter      E             dE          RMSdq      gap      omega  full diag
   1    -84.5411543 -0.845412E+02  0.485E-03    2.25       0.0  T
   2    -84.5411543 -0.425316E-07  0.289E-03    2.25       4.6  T
   3    -84.5411543  0.411426E-07  0.113E-03    2.25      11.7  T
   4    -84.5411543 -0.543672E-07  0.343E-04    2.25      38.6  T
   5    -84.5411543 -0.321549E-08  0.135E-04    2.25      98.4  T
     SCC iter.                  ...        0 min,  0.043 sec
     gradient                   ...        0 min,  0.005 sec
 * total energy  :   -83.4407125 Eh     change       -0.4184820E-05 Eh
   gradient norm :     0.0003858 Eh/α   predicted    -0.2481728E-05 ( -40.70%)
   displ. norm   :     0.0257673 α      lambda       -0.2646584E-05
   maximum displ.:     0.0127247 α      in ANC's #4, #2, #3, ...

........................................................................
.............................. CYCLE  261 ..............................
........................................................................

 iter      E             dE          RMSdq      gap      omega  full diag
   1    -84.5411594 -0.845412E+02  0.589E-03    2.25       0.0  T
   2    -84.5411594 -0.298215E-07  0.355E-03    2.25       3.7  T
   3    -84.5411594 -0.399220E-08  0.416E-04    2.25      31.8  T
   4    -84.5411595 -0.308334E-08  0.207E-04    2.25      63.9  T
     SCC iter.                  ...        0 min,  0.029 sec
     gradient                   ...        0 min,  0.011 sec
 * total energy  :   -83.4407149 Eh     change       -0.2384578E-05 Eh
   gradient norm :     0.0010221 Eh/α   predicted    -0.1325046E-05 ( -44.43%)
   displ. norm   :     0.0468618 α      lambda       -0.3670692E-05
   maximum displ.:     0.0233284 α      in ANC's #4, #2, #3, ...

........................................................................
.............................. CYCLE  262 ..............................
........................................................................

 iter      E             dE          RMSdq      gap      omega  full diag
   1    -84.5411084 -0.845411E+02  0.862E-03    2.25       0.0  T
   2    -84.5411084 -0.588742E-07  0.520E-03    2.25       2.5  T
   3    -84.5411085 -0.580987E-08  0.649E-04    2.25      20.4  T
   4    -84.5411085 -0.872460E-08  0.364E-04    2.25      36.4  T
     SCC iter.                  ...        0 min,  0.032 sec
     gradient                   ...        0 min,  0.002 sec
 * total energy  :   -83.4407187 Eh     change       -0.3821164E-05 Eh
   gradient norm :     0.0010381 Eh/α   predicted    -0.1840188E-05 ( -51.84%)
   displ. norm   :     0.0489496 α      lambda       -0.2905641E-05
   maximum displ.:     0.0266640 α      in ANC's #4, #2, #3, ...

........................................................................
.............................. CYCLE  263 ..............................
........................................................................

 iter      E             dE          RMSdq      gap      omega  full diag
   1    -84.5410260 -0.845410E+02  0.829E-03    2.26       0.0  T
   2    -84.5410260 -0.329881E-07  0.501E-03    2.26       2.6  T
   3    -84.5410260 -0.101372E-07  0.451E-04    2.26      29.4  T
   4    -84.5410260 -0.313806E-08  0.247E-04    2.26      53.7  T
     SCC iter.                  ...        0 min,  0.035 sec
     gradient                   ...        0 min,  0.015 sec
 * total energy  :   -83.4407217 Eh     change       -0.2995170E-05 Eh
   gradient norm :     0.0004039 Eh/α   predicted    -0.1456263E-05 ( -51.38%)
   displ. norm   :     0.0398197 α      lambda       -0.1714071E-05
   maximum displ.:     0.0232074 α      in ANC's #4, #2, #3, ...

........................................................................
.............................. CYCLE  264 ..............................
........................................................................

 iter      E             dE          RMSdq      gap      omega  full diag
   1    -84.5410499 -0.845410E+02  0.600E-03    2.26       0.0  T
   2    -84.5410499 -0.128700E-07  0.361E-03    2.26       3.7  T
   3    -84.5410499  0.430208E-08  0.419E-04    2.26      31.6  T
   4    -84.5410499 -0.943842E-08  0.176E-04    2.26      75.3  T
     SCC iter.                  ...        0 min,  0.033 sec
     gradient                   ...        0 min,  0.009 sec
 * total energy  :   -83.4407237 Eh     change       -0.1959417E-05 Eh
   gradient norm :     0.0004931 Eh/α   predicted    -0.8611603E-06 ( -56.05%)
   displ. norm   :     0.0468479 α      lambda       -0.1811839E-05
   maximum displ.:     0.0275150 α      in ANC's #4, #2, #6, ...

........................................................................
.............................. CYCLE  265 ..............................
........................................................................

 iter      E             dE          RMSdq      gap      omega  full diag
   1    -84.5410553 -0.845411E+02  0.666E-03    2.25       0.0  T
   2    -84.5410553 -0.147434E-07  0.401E-03    2.25       3.3  T
   3    -84.5410553  0.729304E-08  0.481E-04    2.25      27.5  T
   4    -84.5410553 -0.133540E-07  0.177E-04    2.25      74.7  T
     SCC iter.                  ...        0 min,  0.033 sec
     gradient                   ...        0 min,  0.004 sec
 * total energy  :   -83.4407260 Eh     change       -0.2289843E-05 Eh
   gradient norm :     0.0007151 Eh/α   predicted    -0.9083474E-06 ( -60.33%)
   displ. norm   :     0.0689753 α      lambda       -0.2654710E-05
   maximum displ.:     0.0398368 α      in ANC's #4, #2, #6, ...

........................................................................
.............................. CYCLE  266 ..............................
........................................................................

 iter      E             dE          RMSdq      gap      omega  full diag
   1    -84.5410919 -0.845411E+02  0.939E-03    2.25       0.0  T
   2    -84.5410919 -0.327897E-07  0.566E-03    2.25       2.3  T
   3    -84.5410919  0.233555E-07  0.761E-04    2.25      17.4  T
   4    -84.5410919 -0.360582E-07  0.254E-04    2.25      52.1  T
     SCC iter.                  ...        0 min,  0.021 sec
     gradient                   ...        0 min,  0.018 sec
 * total energy  :   -83.4407293 Eh     change       -0.3295185E-05 Eh
   gradient norm :     0.0007899 Eh/α   predicted    -0.1330450E-05 ( -59.62%)
   displ. norm   :     0.0965327 α      lambda       -0.3184546E-05
   maximum displ.:     0.0552109 α      in ANC's #4, #2, #6, ...

........................................................................
.............................. CYCLE  267 ..............................
........................................................................

 iter      E             dE          RMSdq      gap      omega  full diag
   1    -84.5411085 -0.845411E+02  0.131E-02    2.25       0.0  T
   2    -84.5411086 -0.642924E-07  0.790E-03    2.25       1.7  T
   3    -84.5411086  0.247723E-07  0.910E-04    2.25      14.6  T
   4    -84.5411086 -0.462081E-07  0.359E-04    2.25      36.9  T
     SCC iter.                  ...        0 min,  0.039 sec
     gradient                   ...        0 min,  0.008 sec
 * total energy  :   -83.4407329 Eh     change       -0.3635608E-05 Eh
   gradient norm :     0.0007535 Eh/α   predicted    -0.1599991E-05 ( -55.99%)
   displ. norm   :     0.0976653 α      lambda       -0.2473563E-05
   maximum displ.:     0.0554751 α      in ANC's #4, #2, #1, ...

........................................................................
.............................. CYCLE  268 ..............................
........................................................................

 iter      E             dE          RMSdq      gap      omega  full diag
   1    -84.5411640 -0.845412E+02  0.130E-02    2.25       0.0  T
   2    -84.5411641 -0.755040E-07  0.785E-03    2.25       1.7  T
   3    -84.5411641  0.938603E-08  0.819E-04    2.25      16.2  T
   4    -84.5411641 -0.292477E-07  0.377E-04    2.25      35.1  T
     SCC iter.                  ...        0 min,  0.030 sec
     gradient                   ...        0 min,  0.009 sec
 * total energy  :   -83.4407355 Eh     change       -0.2564221E-05 Eh
   gradient norm :     0.0006231 Eh/α   predicted    -0.1243075E-05 ( -51.52%)
   displ. norm   :     0.0608003 α      lambda       -0.1422560E-05
   maximum displ.:     0.0337323 α      in ANC's #4, #2, #1, ...

........................................................................
.............................. CYCLE  269 ..............................
........................................................................

 iter      E             dE          RMSdq      gap      omega  full diag
   1    -84.5412877 -0.845413E+02  0.830E-03    2.25       0.0  T
   2    -84.5412878 -0.434580E-07  0.502E-03    2.25       2.6  T
   3    -84.5412878  0.208364E-08  0.582E-04    2.25      22.8  T
   4    -84.5412878 -0.986650E-08  0.299E-04    2.25      44.3  T
     SCC iter.                  ...        0 min,  0.035 sec
     gradient                   ...        0 min,  0.005 sec
 * total energy  :   -83.4407369 Eh     change       -0.1481161E-05 Eh
   gradient norm :     0.0002560 Eh/α   predicted    -0.7150395E-06 ( -51.72%)
   displ. norm   :     0.0598350 α      lambda       -0.1139740E-05
   maximum displ.:     0.0322716 α      in ANC's #2, #4, #1, ...

........................................................................
.............................. CYCLE  270 ..............................
........................................................................

 iter      E             dE          RMSdq      gap      omega  full diag
   1    -84.5412900 -0.845413E+02  0.935E-03    2.25       0.0  T
   2    -84.5412901 -0.519529E-07  0.568E-03    2.25       2.3  T
   3    -84.5412901 -0.345860E-08  0.597E-04    2.24      22.2  T
   4    -84.5412901 -0.795988E-08  0.321E-04    2.24      41.3  T
     SCC iter.                  ...        0 min,  0.032 sec
     gradient                   ...        0 min,  0.042 sec
 * total energy  :   -83.4407382 Eh     change       -0.1238620E-05 Eh
   gradient norm :     0.0005030 Eh/α   predicted    -0.5754894E-06 ( -53.54%)
   displ. norm   :     0.0452478 α      lambda       -0.1403583E-05
   maximum displ.:     0.0230541 α      in ANC's #2, #4, #1, ...

........................................................................
.............................. CYCLE  271 ..............................
........................................................................

 iter      E             dE          RMSdq      gap      omega  full diag
   1    -84.5414277 -0.845414E+02  0.785E-03    2.24       0.0  T
   2    -84.5414277 -0.446217E-07  0.472E-03    2.24       2.8  T
   3    -84.5414277  0.160242E-07  0.802E-04    2.24      16.5  T
   4    -84.5414277 -0.228383E-07  0.360E-04    2.24      36.8  T
     SCC iter.                  ...        0 min,  0.056 sec
     gradient                   ...        0 min,  0.006 sec
 * total energy  :   -83.4407396 Eh     change       -0.1392613E-05 Eh
   gradient norm :     0.0004572 Eh/α   predicted    -0.7056524E-06 ( -49.33%)
   displ. norm   :     0.0463561 α      lambda        0.1137079E-06
   maximum displ.:     0.0236231 α      in ANC's #2, #4, #1, ...

........................................................................
.............................. CYCLE  272 ..............................
........................................................................

 iter      E             dE          RMSdq      gap      omega  full diag
   1    -84.5415306 -0.845415E+02  0.806E-03    2.24       0.0  T
   2    -84.5415307 -0.444413E-07  0.485E-03    2.24       2.7  T
   3    -84.5415307  0.122212E-07  0.751E-04    2.24      17.6  T
   4    -84.5415307 -0.187167E-07  0.362E-04    2.24      36.6  T
     SCC iter.                  ...        0 min,  0.039 sec
     gradient                   ...        0 min,  0.010 sec
 * total energy  :   -83.4407397 Eh     change       -0.1210799E-06 Eh
   gradient norm :     0.0009347 Eh/α   predicted     0.5672670E-07 (-146.85%)
   displ. norm   :     0.0468094 α      lambda       -0.1750391E-05
   maximum displ.:     0.0251422 α      in ANC's #2, #4, #1, ...

........................................................................
.............................. CYCLE  273 ..............................
........................................................................

 iter      E             dE          RMSdq      gap      omega  full diag
   1    -84.5412624 -0.845413E+02  0.982E-03    2.24       0.0  T
   2    -84.5412624 -0.397261E-07  0.600E-03    2.24       2.2  T
   3    -84.5412624  0.226049E-08  0.660E-04    2.24      20.1  T
   4    -84.5412624 -0.199864E-07  0.282E-04    2.24      47.0  T
     SCC iter.                  ...        0 min,  0.038 sec
     gradient                   ...        0 min,  0.010 sec
 * total energy  :   -83.4407405 Eh     change       -0.7840716E-06 Eh
   gradient norm :     0.0009639 Eh/α   predicted    -0.8808814E-06 (  12.35%)
   displ. norm   :     0.0512073 α      lambda       -0.1507428E-05
   maximum displ.:     0.0268548 α      in ANC's #4, #2, #1, ...

........................................................................
.............................. CYCLE  274 ..............................
........................................................................

 iter      E             dE          RMSdq      gap      omega  full diag
   1    -84.5413016 -0.845413E+02  0.780E-03    2.24       0.0  T
   2    -84.5413017 -0.549068E-07  0.472E-03    2.24       2.8  T
   3    -84.5413017 -0.267482E-08  0.546E-04    2.24      24.3  T
   4    -84.5413017 -0.476618E-08  0.265E-04    2.24      49.9  T
     SCC iter.                  ...        0 min,  0.033 sec
     gradient                   ...        0 min,  0.013 sec
 * total energy  :   -83.4407417 Eh     change       -0.1230699E-05 Eh
   gradient norm :     0.0002952 Eh/α   predicted    -0.7587517E-06 ( -38.35%)
   displ. norm   :     0.0221679 α      lambda       -0.5923074E-06
   maximum displ.:     0.0118995 α      in ANC's #2, #5, #1, ...

........................................................................
.............................. CYCLE  275 ..............................
........................................................................

 iter      E             dE          RMSdq      gap      omega  full diag
   1    -84.5413225 -0.845413E+02  0.410E-03    2.24       0.0  T
   2    -84.5413225 -0.812395E-08  0.245E-03    2.24       5.4  T
   3    -84.5413225  0.302455E-08  0.358E-04    2.24      37.0  T
   4    -84.5413225 -0.458036E-08  0.164E-04    2.24      80.7  T
     SCC iter.                  ...        0 min,  0.033 sec
     gradient                   ...        0 min,  0.016 sec
 * total energy  :   -83.4407424 Eh     change       -0.7021238E-06 Eh
   gradient norm :     0.0001227 Eh/α   predicted    -0.3001517E-06 ( -57.25%)
   displ. norm   :     0.0379107 α      lambda       -0.7216630E-06
   maximum displ.:     0.0211477 α      in ANC's #2, #5, #1, ...

   *** GEOMETRY OPTIMIZATION CONVERGED AFTER 275 ITERATIONS ***

------------------------------------------------------------------------
 total energy gain   :        -0.1354851 Eh      -85.0182 kcal/mol
 total RMSD          :         3.6500648 a0        1.9315 Å
 total power (kW/mol):        -1.2935126 (step)  -20.3278 (real)
------------------------------------------------------------------------

 ANCopt (total)                0 d,  0 h,  0 min, 17.500 sec
 optimizer setup                ...        0 min,  0.001 sec (  0.006%)
 model hessian                  ...        0 min,  0.179 sec (  1.023%)
 ANC generation                 ...        0 min,  0.117 sec (  0.669%)
 coordinate transformation      ...        0 min,  0.034 sec (  0.194%)
 single point calculation       ...        0 min, 16.980 sec ( 97.029%)
 optimization log               ...        0 min,  0.104 sec (  0.594%)
 hessian update                 ...        0 min,  0.020 sec (  0.114%)
 rational function              ...        0 min,  0.034 sec (  0.194%)

================
 final structure:
================
57
 xtb: 6.7.1pre (5071a88)
N           -0.44583239328939       -0.84833140732361       -0.67362737373012
C            0.92746210156419       -0.79763694142356       -0.53551319238616
C            1.48985372961083       -0.16144611591722        0.57299982132891
C            2.85366600684744        0.01466145970379        0.65914636622820
C            3.70157799973285       -0.43734487829952       -0.34694764689623
C            3.14145602856040       -1.09297791401562       -1.43564377997248
C            1.77530323963881       -1.27738202750941       -1.53256174092544
C            5.17745074168696       -0.16656264827770       -0.27808410704878
C            5.47401515822535        1.30323063750595       -0.58734017892772
C           -1.13156105990857        1.09764858434043       -1.91462686446228
C            0.05941481299180        1.81726472810578       -1.48809626143256
C            0.10244407661436        2.63281914355875       -0.43136981766879
C            1.31401527864754        3.36573690897214        0.01373902167683
C            1.14873390208018        4.88020883356037       -0.17419337625562
C            2.39112047758804        5.62812721356120        0.29104879196436
O           -2.26016849451719        1.23910274454976       -1.46965516651850
O           -2.99354267340310        1.99293185964031        1.00931083251616
H           -0.96278610175620       -0.70547432455341        0.19101084193131
H           -0.80900618247284       -1.58597035061023       -1.25791174665839
H            0.83453359580507        0.18412692393146        1.35711173969123
H            3.27389041128220        0.50927474311143        1.52299520928359
H            3.78281335834509       -1.47769867243483       -2.21785539447560
H            1.35641630588097       -1.78877244980632       -2.38832082616659
H            5.72361446305652       -0.78637270028436       -0.99153300913493
H            5.56646147820902       -0.38703975678115        0.71704113513200
H            5.06036571106570        1.95555751459267        0.19172902435438
H            4.62000030911166        0.92924518818526       -2.47606497889613
H            6.54234878265350        3.53485455683891       -0.67389047878452
H           -0.98247816889820        0.48151256562023       -2.81803823649781
H            0.95309012050607        1.63083363731338       -2.06697479288551
H           -0.79551359311087        2.80501505219540        0.14644200261753
H            1.47795351349454        3.16475155260474        1.07521734083446
H            2.19073362767398        3.02612192173401       -0.53974577738952
H            0.97055984607328        5.08784585169342       -1.23152460889112
H            0.27512361013212        5.22171239489178        0.38526071928839
H            2.28028809362605        6.69562748331409        0.11572604317196
H            2.55500965521963        5.47015031946539        1.35486618018541
H            3.26815051837508        5.27741772900471       -0.24765449286901
H           -3.95162466230994        2.02066480695117        1.01716973909517
H           -2.73804014034563        1.79742961083256        0.08013074972672
O           -1.72547045808594       -0.26195531676621        1.87014097665880
H           -2.33818724463408       -0.71220642227109        2.45313881905974
H           -2.12997325316363        0.60389769777760        1.65812310201191
N            4.84141298710576        1.67977892789065       -1.84079004801924
C            6.99677840761983        1.55347669231404       -0.67388719218933
O            7.80839525126308        0.65477325249587       -0.75359898353255
C            3.73902198413926        3.09272951737859       -3.44089538302225
C            4.48625954182845        2.94126617263798       -2.13665255615226
O            4.75940460359848        3.88400217975291       -1.40963552452418
H            2.92983298650453        2.36946750303328       -3.50757068614635
H            4.42304517143743        2.93008797922307       -4.27178915453829
H            3.33583728604968        4.09895736200134       -3.50918700871164
N            7.30094222231245        2.86011595218822       -0.65083011285040
C            8.65281452996521        3.34547757157850       -0.77920855707474
H            8.89955453877281        3.99973624965461        0.05818387442986
H            8.78036018279322        3.89874221285719       -1.71200392693271
H            9.31865777811744        2.48378868957104       -0.77630934856987
 
 Bond Distances (Angstroems)
 ---------------------------
N1-C2=1.3812         N1-H18=1.0175        N1-H19=1.0087        C2-N1=1.3812         C2-C3=1.3964         C2-C7=1.3939         
C3-C2=1.3964         C3-C4=1.3778         C3-H20=1.0787        C4-C3=1.3778         C4-C5=1.3912         C4-H21=1.0805        
C5-C4=1.3912         C5-C6=1.3888         C5-C8=1.5021         C6-C5=1.3888         C6-C7=1.3819         C6-H22=1.0822        
C7-C2=1.3939         C7-C6=1.3819         C7-H23=1.0813        C8-C5=1.5021         C8-C9=1.5310         C8-H24=1.0915        
C8-H25=1.0910        C9-C8=1.5310         C9-H26=1.0971        C9-N44=1.4537        C9-C45=1.5456        C10-C11=1.4554       
C10-O16=1.2214       C10-H29=1.1036       C11-C10=1.4554       C11-C12=1.3355       C11-H30=1.0810       C12-C11=1.3355       
C12-C13=1.4843       C12-H31=1.0816       C13-C12=1.4843       C13-C14=1.5350       C13-H32=1.0927       C13-H33=1.0910       
C14-C13=1.5350       C14-C15=1.5229       C14-H34=1.0922       C14-H35=1.0922       C15-C14=1.5229       C15-H36=1.0875       
C15-H37=1.0879       C15-H38=1.0874       O16-C10=1.2214       O17-H39=0.9585       O17-H40=0.9833       H18-N1=1.0175        
H19-N1=1.0087        H20-C3=1.0787        H21-C4=1.0805        H22-C6=1.0822        H23-C7=1.0813        H24-C8=1.0915        
H25-C8=1.0910        H26-C9=1.0971        H27-N44=1.0079       H28-N53=1.0155       H29-C10=1.1036       H30-C11=1.0810       
H31-C12=1.0816       H32-C13=1.0927       H33-C13=1.0910       H34-C14=1.0922       H35-C14=1.0922       H36-C15=1.0875       
H37-C15=1.0879       H38-C15=1.0874       H39-O17=0.9585       H40-O17=0.9833       O41-H42=0.9581       O41-H43=0.9789       
H42-O41=0.9581       H43-O41=0.9789       N44-C9=1.4537        N44-H27=1.0079       N44-C48=1.3435       C45-C9=1.5456        
C45-O46=1.2136       C45-N53=1.3418       O46-C45=1.2136       C47-C48=1.5107       C47-H50=1.0874       C47-H51=1.0885       
C47-H52=1.0861       C48-N44=1.3435       C48-C47=1.5107       C48-O49=1.2214       O49-C48=1.2214       H50-C47=1.0874       
H51-C47=1.0885       H52-C47=1.0861       N53-H28=1.0155       N53-C45=1.3418       N53-C54=1.4421       C54-N53=1.4421       
C54-H55=1.0909       C54-H56=1.0920       C54-H57=1.0890       H55-C54=1.0909       H56-C54=1.0920       H57-C54=1.0890       
 C  H  Rav=1.0884 sigma=0.0057  Rmin=1.0787  Rmax=1.1036    23
 C  C  Rav=1.4502 sigma=0.0693  Rmin=1.3355  Rmax=1.5456    15
 N  H  Rav=1.0124 sigma=0.0042  Rmin=1.0079  Rmax=1.0175     4
 N  C  Rav=1.3924 sigma=0.0475  Rmin=1.3418  Rmax=1.4537     5
 O  H  Rav=0.9697 sigma=0.0115  Rmin=0.9581  Rmax=0.9833     4
 O  C  Rav=1.2188 sigma=0.0037  Rmin=1.2136  Rmax=1.2214     3
 
 selected bond angles (degree)
 --------------------
H18-N1-C2=114.52               H19-N1-C2=116.28               H19-N1-H18=114.33              C3-C2-N1=119.77                
C7-C2-N1=121.37                C7-C2-C3=118.66                C4-C3-C2=120.43                H20-C3-C2=118.58               
H20-C3-C4=120.99               C5-C4-C3=121.10                H21-C4-C3=119.57               H21-C4-C5=119.33               
C6-C5-C4=118.32                C8-C5-C4=120.47                C8-C5-C6=121.15                C7-C6-C5=121.11                
H22-C6-C5=119.70               H22-C6-C7=119.19               C6-C7-C2=120.34                H23-C7-C2=119.55               
H23-C7-C6=120.10               C9-C8-C5=110.74                H24-C8-C5=111.06               H24-C8-C9=108.43               
H25-C8-C5=110.84               H25-C8-C9=108.01               H25-C8-H24=107.64              H26-C9-C8=110.75               
N44-C9-C8=109.79               N44-C9-H26=107.11              C45-C9-C8=110.95               C45-C9-H26=108.36              
C45-C9-N44=109.79              O16-C10-C11=126.31             H29-C10-C11=113.92             H29-C10-O16=119.19             
 
 selected dihedral angles (degree)
 ---------------------------------
C3-C2-N1-H18=339.58           C3-C2-N1-H19=202.66           C7-C2-N1-H18=164.66           C7-C2-N1-H19= 27.74           
C4-C3-C2-N1=186.49            C4-C3-C2-C7=  1.55            H20-C3-C2-N1=  6.67           H20-C3-C2-C7=181.73           
C5-C4-C3-C2=359.79            C5-C4-C3-H20=179.61           H21-C4-C3-C2=179.97           H21-C4-C3-H20=359.78          
C6-C5-C4-C3=358.96            C6-C5-C4-H21=178.78           C8-C5-C4-C3=176.37            C8-C5-C4-H21=356.19           
C7-C6-C5-C4=  0.94            C7-C6-C5-C8=183.55            H22-C6-C5-C4=181.67           H22-C6-C5-C8=  4.28           
C6-C7-C2-N1=173.33            C6-C7-C2-C3=358.36            H23-C7-C2-N1=353.83           H23-C7-C2-C3=178.86           
C2-C7-C6-C5=  0.40            C2-C7-C6-H22=179.68           H23-C7-C6-C5=179.90           H23-C7-C6-H22=359.18          
C9-C8-C5-C4=286.38            C9-C8-C5-C6=103.72            H24-C8-C5-C4=165.85           H24-C8-C5-C6=343.18           
H25-C8-C5-C4= 46.25           H25-C8-C5-C6=223.58           H26-C9-C8-C5= 65.96           H26-C9-C8-H24=188.05          
H26-C9-C8-H25=304.42          N44-C9-C8-C5=307.88           N44-C9-C8-H24= 69.97          N44-C9-C8-H25=186.34          
C45-C9-C8-C5=186.35           C45-C9-C8-H24=308.43          C45-C9-C8-H25= 64.80          
 
 CMA Distance (Angstroems)
 ---------------------------
R(CMA):  5.0669
           -------------------------------------------------
          |                Final Singlepoint                |
           -------------------------------------------------

          ...................................................
          :                      SETUP                      :
          :.................................................:
          :  # basis functions                 135          :
          :  # atomic orbitals                 135          :
          :  # shells                           83          :
          :  # electrons                       148          :
          :  max. iterations                   250          :
          :  Hamiltonian                  GFN2-xTB          :
          :  restarted?                      false          :
          :  GBSA solvation                  false          :
          :  PC potential                    false          :
          :  electronic temp.          500.0000000     K    :
          :  accuracy                    1.0000000          :
          :  -> integral cutoff          0.2500000E+02      :
          :  -> integral neglect         0.1000000E-07      :
          :  -> SCF convergence          0.1000000E-05 Eh   :
          :  -> wf. convergence          0.1000000E-03 e    :
          :  Broyden damping             0.4000000          :
          :  net charge                          0          :
          :  unpaired electrons                  0          :
          ...................................................

 iter      E             dE          RMSdq      gap      omega  full diag
   1    -84.5413225 -0.845413E+02  0.647E-05    2.24       0.0  T
   2    -84.5413225 -0.141540E-10  0.443E-05    2.24     299.1  T
   3    -84.5413225 -0.316902E-10  0.283E-05    2.24     468.1  T

   *** convergence criteria satisfied after 3 iterations ***

         #    Occupation            Energy/Eh            Energy/eV
      -------------------------------------------------------------
         1        2.0000           -0.7087903             -19.2872
       ...           ...                  ...                  ...
        68        2.0000           -0.4102908             -11.1646
        69        2.0000           -0.4071928             -11.0803
        70        2.0000           -0.4008312             -10.9072
        71        2.0000           -0.3965495             -10.7907
        72        2.0000           -0.3936279             -10.7112
        73        2.0000           -0.3837325             -10.4419
        74        2.0000           -0.3610863              -9.8257 (HOMO)
        75                         -0.2786773              -7.5832 (LUMO)
        76                         -0.2199996              -5.9865
        77                         -0.2181683              -5.9367
        78                         -0.2100814              -5.7166
        79                         -0.2048798              -5.5751
       ...                                ...                  ...
       135                          0.6714918              18.2722
      -------------------------------------------------------------
                  HL-Gap            0.0824090 Eh            2.2425 eV
             Fermi-level           -0.3198818 Eh           -8.7044 eV

 SCC (total)                   0 d,  0 h,  0 min,  0.038 sec
 SCC setup                      ...        0 min,  0.000 sec (  0.000%)
 Dispersion                     ...        0 min,  0.001 sec (  2.631%)
 classical contributions        ...        0 min,  0.000 sec (  0.000%)
 integral evaluation            ...        0 min,  0.002 sec (  5.263%)
 iterations                     ...        0 min,  0.026 sec ( 68.421%)
 molecular gradient             ...        0 min,  0.009 sec ( 23.684%)
 printout                       ...        0 min,  0.000 sec (  0.000%)

         :::::::::::::::::::::::::::::::::::::::::::::::::::::
         ::                     SUMMARY                     ::
         :::::::::::::::::::::::::::::::::::::::::::::::::::::
         :: total energy             -83.440742415561 Eh    ::
         :: gradient norm              0.000123753241 Eh/a0 ::
         :: HOMO-LUMO gap              2.242463150160 eV    ::
         ::.................................................::
         :: SCC energy               -84.539274388444 Eh    ::
         :: -> isotropic ES            0.175729877907 Eh    ::
         :: -> anisotropic ES         -0.003305931964 Eh    ::
         :: -> anisotropic XC          0.029686958614 Eh    ::
         :: -> dispersion             -0.057998257754 Eh    ::
         :: repulsion energy           1.098531972884 Eh    ::
         :: add. restraining           0.000000000000 Eh    ::
         :: total charge               0.000000000000 e     ::
         :::::::::::::::::::::::::::::::::::::::::::::::::::::

           -------------------------------------------------
          |                Property Printout                |
           -------------------------------------------------

    * Orbital Energies and Occupations

         #    Occupation            Energy/Eh            Energy/eV
      -------------------------------------------------------------
         1        2.0000           -0.7087903             -19.2872
       ...           ...                  ...                  ...
        62        2.0000           -0.4330736             -11.7845
        63        2.0000           -0.4317590             -11.7488
        64        2.0000           -0.4305261             -11.7152
        65        2.0000           -0.4298423             -11.6966
        66        2.0000           -0.4222479             -11.4899
        67        2.0000           -0.4166481             -11.3376
        68        2.0000           -0.4102908             -11.1646
        69        2.0000           -0.4071928             -11.0803
        70        2.0000           -0.4008312             -10.9072
        71        2.0000           -0.3965495             -10.7907
        72        2.0000           -0.3936279             -10.7112
        73        2.0000           -0.3837325             -10.4419
        74        2.0000           -0.3610863              -9.8257 (HOMO)
        75                         -0.2786773              -7.5832 (LUMO)
        76                         -0.2199996              -5.9865
        77                         -0.2181683              -5.9367
        78                         -0.2100814              -5.7166
        79                         -0.2048798              -5.5751
        80                         -0.1634425              -4.4475
        81                         -0.0869186              -2.3652
        82                          0.0016417               0.0447
        83                          0.0109253               0.2973
        84                          0.0290231               0.7898
        85                          0.0636986               1.7333
       ...                                ...                  ...
       135                          0.6714918              18.2722
      -------------------------------------------------------------
                  HL-Gap            0.0824090 Eh            2.2425 eV
             Fermi-level           -0.3198818 Eh           -8.7044 eV

     #   Z          covCN         q      C6AA      α(0)
     1   7 N        2.646    -0.276    27.146     7.738
     2   6 C        2.900     0.077    26.283     8.406
     3   6 C        2.923    -0.060    29.492     8.906
     4   6 C        2.924    -0.038    28.956     8.824
     5   6 C        2.970    -0.006    28.173     8.706
     6   6 C        2.924    -0.045    29.112     8.848
     7   6 C        2.921    -0.064    29.580     8.919
     8   6 C        3.812    -0.070    21.824     6.649
     9   6 C        3.796     0.020    20.241     6.406
    10   6 C        2.769     0.211    23.531     7.944
    11   6 C        2.890    -0.066    29.630     8.924
    12   6 C        2.895    -0.005    28.151     8.699
    13   6 C        3.808    -0.061    21.663     6.626
    14   6 C        3.802    -0.047    21.414     6.588
    15   6 C        3.753    -0.111    22.675     6.790
    16   8 O        0.856    -0.409    21.856     6.268
    17   8 O        1.608    -0.611    25.457     6.810
    18   1 H        0.860     0.216     1.030     1.590
    19   1 H        0.860     0.162     1.321     1.800
    20   1 H        0.926     0.051     2.305     2.374
    21   1 H        0.926     0.031     2.572     2.508
    22   1 H        0.925     0.022     2.703     2.571
    23   1 H        0.925     0.022     2.702     2.571
    24   1 H        0.924     0.061     2.193     2.316
    25   1 H        0.924     0.058     2.226     2.333
    26   1 H        0.924     0.060     2.194     2.317
    27   1 H        0.860     0.182     1.201     1.717
    28   1 H        0.860     0.207     1.073     1.623
    29   1 H        0.923     0.012     2.860     2.645
    30   1 H        0.926     0.034     2.530     2.487
    31   1 H        0.925     0.081     1.971     2.196
    32   1 H        0.924     0.058     2.225     2.333
    33   1 H        0.924     0.043     2.415     2.430
    34   1 H        0.924     0.030     2.582     2.513
    35   1 H        0.924     0.035     2.514     2.480
    36   1 H        0.925     0.034     2.524     2.485
    37   1 H        0.925     0.034     2.536     2.490
    38   1 H        0.925     0.061     2.182     2.310
    39   1 H        0.806     0.276     0.797     1.402
    40   1 H        0.802     0.331     0.636     1.253
    41   8 O        1.609    -0.607    25.349     6.795
    42   1 H        0.806     0.271     0.814     1.417
    43   1 H        0.803     0.321     0.661     1.277
    44   7 N        2.692    -0.181    24.920     7.414
    45   6 C        2.753     0.264    22.554     7.777
    46   8 O        0.858    -0.435    22.403     6.346
    47   6 C        3.757    -0.141    23.271     6.878
    48   6 C        2.749     0.277    22.312     7.735
    49   8 O        0.859    -0.461    22.939     6.421
    50   1 H        0.925     0.053     2.284     2.364
    51   1 H        0.925     0.061     2.182     2.310
    52   1 H        0.925     0.074     2.041     2.234
    53   7 N        2.686    -0.178    24.848     7.403
    54   6 C        3.690    -0.042    21.520     6.639
    55   1 H        0.924     0.052     2.291     2.367
    56   1 H        0.924     0.049     2.334     2.389
    57   1 H        0.925     0.082     1.959     2.189

 Mol. C6AA /au·bohr⁶  :      29538.615098
 Mol. C8AA /au·bohr⁸  :     657834.761351
 Mol. α(0) /au        :        262.748966


Wiberg/Mayer (AO) data.
largest (>0.10) Wiberg bond orders for each atom

 ---------------------------------------------------------------------------
     #   Z sym  total        # sym  WBO       # sym  WBO       # sym  WBO
 ---------------------------------------------------------------------------
     1   7 N    3.338 --     2 C    1.150    19 H    0.953    18 H    0.903
     2   6 C    3.971 --     7 C    1.355     3 C    1.339     1 N    1.150
     3   6 C    3.989 --     4 C    1.475     2 C    1.339    20 H    0.965
                             6 C    0.102
     4   6 C    3.992 --     3 C    1.475     5 C    1.392    21 H    0.969
                             7 C    0.101
     5   6 C    3.978 --     6 C    1.407     4 C    1.392     8 C    1.009
     6   6 C    3.991 --     7 C    1.454     5 C    1.407    22 H    0.968
                             3 C    0.102
     7   6 C    3.987 --     6 C    1.454     2 C    1.355    23 H    0.969
                             4 C    0.101
     8   6 C    3.990 --     5 C    1.009     9 C    0.982    24 H    0.970
                            25 H    0.965
     9   6 C    3.962 --     8 C    0.982    44 N    0.973    26 H    0.952
                            45 C    0.914
    10   6 C    3.926 --    16 O    1.726    11 C    1.096    29 H    0.939
    11   6 C    3.988 --    12 C    1.805    10 C    1.096    30 H    0.964
    12   6 C    3.976 --    11 C    1.805    13 C    1.046    31 H    0.955
    13   6 C    3.996 --    12 C    1.046    14 C    0.977    33 H    0.972
                            32 H    0.953
    14   6 C    3.994 --    15 C    1.018    34 H    0.980    35 H    0.979
                            13 C    0.977
    15   6 C    3.993 --    14 C    1.018    37 H    0.988    36 H    0.986
                            38 H    0.980
    16   8 O    2.049 --    10 C    1.726
    17   8 O    1.860 --    39 H    0.919    40 H    0.826
    18   1 H    0.953 --     1 N    0.903
    19   1 H    0.973 --     1 N    0.953
    20   1 H    0.997 --     3 C    0.965
    21   1 H    0.999 --     4 C    0.969
    22   1 H    0.999 --     6 C    0.968
    23   1 H    0.999 --     7 C    0.969
    24   1 H    0.996 --     8 C    0.970
    25   1 H    0.995 --     8 C    0.965
    26   1 H    0.996 --     9 C    0.952
    27   1 H    0.967 --    44 N    0.933
    28   1 H    0.957 --    53 N    0.904
    29   1 H    1.000 --    10 C    0.939
    30   1 H    0.999 --    11 C    0.964
    31   1 H    0.993 --    12 C    0.955
    32   1 H    0.997 --    13 C    0.953
    33   1 H    0.998 --    13 C    0.972
    34   1 H    0.999 --    14 C    0.980
    35   1 H    0.999 --    14 C    0.979
    36   1 H    0.997 --    15 C    0.986
    37   1 H    0.999 --    15 C    0.988
    38   1 H    0.996 --    15 C    0.980
    39   1 H    0.924 --    17 O    0.919
    40   1 H    0.891 --    17 O    0.826
    41   8 O    1.843 --    42 H    0.921    43 H    0.842
    42   1 H    0.926 --    41 O    0.921
    43   1 H    0.897 --    41 O    0.842
    44   7 N    3.458 --    48 C    1.280     9 C    0.973    27 H    0.933
                            49 O    0.192
    45   6 C    3.956 --    46 O    1.679    53 N    1.291     9 C    0.914
    46   8 O    2.011 --    45 C    1.679    53 N    0.212
    47   6 C    3.993 --    48 C    0.984    52 H    0.982    50 H    0.974
                            51 H    0.966
    48   6 C    3.950 --    49 O    1.634    44 N    1.280    47 C    0.984
    49   8 O    1.987 --    48 C    1.634    44 N    0.192
    50   1 H    0.997 --    47 C    0.974
    51   1 H    0.996 --    47 C    0.966
    52   1 H    0.994 --    47 C    0.982
    53   7 N    3.465 --    45 C    1.291    54 C    1.006    28 H    0.904
                            46 O    0.212
    54   6 C    3.966 --    53 N    1.006    55 H    0.977    57 H    0.977
                            56 H    0.976
    55   1 H    0.997 --    54 C    0.977
    56   1 H    0.998 --    54 C    0.976
    57   1 H    0.993 --    54 C    0.977
 ---------------------------------------------------------------------------

Topologies differ in total number of bonds
Writing topology from bond orders to xtbtopo.mol

molecular dipole:
                 x           y           z       tot (Debye)
 q only:       -0.575       0.231      -0.344
   full:       -1.178      -0.023      -0.688       3.468
molecular quadrupole (traceless):
                xx          xy          yy          xz          yz          zz
 q only:      -13.628      15.067       3.758      -7.202      -1.286       9.870
  q+dip:      -19.796      14.334       0.792     -12.926       1.444      19.004
   full:      -20.449      14.534       2.307     -12.339      -1.871      18.142

           -------------------------------------------------
          |                Geometry Summary                 |
           -------------------------------------------------

      molecular mass/u    :      369.4565437
   center of mass at/Å    :        2.5867728       1.5380556      -0.6649415
  moments of inertia/u·Å² :        0.1692085E+04   0.4469534E+04   0.5261680E+04
rotational constants/cm⁻¹ :        0.9962642E-02   0.3771676E-02   0.3203850E-02

 * 49 selected distances

     #   Z          #   Z                                           value/Å
     1   7 N        2   6 C                                       1.3811530
     2   6 C        3   6 C                                       1.3963612
     3   6 C        4   6 C                                       1.3778314
     4   6 C        5   6 C                                       1.3912189
     5   6 C        6   6 C                                       1.3888308
     2   6 C        7   6 C                                       1.3939498
     6   6 C        7   6 C                                       1.3819449
     8   6 C        9   6 C                                       1.5309744
    11   6 C       12   6 C                                       1.3355342
    12   6 C       13   6 C                                       1.4843165
    13   6 C       14   6 C                                       1.5350121 (max)
    14   6 C       15   6 C                                       1.5229435
    10   6 C       16   8 O                                       1.2213780
     1   7 N       18   1 H                                       1.0174717
     1   7 N       19   1 H                                       1.0086599
     3   6 C       20   1 H                                       1.0787478
     4   6 C       21   1 H                                       1.0804934
     6   6 C       22   1 H                                       1.0822220
     7   6 C       23   1 H                                       1.0813465
     8   6 C       24   1 H                                       1.0915443
     8   6 C       25   1 H                                       1.0909693
     9   6 C       26   1 H                                       1.0970803
    11   6 C       30   1 H                                       1.0809776
    12   6 C       31   1 H                                       1.0815943
    13   6 C       32   1 H                                       1.0927064
    13   6 C       33   1 H                                       1.0910174
    14   6 C       34   1 H                                       1.0921578
    14   6 C       35   1 H                                       1.0921578
    15   6 C       36   1 H                                       1.0874644
    15   6 C       37   1 H                                       1.0878989
    15   6 C       38   1 H                                       1.0873731
    17   8 O       39   1 H                                       0.9585156
    17   8 O       40   1 H                                       0.9832998
    41   8 O       42   1 H                                       0.9581412 (min)
    41   8 O       43   1 H                                       0.9789156
     9   6 C       44   7 N                                       1.4536544
    27   1 H       44   7 N                                       1.0079181
    45   6 C       46   8 O                                       1.2135667
    44   7 N       48   6 C                                       1.3435100
    48   6 C       49   8 O                                       1.2214391
    47   6 C       50   1 H                                       1.0873549
    47   6 C       51   1 H                                       1.0884506
    47   6 C       52   1 H                                       1.0861475
    28   1 H       53   7 N                                       1.0155137
    45   6 C       53   7 N                                       1.3417726
    53   7 N       54   6 C                                       1.4420874
    54   6 C       55   1 H                                       1.0909452
    54   6 C       56   1 H                                       1.0920060
    54   6 C       57   1 H                                       1.0889736

 * 6 distinct bonds (by element types)

   Z      Z             #   av. dist./Å        max./Å        min./Å
   1 H    6 C          22     1.0877104     1.0970803     1.0787478
   6 C    6 C          11     1.4308107     1.5350121     1.3355342
   1 H    7 N           4     1.0123909     1.0174717     1.0079181
   6 C    7 N           5     1.3924355     1.4536544     1.3417726
   1 H    8 O           4     0.9697180     0.9832998     0.9581412
   6 C    8 O           3     1.2187946     1.2214391     1.2135667


optimized geometry written to: xtbopt.xyz


           -------------------------------------------------
          | TOTAL ENERGY              -83.440742415561 Eh   |
          | GRADIENT NORM               0.000123753241 Eh/α |
          | HOMO-LUMO GAP               2.242463150160 eV   |
           -------------------------------------------------

------------------------------------------------------------------------
 * finished run on 2026/08/20 at 20:34:11.403     
------------------------------------------------------------------------
 total:
 * wall-time:     0 d,  0 h,  0 min, 17.680 sec
 *  cpu-time:     0 d,  0 h,  0 min, 38.047 sec
 * ratio c/w:     2.152 speedup
 SCF:
 * wall-time:     0 d,  0 h,  0 min,  0.119 sec
 *  cpu-time:     0 d,  0 h,  0 min,  0.266 sec
 * ratio c/w:     2.232 speedup
 ANC optimizer:
 * wall-time:     0 d,  0 h,  0 min, 17.539 sec
 *  cpu-time:     0 d,  0 h,  0 min, 37.766 sec
 * ratio c/w:     2.153 speedup



===== STDERR =====

normal termination of xtb
