57
 energy: -83.440822410054 gnorm: 0.000177339861 xtb: 6.7.1pre (5071a88)
N           -0.26341520687825       -0.11747957382050       -0.97185098590574
C            1.04951249226459        0.08445618830515       -0.61761766720572
C            1.49120641699995        1.31886288054095       -0.13611079704867
C            2.83842222964418        1.55647627761532        0.04961280519062
C            3.78440552252081        0.57223100477696       -0.20673055442422
C            3.33833331982809       -0.67697985488605       -0.62309328326878
C            1.99760457893647       -0.91951735546791       -0.82968263970644
C            5.25286354055754        0.87410387630970       -0.13621829746285
C            5.74711144665249        1.27064115460246       -1.54556921914429
C            2.26882997303148        0.51944162577791       -3.65957131204731
C            2.72267009917470        1.88036706482654       -3.51390375844841
C            1.95092037339441        2.83329421939104       -2.97898747281062
C            2.38377637572502        4.22755145476406       -2.72795260936386
C            1.41979515970318        5.24627661149705       -3.34971703498900
C            1.85476854254470        6.67350509961965       -3.04512686988868
O            2.98163566932566       -0.41559329728503       -3.98261422409885
O           -0.59238992957963       -2.81350033930248       -2.14509509218899
H           -0.52157058901292       -1.07599892568926       -1.17419457267672
H           -0.95800065554990        0.42063583540579       -0.48032231282508
H            0.76787514637216        2.09343820155763        0.07982315326648
H            3.16519238121743        2.52499679538683        0.40217411675556
H            4.05426782275822       -1.47042474361137       -0.78304663165361
H            1.65821782516681       -1.89145171026682       -1.15146311337576
H            5.81418055179441        0.00568829427148        0.20838978366401
H            5.44240493517699        1.70894248739901        0.54015196573202
H            5.06374859506886        2.03005366611173       -1.93834879663004
H            4.99166824333367        0.19775250163362       -3.19007475228105
H            7.94460457870093        0.18034050328956       -0.94583010429633
H            1.20070558990777        0.35834831549152       -3.44708521604464
H            3.73781452128101        2.09836668487712       -3.81998478768034
H            0.93797726714971        2.58575697910892       -2.68731017864767
H            2.39872263749125        4.38618345705394       -1.64512127215212
H            3.39448610878503        4.39094785860604       -3.10547452978553
H            1.39040836211113        5.09532810313002       -4.43073453047782
H            0.41340192133627        5.07788005662307       -2.96090699529310
H            1.17108096813374        7.38431842708082       -3.50258989110663
H            1.86681002822340        6.84977623852430       -1.97193799458596
H            2.85342118803204        6.85937444418464       -3.43311624790120
H            0.17415303397433       -2.82786963640386       -2.74787017495901
H           -1.30767622288807       -3.24108103259005       -2.61772635083236
O            1.64638736557618       -2.88216304921068       -3.78345916237696
H            2.09747621127139       -2.02911312209895       -3.90744139132062
H            2.31126952542414       -3.49330615365476       -3.46027149680872
N            5.70098844218365        0.14777404476986       -2.47270966059496
C            7.12130645309561        1.96208237008749       -1.46582252361177
O            7.22467432342305        3.14949496120387       -1.71702360262479
C            5.90585203121903       -2.05874479005535       -3.37793099095117
C            6.28372161922799       -1.05516262822840       -2.31230023011279
O            7.07925587473824       -1.32222213879145       -1.42312488223637
H            6.05485997219366       -3.06451314246606       -2.99446292025847
H            6.56367613753001       -1.92019653462855       -4.23455450487641
H            4.87845501694052       -1.92297286836287       -3.70173658458656
N            8.12329191522447        1.17805896646186       -1.05901764220766
C            9.47436548309648        1.65915132279476       -0.91871699804720
H           10.13632435109076        1.16673409121212       -1.63399349202511
H            9.83878867379389        1.46673315288503        0.09162180738722
H            9.47236176167909        2.73192567934030       -1.10722727800391
