      -----------------------------------------------------------      
     |                   =====================                   |     
     |                           x T B                           |     
     |                   =====================                   |     
     |                         S. Grimme                         |     
     |          Mulliken Center for Theoretical Chemistry        |     
     |                    University of Bonn                     |     
      -----------------------------------------------------------      

   * xtb version 6.7.1pre (5071a88) compiled by 'Marcel@Raven' on 2024-07-23

   xtb is free software: you can redistribute it and/or modify it under
   the terms of the GNU Lesser General Public License as published by
   the Free Software Foundation, either version 3 of the License, or
   (at your option) any later version.
   
   xtb is distributed in the hope that it will be useful,
   but WITHOUT ANY WARRANTY; without even the implied warranty of
   MERCHANTABILITY or FITNESS FOR A PARTICULAR PURPOSE.  See the
   GNU Lesser General Public License for more details.
   
   Cite this work as:
   * C. Bannwarth, E. Caldeweyher, S. Ehlert, A. Hansen, P. Pracht,
     J. Seibert, S. Spicher, S. Grimme, WIREs Comput. Mol. Sci., 2020, 11,
     e01493. DOI: 10.1002/wcms.1493
   
   for GFN2-xTB:
   * C. Bannwarth, S. Ehlert and S. Grimme., J. Chem. Theory Comput., 2019,
     15, 1652-1671. DOI: 10.1021/acs.jctc.8b01176
   for GFN1-xTB:
   * S. Grimme, C. Bannwarth, P. Shushkov, J. Chem. Theory Comput., 2017,
     13, 1989-2009. DOI: 10.1021/acs.jctc.7b00118
   for GFN0-xTB:
   * P. Pracht, E. Caldeweyher, S. Ehlert, S. Grimme, ChemRxiv, 2019, preprint.
     DOI: 10.26434/chemrxiv.8326202.v1
   for GFN-FF:
   * S. Spicher and S. Grimme, Angew. Chem. Int. Ed., 2020, 59, 15665-15673.
     DOI: 10.1002/anie.202004239
   
   for ALPB and GBSA implicit solvation:
   * S. Ehlert, M. Stahn, S. Spicher, S. Grimme, J. Chem. Theory Comput.,
     2021, 17, 4250-4261. DOI: 10.1021/acs.jctc.1c00471
   
   for ddCOSMO and CPCM-X implicit solvation:
   * M. Stahn, S. Ehlert, S. Grimme, J. Phys. Chem. A,
     2023, XX, XXXX-XXXX. DOI: 10.1021/acs.jpca.3c04382
   
   for DFT-D4:
   * E. Caldeweyher, C. Bannwarth and S. Grimme, J. Chem. Phys., 2017,
     147, 034112. DOI: 10.1063/1.4993215
   * E. Caldeweyher, S. Ehlert, A. Hansen, H. Neugebauer, S. Spicher,
     C. Bannwarth and S. Grimme, J. Chem. Phys., 2019, 150, 154122.
     DOI: 10.1063/1.5090222
   * E. Caldeweyher, J.-M. Mewes, S. Ehlert and S. Grimme, Phys. Chem. Chem. Phys.
     2020, 22, 8499-8512. DOI: 10.1039/D0CP00502A
   
   for sTDA-xTB:
   * S. Grimme and C. Bannwarth, J. Chem. Phys., 2016, 145, 054103.
     DOI: 10.1063/1.4959605
   
   in the mass-spec context:
   * V. Asgeirsson, C. Bauer and S. Grimme, Chem. Sci., 2017, 8, 4879.
     DOI: 10.1039/c7sc00601b
   * J. Koopman and S. Grimme, ACS Omega 2019, 4, 12, 15120-15133.
     DOI: 10.1021/acsomega.9b02011
   
   for metadynamics refer to:
   * S. Grimme, J. Chem. Theory Comput., 2019, 155, 2847-2862
     DOI: 10.1021/acs.jctc.9b00143
   
   for SPH calculations refer to:
   * S. Spicher and S. Grimme, J. Chem. Theory Comput., 2021, 17, 1701-1714
     DOI: 10.1021/acs.jctc.0c01306
   
   for ONIOM refer to:
   * C. Plett, A. Katbashev, S. Ehlert, S. Grimme, M. Bursch,
     Phys. Chem. Chem. Phys., 2023, 25, 17860-17868. DOI: 10.1039/D3CP02178E
   
   for DIPRO refer to:
   * J. Kohn, N. Gildemeister, S. Grimme, D. Fazzi, A. Hansen,
     J. Chem. Phys., 2023, just accepted.
   
   for PTB refer to:
   * S. Grimme, M. Mueller, A. Hansen, J. Chem. Phys., 2023, 158, 124111.
     DOI: 10.1063/5.0137838
   
   with help from (in alphabetical order)
   P. Atkinson, C. Bannwarth, F. Bohle, G. Brandenburg, E. Caldeweyher
   M. Checinski, S. Dohm, S. Ehlert, S. Ehrlich, I. Gerasimov, C. Hölzer
   A. Katbashev, J. Kohn, J. Koopman, C. Lavigne, S. Lehtola, F. März, M. Müller,
   F. Musil, H. Neugebauer, J. Pisarek, C. Plett, P. Pracht, F. Pultar,
   J. Seibert, P. Shushkov, S. Spicher, M. Stahn, M. Steiner, T. Strunk,
   J. Stückrath, T. Rose, and J. Unsleber
   
 * started run on 2026/08/31 at 13:17:01.268     
   ID    Z sym.   atoms
    1    7 N      1, 44, 53
    2    6 C      2-15, 45, 47, 48, 54
    3    8 O      16, 17, 41, 46, 49
    4    1 H      18-40, 42, 43, 50-52, 55-57

           -------------------------------------------------
          |                Calculation Setup                |
           -------------------------------------------------

          program call               : C:\Users\Nayanika\Downloads\xtb-6.7.1pre-windows-x86_64\xtb-6.7.1\bin\xtb.exe D:\PhD_Thesis\LmrR_EVB\charges\fast_lmrr_5QM\xtb_preparation\stage2_five_xtb_protocols\GFN2_etemp500\RS1_1_to_TS1_2\RS1_1_to_TS1_2_TS_xtbopt.xyz --gfn 2 --chrg 0 --uhf 0 --etemp 500
          coordinate file            : D:\PhD_Thesis\LmrR_EVB\charges\fast_lmrr_5QM\xtb_preparation\stage2_five_xtb_protocols\GFN2_etemp500\RS1_1_to_TS1_2\RS1_1_to_TS1_2_TS_xtbopt.xyz
          omp threads                :                     1


molecular fragmentation (1/2 indicates fragments):
111111111222222221111111111122222222222222211111111111111
# atoms in fragment 1/2:    34    23
 fragment masses (1/2) :      235.28      134.17
CMA distance (Bohr)    :   9.575
constraining FC (au)   :  0.0500

           -------------------------------------------------
          |                 G F N 2 - x T B                 |
           -------------------------------------------------

        Reference                      10.1021/acs.jctc.8b01176
      * Hamiltonian:
        H0-scaling (s, p, d)           1.850000    2.230000    2.230000
        zeta-weighting                 0.500000
      * Dispersion:
        s8                             2.700000
        a1                             0.520000
        a2                             5.000000
        s9                             5.000000
      * Repulsion:
        kExp                           1.500000    1.000000
        rExp                           1.000000
      * Coulomb:
        alpha                          2.000000
        third order                    shell-resolved
        anisotropic                    true
        a3                             3.000000
        a5                             4.000000
        cn-shift                       1.200000
        cn-exp                         4.000000
        max-rad                        5.000000

q/qsh data taken from xtbrestart
CAMM data taken from xtbrestart

          ...................................................
          :                      SETUP                      :
          :.................................................:
          :  # basis functions                 135          :
          :  # atomic orbitals                 135          :
          :  # shells                           83          :
          :  # electrons                       148          :
          :  max. iterations                   250          :
          :  Hamiltonian                  GFN2-xTB          :
          :  restarted?                       true          :
          :  GBSA solvation                  false          :
          :  PC potential                    false          :
          :  electronic temp.          500.0000000     K    :
          :  accuracy                    1.0000000          :
          :  -> integral cutoff          0.2500000E+02      :
          :  -> integral neglect         0.1000000E-07      :
          :  -> SCF convergence          0.1000000E-05 Eh   :
          :  -> wf. convergence          0.1000000E-03 e    :
          :  Broyden damping             0.4000000          :
          :  net charge                          0          :
          :  unpaired electrons                  0          :
          ...................................................

 iter      E             dE          RMSdq      gap      omega  full diag
   1    -84.5291033 -0.845291E+02  0.356E+00    2.06       0.0  T
   2    -84.5379682 -0.886488E-02  0.211E+00    2.23       1.0  T
   3    -84.5330570  0.491120E-02  0.419E-01    2.23       1.0  T
   4    -84.5405099 -0.745287E-02  0.168E-01    2.27       1.0  T
   5    -84.5412146 -0.704763E-03  0.861E-02    2.23       1.0  T
   6    -84.5412926 -0.779286E-04  0.359E-02    2.24       1.0  T
   7    -84.5413191 -0.265527E-04  0.136E-02    2.24       1.0  T
   8    -84.5413221 -0.294810E-05  0.484E-03    2.24       2.7  T
   9    -84.5413225 -0.397337E-06  0.210E-03    2.24       6.3  T
  10    -84.5413225 -0.377805E-07  0.755E-04    2.24      17.5  T
  11    -84.5413225 -0.489788E-08  0.208E-04    2.24      63.8  T

   *** convergence criteria satisfied after 11 iterations ***

         #    Occupation            Energy/Eh            Energy/eV
      -------------------------------------------------------------
         1        2.0000           -0.7087902             -19.2872
       ...           ...                  ...                  ...
        68        2.0000           -0.4102905             -11.1646
        69        2.0000           -0.4071925             -11.0803
        70        2.0000           -0.4008303             -10.9071
        71        2.0000           -0.3965498             -10.7907
        72        2.0000           -0.3936284             -10.7112
        73        2.0000           -0.3837328             -10.4419
        74        2.0000           -0.3610857              -9.8256 (HOMO)
        75                         -0.2786770              -7.5832 (LUMO)
        76                         -0.2199992              -5.9865
        77                         -0.2181676              -5.9366
        78                         -0.2100799              -5.7166
        79                         -0.2048807              -5.5751
       ...                                ...                  ...
       135                          0.6714920              18.2722
      -------------------------------------------------------------
                  HL-Gap            0.0824086 Eh            2.2425 eV
             Fermi-level           -0.3198813 Eh           -8.7044 eV

 SCC (total)                   0 d,  0 h,  0 min,  0.200 sec
 SCC setup                      ...        0 min,  0.000 sec (  0.000%)
 Dispersion                     ...        0 min,  0.006 sec (  3.000%)
 classical contributions        ...        0 min,  0.000 sec (  0.000%)
 integral evaluation            ...        0 min,  0.022 sec ( 11.000%)
 iterations                     ...        0 min,  0.113 sec ( 56.500%)
 molecular gradient             ...        0 min,  0.057 sec ( 28.500%)
 printout                       ...        0 min,  0.002 sec (  1.000%)

         :::::::::::::::::::::::::::::::::::::::::::::::::::::
         ::                     SUMMARY                     ::
         :::::::::::::::::::::::::::::::::::::::::::::::::::::
         :: total energy             -83.440742414628 Eh    ::
         :: gradient norm              0.000124071920 Eh/a0 ::
         :: HOMO-LUMO gap              2.242453339623 eV    ::
         ::.................................................::
         :: SCC energy               -84.539274387512 Eh    ::
         :: -> isotropic ES            0.175731321329 Eh    ::
         :: -> anisotropic ES         -0.003306533664 Eh    ::
         :: -> anisotropic XC          0.029687058948 Eh    ::
         :: -> dispersion             -0.057998240198 Eh    ::
         :: repulsion energy           1.098531972884 Eh    ::
         :: add. restraining           0.000000000000 Eh    ::
         :: total charge               0.000000000000 e     ::
         :::::::::::::::::::::::::::::::::::::::::::::::::::::

           -------------------------------------------------
          |                Property Printout                |
           -------------------------------------------------

    * Orbital Energies and Occupations

         #    Occupation            Energy/Eh            Energy/eV
      -------------------------------------------------------------
         1        2.0000           -0.7087902             -19.2872
       ...           ...                  ...                  ...
        62        2.0000           -0.4330725             -11.7845
        63        2.0000           -0.4317583             -11.7487
        64        2.0000           -0.4305247             -11.7152
        65        2.0000           -0.4298421             -11.6966
        66        2.0000           -0.4222474             -11.4899
        67        2.0000           -0.4166469             -11.3375
        68        2.0000           -0.4102905             -11.1646
        69        2.0000           -0.4071925             -11.0803
        70        2.0000           -0.4008303             -10.9071
        71        2.0000           -0.3965498             -10.7907
        72        2.0000           -0.3936284             -10.7112
        73        2.0000           -0.3837328             -10.4419
        74        2.0000           -0.3610857              -9.8256 (HOMO)
        75                         -0.2786770              -7.5832 (LUMO)
        76                         -0.2199992              -5.9865
        77                         -0.2181676              -5.9366
        78                         -0.2100799              -5.7166
        79                         -0.2048807              -5.5751
        80                         -0.1634423              -4.4475
        81                         -0.0869177              -2.3652
        82                          0.0016424               0.0447
        83                          0.0109253               0.2973
        84                          0.0290231               0.7898
        85                          0.0636982               1.7333
       ...                                ...                  ...
       135                          0.6714920              18.2722
      -------------------------------------------------------------
                  HL-Gap            0.0824086 Eh            2.2425 eV
             Fermi-level           -0.3198813 Eh           -8.7044 eV

     #   Z          covCN         q      C6AA      α(0)
     1   7 N        2.646    -0.276    27.146     7.738
     2   6 C        2.900     0.077    26.283     8.406
     3   6 C        2.923    -0.060    29.492     8.906
     4   6 C        2.924    -0.038    28.956     8.824
     5   6 C        2.970    -0.006    28.172     8.706
     6   6 C        2.924    -0.045    29.112     8.848
     7   6 C        2.921    -0.064    29.581     8.919
     8   6 C        3.812    -0.070    21.824     6.649
     9   6 C        3.796     0.020    20.241     6.406
    10   6 C        2.769     0.211    23.531     7.944
    11   6 C        2.890    -0.066    29.630     8.924
    12   6 C        2.895    -0.005    28.151     8.699
    13   6 C        3.808    -0.061    21.663     6.626
    14   6 C        3.802    -0.047    21.414     6.588
    15   6 C        3.753    -0.111    22.675     6.790
    16   8 O        0.856    -0.409    21.857     6.268
    17   8 O        1.608    -0.611    25.457     6.810
    18   1 H        0.860     0.216     1.030     1.590
    19   1 H        0.860     0.162     1.321     1.800
    20   1 H        0.926     0.051     2.305     2.374
    21   1 H        0.926     0.031     2.572     2.508
    22   1 H        0.925     0.022     2.703     2.571
    23   1 H        0.925     0.022     2.702     2.571
    24   1 H        0.924     0.061     2.193     2.316
    25   1 H        0.924     0.058     2.226     2.333
    26   1 H        0.924     0.060     2.194     2.317
    27   1 H        0.860     0.182     1.201     1.717
    28   1 H        0.860     0.207     1.073     1.623
    29   1 H        0.923     0.012     2.860     2.645
    30   1 H        0.926     0.034     2.530     2.487
    31   1 H        0.925     0.081     1.971     2.196
    32   1 H        0.924     0.058     2.225     2.333
    33   1 H        0.924     0.043     2.415     2.430
    34   1 H        0.924     0.030     2.582     2.513
    35   1 H        0.924     0.035     2.514     2.480
    36   1 H        0.925     0.034     2.524     2.485
    37   1 H        0.925     0.034     2.536     2.490
    38   1 H        0.925     0.061     2.182     2.310
    39   1 H        0.806     0.276     0.797     1.402
    40   1 H        0.802     0.331     0.636     1.253
    41   8 O        1.609    -0.607    25.348     6.795
    42   1 H        0.806     0.271     0.814     1.417
    43   1 H        0.803     0.321     0.661     1.277
    44   7 N        2.692    -0.181    24.920     7.414
    45   6 C        2.753     0.264    22.554     7.777
    46   8 O        0.858    -0.435    22.403     6.346
    47   6 C        3.757    -0.141    23.271     6.878
    48   6 C        2.749     0.277    22.312     7.735
    49   8 O        0.859    -0.461    22.939     6.422
    50   1 H        0.925     0.053     2.284     2.364
    51   1 H        0.925     0.061     2.182     2.310
    52   1 H        0.925     0.074     2.041     2.234
    53   7 N        2.686    -0.178    24.849     7.403
    54   6 C        3.690    -0.042    21.520     6.639
    55   1 H        0.924     0.052     2.291     2.367
    56   1 H        0.924     0.049     2.334     2.389
    57   1 H        0.925     0.082     1.959     2.189

 Mol. C6AA /au·bohr⁶  :      29538.609268
 Mol. C8AA /au·bohr⁸  :     657834.714230
 Mol. α(0) /au        :        262.748938


Wiberg/Mayer (AO) data.
largest (>0.10) Wiberg bond orders for each atom

 ---------------------------------------------------------------------------
     #   Z sym  total        # sym  WBO       # sym  WBO       # sym  WBO
 ---------------------------------------------------------------------------
     1   7 N    3.338 --     2 C    1.150    19 H    0.953    18 H    0.903
     2   6 C    3.971 --     7 C    1.355     3 C    1.339     1 N    1.150
     3   6 C    3.988 --     4 C    1.475     2 C    1.339    20 H    0.965
                             6 C    0.102
     4   6 C    3.992 --     3 C    1.475     5 C    1.392    21 H    0.969
                             7 C    0.101
     5   6 C    3.978 --     6 C    1.407     4 C    1.392     8 C    1.009
     6   6 C    3.991 --     7 C    1.454     5 C    1.407    22 H    0.968
                             3 C    0.102
     7   6 C    3.987 --     6 C    1.454     2 C    1.355    23 H    0.969
                             4 C    0.101
     8   6 C    3.990 --     5 C    1.009     9 C    0.982    24 H    0.970
                            25 H    0.965
     9   6 C    3.962 --     8 C    0.982    44 N    0.973    26 H    0.952
                            45 C    0.914
    10   6 C    3.926 --    16 O    1.726    11 C    1.096    29 H    0.939
    11   6 C    3.988 --    12 C    1.805    10 C    1.096    30 H    0.964
    12   6 C    3.976 --    11 C    1.805    13 C    1.046    31 H    0.955
    13   6 C    3.996 --    12 C    1.046    14 C    0.977    33 H    0.972
                            32 H    0.953
    14   6 C    3.994 --    15 C    1.018    34 H    0.980    35 H    0.979
                            13 C    0.977
    15   6 C    3.993 --    14 C    1.018    37 H    0.988    36 H    0.986
                            38 H    0.980
    16   8 O    2.049 --    10 C    1.726
    17   8 O    1.860 --    39 H    0.919    40 H    0.826
    18   1 H    0.953 --     1 N    0.903
    19   1 H    0.973 --     1 N    0.953
    20   1 H    0.997 --     3 C    0.965
    21   1 H    0.999 --     4 C    0.969
    22   1 H    0.999 --     6 C    0.968
    23   1 H    0.999 --     7 C    0.969
    24   1 H    0.996 --     8 C    0.970
    25   1 H    0.995 --     8 C    0.965
    26   1 H    0.996 --     9 C    0.952
    27   1 H    0.967 --    44 N    0.933
    28   1 H    0.957 --    53 N    0.904
    29   1 H    1.000 --    10 C    0.939
    30   1 H    0.999 --    11 C    0.964
    31   1 H    0.993 --    12 C    0.955
    32   1 H    0.997 --    13 C    0.953
    33   1 H    0.998 --    13 C    0.972
    34   1 H    0.999 --    14 C    0.980
    35   1 H    0.999 --    14 C    0.979
    36   1 H    0.997 --    15 C    0.986
    37   1 H    0.999 --    15 C    0.988
    38   1 H    0.996 --    15 C    0.980
    39   1 H    0.924 --    17 O    0.919
    40   1 H    0.891 --    17 O    0.826
    41   8 O    1.843 --    42 H    0.921    43 H    0.842
    42   1 H    0.926 --    41 O    0.921
    43   1 H    0.897 --    41 O    0.842
    44   7 N    3.458 --    48 C    1.280     9 C    0.973    27 H    0.933
                            49 O    0.192
    45   6 C    3.956 --    46 O    1.679    53 N    1.291     9 C    0.914
    46   8 O    2.011 --    45 C    1.679    53 N    0.212
    47   6 C    3.993 --    48 C    0.984    52 H    0.982    50 H    0.974
                            51 H    0.966
    48   6 C    3.950 --    49 O    1.634    44 N    1.280    47 C    0.984
    49   8 O    1.987 --    48 C    1.634    44 N    0.192
    50   1 H    0.997 --    47 C    0.974
    51   1 H    0.996 --    47 C    0.966
    52   1 H    0.994 --    47 C    0.982
    53   7 N    3.465 --    45 C    1.291    54 C    1.006    28 H    0.904
                            46 O    0.212
    54   6 C    3.966 --    53 N    1.006    55 H    0.977    57 H    0.977
                            56 H    0.976
    55   1 H    0.997 --    54 C    0.977
    56   1 H    0.998 --    54 C    0.976
    57   1 H    0.993 --    54 C    0.977
 ---------------------------------------------------------------------------

Topologies differ in total number of bonds
Writing topology from bond orders to xtbtopo.mol

molecular dipole:
                 x           y           z       tot (Debye)
 q only:       -0.575       0.231      -0.344
   full:       -1.178      -0.023      -0.688       3.468
molecular quadrupole (traceless):
                xx          xy          yy          xz          yz          zz
 q only:      -13.630      15.066       3.759      -7.202      -1.286       9.871
  q+dip:      -19.797      14.333       0.792     -12.926       1.444      19.004
   full:      -20.449      14.533       2.307     -12.339      -1.871      18.142


           -------------------------------------------------
          | TOTAL ENERGY              -83.440742414628 Eh   |
          | GRADIENT NORM               0.000124071920 Eh/α |
          | HOMO-LUMO GAP               2.242453339623 eV   |
           -------------------------------------------------

------------------------------------------------------------------------
 * finished run on 2026/08/31 at 13:17:01.569     
------------------------------------------------------------------------
 total:
 * wall-time:     0 d,  0 h,  0 min,  0.297 sec
 *  cpu-time:     0 d,  0 h,  0 min,  0.219 sec
 * ratio c/w:     0.737 speedup
 SCF:
 * wall-time:     0 d,  0 h,  0 min,  0.200 sec
 *  cpu-time:     0 d,  0 h,  0 min,  0.188 sec
 * ratio c/w:     0.937 speedup



===== STDERR =====

normal termination of xtb
