57
 energy: -83.440742415561 gnorm: 0.000123753241 xtb: 6.7.1pre (5071a88)
N           -0.44583239328939       -0.84833140732361       -0.67362737373012
C            0.92746210156419       -0.79763694142356       -0.53551319238616
C            1.48985372961083       -0.16144611591722        0.57299982132891
C            2.85366600684744        0.01466145970379        0.65914636622820
C            3.70157799973285       -0.43734487829952       -0.34694764689623
C            3.14145602856040       -1.09297791401562       -1.43564377997248
C            1.77530323963881       -1.27738202750941       -1.53256174092544
C            5.17745074168696       -0.16656264827770       -0.27808410704878
C            5.47401515822535        1.30323063750595       -0.58734017892772
C           -1.13156105990857        1.09764858434043       -1.91462686446228
C            0.05941481299180        1.81726472810578       -1.48809626143256
C            0.10244407661436        2.63281914355875       -0.43136981766879
C            1.31401527864754        3.36573690897214        0.01373902167683
C            1.14873390208018        4.88020883356037       -0.17419337625562
C            2.39112047758804        5.62812721356120        0.29104879196436
O           -2.26016849451719        1.23910274454976       -1.46965516651850
O           -2.99354267340310        1.99293185964031        1.00931083251616
H           -0.96278610175620       -0.70547432455341        0.19101084193131
H           -0.80900618247284       -1.58597035061023       -1.25791174665839
H            0.83453359580507        0.18412692393146        1.35711173969123
H            3.27389041128220        0.50927474311143        1.52299520928359
H            3.78281335834509       -1.47769867243483       -2.21785539447560
H            1.35641630588097       -1.78877244980632       -2.38832082616659
H            5.72361446305652       -0.78637270028436       -0.99153300913493
H            5.56646147820902       -0.38703975678115        0.71704113513200
H            5.06036571106570        1.95555751459267        0.19172902435438
H            4.62000030911166        0.92924518818526       -2.47606497889613
H            6.54234878265350        3.53485455683891       -0.67389047878452
H           -0.98247816889820        0.48151256562023       -2.81803823649781
H            0.95309012050607        1.63083363731338       -2.06697479288551
H           -0.79551359311087        2.80501505219540        0.14644200261753
H            1.47795351349454        3.16475155260474        1.07521734083446
H            2.19073362767398        3.02612192173401       -0.53974577738952
H            0.97055984607328        5.08784585169342       -1.23152460889112
H            0.27512361013212        5.22171239489178        0.38526071928839
H            2.28028809362605        6.69562748331409        0.11572604317196
H            2.55500965521963        5.47015031946539        1.35486618018541
H            3.26815051837508        5.27741772900471       -0.24765449286901
H           -3.95162466230994        2.02066480695117        1.01716973909517
H           -2.73804014034563        1.79742961083256        0.08013074972672
O           -1.72547045808594       -0.26195531676621        1.87014097665880
H           -2.33818724463408       -0.71220642227109        2.45313881905974
H           -2.12997325316363        0.60389769777760        1.65812310201191
N            4.84141298710576        1.67977892789065       -1.84079004801924
C            6.99677840761983        1.55347669231404       -0.67388719218933
O            7.80839525126308        0.65477325249587       -0.75359898353255
C            3.73902198413926        3.09272951737859       -3.44089538302225
C            4.48625954182845        2.94126617263798       -2.13665255615226
O            4.75940460359848        3.88400217975291       -1.40963552452418
H            2.92983298650453        2.36946750303328       -3.50757068614635
H            4.42304517143743        2.93008797922307       -4.27178915453829
H            3.33583728604968        4.09895736200134       -3.50918700871164
N            7.30094222231245        2.86011595218822       -0.65083011285040
C            8.65281452996521        3.34547757157850       -0.77920855707474
H            8.89955453877281        3.99973624965461        0.05818387442986
H            8.78036018279322        3.89874221285719       -1.71200392693271
H            9.31865777811744        2.48378868957104       -0.77630934856987
