      -----------------------------------------------------------      
     |                   =====================                   |     
     |                           x T B                           |     
     |                   =====================                   |     
     |                         S. Grimme                         |     
     |          Mulliken Center for Theoretical Chemistry        |     
     |                    University of Bonn                     |     
      -----------------------------------------------------------      

   * xtb version 6.7.1pre (5071a88) compiled by 'Marcel@Raven' on 2024-07-23

   xtb is free software: you can redistribute it and/or modify it under
   the terms of the GNU Lesser General Public License as published by
   the Free Software Foundation, either version 3 of the License, or
   (at your option) any later version.
   
   xtb is distributed in the hope that it will be useful,
   but WITHOUT ANY WARRANTY; without even the implied warranty of
   MERCHANTABILITY or FITNESS FOR A PARTICULAR PURPOSE.  See the
   GNU Lesser General Public License for more details.
   
   Cite this work as:
   * C. Bannwarth, E. Caldeweyher, S. Ehlert, A. Hansen, P. Pracht,
     J. Seibert, S. Spicher, S. Grimme, WIREs Comput. Mol. Sci., 2020, 11,
     e01493. DOI: 10.1002/wcms.1493
   
   for GFN2-xTB:
   * C. Bannwarth, S. Ehlert and S. Grimme., J. Chem. Theory Comput., 2019,
     15, 1652-1671. DOI: 10.1021/acs.jctc.8b01176
   for GFN1-xTB:
   * S. Grimme, C. Bannwarth, P. Shushkov, J. Chem. Theory Comput., 2017,
     13, 1989-2009. DOI: 10.1021/acs.jctc.7b00118
   for GFN0-xTB:
   * P. Pracht, E. Caldeweyher, S. Ehlert, S. Grimme, ChemRxiv, 2019, preprint.
     DOI: 10.26434/chemrxiv.8326202.v1
   for GFN-FF:
   * S. Spicher and S. Grimme, Angew. Chem. Int. Ed., 2020, 59, 15665-15673.
     DOI: 10.1002/anie.202004239
   
   for ALPB and GBSA implicit solvation:
   * S. Ehlert, M. Stahn, S. Spicher, S. Grimme, J. Chem. Theory Comput.,
     2021, 17, 4250-4261. DOI: 10.1021/acs.jctc.1c00471
   
   for ddCOSMO and CPCM-X implicit solvation:
   * M. Stahn, S. Ehlert, S. Grimme, J. Phys. Chem. A,
     2023, XX, XXXX-XXXX. DOI: 10.1021/acs.jpca.3c04382
   
   for DFT-D4:
   * E. Caldeweyher, C. Bannwarth and S. Grimme, J. Chem. Phys., 2017,
     147, 034112. DOI: 10.1063/1.4993215
   * E. Caldeweyher, S. Ehlert, A. Hansen, H. Neugebauer, S. Spicher,
     C. Bannwarth and S. Grimme, J. Chem. Phys., 2019, 150, 154122.
     DOI: 10.1063/1.5090222
   * E. Caldeweyher, J.-M. Mewes, S. Ehlert and S. Grimme, Phys. Chem. Chem. Phys.
     2020, 22, 8499-8512. DOI: 10.1039/D0CP00502A
   
   for sTDA-xTB:
   * S. Grimme and C. Bannwarth, J. Chem. Phys., 2016, 145, 054103.
     DOI: 10.1063/1.4959605
   
   in the mass-spec context:
   * V. Asgeirsson, C. Bauer and S. Grimme, Chem. Sci., 2017, 8, 4879.
     DOI: 10.1039/c7sc00601b
   * J. Koopman and S. Grimme, ACS Omega 2019, 4, 12, 15120-15133.
     DOI: 10.1021/acsomega.9b02011
   
   for metadynamics refer to:
   * S. Grimme, J. Chem. Theory Comput., 2019, 155, 2847-2862
     DOI: 10.1021/acs.jctc.9b00143
   
   for SPH calculations refer to:
   * S. Spicher and S. Grimme, J. Chem. Theory Comput., 2021, 17, 1701-1714
     DOI: 10.1021/acs.jctc.0c01306
   
   for ONIOM refer to:
   * C. Plett, A. Katbashev, S. Ehlert, S. Grimme, M. Bursch,
     Phys. Chem. Chem. Phys., 2023, 25, 17860-17868. DOI: 10.1039/D3CP02178E
   
   for DIPRO refer to:
   * J. Kohn, N. Gildemeister, S. Grimme, D. Fazzi, A. Hansen,
     J. Chem. Phys., 2023, just accepted.
   
   for PTB refer to:
   * S. Grimme, M. Mueller, A. Hansen, J. Chem. Phys., 2023, 158, 124111.
     DOI: 10.1063/5.0137838
   
   with help from (in alphabetical order)
   P. Atkinson, C. Bannwarth, F. Bohle, G. Brandenburg, E. Caldeweyher
   M. Checinski, S. Dohm, S. Ehlert, S. Ehrlich, I. Gerasimov, C. Hölzer
   A. Katbashev, J. Kohn, J. Koopman, C. Lavigne, S. Lehtola, F. März, M. Müller,
   F. Musil, H. Neugebauer, J. Pisarek, C. Plett, P. Pracht, F. Pultar,
   J. Seibert, P. Shushkov, S. Spicher, M. Stahn, M. Steiner, T. Strunk,
   J. Stückrath, T. Rose, and J. Unsleber
   
 * started run on 2026/08/20 at 20:34:11.572     
   ID    Z sym.   atoms
    1    7 N      1, 44, 53
    2    6 C      2-15, 45, 47, 48, 54
    3    8 O      16, 17, 41, 46, 49
    4    1 H      18-40, 42, 43, 50-52, 55-57

           -------------------------------------------------
          |                Calculation Setup                |
           -------------------------------------------------

          program call               : C:\Users\Nayanika\Downloads\xtb-6.7.1pre-windows-x86_64\xtb-6.7.1\bin\xtb.exe D:\PhD_Thesis\LmrR_EVB\charges\fast_lmrr_5QM\xtb_preparation\stage2_five_xtb_protocols\GFN2_etemp500\RS1_1_to_TS1_2\RS1_1_to_TS1_2_TS_xtbopt.xyz --gfn 2 --chrg 0 --uhf 0 --hess --etemp 500
          coordinate file            : D:\PhD_Thesis\LmrR_EVB\charges\fast_lmrr_5QM\xtb_preparation\stage2_five_xtb_protocols\GFN2_etemp500\RS1_1_to_TS1_2\RS1_1_to_TS1_2_TS_xtbopt.xyz
          omp threads                :                     8


molecular fragmentation (1/2 indicates fragments):
111111111222222221111111111122222222222222211111111111111
# atoms in fragment 1/2:    34    23
 fragment masses (1/2) :      235.28      134.17
CMA distance (Bohr)    :   9.575
constraining FC (au)   :  0.0500

           -------------------------------------------------
          |                 G F N 2 - x T B                 |
           -------------------------------------------------

        Reference                      10.1021/acs.jctc.8b01176
      * Hamiltonian:
        H0-scaling (s, p, d)           1.850000    2.230000    2.230000
        zeta-weighting                 0.500000
      * Dispersion:
        s8                             2.700000
        a1                             0.520000
        a2                             5.000000
        s9                             5.000000
      * Repulsion:
        kExp                           1.500000    1.000000
        rExp                           1.000000
      * Coulomb:
        alpha                          2.000000
        third order                    shell-resolved
        anisotropic                    true
        a3                             3.000000
        a5                             4.000000
        cn-shift                       1.200000
        cn-exp                         4.000000
        max-rad                        5.000000

q/qsh data taken from xtbrestart
CAMM data taken from xtbrestart

          ...................................................
          :                      SETUP                      :
          :.................................................:
          :  # basis functions                 135          :
          :  # atomic orbitals                 135          :
          :  # shells                           83          :
          :  # electrons                       148          :
          :  max. iterations                   250          :
          :  Hamiltonian                  GFN2-xTB          :
          :  restarted?                       true          :
          :  GBSA solvation                  false          :
          :  PC potential                    false          :
          :  electronic temp.          500.0000000     K    :
          :  accuracy                    1.0000000          :
          :  -> integral cutoff          0.2500000E+02      :
          :  -> integral neglect         0.1000000E-07      :
          :  -> SCF convergence          0.1000000E-05 Eh   :
          :  -> wf. convergence          0.1000000E-03 e    :
          :  Broyden damping             0.4000000          :
          :  net charge                          0          :
          :  unpaired electrons                  0          :
          ...................................................

 iter      E             dE          RMSdq      gap      omega  full diag
   1    -84.5413225 -0.845413E+02  0.108E-06    2.24       0.0  T
   2    -84.5413225  0.426326E-13  0.840E-07    2.24   15767.6  T
   3    -84.5413225 -0.426326E-13  0.401E-07    2.24   33068.5  T

   *** convergence criteria satisfied after 3 iterations ***

         #    Occupation            Energy/Eh            Energy/eV
      -------------------------------------------------------------
         1        2.0000           -0.7087903             -19.2872
       ...           ...                  ...                  ...
        68        2.0000           -0.4102908             -11.1646
        69        2.0000           -0.4071929             -11.0803
        70        2.0000           -0.4008312             -10.9072
        71        2.0000           -0.3965495             -10.7907
        72        2.0000           -0.3936279             -10.7112
        73        2.0000           -0.3837325             -10.4419
        74        2.0000           -0.3610863              -9.8257 (HOMO)
        75                         -0.2786772              -7.5832 (LUMO)
        76                         -0.2199996              -5.9865
        77                         -0.2181683              -5.9367
        78                         -0.2100814              -5.7166
        79                         -0.2048798              -5.5751
       ...                                ...                  ...
       135                          0.6714918              18.2722
      -------------------------------------------------------------
                  HL-Gap            0.0824091 Eh            2.2425 eV
             Fermi-level           -0.3198817 Eh           -8.7044 eV

 SCC (total)                   0 d,  0 h,  0 min,  0.037 sec
 SCC setup                      ...        0 min,  0.000 sec (  0.000%)
 Dispersion                     ...        0 min,  0.001 sec (  2.703%)
 classical contributions        ...        0 min,  0.000 sec (  0.000%)
 integral evaluation            ...        0 min,  0.002 sec (  5.405%)
 iterations                     ...        0 min,  0.029 sec ( 78.379%)
 molecular gradient             ...        0 min,  0.005 sec ( 13.514%)
 printout                       ...        0 min,  0.000 sec (  0.000%)

         :::::::::::::::::::::::::::::::::::::::::::::::::::::
         ::                     SUMMARY                     ::
         :::::::::::::::::::::::::::::::::::::::::::::::::::::
         :: total energy             -83.440742415575 Eh    ::
         :: gradient norm              0.000123661940 Eh/a0 ::
         :: HOMO-LUMO gap              2.242466795775 eV    ::
         ::.................................................::
         :: SCC energy               -84.539274388458 Eh    ::
         :: -> isotropic ES            0.175729941581 Eh    ::
         :: -> anisotropic ES         -0.003305963146 Eh    ::
         :: -> anisotropic XC          0.029686957554 Eh    ::
         :: -> dispersion             -0.057998257242 Eh    ::
         :: repulsion energy           1.098531972884 Eh    ::
         :: add. restraining           0.000000000000 Eh    ::
         :: total charge              -0.000000000000 e     ::
         :::::::::::::::::::::::::::::::::::::::::::::::::::::

           ------------------------------------------------- 
          |                Numerical Hessian                |
           ------------------------------------------------- 
step length          :   0.00500
SCC accuracy         :   0.30000
Hessian scale factor :   1.00000
frozen atoms in %    :   0.00000    0
RMS gradient         :   0.00012
estimated CPU  time      4.78 min
estimated wall time      0.68 min

writing file <hessian>.

 projected vibrational frequencies (cm⁻¹)
eigval :       -0.00    -0.00    -0.00    -0.00     0.00     0.00
eigval :       10.89    18.92    27.48    30.14    37.98    44.06
eigval :       46.53    53.64    56.90    59.23    64.17    72.60
eigval :       79.52    81.25    86.14    98.09   101.03   111.62
eigval :      120.90   125.42   135.71   155.67   166.68   172.75
eigval :      177.46   194.77   200.13   214.28   239.53   261.45
eigval :      274.36   281.84   289.06   291.47   303.05   325.50
eigval :      340.79   353.54   381.01   385.33   397.10   415.00
eigval :      419.46   443.80   449.21   475.54   486.28   488.93
eigval :      525.23   535.65   577.63   602.27   612.20   616.88
eigval :      643.85   672.77   692.45   723.88   728.21   759.04
eigval :      761.42   786.66   792.67   810.43   833.84   867.45
eigval :      869.88   882.58   893.90   908.49   922.97   924.14
eigval :      929.11   939.86   975.74   992.51   995.79  1002.13
eigval :     1010.64  1019.76  1035.70  1054.76  1076.00  1079.01
eigval :     1089.89  1104.63  1109.72  1118.31  1131.10  1145.23
eigval :     1159.08  1165.30  1196.74  1209.27  1219.91  1221.96
eigval :     1222.96  1241.16  1252.63  1266.86  1282.21  1286.56
eigval :     1286.96  1298.88  1312.87  1321.01  1345.03  1347.88
eigval :     1374.08  1385.32  1392.89  1419.72  1423.62  1431.03
eigval :     1433.92  1455.55  1462.85  1465.78  1474.78  1478.53
eigval :     1480.00  1484.63  1494.68  1501.52  1504.83  1514.26
eigval :     1537.93  1557.80  1578.65  1615.83  1640.28  1685.59
eigval :     1710.21  1757.97  2796.05  2914.60  2961.37  2969.59
eigval :     2972.30  2983.77  2989.27  2990.95  2999.32  2999.74
eigval :     3022.39  3031.73  3031.98  3032.45  3037.97  3052.31
eigval :     3055.09  3064.90  3067.27  3069.09  3076.15  3084.59
eigval :     3105.21  3169.91  3278.54  3316.98  3326.43  3452.64
eigval :     3470.59  3661.16  3665.43
           -------------------------------------------------
          |                Property Printout                |
           -------------------------------------------------

    * Orbital Energies and Occupations

         #    Occupation            Energy/Eh            Energy/eV
      -------------------------------------------------------------
         1        2.0000           -0.7087903             -19.2872
       ...           ...                  ...                  ...
        62        2.0000           -0.4330735             -11.7845
        63        2.0000           -0.4317591             -11.7488
        64        2.0000           -0.4305261             -11.7152
        65        2.0000           -0.4298423             -11.6966
        66        2.0000           -0.4222478             -11.4899
        67        2.0000           -0.4166481             -11.3376
        68        2.0000           -0.4102908             -11.1646
        69        2.0000           -0.4071929             -11.0803
        70        2.0000           -0.4008312             -10.9072
        71        2.0000           -0.3965495             -10.7907
        72        2.0000           -0.3936279             -10.7112
        73        2.0000           -0.3837325             -10.4419
        74        2.0000           -0.3610863              -9.8257 (HOMO)
        75                         -0.2786772              -7.5832 (LUMO)
        76                         -0.2199996              -5.9865
        77                         -0.2181683              -5.9367
        78                         -0.2100814              -5.7166
        79                         -0.2048799              -5.5751
        80                         -0.1634426              -4.4475
        81                         -0.0869186              -2.3652
        82                          0.0016417               0.0447
        83                          0.0109253               0.2973
        84                          0.0290231               0.7898
        85                          0.0636987               1.7333
       ...                                ...                  ...
       135                          0.6714918              18.2722
      -------------------------------------------------------------
                  HL-Gap            0.0824091 Eh            2.2425 eV
             Fermi-level           -0.3198818 Eh           -8.7044 eV

     #   Z          covCN         q      C6AA      α(0)
     1   7 N        2.646    -0.276    27.146     7.738
     2   6 C        2.900     0.077    26.283     8.406
     3   6 C        2.923    -0.060    29.492     8.906
     4   6 C        2.924    -0.038    28.956     8.824
     5   6 C        2.970    -0.006    28.173     8.706
     6   6 C        2.924    -0.045    29.112     8.848
     7   6 C        2.921    -0.064    29.580     8.919
     8   6 C        3.812    -0.070    21.824     6.649
     9   6 C        3.796     0.020    20.241     6.406
    10   6 C        2.769     0.211    23.531     7.944
    11   6 C        2.890    -0.066    29.630     8.924
    12   6 C        2.895    -0.005    28.151     8.699
    13   6 C        3.808    -0.061    21.663     6.626
    14   6 C        3.802    -0.047    21.414     6.588
    15   6 C        3.753    -0.111    22.675     6.790
    16   8 O        0.856    -0.409    21.856     6.268
    17   8 O        1.608    -0.611    25.457     6.810
    18   1 H        0.860     0.216     1.030     1.590
    19   1 H        0.860     0.162     1.321     1.800
    20   1 H        0.926     0.051     2.305     2.374
    21   1 H        0.926     0.031     2.572     2.508
    22   1 H        0.925     0.022     2.703     2.571
    23   1 H        0.925     0.022     2.702     2.571
    24   1 H        0.924     0.061     2.193     2.316
    25   1 H        0.924     0.058     2.226     2.333
    26   1 H        0.924     0.060     2.194     2.317
    27   1 H        0.860     0.182     1.201     1.717
    28   1 H        0.860     0.207     1.073     1.623
    29   1 H        0.923     0.012     2.860     2.645
    30   1 H        0.926     0.034     2.530     2.487
    31   1 H        0.925     0.081     1.971     2.196
    32   1 H        0.924     0.058     2.225     2.333
    33   1 H        0.924     0.043     2.415     2.430
    34   1 H        0.924     0.030     2.582     2.513
    35   1 H        0.924     0.035     2.514     2.480
    36   1 H        0.925     0.034     2.524     2.485
    37   1 H        0.925     0.034     2.536     2.490
    38   1 H        0.925     0.061     2.182     2.310
    39   1 H        0.806     0.276     0.797     1.402
    40   1 H        0.802     0.331     0.636     1.253
    41   8 O        1.609    -0.607    25.349     6.795
    42   1 H        0.806     0.271     0.814     1.417
    43   1 H        0.803     0.321     0.661     1.277
    44   7 N        2.692    -0.181    24.920     7.414
    45   6 C        2.753     0.264    22.554     7.777
    46   8 O        0.858    -0.435    22.403     6.346
    47   6 C        3.757    -0.141    23.271     6.878
    48   6 C        2.749     0.277    22.312     7.735
    49   8 O        0.859    -0.461    22.939     6.421
    50   1 H        0.925     0.053     2.284     2.364
    51   1 H        0.925     0.061     2.182     2.310
    52   1 H        0.925     0.074     2.041     2.234
    53   7 N        2.686    -0.178    24.848     7.403
    54   6 C        3.690    -0.042    21.520     6.639
    55   1 H        0.924     0.052     2.291     2.367
    56   1 H        0.924     0.049     2.334     2.389
    57   1 H        0.925     0.082     1.959     2.189

 Mol. C6AA /au·bohr⁶  :      29538.614952
 Mol. C8AA /au·bohr⁸  :     657834.760390
 Mol. α(0) /au        :        262.748965


Wiberg/Mayer (AO) data.
largest (>0.10) Wiberg bond orders for each atom

 ---------------------------------------------------------------------------
     #   Z sym  total        # sym  WBO       # sym  WBO       # sym  WBO
 ---------------------------------------------------------------------------
     1   7 N    3.338 --     2 C    1.150    19 H    0.953    18 H    0.903
     2   6 C    3.971 --     7 C    1.355     3 C    1.339     1 N    1.150
     3   6 C    3.989 --     4 C    1.475     2 C    1.339    20 H    0.965
                             6 C    0.102
     4   6 C    3.992 --     3 C    1.475     5 C    1.392    21 H    0.969
                             7 C    0.101
     5   6 C    3.978 --     6 C    1.407     4 C    1.392     8 C    1.009
     6   6 C    3.991 --     7 C    1.454     5 C    1.407    22 H    0.968
                             3 C    0.102
     7   6 C    3.987 --     6 C    1.454     2 C    1.355    23 H    0.969
                             4 C    0.101
     8   6 C    3.990 --     5 C    1.009     9 C    0.982    24 H    0.970
                            25 H    0.965
     9   6 C    3.962 --     8 C    0.982    44 N    0.973    26 H    0.952
                            45 C    0.914
    10   6 C    3.926 --    16 O    1.726    11 C    1.096    29 H    0.939
    11   6 C    3.988 --    12 C    1.805    10 C    1.096    30 H    0.964
    12   6 C    3.976 --    11 C    1.805    13 C    1.046    31 H    0.955
    13   6 C    3.996 --    12 C    1.046    14 C    0.977    33 H    0.972
                            32 H    0.953
    14   6 C    3.994 --    15 C    1.018    34 H    0.980    35 H    0.979
                            13 C    0.977
    15   6 C    3.993 --    14 C    1.018    37 H    0.988    36 H    0.986
                            38 H    0.980
    16   8 O    2.049 --    10 C    1.726
    17   8 O    1.860 --    39 H    0.919    40 H    0.826
    18   1 H    0.953 --     1 N    0.903
    19   1 H    0.973 --     1 N    0.953
    20   1 H    0.997 --     3 C    0.965
    21   1 H    0.999 --     4 C    0.969
    22   1 H    0.999 --     6 C    0.968
    23   1 H    0.999 --     7 C    0.969
    24   1 H    0.996 --     8 C    0.970
    25   1 H    0.995 --     8 C    0.965
    26   1 H    0.996 --     9 C    0.952
    27   1 H    0.967 --    44 N    0.933
    28   1 H    0.957 --    53 N    0.904
    29   1 H    1.000 --    10 C    0.939
    30   1 H    0.999 --    11 C    0.964
    31   1 H    0.993 --    12 C    0.955
    32   1 H    0.997 --    13 C    0.953
    33   1 H    0.998 --    13 C    0.972
    34   1 H    0.999 --    14 C    0.980
    35   1 H    0.999 --    14 C    0.979
    36   1 H    0.997 --    15 C    0.986
    37   1 H    0.999 --    15 C    0.988
    38   1 H    0.996 --    15 C    0.980
    39   1 H    0.924 --    17 O    0.919
    40   1 H    0.891 --    17 O    0.826
    41   8 O    1.843 --    42 H    0.921    43 H    0.842
    42   1 H    0.926 --    41 O    0.921
    43   1 H    0.897 --    41 O    0.842
    44   7 N    3.458 --    48 C    1.280     9 C    0.973    27 H    0.933
                            49 O    0.192
    45   6 C    3.956 --    46 O    1.679    53 N    1.291     9 C    0.914
    46   8 O    2.011 --    45 C    1.679    53 N    0.212
    47   6 C    3.993 --    48 C    0.984    52 H    0.982    50 H    0.974
                            51 H    0.966
    48   6 C    3.950 --    49 O    1.634    44 N    1.280    47 C    0.984
    49   8 O    1.987 --    48 C    1.634    44 N    0.192
    50   1 H    0.997 --    47 C    0.974
    51   1 H    0.996 --    47 C    0.966
    52   1 H    0.994 --    47 C    0.982
    53   7 N    3.465 --    45 C    1.291    54 C    1.006    28 H    0.904
                            46 O    0.212
    54   6 C    3.966 --    53 N    1.006    55 H    0.977    57 H    0.977
                            56 H    0.976
    55   1 H    0.997 --    54 C    0.977
    56   1 H    0.998 --    54 C    0.976
    57   1 H    0.993 --    54 C    0.977
 ---------------------------------------------------------------------------

Topologies differ in total number of bonds
Writing topology from bond orders to xtbtopo.mol

molecular dipole:
                 x           y           z       tot (Debye)
 q only:       -0.575       0.231      -0.344
   full:       -1.178      -0.023      -0.688       3.468
molecular quadrupole (traceless):
                xx          xy          yy          xz          yz          zz
 q only:      -13.628      15.067       3.758      -7.202      -1.286       9.870
  q+dip:      -19.796      14.334       0.792     -12.926       1.444      19.004
   full:      -20.449      14.534       2.307     -12.339      -1.871      18.142

           -------------------------------------------------
          |               Frequency Printout                |
           -------------------------------------------------
 projected vibrational frequencies (cm⁻¹)
eigval :       -0.00    -0.00    -0.00    -0.00     0.00     0.00
eigval :       10.89    18.92    27.48    30.14    37.98    44.06
eigval :       46.53    53.64    56.90    59.23    64.17    72.60
eigval :       79.52    81.25    86.14    98.09   101.03   111.62
eigval :      120.90   125.42   135.71   155.67   166.68   172.75
eigval :      177.46   194.77   200.13   214.28   239.53   261.45
eigval :      274.36   281.84   289.06   291.47   303.05   325.50
eigval :      340.79   353.54   381.01   385.33   397.10   415.00
eigval :      419.46   443.80   449.21   475.54   486.28   488.93
eigval :      525.23   535.65   577.63   602.27   612.20   616.88
eigval :      643.85   672.77   692.45   723.88   728.21   759.04
eigval :      761.42   786.66   792.67   810.43   833.84   867.45
eigval :      869.88   882.58   893.90   908.49   922.97   924.14
eigval :      929.11   939.86   975.74   992.51   995.79  1002.13
eigval :     1010.64  1019.76  1035.70  1054.76  1076.00  1079.01
eigval :     1089.89  1104.63  1109.72  1118.31  1131.10  1145.23
eigval :     1159.08  1165.30  1196.74  1209.27  1219.91  1221.96
eigval :     1222.96  1241.16  1252.63  1266.86  1282.21  1286.56
eigval :     1286.96  1298.88  1312.87  1321.01  1345.03  1347.88
eigval :     1374.08  1385.32  1392.89  1419.72  1423.62  1431.03
eigval :     1433.92  1455.55  1462.85  1465.78  1474.78  1478.53
eigval :     1480.00  1484.63  1494.68  1501.52  1504.83  1514.26
eigval :     1537.93  1557.80  1578.65  1615.83  1640.28  1685.59
eigval :     1710.21  1757.97  2796.05  2914.60  2961.37  2969.59
eigval :     2972.30  2983.77  2989.27  2990.95  2999.32  2999.74
eigval :     3022.39  3031.73  3031.98  3032.45  3037.97  3052.31
eigval :     3055.09  3064.90  3067.27  3069.09  3076.15  3084.59
eigval :     3105.21  3169.91  3278.54  3316.98  3326.43  3452.64
eigval :     3470.59  3661.16  3665.43
 reduced masses (amu)
   1: 12.38   2: 12.40   3: 12.01   4: 12.22   5: 11.93   6: 12.10   7: 11.62   8: 12.04
   9: 11.57  10: 11.04  11: 11.94  12: 11.46  13: 11.39  14: 11.57  15: 11.59  16:  5.68
  17:  9.21  18: 10.46  19: 11.19  20:  9.57  21: 10.10  22: 10.73  23:  9.21  24:  9.75
  25:  9.37  26:  2.98  27:  9.68  28: 11.70  29: 11.19  30: 10.34  31: 11.25  32: 11.86
  33: 11.39  34:  6.34  35: 12.35  36:  2.13  37: 12.24  38:  9.35  39: 10.37  40: 11.95
  41: 10.68  42:  9.69  43:  8.68  44: 11.16  45:  9.21  46:  9.30  47:  3.42  48:  9.58
  49:  8.08  50:  4.69  51:  9.55  52: 10.53  53:  8.44  54:  4.61  55:  5.16  56:  7.13
  57:  8.19  58: 10.22  59:  6.87  60:  6.16  61:  8.62  62:  9.83  63:  7.19  64: 10.34
  65: 11.50  66:  5.81  67:  4.74  68:  6.96  69:  2.69  70:  5.86  71:  3.34  72:  3.54
  73:  8.31  74: 10.22  75:  3.74  76:  2.74  77:  4.43  78:  4.86  79:  8.43  80:  6.10
  81: 10.93  82:  5.69  83:  6.07  84:  5.28  85:  2.92  86:  8.42  87:  8.03  88:  4.33
  89:  5.54  90:  6.60  91:  8.76  92:  3.87  93:  7.24  94:  8.08  95:  7.33  96:  3.37
  97:  8.59  98:  6.03  99:  1.82 100:  5.28 101:  4.88 102:  5.61 103:  4.96 104:  3.32
 105:  4.55 106:  2.42 107:  4.29 108:  3.76 109:  3.31 110:  3.82 111:  7.16 112:  8.37
 113: 10.87 114:  5.03 115:  3.27 116:  3.32 117:  2.62 118:  3.35 119:  9.89 120:  9.66
 121:  8.63 122:  1.69 123:  1.57 124:  1.63 125:  2.12 126:  2.12 127:  3.81 128:  2.47
 129:  1.87 130:  1.52 131:  1.63 132:  9.24 133:  2.12 134:  2.12 135: 11.53 136: 11.53
 137: 12.15 138: 12.41 139: 13.11 140: 13.19 141:  1.70 142:  1.74 143:  1.83 144:  1.90
 145:  1.88 146:  1.52 147:  1.98 148:  1.50 149:  1.55 150:  1.64 151:  1.81 152:  1.62
 153:  1.71 154:  1.87 155:  1.60 156:  1.78 157:  1.70 158:  1.75 159:  1.80 160:  1.86
 161:  1.81 162:  1.84 163:  1.85 164:  1.89 165:  1.84 166:  1.88 167:  1.71 168:  1.85
 169:  1.93 170:  1.84 171:  1.84
 IR intensities (km·mol⁻¹)
   1:  0.08   2:  0.09   3:  0.14   4:  0.00   5:  0.09   6:  0.01   7:  0.46   8:  0.35
   9:  0.87  10:  0.50  11:  0.77  12:  0.90  13:  3.28  14:  3.52  15:  2.88  16:  1.81
  17:  2.94  18:  0.02  19:  3.17  20:  4.92  21:  0.85  22: 27.82  23:  6.92  24: 22.41
  25: 12.33  26:  0.87  27: 37.99  28: 10.63  29: 22.12  30:  8.68  31:  8.77  32: 32.46
  33: 12.37  34: 16.91  35:  3.99  36:  0.38  37: 31.12  38: 13.10  39: 68.95  40: 13.68
  41:  6.17  42: 16.71  43: 10.27  44: 16.12  45:  0.37  46:  9.70  47: 47.77  48: 34.15
  49: 37.31  50:136.50  51:  5.00  52:  0.63  53: 61.48  54: 82.44  55: 43.79  56: 18.14
  57:  4.53  58: 29.37  59: 65.88  60: 90.13  61: 61.56  62: 14.60  63: 30.35  64: 19.98
  65:  8.46  66:  3.76  67:213.82  68: 89.25  69: 29.30  70: 40.47  71: 99.74  72:  4.08
  73:  3.51  74:  0.60  75: 10.58  76:  0.40  77:  0.93  78: 40.48  79:  1.87  80:  3.56
  81: 19.88  82:  3.28  83: 26.89  84: 24.97  85: 25.40  86:  0.24  87: 22.49  88:  4.71
  89:  9.98  90: 23.85  91:  0.18  92:  0.56  93: 10.97  94: 30.46  95: 21.34  96:  1.99
  97:  0.38  98:  2.32  99:  4.15 100:  2.41 101:  1.92 102: 11.68 103:  5.54 104: 15.35
 105: 31.63 106:  0.97 107: 15.23 108:  3.04 109:  3.13 110:  2.53 111: 44.69 112: 21.17
 113:  6.71 114:  6.73 115: 19.42 116: 22.02 117:  2.84 118:  7.52 119:218.04 120: 11.12
 121:235.28 122:  5.03 123: 10.67 124:  9.32 125:  7.82 126:  0.69 127: 11.08 128: 25.17
 129:  1.55 130:  3.83 131:  4.15 132:163.82 133: 86.68 134:173.01 135:  4.11 136: 29.09
 137:618.84 138:271.51 139:308.36 140:572.20 141:125.50 142: 14.89 143:  2.23 144: 29.96
 145: 38.20 146: 31.04 147: 13.76 148: 45.62 149: 38.81 150: 13.84 151: 11.47 152: 15.92
 153:  5.36 154: 49.53 155: 43.81 156: 33.14 157:  4.06 158:  5.73 159: 19.96 160: 60.42
 161: 19.12 162: 33.46 163: 11.36 164:594.05 165:724.70 166:147.48 167:395.76 168: 18.53
 169: 15.78 170:  8.36 171:  7.29
 Raman intensities (Ä⁴*amu⁻¹)
   1:  0.00   2:  0.00   3:  0.00   4:  0.00   5:  0.00   6:  0.00   7:  0.00   8:  0.00
   9:  0.00  10:  0.00  11:  0.00  12:  0.00  13:  0.00  14:  0.00  15:  0.00  16:  0.00
  17:  0.00  18:  0.00  19:  0.00  20:  0.00  21:  0.00  22:  0.00  23:  0.00  24:  0.00
  25:  0.00  26:  0.00  27:  0.00  28:  0.00  29:  0.00  30:  0.00  31:  0.00  32:  0.00
  33:  0.00  34:  0.00  35:  0.00  36:  0.00  37:  0.00  38:  0.00  39:  0.00  40:  0.00
  41:  0.00  42:  0.00  43:  0.00  44:  0.00  45:  0.00  46:  0.00  47:  0.00  48:  0.00
  49:  0.00  50:  0.00  51:  0.00  52:  0.00  53:  0.00  54:  0.00  55:  0.00  56:  0.00
  57:  0.00  58:  0.00  59:  0.00  60:  0.00  61:  0.00  62:  0.00  63:  0.00  64:  0.00
  65:  0.00  66:  0.00  67:  0.00  68:  0.00  69:  0.00  70:  0.00  71:  0.00  72:  0.00
  73:  0.00  74:  0.00  75:  0.00  76:  0.00  77:  0.00  78:  0.00  79:  0.00  80:  0.00
  81:  0.00  82:  0.00  83:  0.00  84:  0.00  85:  0.00  86:  0.00  87:  0.00  88:  0.00
  89:  0.00  90:  0.00  91:  0.00  92:  0.00  93:  0.00  94:  0.00  95:  0.00  96:  0.00
  97:  0.00  98:  0.00  99:  0.00 100:  0.00 101:  0.00 102:  0.00 103:  0.00 104:  0.00
 105:  0.00 106:  0.00 107:  0.00 108:  0.00 109:  0.00 110:  0.00 111:  0.00 112:  0.00
 113:  0.00 114:  0.00 115:  0.00 116:  0.00 117:  0.00 118:  0.00 119:  0.00 120:  0.00
 121:  0.00 122:  0.00 123:  0.00 124:  0.00 125:  0.00 126:  0.00 127:  0.00 128:  0.00
 129:  0.00 130:  0.00 131:  0.00 132:  0.00 133:  0.00 134:  0.00 135:  0.00 136:  0.00
 137:  0.00 138:  0.00 139:  0.00 140:  0.00 141:  0.00 142:  0.00 143:  0.00 144:  0.00
 145:  0.00 146:  0.00 147:  0.00 148:  0.00 149:  0.00 150:  0.00 151:  0.00 152:  0.00
 153:  0.00 154:  0.00 155:  0.00 156:  0.00 157:  0.00 158:  0.00 159:  0.00 160:  0.00
 161:  0.00 162:  0.00 163:  0.00 164:  0.00 165:  0.00 166:  0.00 167:  0.00 168:  0.00
 169:  0.00 170:  0.00 171:  0.00
 output can be read by thermo (or use thermo option).
 writing <g98.out> molden fake output.
 recommended (thermochemical) frequency scaling factor: 1.0
           -------------------------------------------------
          |             Thermodynamic Functions             |
           -------------------------------------------------

Refinement of some symmetry elements was terminated before convergence was reached.
Some symmetry elements may remain unidentified.
Molecule has no symmetry elements
It seems to be the C1 point group
c1  symmetry found (for desy threshold:  0.10E+00) used in thermo

          ...................................................
          :                      SETUP                      :
          :.................................................:
          :  # frequencies                         165      :
          :  # imaginary freq.                       0      :
          :  linear?                             false      :
          :  only rotor calc.                    false      :
          :  symmetry                               c1      :
          :  rotational number                       1      :
          :  scaling factor                  1.0000000      :
          :  rotor cutoff                   50.0000000 cm⁻¹ :
          :  imag. cutoff                  -20.0000000 cm⁻¹ :
          :.................................................:

    mode    ω/cm⁻¹     T·S(HO)/kcal·mol⁻¹    T·S(FR)/kcal·mol⁻¹   T·S(vib)
   ------------------------------------------------------------------------
       1     10.89    -2.33806 (  0.22%)    -1.50799 ( 99.78%)    -1.50986
       2     18.92    -2.01094 (  2.01%)    -1.34441 ( 97.99%)    -1.35780
       3     27.48    -1.78990 (  8.36%)    -1.23380 ( 91.64%)    -1.28031
       4     30.14    -1.73531 ( 11.66%)    -1.20647 ( 88.34%)    -1.26814
       5     37.98    -1.59855 ( 24.98%)    -1.13795 ( 75.02%)    -1.25302
       6     44.06    -1.51085 ( 37.63%)    -1.09396 ( 62.37%)    -1.25082
       7     46.53    -1.47869 ( 42.86%)    -1.07781 ( 57.14%)    -1.24964
       8     53.64    -1.39490 ( 56.98%)    -1.03572 ( 43.02%)    -1.24037
       9     56.90    -1.36017 ( 62.64%)    -1.01825 ( 37.36%)    -1.23243
      10     59.23    -1.33654 ( 66.32%)    -1.00636 ( 33.68%)    -1.22532
      11     64.17    -1.28941 ( 73.07%)    -0.98262 ( 26.93%)    -1.20678
      12     72.60    -1.21693 ( 81.63%)    -0.94606 ( 18.37%)    -1.16718
      13     79.52    -1.16356 ( 86.48%)    -0.91907 ( 13.52%)    -1.13052
      14     81.25    -1.15100 ( 87.46%)    -0.91271 ( 12.54%)    -1.12111
      15     86.14    -1.11681 ( 89.81%)    -0.89538 ( 10.19%)    -1.09424
      16     98.09    -1.04111 ( 93.68%)    -0.85691 (  6.32%)    -1.02946
      17    101.03    -1.02396 ( 94.34%)    -0.84817 (  5.66%)    -1.01401
      18    111.62    -0.96615 ( 96.13%)    -0.81862 (  3.87%)    -0.96044
      19    120.90    -0.92007 ( 97.16%)    -0.79497 (  2.84%)    -0.91651
      20    125.42    -0.89895 ( 97.54%)    -0.78410 (  2.46%)    -0.89612
      21    135.71    -0.85377 ( 98.19%)    -0.76075 (  1.81%)    -0.85208
      22    155.67    -0.77572 ( 98.95%)    -0.72010 (  1.05%)    -0.77514
      23    166.68    -0.73719 ( 99.20%)    -0.69985 (  0.80%)    -0.73689
      24    172.75    -0.71715 ( 99.30%)    -0.68925 (  0.70%)    -0.71695
      25    177.46    -0.70214 ( 99.37%)    -0.68129 (  0.63%)    -0.70201
      26    194.77    -0.65056 ( 99.57%)    -0.65372 (  0.43%)    -0.65057
      27    200.13    -0.63561 ( 99.61%)    -0.64567 (  0.39%)    -0.63565
      28    214.28    -0.59836 ( 99.70%)    -0.62544 (  0.30%)    -0.59844
      29    239.53    -0.53856 ( 99.81%)    -0.59243 (  0.19%)    -0.53866
      30    261.45    -0.49256 ( 99.87%)    -0.56649 (  0.13%)    -0.49266
      31    274.36    -0.46767 ( 99.89%)    -0.55221 (  0.11%)    -0.46776
      32    281.84    -0.45393 ( 99.90%)    -0.54425 (  0.10%)    -0.45402
      33    289.06    -0.44110 ( 99.91%)    -0.53675 (  0.09%)    -0.44118
      34    291.47    -0.43692 ( 99.91%)    -0.53430 (  0.09%)    -0.43700
   ------------------------------------------------------------------------

   temp. (K)  partition function   enthalpy   heat capacity  entropy
                                   cal/mol     cal/K/mol   cal/K/mol   J/K/mol
 298.15  VIB  0.678E+17            19678.213    106.557    129.806
         ROT  0.152E+08              888.752      2.981     35.849
         INT  0.103E+25            20566.966    109.538    165.655
         TR   0.687E+28             1481.254      4.968     43.594
         TOT                       22048.2198   114.5061   209.2486   875.4962

       T/K    H(0)-H(T)+PV         H(T)/Eh          T*S/Eh         G(T)/Eh
   ------------------------------------------------------------------------
    298.15    0.351361E-01    0.502958E+00    0.994208E-01    0.403537E+00
   ------------------------------------------------------------------------

         :::::::::::::::::::::::::::::::::::::::::::::::::::::
         ::                  THERMODYNAMIC                  ::
         :::::::::::::::::::::::::::::::::::::::::::::::::::::
         :: total free energy         -83.037205607014 Eh   ::
         ::.................................................::
         :: total energy              -83.440742415575 Eh   ::
         :: zero point energy           0.467821504529 Eh   ::
         :: G(RRHO) w/o ZPVE           -0.064284695968 Eh   ::
         :: G(RRHO) contrib.            0.403536808561 Eh   ::
         :::::::::::::::::::::::::::::::::::::::::::::::::::::

           -------------------------------------------------
          | TOTAL ENERGY              -83.440742415575 Eh   |
          | TOTAL ENTHALPY            -82.937784836358 Eh   |
          | TOTAL FREE ENERGY         -83.037205607014 Eh   |
          | GRADIENT NORM               0.000123656795 Eh/α |
          | HOMO-LUMO GAP               2.242466875657 eV   |
           -------------------------------------------------

------------------------------------------------------------------------
 * finished run on 2026/08/20 at 20:34:16.796     
------------------------------------------------------------------------
 total:
 * wall-time:     0 d,  0 h,  0 min,  5.223 sec
 *  cpu-time:     0 d,  0 h,  0 min, 35.312 sec
 * ratio c/w:     6.761 speedup
 SCF:
 * wall-time:     0 d,  0 h,  0 min,  0.038 sec
 *  cpu-time:     0 d,  0 h,  0 min,  0.031 sec
 * ratio c/w:     0.822 speedup
 analytical hessian:
 * wall-time:     0 d,  0 h,  0 min,  5.142 sec
 *  cpu-time:     0 d,  0 h,  0 min, 35.219 sec
 * ratio c/w:     6.849 speedup



===== STDERR =====

normal termination of xtb
