76
 energy: -110.273360202592 gnorm: 0.000314649530 xtb: 6.7.1pre (5071a88)
N            0.22739026871928        0.48339781386731       -0.53394832638619
C            1.55600574197075        0.18432450189681       -0.30202689590149
C            2.27902797647328        0.70476435681123        0.77262408707527
C            3.62588497271772        0.43672299063685        0.90019793448840
C            4.28412805704362       -0.38813095045462       -0.00277767822088
C            3.53270514759557       -1.00890280728921       -0.99370657093488
C            2.19071132410886       -0.73243186139555       -1.14350032878563
C            5.78154884132966       -0.45737541718592       -0.02411283336858
C            6.27737983578486        0.70233887234153       -0.90945854425055
C           -0.42406351846212        1.67652196541788       -0.27704999690428
C            0.08734313078752        2.84143660180489        0.12237091367252
C           -0.78935681433751        4.03435004115281        0.40220579987566
C            0.01070222293417        5.34490007016836        0.45251955722445
C            0.62214468619554        5.71761318295262       -0.89599785896197
C            1.30581314396450        7.07825691283918       -0.83845675267008
O            0.36926829154673        0.23363379140414       -3.55949812689347
N           -2.14916204766359        3.43677399690926        3.80218640620631
C           -3.31018061833128        3.74022243061858        3.15713777486965
C           -2.98231250765848        4.00041422207755        1.80269202654214
C           -1.56531323871675        3.83866645055285        1.67702932150609
C           -4.61390307528329        3.82250463212254        3.62637887991063
C           -4.00207685569674        4.34196158664596        0.91183362856318
C           -1.09720020732054        3.49594529643476        2.91748567718986
C           -5.59727141903845        4.16756370585681        2.72359965603405
C           -5.29332870592009        4.42227990883084        1.38334708766098
C            0.27475320150527        3.19210183587208        3.40385484501562
O            1.54463586332598        2.58368388122553       -2.80791707184835
H           -0.17624948877930       -0.05424691175047       -1.29085052613226
H           -0.13489557729611        0.44218677292529       -4.34709762590337
H            1.78219444408467        1.32096605402375        1.50324885561739
H            4.18283780865513        0.88874539813222        1.70897373185729
H            4.00997027222173       -1.70424778485274       -1.67114080621396
H            1.62603752754447       -1.18701507427917       -1.94388591581155
H            6.13957954606815       -1.40124738693974       -0.43824244440049
H            6.20758518419841       -0.33694220015541        0.97166995163839
H            5.88383476738511        1.64712687266152       -0.51588115896991
H            6.03709807504045       -0.25446887341734       -2.75603669260545
H            7.58113541656968        2.52246789777964       -1.98579150376667
H           -1.49152117342268        1.60684276282149       -0.45369857891882
H            1.14613972249868        2.96538585435026        0.28633274359259
H           -1.52643711048149        4.12063441124277       -0.40520368938782
H           -0.65509400908889        6.14988636639084        0.77124813749847
H            0.80234619430100        5.26376538491707        1.19992658460785
H            1.35294031929021        4.96474356793213       -1.19695025906684
H           -0.16301350667478        5.73908284941980       -1.65543711764263
H            1.72846272040423        7.33532440308468       -1.80705737976567
H            0.59388628359050        7.85049989271863       -0.55557127692654
H            2.10908823344462        7.07041043561100       -0.10467394508036
H           -2.06369318839835        3.20507947820923        4.77703926554583
H           -2.54814234177687        6.19383329791221        2.22230233289211
H           -4.84670278401611        3.62260475367287        4.66192711964082
H           -3.78270381067063        4.54329882218314       -0.12627218203318
H           -6.62261960528203        4.24136172240888        3.05409869540792
H           -6.09356292832542        4.68652708475484        0.70757709873748
H            1.01051035955972        3.44403245657136        2.64871299928880
H            0.49166452113730        3.76279713678740        4.30702290050963
H            0.36868521222971        2.13111210077646        3.64187849252267
H            2.47933268343609        2.50587369482388       -2.53850867560593
H            1.06049745611564        2.84395340859164       -2.01698167565777
O           -2.68287363799954        7.13248349783522        2.39106433979718
H            0.82280478539356        1.06542325698267       -3.31027296049312
H           -3.63087666191291        7.27483279447321        2.37784789767428
N            5.75858857248761        0.57820654644550       -2.25911527825411
C            7.80896940044801        0.76748352463529       -0.97284402654520
O            8.53547394270523       -0.08045741865031       -0.50402867757310
C            4.09637340464408        0.77700884408027       -3.99763166711583
C            4.66125765131227        1.24273859248153       -2.68125398728998
O            4.18514823846525        2.17860298821585       -2.05724735509893
H            3.22273160879617        0.15948919922469       -3.79173300978343
H            4.81662196709182        0.20246005844298       -4.57250589267529
H            3.76116714123895        1.63579644455371       -4.57368457090010
N            8.25123295784581        1.85988212936312       -1.62807292011357
C            9.65188383491230        2.13571841544848       -1.83428372835880
H            9.93452314843154        3.07608637215986       -1.35802233173965
H            9.88263499707106        2.19070998142501       -2.89968616631101
H           10.21387372779998        1.31962211145521       -1.38321973154253
