      -----------------------------------------------------------      
     |                   =====================                   |     
     |                           x T B                           |     
     |                   =====================                   |     
     |                         S. Grimme                         |     
     |          Mulliken Center for Theoretical Chemistry        |     
     |                    University of Bonn                     |     
      -----------------------------------------------------------      

   * xtb version 6.7.1pre (5071a88) compiled by 'Marcel@Raven' on 2024-07-23

   xtb is free software: you can redistribute it and/or modify it under
   the terms of the GNU Lesser General Public License as published by
   the Free Software Foundation, either version 3 of the License, or
   (at your option) any later version.
   
   xtb is distributed in the hope that it will be useful,
   but WITHOUT ANY WARRANTY; without even the implied warranty of
   MERCHANTABILITY or FITNESS FOR A PARTICULAR PURPOSE.  See the
   GNU Lesser General Public License for more details.
   
   Cite this work as:
   * C. Bannwarth, E. Caldeweyher, S. Ehlert, A. Hansen, P. Pracht,
     J. Seibert, S. Spicher, S. Grimme, WIREs Comput. Mol. Sci., 2020, 11,
     e01493. DOI: 10.1002/wcms.1493
   
   for GFN2-xTB:
   * C. Bannwarth, S. Ehlert and S. Grimme., J. Chem. Theory Comput., 2019,
     15, 1652-1671. DOI: 10.1021/acs.jctc.8b01176
   for GFN1-xTB:
   * S. Grimme, C. Bannwarth, P. Shushkov, J. Chem. Theory Comput., 2017,
     13, 1989-2009. DOI: 10.1021/acs.jctc.7b00118
   for GFN0-xTB:
   * P. Pracht, E. Caldeweyher, S. Ehlert, S. Grimme, ChemRxiv, 2019, preprint.
     DOI: 10.26434/chemrxiv.8326202.v1
   for GFN-FF:
   * S. Spicher and S. Grimme, Angew. Chem. Int. Ed., 2020, 59, 15665-15673.
     DOI: 10.1002/anie.202004239
   
   for ALPB and GBSA implicit solvation:
   * S. Ehlert, M. Stahn, S. Spicher, S. Grimme, J. Chem. Theory Comput.,
     2021, 17, 4250-4261. DOI: 10.1021/acs.jctc.1c00471
   
   for ddCOSMO and CPCM-X implicit solvation:
   * M. Stahn, S. Ehlert, S. Grimme, J. Phys. Chem. A,
     2023, XX, XXXX-XXXX. DOI: 10.1021/acs.jpca.3c04382
   
   for DFT-D4:
   * E. Caldeweyher, C. Bannwarth and S. Grimme, J. Chem. Phys., 2017,
     147, 034112. DOI: 10.1063/1.4993215
   * E. Caldeweyher, S. Ehlert, A. Hansen, H. Neugebauer, S. Spicher,
     C. Bannwarth and S. Grimme, J. Chem. Phys., 2019, 150, 154122.
     DOI: 10.1063/1.5090222
   * E. Caldeweyher, J.-M. Mewes, S. Ehlert and S. Grimme, Phys. Chem. Chem. Phys.
     2020, 22, 8499-8512. DOI: 10.1039/D0CP00502A
   
   for sTDA-xTB:
   * S. Grimme and C. Bannwarth, J. Chem. Phys., 2016, 145, 054103.
     DOI: 10.1063/1.4959605
   
   in the mass-spec context:
   * V. Asgeirsson, C. Bauer and S. Grimme, Chem. Sci., 2017, 8, 4879.
     DOI: 10.1039/c7sc00601b
   * J. Koopman and S. Grimme, ACS Omega 2019, 4, 12, 15120-15133.
     DOI: 10.1021/acsomega.9b02011
   
   for metadynamics refer to:
   * S. Grimme, J. Chem. Theory Comput., 2019, 155, 2847-2862
     DOI: 10.1021/acs.jctc.9b00143
   
   for SPH calculations refer to:
   * S. Spicher and S. Grimme, J. Chem. Theory Comput., 2021, 17, 1701-1714
     DOI: 10.1021/acs.jctc.0c01306
   
   for ONIOM refer to:
   * C. Plett, A. Katbashev, S. Ehlert, S. Grimme, M. Bursch,
     Phys. Chem. Chem. Phys., 2023, 25, 17860-17868. DOI: 10.1039/D3CP02178E
   
   for DIPRO refer to:
   * J. Kohn, N. Gildemeister, S. Grimme, D. Fazzi, A. Hansen,
     J. Chem. Phys., 2023, just accepted.
   
   for PTB refer to:
   * S. Grimme, M. Mueller, A. Hansen, J. Chem. Phys., 2023, 158, 124111.
     DOI: 10.1063/5.0137838
   
   with help from (in alphabetical order)
   P. Atkinson, C. Bannwarth, F. Bohle, G. Brandenburg, E. Caldeweyher
   M. Checinski, S. Dohm, S. Ehlert, S. Ehrlich, I. Gerasimov, C. Hölzer
   A. Katbashev, J. Kohn, J. Koopman, C. Lavigne, S. Lehtola, F. März, M. Müller,
   F. Musil, H. Neugebauer, J. Pisarek, C. Plett, P. Pracht, F. Pultar,
   J. Seibert, P. Shushkov, S. Spicher, M. Stahn, M. Steiner, T. Strunk,
   J. Stückrath, T. Rose, and J. Unsleber
   
 * started run on 2026/08/31 at 13:16:50.588     
   ID    Z sym.   atoms
    1    7 N      1, 17, 63, 72
    2    6 C      2-15, 18-26, 64, 66, 67, 73
    3    8 O      16, 27, 60, 65, 68
    4    1 H      28-59, 61, 62, 69-71, 74-76

           -------------------------------------------------
          |                Calculation Setup                |
           -------------------------------------------------

          program call               : C:\Users\Nayanika\Downloads\xtb-6.7.1pre-windows-x86_64\xtb-6.7.1\bin\xtb.exe D:\PhD_Thesis\LmrR_EVB\charges\fast_lmrr_5QM\xtb_preparation\RS2_1_to_TS2_1a\RS2_1_to_TS2_1a_PS.xyz --gfn 2 --opt tight --chrg 0 --uhf 0 --etemp 300
          coordinate file            : D:\PhD_Thesis\LmrR_EVB\charges\fast_lmrr_5QM\xtb_preparation\RS2_1_to_TS2_1a\RS2_1_to_TS2_1a_PS.xyz
          omp threads                :                     1


molecular fragmentation (1/2 indicates fragments):
111111111111111211111111112121111111111111111111111111111222221111111111
1111
# atoms in fragment 1/2:    68     8
 fragment masses (1/2) :      447.59       53.04
CMA distance (Bohr)    :   6.152
constraining FC (au)   :  0.0500

           -------------------------------------------------
          |                 G F N 2 - x T B                 |
           -------------------------------------------------

        Reference                      10.1021/acs.jctc.8b01176
      * Hamiltonian:
        H0-scaling (s, p, d)           1.850000    2.230000    2.230000
        zeta-weighting                 0.500000
      * Dispersion:
        s8                             2.700000
        a1                             0.520000
        a2                             5.000000
        s9                             5.000000
      * Repulsion:
        kExp                           1.500000    1.000000
        rExp                           1.000000
      * Coulomb:
        alpha                          2.000000
        third order                    shell-resolved
        anisotropic                    true
        a3                             3.000000
        a5                             4.000000
        cn-shift                       1.200000
        cn-exp                         4.000000
        max-rad                        5.000000


          ...................................................
          :                      SETUP                      :
          :.................................................:
          :  # basis functions                 184          :
          :  # atomic orbitals                 184          :
          :  # shells                          112          :
          :  # electrons                       198          :
          :  max. iterations                   250          :
          :  Hamiltonian                  GFN2-xTB          :
          :  restarted?                      false          :
          :  GBSA solvation                  false          :
          :  PC potential                    false          :
          :  electronic temp.          300.0000000     K    :
          :  accuracy                    1.0000000          :
          :  -> integral cutoff          0.2500000E+02      :
          :  -> integral neglect         0.1000000E-07      :
          :  -> SCF convergence          0.1000000E-05 Eh   :
          :  -> wf. convergence          0.1000000E-03 e    :
          :  Broyden damping             0.4000000          :
          :  net charge                          0          :
          :  unpaired electrons                  0          :
          ...................................................

 iter      E             dE          RMSdq      gap      omega  full diag
   1   -111.1002243 -0.111100E+03  0.407E+00    2.21       0.0  T
   2   -110.4575434  0.642681E+00  0.333E+00    0.00       1.0  T
   3   -111.1879673 -0.730424E+00  0.240E+00    2.16       1.0  T
   4   -111.3458437 -0.157876E+00  0.139E+00    1.52       1.0  T
   5   -111.3476207 -0.177701E-02  0.972E-01    1.21       1.0  T
   6   -111.4193636 -0.717429E-01  0.449E-01    0.14       1.0  T
   7   -110.5578700  0.861494E+00  0.248E+00    0.00       1.0  T
   8   -111.3748751 -0.817005E+00  0.733E-01    1.05       1.0  T
   9   -111.3759410 -0.106582E-02  0.683E-01    0.60       1.0  T
  10   -111.4328473 -0.569063E-01  0.269E-01    0.12       1.0  T
  11   -111.2790674  0.153780E+00  0.103E+00    0.02       1.0  T
  12   -111.4169584 -0.137891E+00  0.416E-01    0.15       1.0  T
  13   -111.3717923  0.451661E-01  0.682E-01    0.04       1.0  T
  14   -111.3853337 -0.135414E-01  0.615E-01    0.04       1.0  T
  15   -111.4100971 -0.247634E-01  0.468E-01    0.05       1.0  T
  16   -111.4442614 -0.341643E-01  0.393E-02    0.08       1.0  T
  17   -111.4240666  0.201948E-01  0.360E-01    0.06       1.0  T
  18   -111.4444916 -0.204251E-01  0.566E-03    0.09       2.0  T
  19   -111.4429361  0.155554E-02  0.994E-02    0.08       1.0  T
  20   -111.4443767 -0.144065E-02  0.273E-02    0.09       1.0  T
  21   -111.4443570  0.196975E-04  0.294E-02    0.09       1.0  T
  22   -111.4444707 -0.113621E-03  0.120E-02    0.09       1.0  T
  23   -111.4444910 -0.203950E-04  0.343E-03    0.09       3.3  T
  24   -111.4444928 -0.173433E-05  0.458E-04    0.09      25.1  T
  25   -111.4444927  0.380284E-07  0.648E-04    0.09      17.7  T
  26   -111.4444830  0.977790E-05  0.789E-03    0.09       1.5  T
  27   -111.4444864 -0.345054E-05  0.635E-03    0.09       1.8  T
  28   -111.4444926 -0.614275E-05  0.129E-03    0.09       8.9  T
  29   -111.4444927 -0.124934E-06  0.814E-04    0.09      14.1  T

   *** convergence criteria satisfied after 29 iterations ***

         #    Occupation            Energy/Eh            Energy/eV
      -------------------------------------------------------------
         1        2.0000           -0.7228580             -19.6700
       ...           ...                  ...                  ...
        93        2.0000           -0.3786776             -10.3043
        94        2.0000           -0.3732177             -10.1558
        95        2.0000           -0.3566535              -9.7050
        96        2.0000           -0.3485284              -9.4839
        97        2.0000           -0.3160808              -8.6010
        98        1.8048           -0.2817764              -7.6675
        99        1.7702           -0.2816030              -7.6628 (HOMO)
       100        0.4250           -0.2784190              -7.5762 (LUMO)
       101                         -0.2395227              -6.5177
       102                         -0.2281573              -6.2085
       103                         -0.2240614              -6.0970
       104                         -0.2030215              -5.5245
       ...                                ...                  ...
       184                          0.6754138              18.3789
      -------------------------------------------------------------
                  HL-Gap            0.0031840 Eh            0.0866 eV
             Fermi-level           -0.2796634 Eh           -7.6100 eV

 SCC (total)                   0 d,  0 h,  0 min,  0.497 sec
 SCC setup                      ...        0 min,  0.001 sec (  0.201%)
 Dispersion                     ...        0 min,  0.002 sec (  0.402%)
 classical contributions        ...        0 min,  0.000 sec (  0.000%)
 integral evaluation            ...        0 min,  0.029 sec (  5.835%)
 iterations                     ...        0 min,  0.354 sec ( 71.227%)
 molecular gradient             ...        0 min,  0.104 sec ( 20.926%)
 printout                       ...        0 min,  0.007 sec (  1.408%)

         :::::::::::::::::::::::::::::::::::::::::::::::::::::
         ::                     SUMMARY                     ::
         :::::::::::::::::::::::::::::::::::::::::::::::::::::
         :: total energy            -109.907481686029 Eh    ::
         :: gradient norm              0.204922688918 Eh/a0 ::
         :: HOMO-LUMO gap              0.086641200221 eV    ::
         ::.................................................::
         :: SCC energy              -111.442282744864 Eh    ::
         :: -> isotropic ES            0.257181223460 Eh    ::
         :: -> anisotropic ES          0.002763248757 Eh    ::
         :: -> anisotropic XC          0.045963300072 Eh    ::
         :: -> dispersion             -0.085384856400 Eh    ::
         :: repulsion energy           1.534801058835 Eh    ::
         :: add. restraining           0.000000000000 Eh    ::
         :: total charge              -0.000000000003 e     ::
         :::::::::::::::::::::::::::::::::::::::::::::::::::::

      ----------------------------------------------------------- 
     |                   =====================                   |
     |                        A N C O P T                        |
     |                   =====================                   |
     |               Approximate Normal Coordinate               |
     |                Rational Function Optimizer                |
      ----------------------------------------------------------- 
      ----------------------------------------------------------- 
     |                   =====================                   |
     |                        A N C O P T                        |
     |                   =====================                   |
     |               Approximate Normal Coordinate               |
     |                Rational Function Optimizer                |
      ----------------------------------------------------------- 

          ...................................................
          :                      SETUP                      :
          :.................................................:
          :   optimization level             tight          :
          :   max. optcycles                   380          :
          :   ANC micro-cycles                  20          :
          :   degrees of freedom               222          :
          :.................................................:
          :   RF solver                   davidson          :
          :   write xtbopt.log                true          :
          :   linear?                        false          :
          :   energy convergence         0.1000000E-05 Eh   :
          :   grad. convergence          0.8000000E-03 Eh/α :
          :   maxmium RF displ.          1.0000000          :
          :   Hlow (freq-cutoff)         0.1000000E-01      :
          :   Hmax (freq-cutoff)         5.0000000          :
          :   S6 in model hess.         20.0000000          :
          ...................................................

generating ANC from exact Hessian ...
Using Lindh-Hessian (1995)
 Shifting diagonal of input Hessian by   1.091036930073036E-002
 Lowest  eigenvalues of input Hessian
    0.010000    0.010838    0.010866    0.000000    0.000000    0.000000
    0.000000    0.000000    0.000000    0.010944    0.010949    0.010998
    0.011107    0.011175    0.011292    0.011354    0.011550    0.011703
 Highest eigenvalues
    2.003348    2.034853    2.036396    2.135093    2.237767    2.249942
 

........................................................................
.............................. CYCLE    1 ..............................
........................................................................

 iter      E             dE          RMSdq      gap      omega  full diag
   1   -111.4444928 -0.111444E+03  0.402E-04    0.09       0.0  T
   2   -111.4444196  0.731873E-04  0.215E-02    0.08       1.0  T
   3   -111.4444928 -0.732127E-04  0.474E-05    0.09     241.8  T
   4   -111.4444928 -0.160895E-09  0.370E-05    0.09     309.7  T
   5   -111.4444928  0.853788E-10  0.438E-05    0.09     261.7  T
     SCC iter.                  ...        0 min,  0.064 sec
     gradient                   ...        0 min,  0.091 sec
 * total energy  :  -109.9074818 Eh     change       -0.1002333E-06 Eh
   gradient norm :     0.2049334 Eh/α   predicted     0.0000000E+00 (-100.00%)
   displ. norm   :     0.5795434 α      lambda       -0.7802080E-01
   maximum displ.:     0.1542609 α      in ANC's #34, #26, #55, ...

........................................................................
.............................. CYCLE    2 ..............................
........................................................................

 iter      E             dE          RMSdq      gap      omega  full diag
   1   -110.6979130 -0.110698E+03  0.231E+00    0.00       0.0  T
   2   -111.0287056 -0.330793E+00  0.243E+00    1.67       1.0  T
   3   -111.3856717 -0.356966E+00  0.139E+00    1.83       1.0  T
   4   -111.4003101 -0.146385E-01  0.117E+00    1.49       1.0  T
   5   -111.4295200 -0.292099E-01  0.907E-01    1.13       1.0  T
   6   -111.4407032 -0.111832E-01  0.760E-01    0.89       1.0  T
   7   -110.6563289  0.784374E+00  0.245E+00    0.00       1.0  T
   8   -111.4593294 -0.803000E+00  0.612E-01    0.22       1.0  T
   9   -111.5062609 -0.469316E-01  0.268E-01    0.12       1.0  T
  10   -111.5134106 -0.714973E-02  0.165E-01    0.07       1.0  T
  11   -111.4762132  0.371975E-01  0.513E-01    0.17       1.0  T
  12   -110.9148949  0.561318E+00  0.200E+00    0.00       1.0  T
  13   -111.4555707 -0.540676E+00  0.630E-01    0.23       1.0  T
  14   -111.5146341 -0.590634E-01  0.137E-01    0.10       1.0  T
  15   -111.3962264  0.118408E+00  0.887E-01    0.03       1.0  T
  16   -111.4228536 -0.266271E-01  0.783E-01    0.03       1.0  T
  17   -111.5173954 -0.945418E-01  0.366E-02    0.09       1.0  T
  18   -111.5154650  0.193045E-02  0.117E-01    0.08       1.0  T
  19   -111.5149221  0.542896E-03  0.131E-01    0.08       1.0  T
  20   -111.5175684 -0.264636E-02  0.156E-02    0.09       1.0  T
  21   -111.5152450  0.232341E-02  0.123E-01    0.08       1.0  T
  22   -111.5170788 -0.183378E-02  0.581E-02    0.08       1.0  T
  23   -111.5146931  0.238571E-02  0.137E-01    0.07       1.0  T
  24   -111.5155117 -0.818564E-03  0.116E-01    0.08       1.0  T
  25   -111.5143161  0.119553E-02  0.145E-01    0.07       1.0  T
  26   -111.5133616  0.954531E-03  0.165E-01    0.07       1.0  T
  27   -111.5148631 -0.150150E-02  0.132E-01    0.07       1.0  T
  28   -111.5130785  0.178464E-02  0.170E-01    0.07       1.0  T
  29   -111.5174420 -0.436356E-02  0.322E-02    0.08       1.0  T
  30   -111.5163341  0.110793E-02  0.901E-02    0.08       1.0  T
  31   -111.5175843 -0.125023E-02  0.109E-02    0.09       1.1  T
  32   -111.5175232  0.610862E-04  0.224E-02    0.08       1.0  T
  33   -111.5175997 -0.764182E-04  0.396E-03    0.09       2.9  T
  34   -111.5176019 -0.219692E-05  0.624E-04    0.09      18.4  T
  35   -111.5176013  0.603854E-06  0.195E-03    0.08       5.9  T
  36   -111.5176012  0.101806E-06  0.213E-03    0.09       5.4  T
  37   -111.5176018 -0.645375E-06  0.594E-04    0.08      19.3  T
  38   -111.5176019 -0.520965E-07  0.126E-04    0.08      91.0  T
     SCC iter.                  ...        0 min,  0.465 sec
     gradient                   ...        0 min,  0.101 sec
 * total energy  :  -109.9580091 Eh     change       -0.5052730E-01 Eh
   gradient norm :     0.1611985 Eh/α   predicted    -0.5213242E-01 (   3.18%)
   displ. norm   :     0.7533898 α      lambda       -0.8686431E-01
   maximum displ.:     0.2148233 α      in ANC's #111, #146, #34, ...

........................................................................
.............................. CYCLE    3 ..............................
........................................................................

 iter      E             dE          RMSdq      gap      omega  full diag
   1   -110.7701677 -0.110770E+03  0.237E+00    0.00       0.0  T
   2   -111.0789174 -0.308750E+00  0.253E+00    1.93       1.0  T
   3   -111.4709092 -0.391992E+00  0.146E+00    1.89       1.0  T
   4   -111.4891328 -0.182236E-01  0.122E+00    1.49       1.0  T
   5   -111.5237813 -0.346485E-01  0.912E-01    1.04       1.0  T
   6   -111.6148972 -0.911159E-01  0.140E-01    0.09       1.0  T
   7   -110.7391722  0.875725E+00  0.248E+00    0.00       1.0  T
   8   -111.5319391 -0.792767E+00  0.793E-01    0.95       1.0  T
   9   -111.5349943 -0.305524E-02  0.751E-01    0.59       1.0  T
  10   -111.5648536 -0.298593E-01  0.575E-01    0.18       1.0  T
  11   -110.7906208  0.774233E+00  0.237E+00    0.00       1.0  T
  12   -111.5349270 -0.744306E+00  0.750E-01    0.57       1.0  T
  13   -111.5537347 -0.188077E-01  0.636E-01    0.21       1.0  T
  14   -111.6161247 -0.623900E-01  0.886E-03    0.08       1.3  T
  15   -111.6063106  0.981408E-02  0.253E-01    0.06       1.0  T
  16   -111.6135792 -0.726853E-02  0.129E-01    0.07       1.0  T
  17   -111.5694454  0.441338E-01  0.553E-01    0.04       1.0  T
  18   -111.6052015 -0.357562E-01  0.267E-01    0.06       1.0  T
  19   -111.5273251  0.778764E-01  0.764E-01    0.03       1.0  T
  20   -111.5817339 -0.544088E-01  0.475E-01    0.05       1.0  T
  21   -111.4961545  0.855794E-01  0.889E-01    0.03       1.0  T
  22   -111.5360514 -0.398968E-01  0.726E-01    0.03       1.0  T
  23   -111.4826307  0.534207E-01  0.939E-01    0.02       1.0  T
  24   -111.4861077 -0.347704E-02  0.926E-01    0.02       1.0  T
  25   -111.4960559 -0.994821E-02  0.890E-01    0.03       1.0  T
  26   -111.4092177  0.868382E-01  0.117E+00    0.01       1.0  T
  27   -111.4209242 -0.117065E-01  0.114E+00    0.01       1.0  T
  28   -111.5382036 -0.117279E+00  0.716E-01    0.04       1.0  T
  29   -111.3888547  0.149349E+00  0.123E+00    0.01       1.0  T
  30   -111.5860993 -0.197245E+00  0.443E-01    0.05       1.0  T
  31   -111.3154365  0.270663E+00  0.141E+00    0.00       1.0  T
  32   -111.6159762 -0.300540E+00  0.320E-02    0.09       1.0  T
  33   -111.1932865  0.422690E+00  0.168E+00    0.00       1.0  T
  34   -111.5875915 -0.394305E+00  0.429E-01    0.14       1.0  T
  35   -111.1726406  0.414951E+00  0.172E+00    0.00       1.0  T
  36   -111.5722759 -0.399635E+00  0.532E-01    0.16       1.0  T
  37   -111.1930588  0.379217E+00  0.168E+00    0.00       1.0  T
  38   -111.5672547 -0.374196E+00  0.562E-01    0.17       1.0  T
  39   -111.1994956  0.367759E+00  0.167E+00    0.00       1.0  T
  40   -111.5624256 -0.362930E+00  0.589E-01    0.18       1.0  T
  41   -111.2229882  0.339437E+00  0.162E+00    0.00       1.0  T
  42   -111.5604619 -0.337474E+00  0.600E-01    0.19       1.0  T
  43   -111.2428697  0.317592E+00  0.158E+00    0.00       1.0  T
  44   -111.5591154 -0.316246E+00  0.607E-01    0.19       1.0  T
  45   -111.2661970  0.292918E+00  0.153E+00    0.00       1.0  T
  46   -111.5586269 -0.292430E+00  0.610E-01    0.19       1.0  T
  47   -111.2925415  0.266085E+00  0.147E+00    0.00       1.0  T
  48   -111.5590069 -0.266465E+00  0.608E-01    0.19       1.0  T
  49   -111.3194459  0.239561E+00  0.141E+00    0.00       1.0  T
  50   -111.5600153 -0.240569E+00  0.602E-01    0.19       1.0  T
  51   -111.3481899  0.211825E+00  0.133E+00    0.00       1.0  T
  52   -111.5618040 -0.213614E+00  0.593E-01    0.19       1.0  T
  53   -111.3779320  0.183872E+00  0.126E+00    0.01       1.0  T
  54   -111.5644211 -0.186489E+00  0.578E-01    0.18       1.0  T
  55   -111.4083658  0.156055E+00  0.117E+00    0.01       1.0  T
  56   -111.5679656 -0.159600E+00  0.558E-01    0.17       1.0  T
  57   -111.4393072  0.128658E+00  0.108E+00    0.02       1.0  T
  58   -111.5725760 -0.133269E+00  0.530E-01    0.16       1.0  T
  59   -111.4704039  0.102172E+00  0.981E-01    0.02       1.0  T
  60   -111.5783626 -0.107959E+00  0.494E-01    0.15       1.0  T
  61   -111.5011768  0.771858E-01  0.870E-01    0.03       1.0  T
  62   -111.5853373 -0.841604E-01  0.446E-01    0.14       1.0  T
  63   -111.5308534  0.544838E-01  0.748E-01    0.03       1.0  T
  64   -111.5932664 -0.624130E-01  0.384E-01    0.13       1.0  T
  65   -111.5581698  0.350966E-01  0.616E-01    0.04       1.0  T
  66   -111.6014581 -0.432883E-01  0.308E-01    0.12       1.0  T
  67   -111.5813242  0.201339E-01  0.477E-01    0.05       1.0  T
  68   -111.6086591 -0.273350E-01  0.220E-01    0.11       1.0  T
  69   -111.5984584  0.102008E-01  0.339E-01    0.06       1.0  T
  70   -111.6135059 -0.150475E-01  0.130E-01    0.10       1.0  T
  71   -111.6088419  0.466394E-02  0.218E-01    0.07       1.0  T
  72   -111.6156379 -0.679601E-02  0.565E-02    0.09       1.0  T
  73   -111.6137346  0.190332E-02  0.125E-01    0.08       1.0  T
  74   -111.6161051 -0.237052E-02  0.128E-02    0.09       1.0  T
  75   -111.6155079  0.597200E-03  0.636E-02    0.08       1.0  T
  76   -111.6161222 -0.614249E-03  0.725E-03    0.09       1.6  T
  77   -111.6161218  0.366618E-06  0.741E-03    0.09       1.5  T
  78   -111.6160327  0.890796E-04  0.251E-02    0.09       1.0  T
  79   -111.6160913 -0.585254E-04  0.158E-02    0.09       1.0  T
  80   -111.6160276  0.636903E-04  0.257E-02    0.09       1.0  T
  81   -111.6158525  0.175038E-03  0.422E-02    0.08       1.0  T
  82   -111.6160970 -0.244497E-03  0.136E-02    0.08       1.0  T
  83   -111.6154170  0.680000E-03  0.677E-02    0.08       1.0  T
  84   -111.6160735 -0.656461E-03  0.181E-02    0.08       1.0  T
  85   -111.6158947  0.178778E-03  0.386E-02    0.08       1.0  T
  86   -111.6160118 -0.117040E-03  0.270E-02    0.08       1.0  T
  87   -111.6160514 -0.396413E-04  0.217E-02    0.08       1.0  T
  88   -111.6160537 -0.234457E-05  0.213E-02    0.08       1.0  T
  89   -111.6161213 -0.675501E-04  0.421E-03    0.08       2.7  T
  90   -111.6161236 -0.234131E-05  0.151E-03    0.08       7.6  T
  91   -111.6161233  0.364053E-06  0.213E-03    0.08       5.4  T
  92   -111.6161238 -0.543985E-06  0.100E-03    0.08      11.4  T
  93   -111.6161240 -0.143097E-06  0.286E-04    0.08      40.1  T
  94   -111.6161240 -0.804961E-08  0.171E-04    0.08      67.0  T
     SCC iter.                  ...        0 min,  1.105 sec
     gradient                   ...        0 min,  0.097 sec
 * total energy  :  -110.0141539 Eh     change       -0.5614483E-01 Eh
   gradient norm :     0.1287976 Eh/α   predicted    -0.6808407E-01 (  21.27%)
   displ. norm   :     0.6263470 α      lambda       -0.3689223E-01
   maximum displ.:     0.2433614 α      in ANC's #34, #26, #27, ...

........................................................................
.............................. CYCLE    4 ..............................
........................................................................

 iter      E             dE          RMSdq      gap      omega  full diag
   1   -111.5181778 -0.111518E+03  0.820E-01    0.03       0.0  T
   2   -111.4388851  0.792928E-01  0.136E+00    1.97       1.0  T
   3   -111.5257582 -0.868731E-01  0.900E-01    1.08       1.0  T
   4   -111.5307777 -0.501949E-02  0.813E-01    0.89       1.0  T
   5   -110.7421570  0.788621E+00  0.246E+00    0.00       1.0  T
   6   -111.5320167 -0.789860E+00  0.795E-01    0.86       1.0  T
   7   -111.5339066 -0.188997E-02  0.772E-01    0.68       1.0  T
   8   -111.5350975 -0.119081E-02  0.756E-01    0.54       1.0  T
   9   -111.5376906 -0.259313E-02  0.731E-01    0.35       1.0  T
  10   -111.6052961 -0.676055E-01  0.287E-01    0.12       1.0  T
  11   -111.6048883  0.407772E-03  0.292E-01    0.12       1.0  T
  12   -111.5884522  0.164361E-01  0.437E-01    0.14       1.0  T
  13   -110.9268769  0.661575E+00  0.217E+00    0.00       1.0  T
  14   -111.5420609 -0.615184E+00  0.707E-01    0.27       1.0  T
  15   -111.5375592  0.450167E-02  0.732E-01    0.35       1.0  T
  16   -111.5692961 -0.317369E-01  0.562E-01    0.17       1.0  T
  17   -111.5786033 -0.930718E-02  0.510E-01    0.05       1.0  T
  18   -111.5422124  0.363909E-01  0.706E-01    0.27       1.0  T
  19   -111.6052589 -0.630465E-01  0.290E-01    0.06       1.0  T
  20   -111.5565219  0.487371E-01  0.633E-01    0.20       1.0  T
  21   -111.5985485 -0.420267E-01  0.359E-01    0.05       1.0  T
  22   -111.5602253  0.383232E-01  0.613E-01    0.19       1.0  T
  23   -111.6071418 -0.469165E-01  0.269E-01    0.06       1.0  T
  24   -111.5769068  0.302350E-01  0.516E-01    0.15       1.0  T
  25   -111.6128313 -0.359244E-01  0.188E-01    0.06       1.0  T
  26   -111.5934247  0.194065E-01  0.399E-01    0.13       1.0  T
  27   -111.6163927 -0.229680E-01  0.109E-01    0.07       1.0  T
  28   -111.6076448  0.874789E-02  0.260E-01    0.10       1.0  T
  29   -111.6178982 -0.102534E-01  0.439E-02    0.07       1.0  T
  30   -111.6156174  0.228084E-02  0.127E-01    0.09       1.0  T
  31   -111.6180659 -0.244850E-02  0.271E-02    0.08       1.0  T
  32   -111.6178670  0.198866E-03  0.433E-02    0.08       1.0  T
  33   -111.6180571 -0.190059E-03  0.290E-02    0.08       1.0  T
  34   -111.6180679 -0.107550E-04  0.267E-02    0.08       1.0  T
  35   -111.6117148  0.635310E-02  0.205E-01    0.06       1.0  T
  36   -111.6161923 -0.447760E-02  0.111E-01    0.09       1.0  T
  37   -111.6094162  0.677615E-02  0.238E-01    0.06       1.0  T
  38   -111.6176897 -0.827354E-02  0.505E-02    0.09       1.0  T
  39   -111.6142658  0.342398E-02  0.157E-01    0.07       1.0  T
  40   -111.6160676 -0.180183E-02  0.116E-01    0.07       1.0  T
  41   -111.6154381  0.629452E-03  0.131E-01    0.07       1.0  T
  42   -111.6166815 -0.124338E-02  0.949E-02    0.08       1.0  T
  43   -111.6177850 -0.110347E-02  0.420E-02    0.08       1.0  T
  44   -111.6175178  0.267184E-03  0.590E-02    0.08       1.0  T
  45   -111.6180280 -0.510186E-03  0.136E-02    0.08       1.0  T
  46   -111.6179060  0.122006E-03  0.309E-02    0.08       1.0  T
  47   -111.6179881 -0.820691E-04  0.207E-02    0.08       1.0  T
  48   -111.6179669  0.211966E-04  0.236E-02    0.08       1.0  T
  49   -111.6179970 -0.300883E-04  0.191E-02    0.08       1.0  T
  50   -111.6180067 -0.974430E-05  0.173E-02    0.08       1.0  T
  51   -111.6180243 -0.176331E-04  0.136E-02    0.08       1.0  T
  52   -111.6180354 -0.110451E-04  0.105E-02    0.08       1.1  T
  53   -111.6180437 -0.831993E-05  0.753E-03    0.08       1.5  T
  54   -111.6180489 -0.519477E-05  0.472E-03    0.08       2.4  T
  55   -111.6180514 -0.254711E-05  0.237E-03    0.08       4.8  T
  56   -111.6180523 -0.816150E-06  0.463E-04    0.08      24.8  T
  57   -111.6180523 -0.316970E-07  0.933E-05    0.08     122.9  T
     SCC iter.                  ...        0 min,  0.848 sec
     gradient                   ...        0 min,  0.118 sec
 * total energy  :  -110.0452796 Eh     change       -0.3112567E-01 Eh
   gradient norm :     0.1053103 Eh/α   predicted    -0.2568279E-01 ( -17.49%)
   displ. norm   :     0.6682919 α      lambda       -0.3771632E-01
   maximum displ.:     0.1573185 α      in ANC's #34, #55, #16, ...

........................................................................
.............................. CYCLE    5 ..............................
........................................................................

 iter      E             dE          RMSdq      gap      omega  full diag
   1   -111.5343277 -0.111534E+03  0.806E-01    0.03       0.0  T
   2   -111.4514170  0.829107E-01  0.132E+00    1.90       1.0  T
   3   -111.5306919 -0.792749E-01  0.889E-01    1.01       1.0  T
   4   -111.5356444 -0.495252E-02  0.802E-01    0.70       1.0  T
   5   -110.7384645  0.797180E+00  0.251E+00    0.01       1.0  T
   6   -111.5375351 -0.799071E+00  0.766E-01    0.50       1.0  T
   7   -111.5425920 -0.505694E-02  0.730E-01    0.30       1.0  T
   8   -111.6191538 -0.765618E-01  0.166E-01    0.10       1.0  T
   9   -111.4581667  0.160987E+00  0.105E+00    0.02       1.0  T
  10   -111.5862869 -0.128120E+00  0.495E-01    0.05       1.0  T
  11   -111.0530200  0.533267E+00  0.196E+00    0.00       1.0  T
  12   -111.0394329  0.135871E-01  0.199E+00    0.00       1.0  T
  13   -111.5819063 -0.542473E+00  0.518E-01    0.15       1.0  T
  14   -111.5972666 -0.153603E-01  0.414E-01    0.05       1.0  T
  15   -111.6230994 -0.258328E-01  0.453E-02    0.08       1.0  T
  16   -111.5889973  0.341021E-01  0.475E-01    0.05       1.0  T
  17   -111.6204378 -0.314405E-01  0.139E-01    0.07       1.0  T
  18   -111.5902557  0.301821E-01  0.466E-01    0.05       1.0  T
  19   -111.5960001 -0.574439E-02  0.424E-01    0.05       1.0  T
  20   -111.6101211 -0.141210E-01  0.295E-01    0.06       1.0  T
  21   -111.6138795 -0.375841E-02  0.249E-01    0.06       1.0  T
  22   -111.6196322 -0.575272E-02  0.157E-01    0.07       1.0  T
  23   -111.6220547 -0.242240E-02  0.934E-02    0.07       1.0  T
  24   -111.6214241  0.630580E-03  0.113E-01    0.07       1.0  T
  25   -111.6231796 -0.175555E-02  0.378E-02    0.08       1.0  T
  26   -111.6230556  0.124029E-03  0.471E-02    0.08       1.0  T
  27   -111.6233607 -0.305134E-03  0.151E-02    0.08       1.0  T
  28   -111.6233550  0.569537E-05  0.159E-02    0.08       1.0  T
  29   -111.6233680 -0.129791E-04  0.127E-02    0.08       1.0  T
  30   -111.6233738 -0.576548E-05  0.111E-02    0.08       1.0  T
  31   -111.6233862 -0.124688E-04  0.639E-03    0.08       1.8  T
  32   -111.6233910 -0.477595E-05  0.311E-03    0.08       3.7  T
  33   -111.6233923 -0.131655E-05  0.102E-03    0.08      11.3  T
  34   -111.6233925 -0.148424E-06  0.189E-04    0.08      60.8  T
  35   -111.6233925  0.545484E-08  0.246E-04    0.08      46.6  T
     SCC iter.                  ...        0 min,  0.549 sec
     gradient                   ...        0 min,  0.139 sec
 * total energy  :  -110.0722374 Eh     change       -0.2695782E-01 Eh
   gradient norm :     0.0631079 Eh/α   predicted    -0.2728059E-01 (   1.20%)
   displ. norm   :     0.7000795 α      lambda       -0.2287747E-01
   maximum displ.:     0.3216932 α      in ANC's #34, #27, #16, ...

........................................................................
.............................. CYCLE    6 ..............................
........................................................................

 iter      E             dE          RMSdq      gap      omega  full diag
   1   -111.5892886 -0.111589E+03  0.401E-01    0.10       0.0  T
   2   -110.6740551  0.915234E+00  0.262E+00    0.01       1.0  T
   3   -111.3223587 -0.648304E+00  0.138E+00    0.01       1.0  T
   4   -111.5137633 -0.191405E+00  0.828E-01    0.92       1.0  T
   5   -111.5092708  0.449249E-02  0.850E-01    1.04       1.0  T
   6   -111.5116821 -0.241129E-02  0.831E-01    0.99       1.0  T
   7   -111.5143141 -0.263207E-02  0.795E-01    0.72       1.0  T
   8   -111.5162318 -0.191769E-02  0.768E-01    0.48       1.0  T
   9   -111.5183041 -0.207224E-02  0.750E-01    0.35       1.0  T
  10   -110.7297803  0.788524E+00  0.246E+00    0.01       1.0  T
  11   -110.7290657  0.714561E-03  0.247E+00    0.00       1.0  T
  12   -110.7752174 -0.461517E-01  0.238E+00    0.01       1.0  T
  13   -111.5090959 -0.733878E+00  0.862E-01    1.04       1.0  T
  14   -111.5136149 -0.451908E-02  0.805E-01    0.78       1.0  T
  15   -111.5144155 -0.800572E-03  0.795E-01    0.67       1.0  T
  16   -111.5103094  0.410613E-02  0.844E-01    1.02       1.0  T
  17   -111.5108459 -0.536533E-03  0.837E-01    1.00       1.0  T
  18   -111.5142642 -0.341830E-02  0.792E-01    0.69       1.0  T
  19   -111.5822936 -0.680294E-01  0.363E-01    0.12       1.0  T
  20   -111.5141459  0.681477E-01  0.794E-01    0.70       1.0  T
  21   -111.5925233 -0.783775E-01  0.265E-01    0.06       1.0  T
  22   -111.5116705  0.808528E-01  0.829E-01    0.98       1.0  T
  23   -111.5197462 -0.807572E-02  0.741E-01    0.30       1.0  T
  24   -110.7328601  0.786886E+00  0.246E+00    0.02       1.0  T
  25   -111.4967276 -0.763867E+00  0.102E+00    1.27       1.0  T
  26   -111.5078068 -0.110793E-01  0.877E-01    1.07       1.0  T
  27   -111.5159147 -0.810793E-02  0.770E-01    0.48       1.0  T
  28   -110.7341330  0.781782E+00  0.245E+00    0.02       1.0  T
  29   -111.4924082 -0.758275E+00  0.106E+00    1.35       1.0  T
  30   -111.5141196 -0.217113E-01  0.793E-01    0.69       1.0  T
  31   -111.5261524 -0.120328E-01  0.707E-01    0.24       1.0  T
  32   -110.7279980  0.798154E+00  0.248E+00    0.02       1.0  T
  33   -111.4938311 -0.765833E+00  0.104E+00    1.33       1.0  T
  34   -111.5125224 -0.186913E-01  0.815E-01    0.89       1.0  T
  35   -111.6000967 -0.875743E-01  0.141E-01    0.07       1.0  T
  36   -111.5133491  0.867476E-01  0.807E-01    0.80       1.0  T
  37   -110.7320450  0.781304E+00  0.246E+00    0.02       1.0  T
  38   -111.4827431 -0.750698E+00  0.117E+00    1.52       1.0  T
  39   -111.5135949 -0.308518E-01  0.800E-01    0.74       1.0  T
  40   -111.5520432 -0.384483E-01  0.573E-01    0.16       1.0  T
  41   -110.7332446  0.818799E+00  0.246E+00    0.02       1.0  T
  42   -111.4807737 -0.747529E+00  0.118E+00    1.56       1.0  T
  43   -111.5133883 -0.326146E-01  0.803E-01    0.76       1.0  T
  44   -111.5297261 -0.163378E-01  0.691E-01    0.22       1.0  T
  45   -110.7285855  0.801141E+00  0.248E+00    0.02       1.0  T
  46   -111.4884396 -0.759854E+00  0.110E+00    1.43       1.0  T
  47   -111.5121171 -0.236775E-01  0.820E-01    0.93       1.0  T
  48   -111.5827791 -0.706620E-01  0.359E-01    0.11       1.0  T
  49   -111.5950814 -0.123023E-01  0.234E-01    0.06       1.0  T
  50   -111.5105009  0.845805E-01  0.847E-01    1.01       1.0  T
  51   -110.7320346  0.778466E+00  0.246E+00    0.03       1.0  T
  52   -111.4815888 -0.749554E+00  0.118E+00    1.54       1.0  T
  53   -111.5136425 -0.320536E-01  0.801E-01    0.73       1.0  T
  54   -111.1474799  0.366163E+00  0.176E+00    0.02       1.0  T
  55   -111.4846932 -0.337213E+00  0.115E+00    1.49       1.0  T
  56   -111.5135481 -0.288549E-01  0.802E-01    0.74       1.0  T
  57   -111.3365832  0.176965E+00  0.134E+00    0.01       1.0  T
  58   -111.4958533 -0.159270E+00  0.102E+00    1.30       1.0  T
  59   -111.5145395 -0.186862E-01  0.790E-01    0.63       1.0  T
  60   -110.7354921  0.779047E+00  0.245E+00    0.03       1.0  T
  61   -111.4792852 -0.743793E+00  0.120E+00    1.58       1.0  T
  62   -111.5138647 -0.345795E-01  0.798E-01    0.70       1.0  T
  63   -111.5947312 -0.808665E-01  0.239E-01    0.06       1.0  T
  64   -111.5139188  0.808124E-01  0.800E-01    0.71       1.0  T
  65   -110.7457350  0.768184E+00  0.243E+00    0.03       1.0  T
  66   -111.4758071 -0.730072E+00  0.124E+00    1.64       1.0  T
  67   -111.5146714 -0.388643E-01  0.787E-01    0.59       1.0  T
  68   -111.4456062  0.690652E-01  0.103E+00    0.01       1.0  T
  69   -111.5033132 -0.577070E-01  0.936E-01    1.16       1.0  T
  70   -111.5151593 -0.118461E-01  0.782E-01    0.56       1.0  T
  71   -110.7341705  0.780989E+00  0.245E+00    0.03       1.0  T
  72   -111.4822387 -0.748068E+00  0.117E+00    1.54       1.0  T
  73   -111.5137845 -0.315458E-01  0.799E-01    0.71       1.0  T
  74   -111.5913696 -0.775851E-01  0.272E-01    0.10       1.0  T
  75   -110.9436398  0.647730E+00  0.212E+00    0.03       1.0  T
  76   -111.4784929 -0.534853E+00  0.121E+00    1.60       1.0  T
  77   -111.5148413 -0.363484E-01  0.785E-01    0.58       1.0  T
  78   -111.3225059  0.192335E+00  0.138E+00    0.01       1.0  T
  79   -111.4976529 -0.175147E+00  0.100E+00    1.27       1.0  T
  80   -111.5145590 -0.169061E-01  0.790E-01    0.63       1.0  T
  81   -111.0750604  0.439499E+00  0.190E+00    0.03       1.0  T
  82   -111.4883310 -0.413271E+00  0.111E+00    1.43       1.0  T
  83   -111.5150064 -0.266755E-01  0.784E-01    0.57       1.0  T
  84   -111.0649965  0.450010E+00  0.192E+00    0.03       1.0  T
  85   -111.4887565 -0.423760E+00  0.110E+00    1.43       1.0  T
  86   -111.5147184 -0.259619E-01  0.788E-01    0.60       1.0  T
  87   -111.5288963 -0.141779E-01  0.708E-01    0.03       1.0  T
  88   -111.5106820  0.182142E-01  0.844E-01    1.01       1.0  T
  89   -111.5385054 -0.278234E-01  0.649E-01    0.19       1.0  T
  90   -110.7256593  0.812846E+00  0.250E+00    0.03       1.0  T
  91   -111.5085460 -0.782887E+00  0.870E-01    1.05       1.0  T
  92   -111.5131150 -0.456897E-02  0.811E-01    0.82       1.0  T
  93   -111.5955765 -0.824615E-01  0.229E-01    0.06       1.0  T
  94   -111.5157297  0.798467E-01  0.778E-01    0.50       1.0  T
  95   -110.7278012  0.787929E+00  0.249E+00    0.03       1.0  T
  96   -111.4964993 -0.768698E+00  0.102E+00    1.28       1.0  T
  97   -111.5130396 -0.165403E-01  0.812E-01    0.83       1.0  T
  98   -111.6026833 -0.896437E-01  0.441E-02    0.07       1.0  T
  99   -111.5653474  0.373358E-01  0.493E-01    0.14       1.0  T
 100   -110.7278528  0.837495E+00  0.249E+00    0.03       1.0  T
 101   -111.4939566 -0.766104E+00  0.105E+00    1.33       1.0  T
 102   -111.5132154 -0.192588E-01  0.810E-01    0.80       1.0  T
 103   -111.5762805 -0.630651E-01  0.414E-01    0.12       1.0  T
 104   -110.7312779  0.845003E+00  0.247E+00    0.03       1.0  T
 105   -111.4877172 -0.756439E+00  0.111E+00    1.44       1.0  T
 106   -111.5143966 -0.266794E-01  0.793E-01    0.65       1.0  T
 107   -111.5702739 -0.558772E-01  0.473E-01    0.04       1.0  T
 108   -111.5116657  0.586081E-01  0.831E-01    0.99       1.0  T
 109   -111.5975202 -0.858545E-01  0.198E-01    0.06       1.0  T
 110   -111.5169293  0.805909E-01  0.765E-01    0.39       1.0  T
 111   -110.7271811  0.789748E+00  0.249E+00    0.03       1.0  T
 112   -111.4983170 -0.771136E+00  0.996E-01    1.25       1.0  T
 113   -111.5125709 -0.142540E-01  0.819E-01    0.89       1.0  T
 114   -111.5409400 -0.283691E-01  0.636E-01    0.18       1.0  T
 115   -110.7248939  0.816046E+00  0.250E+00    0.03       1.0  T
 116   -111.4995453 -0.774651E+00  0.980E-01    1.23       1.0  T
 117   -111.5121123 -0.125670E-01  0.825E-01    0.94       1.0  T
 118   -111.5506824 -0.385702E-01  0.583E-01    0.16       1.0  T
 119   -110.7254342  0.825248E+00  0.250E+00    0.03       1.0  T
 120   -111.4964244 -0.770990E+00  0.102E+00    1.28       1.0  T
 121   -111.5131222 -0.166978E-01  0.811E-01    0.82       1.0  T
 122   -111.6001134 -0.869912E-01  0.145E-01    0.06       1.0  T
 123   -111.5150699  0.850436E-01  0.786E-01    0.58       1.0  T
 124   -110.7296385  0.785431E+00  0.248E+00    0.03       1.0  T
 125   -111.4920933 -0.762455E+00  0.107E+00    1.36       1.0  T
 126   -111.5151617 -0.230684E-01  0.783E-01    0.56       1.0  T
 127   -110.7477072  0.767454E+00  0.243E+00    0.03       1.0  T
 128   -111.4842855 -0.736578E+00  0.115E+00    1.50       1.0  T
 129   -111.5169186 -0.326330E-01  0.761E-01    0.39       1.0  T
 130   -110.7365948  0.780324E+00  0.245E+00    0.02       1.0  T
 131   -111.4875462 -0.750951E+00  0.111E+00    1.45       1.0  T
 132   -111.5150248 -0.274786E-01  0.782E-01    0.57       1.0  T
 133   -111.5369250 -0.219001E-01  0.656E-01    0.19       1.0  T
 134   -110.7296394  0.807286E+00  0.247E+00    0.02       1.0  T
 135   -111.4915581 -0.761919E+00  0.107E+00    1.38       1.0  T
 136   -111.5136387 -0.220806E-01  0.802E-01    0.74       1.0  T
 137   -111.5226132 -0.897448E-02  0.728E-01    0.27       1.0  T
 138   -110.7244975  0.798116E+00  0.250E+00    0.02       1.0  T
 139   -111.4957854 -0.771288E+00  0.102E+00    1.30       1.0  T
 140   -111.5121983 -0.164129E-01  0.822E-01    0.93       1.0  T
 141   -111.5553976 -0.431993E-01  0.555E-01    0.15       1.0  T
 142   -110.7274337  0.827964E+00  0.249E+00    0.03       1.0  T
 143   -111.4871536 -0.759720E+00  0.112E+00    1.45       1.0  T
 144   -111.5129785 -0.258248E-01  0.811E-01    0.83       1.0  T
 145   -111.5922538 -0.792754E-01  0.261E-01    0.10       1.0  T
 146   -111.1356800  0.456574E+00  0.178E+00    0.03       1.0  T
 147   -111.4809123 -0.345232E+00  0.118E+00    1.56       1.0  T
 148   -111.5168174 -0.359052E-01  0.762E-01    0.39       1.0  T
 149   -110.7297736  0.787044E+00  0.247E+00    0.02       1.0  T
 150   -111.4873368 -0.757563E+00  0.111E+00    1.45       1.0  T
 151   -111.5129446 -0.256079E-01  0.811E-01    0.82       1.0  T
 152   -111.5371262 -0.241816E-01  0.655E-01    0.19       1.0  T
 153   -110.7261957  0.810930E+00  0.249E+00    0.02       1.0  T
 154   -111.4921833 -0.765988E+00  0.106E+00    1.37       1.0  T
 155   -111.5123603 -0.201769E-01  0.819E-01    0.90       1.0  T
 156   -111.5416706 -0.293103E-01  0.631E-01    0.18       1.0  T
 157   -110.7258381  0.815832E+00  0.249E+00    0.03       1.0  T
 158   -111.4915278 -0.765690E+00  0.107E+00    1.38       1.0  T
 159   -111.5123505 -0.208227E-01  0.819E-01    0.91       1.0  T
 160   -111.5573393 -0.449888E-01  0.543E-01    0.15       1.0  T
 161   -110.7284271  0.828912E+00  0.248E+00    0.03       1.0  T
 162   -111.4846139 -0.756187E+00  0.114E+00    1.50       1.0  T
 163   -111.5127817 -0.281678E-01  0.813E-01    0.85       1.0  T
 164   -111.5847354 -0.719537E-01  0.341E-01    0.11       1.0  T
 165   -110.7717858  0.812950E+00  0.239E+00    0.03       1.0  T
 166   -111.4648176 -0.693032E+00  0.134E+00    1.82       1.0  T
 167   -111.5103029 -0.454853E-01  0.844E-01    1.03       1.0  T
 168   -111.5704637 -0.601608E-01  0.458E-01    0.13       1.0  T
 169   -110.7322812  0.838182E+00  0.246E+00    0.02       1.0  T
 170   -111.4797269 -0.747446E+00  0.119E+00    1.58       1.0  T
 171   -111.5136006 -0.338737E-01  0.801E-01    0.73       1.0  T
 172   -111.5989914 -0.853908E-01  0.158E-01    0.09       1.0  T
 173   -111.5186587  0.803327E-01  0.750E-01    0.32       1.0  T
 174   -110.7231322  0.795527E+00  0.251E+00    0.02       1.0  T
 175   -111.5016974 -0.778565E+00  0.952E-01    1.19       1.0  T
 176   -111.5118145 -0.101171E-01  0.827E-01    0.98       1.0  T
 177   -111.5886354 -0.768208E-01  0.302E-01    0.11       1.0  T
 178   -110.7815744  0.807061E+00  0.238E+00    0.03       1.0  T
 179   -111.4680953 -0.686521E+00  0.131E+00    1.76       1.0  T
 180   -111.5126009 -0.445056E-01  0.815E-01    0.85       1.0  T
 181   -111.1321810  0.380420E+00  0.179E+00    0.02       1.0  T
 182   -111.4852082 -0.353027E+00  0.114E+00    1.49       1.0  T
 183   -111.5158434 -0.306352E-01  0.772E-01    0.47       1.0  T
 184   -110.7342427  0.781601E+00  0.245E+00    0.02       1.0  T
 185   -111.4790314 -0.744789E+00  0.120E+00    1.60       1.0  T
 186   -111.5130010 -0.339696E-01  0.809E-01    0.80       1.0  T
 187   -111.5266833 -0.136823E-01  0.707E-01    0.23       1.0  T
 188   -110.7240022  0.802681E+00  0.250E+00    0.02       1.0  T
 189   -111.4978183 -0.773816E+00  0.998E-01    1.26       1.0  T
 190   -111.5118524 -0.140341E-01  0.826E-01    0.97       1.0  T
 191   -111.5665057 -0.546533E-01  0.485E-01    0.14       1.0  T
 192   -110.7295352  0.836970E+00  0.248E+00    0.03       1.0  T
 193   -111.4810228 -0.751488E+00  0.118E+00    1.56       1.0  T
 194   -111.5125675 -0.315447E-01  0.816E-01    0.87       1.0  T
 195   -111.5897201 -0.771525E-01  0.290E-01    0.10       1.0  T
 196   -111.0348229  0.554897E+00  0.197E+00    0.03       1.0  T
 197   -111.4736694 -0.438847E+00  0.126E+00    1.68       1.0  T
 198   -111.5143214 -0.406520E-01  0.792E-01    0.64       1.0  T
 199   -110.7343862  0.779935E+00  0.245E+00    0.02       1.0  T
 200   -111.4756655 -0.741279E+00  0.123E+00    1.65       1.0  T
 201   -111.5123253 -0.366598E-01  0.818E-01    0.88       1.0  T
 202   -111.5408950 -0.285697E-01  0.636E-01    0.18       1.0  T
 203   -110.7259004  0.814995E+00  0.249E+00    0.02       1.0  T
 204   -111.4934681 -0.767568E+00  0.105E+00    1.34       1.0  T
 205   -111.5123161 -0.188480E-01  0.820E-01    0.91       1.0  T
 206   -111.5589762 -0.466600E-01  0.533E-01    0.15       1.0  T
 207   -110.7286855  0.830291E+00  0.248E+00    0.03       1.0  T
 208   -111.4842513 -0.755566E+00  0.115E+00    1.50       1.0  T
 209   -111.5126506 -0.283993E-01  0.815E-01    0.86       1.0  T
 210   -111.5741542 -0.615036E-01  0.430E-01    0.13       1.0  T
 211   -110.7331939  0.840960E+00  0.246E+00    0.03       1.0  T
 212   -111.4727215 -0.739528E+00  0.126E+00    1.69       1.0  T
 213   -111.5117597 -0.390382E-01  0.826E-01    0.95       1.0  T
 214   -111.5625928 -0.508331E-01  0.511E-01    0.14       1.0  T
 215   -110.7300007  0.832592E+00  0.247E+00    0.03       1.0  T
 216   -111.4833060 -0.753305E+00  0.116E+00    1.52       1.0  T
 217   -111.5130702 -0.297642E-01  0.809E-01    0.80       1.0  T
 218   -111.5889431 -0.758730E-01  0.299E-01    0.11       1.0  T
 219   -111.5694311  0.195120E-01  0.478E-01    0.04       1.0  T
 220   -111.5059141  0.635170E-01  0.905E-01    1.11       1.0  T
 221   -110.7409974  0.764917E+00  0.244E+00    0.03       1.0  T
 222   -111.4723836 -0.731386E+00  0.127E+00    1.70       1.0  T
 223   -111.5132556 -0.408720E-01  0.806E-01    0.77       1.0  T
 224   -110.8192168  0.694039E+00  0.232E+00    0.03       1.0  T
 225   -111.4713927 -0.652176E+00  0.128E+00    1.72       1.0  T
 226   -111.5123270 -0.409343E-01  0.818E-01    0.88       1.0  T
 227   -111.5756606 -0.633336E-01  0.419E-01    0.12       1.0  T
 228   -110.7347565  0.840904E+00  0.245E+00    0.03       1.0  T
 229   -111.4742759 -0.739519E+00  0.125E+00    1.67       1.0  T
 230   -111.5130140 -0.387381E-01  0.809E-01    0.79       1.0  T
 231   -111.5958757 -0.828616E-01  0.212E-01    0.09       1.0  T
 232   -111.5268371  0.690386E-01  0.707E-01    0.23       1.0  T
 233   -110.7201787  0.806658E+00  0.252E+00    0.03       1.0  T
 234   -111.5081492 -0.787970E+00  0.873E-01    1.06       1.0  T
 235   -111.5123934 -0.424419E-02  0.821E-01    0.91       1.0  T
 236   -110.7378035  0.774590E+00  0.245E+00    0.03       1.0  T
 237   -111.4763127 -0.738509E+00  0.123E+00    1.64       1.0  T
 238   -111.5127290 -0.364164E-01  0.813E-01    0.84       1.0  T
 239   -111.5845892 -0.718602E-01  0.343E-01    0.11       1.0  T
 240   -110.7532959  0.831293E+00  0.242E+00    0.03       1.0  T
 241   -111.4763663 -0.723070E+00  0.123E+00    1.64       1.0  T
 242   -111.5126894 -0.363231E-01  0.814E-01    0.84       1.0  T
 243   -111.5451514 -0.324620E-01  0.613E-01    0.17       1.0  T
 244   -110.7257148  0.819437E+00  0.249E+00    0.03       1.0  T
 245   -111.4905446 -0.764830E+00  0.108E+00    1.40       1.0  T
 246   -111.5131349 -0.225903E-01  0.809E-01    0.80       1.0  T
 247   -111.6023719 -0.892370E-01  0.606E-02    0.08       1.0  T
 248   -111.5153716  0.870003E-01  0.781E-01    0.54       1.0  T
 249   -110.7251347  0.790237E+00  0.250E+00    0.03       1.0  T
 250   -111.4924812 -0.767346E+00  0.106E+00    1.36       1.0  T
     SCC iter.                  ...        0 min,  3.516 sec
     gradient                   ...        0 min,  0.097 sec
================
 final structure:
================
76
 xtb: 6.7.1pre (5071a88)
N            0.00000000000000        0.00000000000000        0.00000000000000
C            1.46000000000000        0.00000000000000        0.00000000000000
C            2.15500000000000        0.77400000000000        0.92200000000000
C            3.54500000000000        0.77400000000000        0.92200000000000
C            4.24000000000000        0.00000000000000        0.00000000000000
C            3.54500000000000       -0.77400000000000       -0.92200000000000
C            2.15500000000000       -0.77400000000000       -0.92200000000000
C            5.74000000000000        0.00000000000000        0.00000000000000
C            6.24000000000000        1.08300000000000       -0.90900000000000
C           -0.72700000000000        1.19600000000000        0.00000000000000
C           -0.05500000000000        2.35500000000000        0.00000000000000
C           -0.78900000000000        3.68700000000000        0.00000000000000
C           -0.03600000000000        4.98500000000000        0.00000000000000
C            0.21400000000000        5.41800000000000       -1.41400000000000
C            0.96600000000000        6.71500000000000       -1.41400000000000
O           -0.68400000000000        1.12500000000000       -2.80000000000000
N           -1.74300000000000        3.42100000000000        3.64200000000000
C           -2.88400000000000        3.70800000000000        2.92200000000000
C           -2.48800000000000        3.82700000000000        1.55300000000000
C           -1.07400000000000        3.59800000000000        1.51100000000000
C           -4.21100000000000        3.87400000000000        3.33200000000000
C           -3.46700000000000        4.12100000000000        0.59000000000000
C           -0.65600000000000        3.35300000000000        2.80300000000000
C           -5.15000000000000        4.16400000000000        2.34100000000000
C           -4.79000000000000        4.28500000000000        1.00000000000000
C            0.70700000000000        3.05200000000000        3.35300000000000
O           -0.25400000000000        0.82000000000000        2.74300000000000
H           -0.46800000000000       -0.90200000000000        0.00000000000000
H           -0.68400000000000        1.12500000000000       -3.77000000000000
H            1.61400000000000        1.37600000000000        1.64000000000000
H            4.08600000000000        1.37600000000000        1.64000000000000
H            4.08600000000000       -1.37600000000000       -1.64000000000000
H            1.61400000000000       -1.37600000000000       -1.64000000000000
H            6.10300000000000       -0.96600000000000       -0.35100000000000
H            6.10300000000000        0.17800000000000        1.01200000000000
H            5.87600000000000        2.04900000000000       -0.55800000000000
H            6.37400000000000        0.46000000000000       -2.96300000000000
H            7.93000000000000        3.09600000000000       -1.26500000000000
H           -1.80500000000000        1.14600000000000        0.00000000000000
H            1.02400000000000        2.31200000000000        0.00000000000000
H           -1.86800000000000        3.73000000000000        0.00000000000000
H           -0.62400000000000        5.74600000000000        0.51400000000000
H            0.91600000000000        4.85300000000000        0.51400000000000
H            0.80200000000000        4.65700000000000       -1.92800000000000
H           -0.73800000000000        5.55000000000000       -1.92800000000000
H            1.14900000000000        7.03000000000000       -2.44200000000000
H            0.37900000000000        7.47600000000000       -0.90000000000000
H            1.91900000000000        6.58400000000000       -0.90000000000000
H           -1.67500000000000        3.27400000000000        4.64500000000000
H           -0.89700000000000        4.66300000000000        1.65500000000000
H           -4.50300000000000        3.78200000000000        4.36900000000000
H           -3.19900000000000        4.21700000000000       -0.45300000000000
H           -6.18800000000000        4.29900000000000        2.61900000000000
H           -5.55200000000000        4.51200000000000        0.26600000000000
H            1.43300000000000        3.04100000000000        2.54000000000000
H            0.98400000000000        3.81800000000000        4.07700000000000
H            0.69400000000000        2.07800000000000        3.84200000000000
H           -1.21600000000000        0.94000000000000        2.71400000000000
H           -0.12900000000000       -0.14200000000000        2.75000000000000
O           -0.68400000000000        1.12500000000000       -5.50000000000000
H           -0.21300000000000        1.93700000000000       -2.55700000000000
H           -0.68400000000000        1.12500000000000       -6.47000000000000
N            5.75400000000000        0.84400000000000       -2.26500000000000
C            7.76000000000000        1.08300000000000       -0.90900000000000
O            8.37500000000000        0.03400000000000       -0.72400000000000
C            3.97200000000000        0.88900000000000       -3.98700000000000
C            4.47500000000000        1.13700000000000       -2.58500000000000
O            3.72000000000000        1.60500000000000       -1.73400000000000
H            4.30500000000000       -0.09200000000000       -4.32400000000000
H            4.36600000000000        1.65600000000000       -4.65500000000000
H            2.88300000000000        0.92600000000000       -3.99400000000000
N            8.43500000000000        2.23400000000000       -1.11200000000000
C            9.88500000000000        2.23400000000000       -1.11200000000000
H           10.24800000000000        3.26200000000000       -1.11200000000000
H           10.24800000000000        1.72000000000000       -2.00200000000000
H           10.24800000000000        1.72000000000000       -0.22200000000000
 
 Bond Distances (Angstroems)
 ---------------------------
N1-C2=1.4600         N1-C10=1.3996        N1-H28=1.0162        C2-N1=1.4600         C2-C3=1.3900         C2-C7=1.3900         
C3-C2=1.3900         C3-C4=1.3900         C3-H30=1.0819        C4-C3=1.3900         C4-C5=1.3900         C4-H31=1.0819        
C5-C4=1.3900         C5-C6=1.3900         C5-C8=1.5000         C6-C5=1.3900         C6-C7=1.3900         C6-H32=1.0819        
C7-C2=1.3900         C7-C6=1.3900         C7-H33=1.0819        C8-C5=1.5000         C8-C9=1.4997         C8-H34=1.0900        
C8-H35=1.0898        C9-C8=1.4997         C9-H36=1.0903        C9-N63=1.4602        C9-C64=1.5200        C10-N1=1.3996        
C10-C11=1.3397       C10-H39=1.0792       C11-C10=1.3397       C11-C12=1.5208       C11-H40=1.0799       C12-C11=1.5208       
C12-C13=1.5006       C12-C20=1.5402       C12-H41=1.0799       C13-C12=1.5006       C13-C14=1.4998       C13-H42=1.0904       
C13-H43=1.0899       C14-C13=1.4998       C14-C15=1.4992       C14-H44=1.0904       C14-H45=1.0899       C15-C14=1.4992       
C15-H46=1.0906       C15-H47=1.0899       C15-H48=1.0907       O16-H29=0.9700       O16-H61=0.9697       N17-C18=1.3794       
N17-C23=1.3748       N17-H49=1.0160       C18-N17=1.3794       C18-C19=1.4301       C18-C21=1.3988       C19-C18=1.4301       
C19-C20=1.4330       C19-C22=1.4044       C20-C12=1.5402       C20-C19=1.4330       C20-C23=1.3799       C20-H50=1.0892       
C21-C18=1.3988       C21-C24=1.3957       C21-H51=1.0812       C22-C19=1.4044       C22-C25=1.3947       C22-H52=1.0812       
C23-N17=1.3748       C23-C20=1.3799       C23-C26=1.5003       C24-C21=1.3957       C24-C25=1.3937       C24-H53=1.0830       
C25-C22=1.3947       C25-C24=1.3937       C25-H54=1.0821       C26-C23=1.5003       C26-H55=1.0900       C26-H56=1.0898       
C26-H57=1.0899       O27-H58=0.9699       O27-H59=0.9701       H28-N1=1.0162        H29-O16=0.9700       H30-C3=1.0819        
H31-C4=1.0819        H32-C6=1.0819        H33-C7=1.0819        H34-C8=1.0900        H35-C8=1.0898        H36-C9=1.0903        
H37-N63=1.0095       H38-N72=1.0107       H39-C10=1.0792       H40-C11=1.0799       H41-C12=1.0799       H42-C13=1.0904       
H43-C13=1.0899       H44-C14=1.0904       H45-C14=1.0899       H46-C15=1.0906       H47-C15=1.0899       H48-C15=1.0907       
H49-N17=1.0160       H50-C20=1.0892       H51-C21=1.0812       H52-C22=1.0812       H53-C24=1.0830       H54-C25=1.0821       
H55-C26=1.0900       H56-C26=1.0898       H57-C26=1.0899       H58-O27=0.9699       H59-O27=0.9701       O60-H62=0.9700       
H61-O16=0.9697       H62-O60=0.9700       N63-C9=1.4602        N63-H37=1.0095       N63-C67=1.3506       C64-C9=1.5200        
C64-O65=1.2300       C64-N72=1.3497       O65-C64=1.2300       C66-C67=1.5100       C66-H69=1.0894       C66-H70=1.0908       
C66-H71=1.0897       C67-N63=1.3506       C67-C66=1.5100       C67-O68=1.2301       O68-C67=1.2301       H69-C66=1.0894       
H70-C66=1.0908       H71-C66=1.0897       N72-H38=1.0107       N72-C64=1.3497       N72-C73=1.4500       C73-N72=1.4500       
C73-H74=1.0902       C73-H75=1.0900       C73-H76=1.0900       H74-C73=1.0902       H75-C73=1.0900       H76-C73=1.0900       
 C  H  Rav=1.0869 sigma=0.0043  Rmin=1.0792  Rmax=1.0908    31
 C  C  Rav=1.4400 sigma=0.0591  Rmin=1.3397  Rmax=1.5402    25
 N  H  Rav=1.0131 sigma=0.0030  Rmin=1.0095  Rmax=1.0162     4
 N  C  Rav=1.4030 sigma=0.0443  Rmin=1.3497  Rmax=1.4602     8
 O  H  Rav=0.9699 sigma=0.0002  Rmin=0.9697  Rmax=0.9701     5
 O  C  Rav=1.2301 sigma=0.0001  Rmin=1.2300  Rmax=1.2301     2
 
 selected bond angles (degree)
 --------------------
C10-N1-C2=121.29               H28-N1-C2=117.42               H28-N1-C10=121.28              C3-C2-N1=120.00                
C7-C2-N1=120.00                C7-C2-C3=120.00                C4-C3-C2=120.00                H30-C3-C2=120.00               
H30-C3-C4=120.00               C5-C4-C3=120.00                H31-C4-C3=120.00               H31-C4-C5=120.00               
C6-C5-C4=120.00                C8-C5-C4=120.00                C8-C5-C6=120.00                C7-C6-C5=120.00                
H32-C6-C5=120.00               H32-C6-C7=120.00               C6-C7-C2=120.00                H33-C7-C2=120.00               
H33-C7-C6=120.00               C9-C8-C5=109.47                H34-C8-C5=109.45               H34-C8-C9=109.50               
H35-C8-C5=109.46               H35-C8-C9=109.50               H35-C8-H34=109.44              H36-C9-C8=109.47               
N63-C9-C8=109.49               N63-C9-H36=109.44              C64-C9-C8=109.47               C64-C9-H36=109.50              
C64-C9-N63=109.44              C11-C10-N1=118.60              H39-C10-N1=118.64              H39-C10-C11=122.76             
 
 selected dihedral angles (degree)
 ---------------------------------
C3-C2-N1-C10= 49.99           C3-C2-N1-H28=229.99           C7-C2-N1-C10=229.99           C7-C2-N1-H28= 49.99           
C4-C3-C2-N1=180.00            C4-C3-C2-C7=  0.00            H30-C3-C2-N1=  0.03           H30-C3-C2-C7=180.03           
C5-C4-C3-C2=  0.00            C5-C4-C3-H30=179.97           H31-C4-C3-C2=180.03           H31-C4-C3-H30=  0.00          
C6-C5-C4-C3=  0.00            C6-C5-C4-H31=179.97           C8-C5-C4-C3=180.00            C8-C5-C4-H31=359.97           
C7-C6-C5-C4=  0.00            C7-C6-C5-C8=180.00            H32-C6-C5-C4=179.97           H32-C6-C5-C8=359.97           
C6-C7-C2-N1=180.00            C6-C7-C2-C3=  0.00            H33-C7-C2-N1=  0.03           H33-C7-C2-C3=180.03           
C2-C7-C6-C5=  0.00            C2-C7-C6-H32=180.03           H33-C7-C6-C5=179.97           H33-C7-C6-H32=  0.00          
C9-C8-C5-C4=270.00            C9-C8-C5-C6= 90.00            H34-C8-C5-C4=149.98           H34-C8-C5-C6=329.98           
H35-C8-C5-C4= 30.04           H35-C8-C5-C6=210.04           H36-C9-C8-C5= 59.96           H36-C9-C8-H34=179.95          
H36-C9-C8-H35=299.95          N63-C9-C8-C5=299.98           N63-C9-C8-H34= 59.98          N63-C9-C8-H35=179.98          
C64-C9-C8-C5=180.00           C64-C9-C8-H34=300.00          C64-C9-C8-H35= 60.00          C11-C10-N1-C2=  0.00          
C11-C10-N1-H28=180.00         H39-C10-N1-C2=180.00          H39-C10-N1-H28=  0.00         
 
 CMA Distance (Angstroems)
 ---------------------------
R(CMA):  3.2555
           -------------------------------------------------
          |                Final Singlepoint                |
           -------------------------------------------------

          ...................................................
          :                      SETUP                      :
          :.................................................:
          :  # basis functions                 184          :
          :  # atomic orbitals                 184          :
          :  # shells                          112          :
          :  # electrons                       198          :
          :  max. iterations                   250          :
          :  Hamiltonian                  GFN2-xTB          :
          :  restarted?                      false          :
          :  GBSA solvation                  false          :
          :  PC potential                    false          :
          :  electronic temp.          300.0000000     K    :
          :  accuracy                    1.0000000          :
          :  -> integral cutoff          0.2500000E+02      :
          :  -> integral neglect         0.1000000E-07      :
          :  -> SCF convergence          0.1000000E-05 Eh   :
          :  -> wf. convergence          0.1000000E-03 e    :
          :  Broyden damping             0.4000000          :
          :  net charge                          0          :
          :  unpaired electrons                  0          :
          ...................................................

 iter      E             dE          RMSdq      gap      omega  full diag
   1   -111.3637986 -0.111364E+03  0.112E+00    1.12       0.0  T
   2   -107.2620590  0.410174E+01  0.537E+00    0.24       1.0  T
   3   -111.3795990 -0.411754E+01  0.809E-01    0.59       1.0  T
   4   -111.4012975 -0.216985E-01  0.634E-01    0.05       1.0  T
   5   -111.3759441  0.253534E-01  0.679E-01    0.25       1.0  T
   6   -110.5991486  0.776795E+00  0.239E+00    0.01       1.0  T
   7   -111.4103948 -0.811246E+00  0.479E-01    0.05       1.0  T
   8   -111.4354495 -0.250548E-01  0.240E-01    0.11       1.0  T
   9   -111.4421549 -0.670537E-02  0.122E-01    0.10       1.0  T
  10   -111.4438245 -0.166957E-02  0.656E-02    0.09       1.0  T
  11   -111.4444080 -0.583537E-03  0.255E-02    0.09       1.0  T
  12   -111.4444539 -0.459539E-04  0.191E-02    0.09       1.0  T
  13   -111.4444874 -0.334840E-04  0.117E-02    0.09       1.0  T
  14   -111.4444530  0.344588E-04  0.172E-02    0.09       1.0  T
  15   -111.4444522  0.820686E-06  0.163E-02    0.09       1.0  T
  16   -111.4444854 -0.332858E-04  0.699E-03    0.09       1.6  T
  17   -111.4444877 -0.221840E-05  0.580E-03    0.09       2.0  T
  18   -111.4444910 -0.330547E-05  0.348E-03    0.09       3.3  T
  19   -111.4444911 -0.106904E-06  0.338E-03    0.09       3.4  T
  20   -111.4444911 -0.454125E-07  0.332E-03    0.09       3.5  T
  21   -111.4444917 -0.627644E-06  0.261E-03    0.09       4.4  T
  22   -111.4444923 -0.514297E-06  0.184E-03    0.09       6.2  T
  23   -111.4444927 -0.484180E-06  0.538E-04    0.09      21.3  T
  24   -111.4444927  0.188271E-07  0.644E-04    0.09      17.8  T

   *** convergence criteria satisfied after 24 iterations ***

         #    Occupation            Energy/Eh            Energy/eV
      -------------------------------------------------------------
         1        2.0000           -0.7228580             -19.6700
       ...           ...                  ...                  ...
        93        2.0000           -0.3786770             -10.3043
        94        2.0000           -0.3732173             -10.1558
        95        2.0000           -0.3566532              -9.7050
        96        2.0000           -0.3485281              -9.4839
        97        2.0000           -0.3160803              -8.6010
        98        1.8050           -0.2817769              -7.6675
        99        1.7699           -0.2816013              -7.6628 (HOMO)
       100        0.4251           -0.2784189              -7.5762 (LUMO)
       101                         -0.2395240              -6.5178
       102                         -0.2281580              -6.2085
       103                         -0.2240612              -6.0970
       104                         -0.2030211              -5.5245
       ...                                ...                  ...
       184                          0.6754142              18.3790
      -------------------------------------------------------------
                  HL-Gap            0.0031824 Eh            0.0866 eV
             Fermi-level           -0.2796630 Eh           -7.6100 eV

 SCC (total)                   0 d,  0 h,  0 min,  0.396 sec
 SCC setup                      ...        0 min,  0.001 sec (  0.253%)
 Dispersion                     ...        0 min,  0.000 sec (  0.000%)
 classical contributions        ...        0 min,  0.001 sec (  0.253%)
 integral evaluation            ...        0 min,  0.030 sec (  7.576%)
 iterations                     ...        0 min,  0.267 sec ( 67.424%)
 molecular gradient             ...        0 min,  0.096 sec ( 24.242%)
 printout                       ...        0 min,  0.001 sec (  0.253%)

         :::::::::::::::::::::::::::::::::::::::::::::::::::::
         ::                     SUMMARY                     ::
         :::::::::::::::::::::::::::::::::::::::::::::::::::::
         :: total energy            -109.907481723884 Eh    ::
         :: gradient norm              0.204924767955 Eh/a0 ::
         :: HOMO-LUMO gap              0.086596523354 eV    ::
         ::.................................................::
         :: SCC energy              -111.442282782719 Eh    ::
         :: -> isotropic ES            0.257144741965 Eh    ::
         :: -> anisotropic ES          0.002766055254 Eh    ::
         :: -> anisotropic XC          0.045962976979 Eh    ::
         :: -> dispersion             -0.085385002722 Eh    ::
         :: repulsion energy           1.534801058835 Eh    ::
         :: add. restraining           0.000000000000 Eh    ::
         :: total charge               0.000000000008 e     ::
         :::::::::::::::::::::::::::::::::::::::::::::::::::::


last geometry written to: xtblast.xyz

########################################################################
[ERROR] Program stopped due to fatal error
-7- Geometry optimization failed
-6- xtb_geoopt: Trying to recover from failed geometry optimization
-5- xtb_geoopt: Geometry optimization did not converge
-4- optimizer_ancopt: Could not relax/optimize structure
-3- optimizer_relax: SCF not converged, aborting...
-2- xtb_calculator_singlepoint: Electronic structure method terminated
-1- scf: Self consistent charge iterator did not converge
########################################################################


===== STDERR =====

abnormal termination of xtb
