      -----------------------------------------------------------      
     |                   =====================                   |     
     |                           x T B                           |     
     |                   =====================                   |     
     |                         S. Grimme                         |     
     |          Mulliken Center for Theoretical Chemistry        |     
     |                    University of Bonn                     |     
      -----------------------------------------------------------      

   * xtb version 6.7.1pre (5071a88) compiled by 'Marcel@Raven' on 2024-07-23

   xtb is free software: you can redistribute it and/or modify it under
   the terms of the GNU Lesser General Public License as published by
   the Free Software Foundation, either version 3 of the License, or
   (at your option) any later version.
   
   xtb is distributed in the hope that it will be useful,
   but WITHOUT ANY WARRANTY; without even the implied warranty of
   MERCHANTABILITY or FITNESS FOR A PARTICULAR PURPOSE.  See the
   GNU Lesser General Public License for more details.
   
   Cite this work as:
   * C. Bannwarth, E. Caldeweyher, S. Ehlert, A. Hansen, P. Pracht,
     J. Seibert, S. Spicher, S. Grimme, WIREs Comput. Mol. Sci., 2020, 11,
     e01493. DOI: 10.1002/wcms.1493
   
   for GFN2-xTB:
   * C. Bannwarth, S. Ehlert and S. Grimme., J. Chem. Theory Comput., 2019,
     15, 1652-1671. DOI: 10.1021/acs.jctc.8b01176
   for GFN1-xTB:
   * S. Grimme, C. Bannwarth, P. Shushkov, J. Chem. Theory Comput., 2017,
     13, 1989-2009. DOI: 10.1021/acs.jctc.7b00118
   for GFN0-xTB:
   * P. Pracht, E. Caldeweyher, S. Ehlert, S. Grimme, ChemRxiv, 2019, preprint.
     DOI: 10.26434/chemrxiv.8326202.v1
   for GFN-FF:
   * S. Spicher and S. Grimme, Angew. Chem. Int. Ed., 2020, 59, 15665-15673.
     DOI: 10.1002/anie.202004239
   
   for ALPB and GBSA implicit solvation:
   * S. Ehlert, M. Stahn, S. Spicher, S. Grimme, J. Chem. Theory Comput.,
     2021, 17, 4250-4261. DOI: 10.1021/acs.jctc.1c00471
   
   for ddCOSMO and CPCM-X implicit solvation:
   * M. Stahn, S. Ehlert, S. Grimme, J. Phys. Chem. A,
     2023, XX, XXXX-XXXX. DOI: 10.1021/acs.jpca.3c04382
   
   for DFT-D4:
   * E. Caldeweyher, C. Bannwarth and S. Grimme, J. Chem. Phys., 2017,
     147, 034112. DOI: 10.1063/1.4993215
   * E. Caldeweyher, S. Ehlert, A. Hansen, H. Neugebauer, S. Spicher,
     C. Bannwarth and S. Grimme, J. Chem. Phys., 2019, 150, 154122.
     DOI: 10.1063/1.5090222
   * E. Caldeweyher, J.-M. Mewes, S. Ehlert and S. Grimme, Phys. Chem. Chem. Phys.
     2020, 22, 8499-8512. DOI: 10.1039/D0CP00502A
   
   for sTDA-xTB:
   * S. Grimme and C. Bannwarth, J. Chem. Phys., 2016, 145, 054103.
     DOI: 10.1063/1.4959605
   
   in the mass-spec context:
   * V. Asgeirsson, C. Bauer and S. Grimme, Chem. Sci., 2017, 8, 4879.
     DOI: 10.1039/c7sc00601b
   * J. Koopman and S. Grimme, ACS Omega 2019, 4, 12, 15120-15133.
     DOI: 10.1021/acsomega.9b02011
   
   for metadynamics refer to:
   * S. Grimme, J. Chem. Theory Comput., 2019, 155, 2847-2862
     DOI: 10.1021/acs.jctc.9b00143
   
   for SPH calculations refer to:
   * S. Spicher and S. Grimme, J. Chem. Theory Comput., 2021, 17, 1701-1714
     DOI: 10.1021/acs.jctc.0c01306
   
   for ONIOM refer to:
   * C. Plett, A. Katbashev, S. Ehlert, S. Grimme, M. Bursch,
     Phys. Chem. Chem. Phys., 2023, 25, 17860-17868. DOI: 10.1039/D3CP02178E
   
   for DIPRO refer to:
   * J. Kohn, N. Gildemeister, S. Grimme, D. Fazzi, A. Hansen,
     J. Chem. Phys., 2023, just accepted.
   
   for PTB refer to:
   * S. Grimme, M. Mueller, A. Hansen, J. Chem. Phys., 2023, 158, 124111.
     DOI: 10.1063/5.0137838
   
   with help from (in alphabetical order)
   P. Atkinson, C. Bannwarth, F. Bohle, G. Brandenburg, E. Caldeweyher
   M. Checinski, S. Dohm, S. Ehlert, S. Ehrlich, I. Gerasimov, C. Hölzer
   A. Katbashev, J. Kohn, J. Koopman, C. Lavigne, S. Lehtola, F. März, M. Müller,
   F. Musil, H. Neugebauer, J. Pisarek, C. Plett, P. Pracht, F. Pultar,
   J. Seibert, P. Shushkov, S. Spicher, M. Stahn, M. Steiner, T. Strunk,
   J. Stückrath, T. Rose, and J. Unsleber
   
 * started run on 2026/08/31 at 13:16:46.502     
   ID    Z sym.   atoms
    1    7 N      1, 17, 63, 72
    2    6 C      2-15, 18-26, 64, 66, 67, 73
    3    8 O      16, 27, 60, 65, 68
    4    1 H      28-59, 61, 62, 69-71, 74-76

           -------------------------------------------------
          |                Calculation Setup                |
           -------------------------------------------------

          program call               : C:\Users\Nayanika\Downloads\xtb-6.7.1pre-windows-x86_64\xtb-6.7.1\bin\xtb.exe D:\PhD_Thesis\LmrR_EVB\charges\fast_lmrr_5QM\xtb_preparation\RS2_1_to_TS2_1a\RS2_1_to_TS2_1a_TS.xyz --gfn 2 --opt tight --chrg 0 --uhf 0 --etemp 300
          coordinate file            : D:\PhD_Thesis\LmrR_EVB\charges\fast_lmrr_5QM\xtb_preparation\RS2_1_to_TS2_1a\RS2_1_to_TS2_1a_TS.xyz
          omp threads                :                     1


molecular fragmentation (1/2 indicates fragments):
111111111111111222222222222121111111111111111111222222222222221111111111
1111
# atoms in fragment 1/2:    49    27
 fragment masses (1/2) :      316.42      184.21
CMA distance (Bohr)    :  11.887
constraining FC (au)   :  0.0500

           -------------------------------------------------
          |                 G F N 2 - x T B                 |
           -------------------------------------------------

        Reference                      10.1021/acs.jctc.8b01176
      * Hamiltonian:
        H0-scaling (s, p, d)           1.850000    2.230000    2.230000
        zeta-weighting                 0.500000
      * Dispersion:
        s8                             2.700000
        a1                             0.520000
        a2                             5.000000
        s9                             5.000000
      * Repulsion:
        kExp                           1.500000    1.000000
        rExp                           1.000000
      * Coulomb:
        alpha                          2.000000
        third order                    shell-resolved
        anisotropic                    true
        a3                             3.000000
        a5                             4.000000
        cn-shift                       1.200000
        cn-exp                         4.000000
        max-rad                        5.000000


          ...................................................
          :                      SETUP                      :
          :.................................................:
          :  # basis functions                 184          :
          :  # atomic orbitals                 184          :
          :  # shells                          112          :
          :  # electrons                       198          :
          :  max. iterations                   250          :
          :  Hamiltonian                  GFN2-xTB          :
          :  restarted?                      false          :
          :  GBSA solvation                  false          :
          :  PC potential                    false          :
          :  electronic temp.          300.0000000     K    :
          :  accuracy                    1.0000000          :
          :  -> integral cutoff          0.2500000E+02      :
          :  -> integral neglect         0.1000000E-07      :
          :  -> SCF convergence          0.1000000E-05 Eh   :
          :  -> wf. convergence          0.1000000E-03 e    :
          :  Broyden damping             0.4000000          :
          :  net charge                          0          :
          :  unpaired electrons                  0          :
          ...................................................

 iter      E             dE          RMSdq      gap      omega  full diag
   1   -111.1429399 -0.111143E+03  0.418E+00    2.04       0.0  T
   2   -110.6129134  0.530026E+00  0.321E+00    0.00       1.0  T
   3   -111.2952850 -0.682372E+00  0.234E+00    1.87       1.0  T
   4   -111.3982090 -0.102924E+00  0.139E+00    1.89       1.0  T
   5   -111.4006235 -0.241457E-02  0.885E-01    1.99       1.0  T
   6   -111.4267326 -0.261091E-01  0.673E-01    0.54       1.0  T
   7   -107.7013432  0.372539E+01  0.503E+00    0.53       1.0  T
   8   -110.6828974 -0.298155E+01  0.227E+00    0.00       1.0  T
   9   -111.4226396 -0.739742E+00  0.685E-01    1.28       1.0  T
  10   -111.4225316  0.108008E-03  0.687E-01    1.29       1.0  T
  11   -111.4245264 -0.199480E-02  0.652E-01    1.00       1.0  T
  12   -111.4260644 -0.153795E-02  0.623E-01    0.75       1.0  T
  13   -111.4281582 -0.209388E-02  0.584E-01    0.42       1.0  T
  14   -110.7195715  0.708587E+00  0.222E+00    0.00       1.0  T
  15   -111.4271920 -0.707621E+00  0.600E-01    0.56       1.0  T
  16   -111.4292550 -0.206292E-02  0.572E-01    0.34       1.0  T
  17   -111.4376139 -0.835896E-02  0.517E-01    0.23       1.0  T
  18   -111.3842078  0.534061E-01  0.784E-01    0.03       1.0  T
  19   -111.4297808 -0.455730E-01  0.568E-01    0.33       1.0  T
  20   -111.4562261 -0.264453E-01  0.388E-01    0.16       1.0  T
  21   -111.3593417  0.968845E-01  0.879E-01    0.03       1.0  T
  22   -111.4276300 -0.682883E-01  0.592E-01    0.48       1.0  T
  23   -111.4376234 -0.999345E-02  0.517E-01    0.23       1.0  T
  24   -111.4513605 -0.137371E-01  0.436E-01    0.06       1.0  T
  25   -111.4280994  0.232611E-01  0.585E-01    0.42       1.0  T
  26   -111.4598433 -0.317439E-01  0.359E-01    0.15       1.0  T
  27   -111.4714787 -0.116354E-01  0.251E-01    0.07       1.0  T
  28   -111.4295896  0.418891E-01  0.570E-01    0.33       1.0  T
  29   -111.4781095 -0.485199E-01  0.145E-01    0.08       1.0  T
  30   -111.4357368  0.423727E-01  0.529E-01    0.24       1.0  T
  31   -111.4172090  0.185278E-01  0.636E-01    0.04       1.0  T
  32   -111.4292497 -0.120407E-01  0.573E-01    0.34       1.0  T
  33   -111.4738572 -0.446075E-01  0.210E-01    0.12       1.0  T
  34   -111.4809143 -0.705714E-02  0.450E-02    0.10       1.0  T
  35   -111.4693745  0.115398E-01  0.267E-01    0.13       1.0  T
  36   -111.4648021  0.457237E-02  0.324E-01    0.06       1.0  T
  37   -111.4457079  0.190942E-01  0.465E-01    0.19       1.0  T
  38   -111.4308181  0.148899E-01  0.565E-01    0.05       1.0  T
  39   -111.4383024 -0.748430E-02  0.513E-01    0.22       1.0  T
  40   -111.4721201 -0.338177E-01  0.242E-01    0.07       1.0  T
  41   -111.4651379  0.698213E-02  0.311E-01    0.14       1.0  T
  42   -111.4509684  0.141695E-01  0.438E-01    0.05       1.0  T
  43   -111.4577121 -0.674371E-02  0.377E-01    0.16       1.0  T
  44   -111.4495745  0.813763E-02  0.448E-01    0.05       1.0  T
  45   -111.4635263 -0.139518E-01  0.327E-01    0.14       1.0  T
  46   -111.4511716  0.123547E-01  0.436E-01    0.05       1.0  T
  47   -111.4706916 -0.195201E-01  0.251E-01    0.13       1.0  T
  48   -111.4511837  0.195079E-01  0.436E-01    0.05       1.0  T
  49   -111.4757425 -0.245587E-01  0.181E-01    0.11       1.0  T
  50   -111.4500163  0.257262E-01  0.445E-01    0.05       1.0  T
  51   -111.4789031 -0.288868E-01  0.117E-01    0.11       1.0  T
  52   -111.4469876  0.319154E-01  0.466E-01    0.05       1.0  T
  53   -111.4804772 -0.334895E-01  0.667E-02    0.10       1.0  T
  54   -111.4411826  0.392945E-01  0.503E-01    0.05       1.0  T
  55   -111.4810170 -0.398344E-01  0.379E-02    0.09       1.0  T
  56   -111.4312657  0.497513E-01  0.562E-01    0.05       1.0  T
  57   -111.4811026 -0.498369E-01  0.323E-02    0.09       1.0  T
  58   -111.4155226  0.655800E-01  0.645E-01    0.04       1.0  T
  59   -111.4809931 -0.654705E-01  0.399E-02    0.09       1.0  T
  60   -111.3935603  0.874328E-01  0.745E-01    0.03       1.0  T
  61   -111.4802886 -0.867283E-01  0.747E-02    0.10       1.0  T
  62   -111.3711444  0.109144E+00  0.835E-01    0.03       1.0  T
  63   -111.4793083 -0.108164E+00  0.106E-01    0.10       1.0  T
  64   -111.3549657  0.124343E+00  0.894E-01    0.02       1.0  T
  65   -111.4795497 -0.124584E+00  0.995E-02    0.10       1.0  T
  66   -111.3351753  0.144374E+00  0.962E-01    0.02       1.0  T
  67   -111.4794916 -0.144316E+00  0.101E-01    0.10       1.0  T
  68   -111.3143578  0.165134E+00  0.103E+00    0.02       1.0  T
  69   -111.4796864 -0.165329E+00  0.954E-02    0.10       1.0  T
  70   -111.2896087  0.190078E+00  0.110E+00    0.01       1.0  T
  71   -111.4803643 -0.190756E+00  0.717E-02    0.10       1.0  T
  72   -111.2524809  0.227883E+00  0.121E+00    0.00       1.0  T
  73   -111.4811026 -0.228622E+00  0.328E-02    0.09       1.0  T
  74   -111.1822160  0.298887E+00  0.138E+00    0.01       1.0  T
  75   -111.4799825 -0.297767E+00  0.938E-02    0.08       1.0  T
  76   -111.0345918  0.445391E+00  0.169E+00    0.01       1.0  T
  77   -111.4746773 -0.440086E+00  0.206E-01    0.07       1.0  T
  78   -110.8106917  0.663986E+00  0.208E+00    0.01       1.0  T
  79   -111.4105382 -0.599847E+00  0.668E-01    0.04       1.0  T
  80   -110.6789545  0.731584E+00  0.229E+00    0.01       1.0  T
  81   -110.6877764 -0.882192E-02  0.227E+00    0.01       1.0  T
  82   -111.4348540 -0.747078E+00  0.535E-01    0.24       1.0  T
  83   -111.4337199  0.113407E-02  0.543E-01    0.25       1.0  T
  84   -111.4589321 -0.252121E-01  0.368E-01    0.15       1.0  T
  85   -111.4728492 -0.139171E-01  0.231E-01    0.07       1.0  T
  86   -111.4787788 -0.592960E-02  0.127E-01    0.08       1.0  T
  87   -111.2462596  0.232519E+00  0.122E+00    0.00       1.0  T
  88   -111.3693729 -0.123113E+00  0.843E-01    0.03       1.0  T
  89   -110.9421713  0.427202E+00  0.186E+00    0.01       1.0  T
  90   -111.4527749 -0.510604E+00  0.415E-01    0.17       1.0  T
  91   -111.4807058 -0.279309E-01  0.575E-02    0.10       1.0  T
  92   -111.4620261  0.186797E-01  0.351E-01    0.06       1.0  T
  93   -111.3326293  0.129397E+00  0.971E-01    0.02       1.0  T
  94   -111.4116167 -0.789873E-01  0.665E-01    0.04       1.0  T
  95   -111.2697107  0.141906E+00  0.116E+00    0.01       1.0  T
  96   -111.4503154 -0.180605E+00  0.445E-01    0.05       1.0  T
  97   -111.1587551  0.291560E+00  0.144E+00    0.01       1.0  T
  98   -111.4802411 -0.321486E+00  0.782E-02    0.10       1.0  T
  99   -111.3303783  0.149863E+00  0.980E-01    0.02       1.0  T
 100   -111.3940660 -0.636877E-01  0.745E-01    0.03       1.0  T
 101   -111.1450884  0.248978E+00  0.147E+00    0.01       1.0  T
 102   -111.4806495 -0.335561E+00  0.730E-02    0.08       1.0  T
 103   -111.1852379  0.295412E+00  0.138E+00    0.01       1.0  T
 104   -111.4749530 -0.289715E+00  0.206E-01    0.07       1.0  T
 105   -111.0663071  0.408646E+00  0.163E+00    0.01       1.0  T
 106   -111.4752617 -0.408955E+00  0.188E-01    0.11       1.0  T
 107   -111.4088575  0.664042E-01  0.680E-01    0.04       1.0  T
 108   -111.1616554  0.247202E+00  0.143E+00    0.01       1.0  T
 109   -111.4509282 -0.289273E+00  0.442E-01    0.05       1.0  T
 110   -110.9063264  0.544602E+00  0.193E+00    0.01       1.0  T
 111   -111.4507947 -0.544468E+00  0.429E-01    0.17       1.0  T
 112   -111.4734072 -0.226125E-01  0.216E-01    0.12       1.0  T
 113   -111.4798763 -0.646906E-02  0.903E-02    0.10       1.0  T
 114   -111.4752761  0.460012E-02  0.199E-01    0.07       1.0  T
 115   -111.3876630  0.876131E-01  0.772E-01    0.03       1.0  T
 116   -111.2618175  0.125846E+00  0.118E+00    0.01       1.0  T
 117   -111.3905041 -0.128687E+00  0.761E-01    0.03       1.0  T
 118   -111.1571849  0.233319E+00  0.144E+00    0.01       1.0  T
 119   -111.4763846 -0.319200E+00  0.185E-01    0.07       1.0  T
 120   -111.1344929  0.341892E+00  0.149E+00    0.01       1.0  T
 121   -111.4807231 -0.346230E+00  0.630E-02    0.09       1.0  T
 122   -111.2877813  0.192942E+00  0.111E+00    0.01       1.0  T
 123   -111.4047460 -0.116965E+00  0.700E-01    0.03       1.0  T
 124   -111.0821158  0.322630E+00  0.160E+00    0.01       1.0  T
 125   -111.4774379 -0.395322E+00  0.151E-01    0.11       1.0  T
 126   -111.3246929  0.152745E+00  0.100E+00    0.02       1.0  T
 127   -111.3495692 -0.248763E-01  0.918E-01    0.02       1.0  T
 128   -111.2941308  0.554384E-01  0.109E+00    0.01       1.0  T
 129   -111.3641295 -0.699987E-01  0.866E-01    0.02       1.0  T
 130   -111.2219828  0.142147E+00  0.129E+00    0.00       1.0  T
 131   -111.4448443 -0.222862E+00  0.487E-01    0.05       1.0  T
 132   -111.1158986  0.328946E+00  0.153E+00    0.01       1.0  T
 133   -111.4803149 -0.364416E+00  0.801E-02    0.10       1.0  T
 134   -111.3977509  0.825640E-01  0.731E-01    0.03       1.0  T
 135   -111.3056770  0.920739E-01  0.106E+00    0.01       1.0  T
 136   -111.3491688 -0.434917E-01  0.919E-01    0.02       1.0  T
 137   -111.2511110  0.980577E-01  0.121E+00    0.00       1.0  T
 138   -111.3916875 -0.140576E+00  0.758E-01    0.03       1.0  T
 139   -111.1494756  0.242212E+00  0.146E+00    0.01       1.0  T
 140   -111.4733179 -0.323842E+00  0.234E-01    0.07       1.0  T
 141   -111.2390856  0.234232E+00  0.125E+00    0.00       1.0  T
 142   -111.4199571 -0.180871E+00  0.628E-01    0.04       1.0  T
 143   -111.1378709  0.282086E+00  0.148E+00    0.01       1.0  T
 144   -111.4730536 -0.335183E+00  0.237E-01    0.07       1.0  T
 145   -111.2497762  0.223277E+00  0.122E+00    0.00       1.0  T
 146   -111.3813553 -0.131579E+00  0.800E-01    0.03       1.0  T
 147   -111.1364948  0.244860E+00  0.149E+00    0.01       1.0  T
 148   -111.4639997 -0.327505E+00  0.338E-01    0.06       1.0  T
 149   -111.1845957  0.279404E+00  0.138E+00    0.01       1.0  T
 150   -111.4302347 -0.245639E+00  0.574E-01    0.04       1.0  T
 151   -111.1025391  0.327696E+00  0.156E+00    0.01       1.0  T
 152   -111.4731112 -0.370572E+00  0.236E-01    0.07       1.0  T
 153   -111.2538319  0.219279E+00  0.121E+00    0.00       1.0  T
 154   -111.3201478 -0.663159E-01  0.102E+00    0.02       1.0  T
 155   -111.1737384  0.146409E+00  0.140E+00    0.01       1.0  T
 156   -111.4034461 -0.229708E+00  0.707E-01    0.03       1.0  T
 157   -111.0721901  0.331256E+00  0.162E+00    0.01       1.0  T
 158   -111.4760978 -0.403908E+00  0.191E-01    0.07       1.0  T
 159   -111.2986222  0.177476E+00  0.108E+00    0.01       1.0  T
 160   -111.2388568  0.597654E-01  0.125E+00    0.00       1.0  T
 161   -111.2878864 -0.490296E-01  0.111E+00    0.01       1.0  T
 162   -111.2003299  0.875565E-01  0.134E+00    0.00       1.0  T
 163   -111.3461280 -0.145798E+00  0.931E-01    0.02       1.0  T
 164   -111.1069139  0.239214E+00  0.155E+00    0.01       1.0  T
 165   -111.4536127 -0.346699E+00  0.425E-01    0.05       1.0  T
 166   -111.1561732  0.297440E+00  0.144E+00    0.01       1.0  T
 167   -111.4147071 -0.258534E+00  0.654E-01    0.04       1.0  T
 168   -111.0855804  0.329127E+00  0.160E+00    0.01       1.0  T
 169   -111.4614336 -0.375853E+00  0.362E-01    0.06       1.0  T
 170   -111.1975354  0.263898E+00  0.135E+00    0.01       1.0  T
 171   -111.3417651 -0.144230E+00  0.945E-01    0.02       1.0  T
 172   -111.0961702  0.245595E+00  0.157E+00    0.01       1.0  T
 173   -111.4433607 -0.347191E+00  0.496E-01    0.05       1.0  T
 174   -111.1244411  0.318920E+00  0.151E+00    0.01       1.0  T
 175   -111.4180174 -0.293576E+00  0.638E-01    0.04       1.0  T
 176   -111.0757451  0.342272E+00  0.162E+00    0.01       1.0  T
 177   -111.4519578 -0.376213E+00  0.437E-01    0.05       1.0  T
 178   -111.1535419  0.298416E+00  0.145E+00    0.01       1.0  T
 179   -111.3669730 -0.213431E+00  0.856E-01    0.02       1.0  T
 180   -111.0516346  0.315338E+00  0.166E+00    0.01       1.0  T
 181   -111.4581220 -0.406487E+00  0.390E-01    0.06       1.0  T
 182   -111.1841175  0.274005E+00  0.138E+00    0.01       1.0  T
 183   -111.3091359 -0.125018E+00  0.105E+00    0.01       1.0  T
 184   -111.0968210  0.212315E+00  0.157E+00    0.01       1.0  T
 185   -111.4150467 -0.318226E+00  0.653E-01    0.04       1.0  T
 186   -111.0696790  0.345368E+00  0.163E+00    0.01       1.0  T
 187   -111.4403743 -0.370695E+00  0.515E-01    0.05       1.0  T
 188   -111.1213333  0.319041E+00  0.152E+00    0.01       1.0  T
 189   -111.3831420 -0.261809E+00  0.793E-01    0.03       1.0  T
 190   -111.0439310  0.339211E+00  0.168E+00    0.01       1.0  T
 191   -111.4503619 -0.406431E+00  0.449E-01    0.05       1.0  T
 192   -111.1564726  0.293889E+00  0.144E+00    0.01       1.0  T
 193   -111.3213959 -0.164923E+00  0.101E+00    0.02       1.0  T
 194   -111.0656114  0.255784E+00  0.164E+00    0.01       1.0  T
 195   -111.4264568 -0.360845E+00  0.595E-01    0.04       1.0  T
 196   -111.0899938  0.336463E+00  0.159E+00    0.01       1.0  T
 197   -111.4019722 -0.311978E+00  0.714E-01    0.03       1.0  T
 198   -111.0537991  0.348173E+00  0.166E+00    0.01       1.0  T
 199   -111.4318780 -0.378079E+00  0.565E-01    0.04       1.0  T
 200   -111.1005812  0.331297E+00  0.156E+00    0.01       1.0  T
 201   -111.3779817 -0.277401E+00  0.814E-01    0.03       1.0  T
 202   -111.0346184  0.343363E+00  0.170E+00    0.01       1.0  T
 203   -111.4392088 -0.404590E+00  0.522E-01    0.05       1.0  T
 204   -111.1220611  0.317148E+00  0.152E+00    0.01       1.0  T
 205   -111.3389245 -0.216863E+00  0.955E-01    0.02       1.0  T
 206   -111.0382220  0.300702E+00  0.169E+00    0.01       1.0  T
 207   -111.4304013 -0.392179E+00  0.574E-01    0.04       1.0  T
 208   -111.1029243  0.327477E+00  0.156E+00    0.01       1.0  T
 209   -111.3589807 -0.256056E+00  0.886E-01    0.02       1.0  T
 210   -111.0345878  0.324393E+00  0.170E+00    0.01       1.0  T
 211   -111.4289384 -0.394351E+00  0.582E-01    0.04       1.0  T
 212   -111.1034155  0.325523E+00  0.156E+00    0.01       1.0  T
 213   -111.3509107 -0.247495E+00  0.914E-01    0.02       1.0  T
 214   -111.0360748  0.314836E+00  0.169E+00    0.01       1.0  T
 215   -111.4223043 -0.386230E+00  0.617E-01    0.04       1.0  T
 216   -111.0931256  0.329179E+00  0.158E+00    0.01       1.0  T
 217   -111.3579266 -0.264801E+00  0.890E-01    0.02       1.0  T
 218   -111.0373562  0.320570E+00  0.169E+00    0.01       1.0  T
 219   -111.4161314 -0.378775E+00  0.648E-01    0.04       1.0  T
 220   -111.0854948  0.330637E+00  0.160E+00    0.01       1.0  T
 221   -111.3611262 -0.275631E+00  0.878E-01    0.02       1.0  T
 222   -111.0395357  0.321590E+00  0.169E+00    0.01       1.0  T
 223   -111.4088031 -0.369267E+00  0.683E-01    0.04       1.0  T
 224   -111.0777071  0.331096E+00  0.161E+00    0.01       1.0  T
 225   -111.3645736 -0.286867E+00  0.866E-01    0.02       1.0  T
 226   -111.0428498  0.321724E+00  0.168E+00    0.01       1.0  T
 227   -111.4002943 -0.357445E+00  0.722E-01    0.03       1.0  T
 228   -111.0706553  0.329639E+00  0.163E+00    0.01       1.0  T
 229   -111.3673091 -0.296654E+00  0.856E-01    0.02       1.0  T
 230   -111.0472894  0.320020E+00  0.167E+00    0.01       1.0  T
 231   -111.3906418 -0.343352E+00  0.764E-01    0.03       1.0  T
 232   -111.0652722  0.325370E+00  0.164E+00    0.01       1.0  T
 233   -111.3684469 -0.303175E+00  0.852E-01    0.03       1.0  T
 234   -111.0526172  0.315830E+00  0.166E+00    0.01       1.0  T
 235   -111.3802441 -0.327627E+00  0.806E-01    0.03       1.0  T
 236   -111.0627119  0.317532E+00  0.164E+00    0.01       1.0  T
 237   -111.3669428 -0.304231E+00  0.857E-01    0.02       1.0  T
 238   -111.0584362  0.308507E+00  0.165E+00    0.01       1.0  T
 239   -111.3698019 -0.311366E+00  0.847E-01    0.03       1.0  T
 240   -111.0638299  0.305972E+00  0.164E+00    0.01       1.0  T
 241   -111.3620988 -0.298269E+00  0.875E-01    0.02       1.0  T
 242   -111.0647276  0.297371E+00  0.164E+00    0.01       1.0  T
 243   -111.3596426 -0.294915E+00  0.884E-01    0.02       1.0  T
 244   -111.0687008  0.290942E+00  0.163E+00    0.01       1.0  T
 245   -111.3540231 -0.285322E+00  0.905E-01    0.02       1.0  T
 246   -111.0722866  0.281737E+00  0.162E+00    0.01       1.0  T
 247   -111.3491010 -0.276814E+00  0.922E-01    0.02       1.0  T
 248   -111.0769410  0.272160E+00  0.161E+00    0.01       1.0  T
 249   -111.3432895 -0.266348E+00  0.942E-01    0.02       1.0  T
 250   -111.0822797  0.261010E+00  0.160E+00    0.01       1.0  T

   *** convergence criteria cannot be satisfied within 250 iterations ***

         #    Occupation            Energy/Eh            Energy/eV
      -------------------------------------------------------------
         1        2.0000           -0.7219067             -19.6441
       ...           ...                  ...                  ...
        93        2.0000           -0.3867634             -10.5244
        94        2.0000           -0.3738845             -10.1739
        95        2.0000           -0.3693392             -10.0502
        96        2.0000           -0.3560480              -9.6886
        97        2.0000           -0.3402922              -9.2598
        98        1.5171           -0.2724312              -7.4132
        99        1.3325           -0.2720003              -7.4015 (HOMO)
       100        1.1504           -0.2716316              -7.3915 (LUMO)
       101                         -0.2418894              -6.5821
       102                         -0.2303157              -6.2672
       103                         -0.2194452              -5.9714
       104                         -0.2142858              -5.8310
       ...                                ...                  ...
       184                          1.0783092              29.3423
      -------------------------------------------------------------
                  HL-Gap            0.0003688 Eh            0.0100 eV
             Fermi-level           -0.2713436 Eh           -7.3836 eV

 SCC (total)                   0 d,  0 h,  0 min,  4.001 sec
 SCC setup                      ...        0 min,  0.001 sec (  0.025%)
 Dispersion                     ...        0 min,  0.002 sec (  0.050%)
 classical contributions        ...        0 min,  0.001 sec (  0.025%)
 integral evaluation            ...        0 min,  0.031 sec (  0.775%)
 iterations                     ...        0 min,  3.868 sec ( 96.676%)
 molecular gradient             ...        0 min,  0.096 sec (  2.399%)
 printout                       ...        0 min,  0.001 sec (  0.025%)

########################################################################
[ERROR] Program stopped due to fatal error
-3- Single point calculation terminated
-2- xtb_calculator_singlepoint: Electronic structure method terminated
-1- scf: Self consistent charge iterator did not converge
########################################################################


===== STDERR =====

abnormal termination of xtb
