76
 energy: -110.271402865209 gnorm: 0.000500491641 xtb: 6.7.1pre (5071a88)
N           -0.24430419600568        0.32178722829085       -0.08982047743600
C            1.13200302558901        0.22439576679414        0.23756512417465
C            1.81871871013308        1.33553544769101        0.71718304653708
C            3.19479469710612        1.30141221047623        0.80591254552463
C            3.90054067262593        0.15755556510656        0.45667934150652
C            3.19340929104097       -0.99768289747141        0.15042124201412
C            1.81775261449145       -0.96916437783134        0.04353323233806
C            5.36712804484458        0.23494997147366        0.16487115548507
C            5.49273748969983        0.73780696495217       -1.30343570332041
C           -0.52261394454782        1.17176308904364       -1.26293404622337
C           -0.11231774914835        2.59809172038925       -1.03851780788817
C           -0.85003940895927        3.51294066886300       -0.43077644067172
C           -0.42060222968179        4.92561010714241       -0.21795363439496
C           -1.45780016995129        5.91716448934780       -0.74989217157688
C           -1.02677040256137        7.35635497038395       -0.50318811749710
O            0.07066308166342        0.65337013603001       -2.42822779794357
N           -0.81341422879799        3.25786558420209        3.32891860744179
C           -1.38998093441196        4.48097038786594        3.16445694889993
C           -0.45336334393360        5.46114264556586        3.58522663482508
C            0.70422182510370        4.75018288644085        4.00476120887118
C           -2.64770468018378        4.83151694497371        2.69142567111887
C           -0.80094347294743        6.81016597450282        3.52131435537806
C            0.44739313286982        3.41826935560440        3.83640740532334
C           -2.96310302464625        6.17259812911385        2.64011783186461
C           -2.04995364836163        7.14855508886711        3.04957761244377
C            1.29070424989762        2.23474426688440        4.15355215912737
O           -1.85287699694097        0.87013302172764        2.13011470167925
H           -0.59422782921471       -0.61387475530201       -0.29115068522255
H           -0.03520404513660       -1.12919119807993       -2.47177667151445
H            1.28222555186367        2.24055392450267        0.94989807294581
H            3.72814744172887        2.19208009784395        1.10596966424353
H            3.72684001371656       -1.91142343917788       -0.06951591545110
H            1.27960395964319       -1.85101967269199       -0.27314009910696
H            5.84228376473757       -0.74414927767277        0.24320697748513
H            5.87800985176337        0.93420999244641        0.82796270385034
H            5.05572643766232        1.73877698040243       -1.37948775008348
H            5.34126450984570       -0.90752405147702       -2.54528176545136
H            7.20948328548902        2.51652265892573       -0.76988491651621
H           -1.60700274619625        1.10851437758322       -1.42732892110474
H            0.86488484660668        2.84521056819632       -1.43177567472417
H           -1.82794191408398        3.26001536188154       -0.04260365285231
H           -0.29695357085409        5.10152180863444        0.85424518993290
H            0.54112684381406        5.09784891174609       -0.70501792734649
H           -1.59963034956566        5.75093024565915       -1.82048243974049
H           -2.41107093131306        5.73707083069264       -0.24950479768061
H           -1.76945760831026        8.04969010326085       -0.89105931547770
H           -0.91252189979354        7.53373629435065        0.56377287058643
H           -0.07682257533501        7.56121609065687       -0.99252545702012
H           -1.22715956028375        2.36986980447907        3.06928689517763
H            1.60853929377164        5.18001955950613        4.38907379006053
H           -3.35372741384789        4.07478436187382        2.38097979093102
H           -0.10218655056767        7.57093891331586        3.83904014926379
H           -3.93400812342459        6.48102023180513        2.27947711965660
H           -2.33900704113337        8.18880121147028        2.99576551663673
H            2.31727407097112        2.54173624520634        4.33360703712479
H            0.91735711231036        1.73515914701494        5.04832191839311
H            1.27184928529358        1.51524751244699        3.33644205500130
H           -2.73545865923294        0.75375602384828        1.77519833994015
H           -1.23021831112678        0.73717878286644        1.38711280154263
O           -0.04416554187255       -2.10310235185949       -2.39558567479485
H            1.03601510032877        0.85288768858827       -2.41013546375574
H           -0.50915819482265       -2.42653016030913       -3.16852780891027
N            4.78584943686728       -0.13068123656513       -2.21065899876806
C            6.96756496360154        0.72154000020381       -1.70734384570028
O            7.44123867318227       -0.20209736216847       -2.33789988298024
C            2.99534258869956       -1.04237323315620       -3.53091156294347
C            3.52368458363783        0.04808422492508       -2.63451834752970
O            2.84320737461885        1.01514179010060       -2.31716737568453
H            3.78969427718160       -1.66718646428289       -3.92660584913789
H            2.43579089027953       -0.59433689677957       -4.34875572658538
H            2.30369270070238       -1.65823275202629       -2.95590295993823
N            7.67629761285288        1.77730088055493       -1.27043887755801
C            9.09308763332033        1.91895467322758       -1.50838852165800
H            9.63842959331778        1.96918066137887       -0.56456069220890
H            9.29828488200374        2.81879820338697       -2.09024651342881
H            9.41884788086633        1.04438934192368       -2.06846942948753
