      -----------------------------------------------------------      
     |                   =====================                   |     
     |                           x T B                           |     
     |                   =====================                   |     
     |                         S. Grimme                         |     
     |          Mulliken Center for Theoretical Chemistry        |     
     |                    University of Bonn                     |     
      -----------------------------------------------------------      

   * xtb version 6.7.1pre (5071a88) compiled by 'Marcel@Raven' on 2024-07-23

   xtb is free software: you can redistribute it and/or modify it under
   the terms of the GNU Lesser General Public License as published by
   the Free Software Foundation, either version 3 of the License, or
   (at your option) any later version.
   
   xtb is distributed in the hope that it will be useful,
   but WITHOUT ANY WARRANTY; without even the implied warranty of
   MERCHANTABILITY or FITNESS FOR A PARTICULAR PURPOSE.  See the
   GNU Lesser General Public License for more details.
   
   Cite this work as:
   * C. Bannwarth, E. Caldeweyher, S. Ehlert, A. Hansen, P. Pracht,
     J. Seibert, S. Spicher, S. Grimme, WIREs Comput. Mol. Sci., 2020, 11,
     e01493. DOI: 10.1002/wcms.1493
   
   for GFN2-xTB:
   * C. Bannwarth, S. Ehlert and S. Grimme., J. Chem. Theory Comput., 2019,
     15, 1652-1671. DOI: 10.1021/acs.jctc.8b01176
   for GFN1-xTB:
   * S. Grimme, C. Bannwarth, P. Shushkov, J. Chem. Theory Comput., 2017,
     13, 1989-2009. DOI: 10.1021/acs.jctc.7b00118
   for GFN0-xTB:
   * P. Pracht, E. Caldeweyher, S. Ehlert, S. Grimme, ChemRxiv, 2019, preprint.
     DOI: 10.26434/chemrxiv.8326202.v1
   for GFN-FF:
   * S. Spicher and S. Grimme, Angew. Chem. Int. Ed., 2020, 59, 15665-15673.
     DOI: 10.1002/anie.202004239
   
   for ALPB and GBSA implicit solvation:
   * S. Ehlert, M. Stahn, S. Spicher, S. Grimme, J. Chem. Theory Comput.,
     2021, 17, 4250-4261. DOI: 10.1021/acs.jctc.1c00471
   
   for ddCOSMO and CPCM-X implicit solvation:
   * M. Stahn, S. Ehlert, S. Grimme, J. Phys. Chem. A,
     2023, XX, XXXX-XXXX. DOI: 10.1021/acs.jpca.3c04382
   
   for DFT-D4:
   * E. Caldeweyher, C. Bannwarth and S. Grimme, J. Chem. Phys., 2017,
     147, 034112. DOI: 10.1063/1.4993215
   * E. Caldeweyher, S. Ehlert, A. Hansen, H. Neugebauer, S. Spicher,
     C. Bannwarth and S. Grimme, J. Chem. Phys., 2019, 150, 154122.
     DOI: 10.1063/1.5090222
   * E. Caldeweyher, J.-M. Mewes, S. Ehlert and S. Grimme, Phys. Chem. Chem. Phys.
     2020, 22, 8499-8512. DOI: 10.1039/D0CP00502A
   
   for sTDA-xTB:
   * S. Grimme and C. Bannwarth, J. Chem. Phys., 2016, 145, 054103.
     DOI: 10.1063/1.4959605
   
   in the mass-spec context:
   * V. Asgeirsson, C. Bauer and S. Grimme, Chem. Sci., 2017, 8, 4879.
     DOI: 10.1039/c7sc00601b
   * J. Koopman and S. Grimme, ACS Omega 2019, 4, 12, 15120-15133.
     DOI: 10.1021/acsomega.9b02011
   
   for metadynamics refer to:
   * S. Grimme, J. Chem. Theory Comput., 2019, 155, 2847-2862
     DOI: 10.1021/acs.jctc.9b00143
   
   for SPH calculations refer to:
   * S. Spicher and S. Grimme, J. Chem. Theory Comput., 2021, 17, 1701-1714
     DOI: 10.1021/acs.jctc.0c01306
   
   for ONIOM refer to:
   * C. Plett, A. Katbashev, S. Ehlert, S. Grimme, M. Bursch,
     Phys. Chem. Chem. Phys., 2023, 25, 17860-17868. DOI: 10.1039/D3CP02178E
   
   for DIPRO refer to:
   * J. Kohn, N. Gildemeister, S. Grimme, D. Fazzi, A. Hansen,
     J. Chem. Phys., 2023, just accepted.
   
   for PTB refer to:
   * S. Grimme, M. Mueller, A. Hansen, J. Chem. Phys., 2023, 158, 124111.
     DOI: 10.1063/5.0137838
   
   with help from (in alphabetical order)
   P. Atkinson, C. Bannwarth, F. Bohle, G. Brandenburg, E. Caldeweyher
   M. Checinski, S. Dohm, S. Ehlert, S. Ehrlich, I. Gerasimov, C. Hölzer
   A. Katbashev, J. Kohn, J. Koopman, C. Lavigne, S. Lehtola, F. März, M. Müller,
   F. Musil, H. Neugebauer, J. Pisarek, C. Plett, P. Pracht, F. Pultar,
   J. Seibert, P. Shushkov, S. Spicher, M. Stahn, M. Steiner, T. Strunk,
   J. Stückrath, T. Rose, and J. Unsleber
   
 * started run on 2026/08/31 at 13:17:10.568     
   ID    Z sym.   atoms
    1    7 N      1, 44, 53
    2    6 C      2-15, 45, 47, 48, 54
    3    8 O      16, 17, 41, 46, 49
    4    1 H      18-40, 42, 43, 50-52, 55-57

           -------------------------------------------------
          |                Calculation Setup                |
           -------------------------------------------------

          program call               : C:\Users\Nayanika\Downloads\xtb-6.7.1pre-windows-x86_64\xtb-6.7.1\bin\xtb.exe D:\PhD_Thesis\LmrR_EVB\charges\fast_lmrr_5QM\xtb_preparation\stage2_five_xtb_protocols\GFN2_normal\TS1_2_to_PS1_2b\TS1_2_to_PS1_2b_TS_xtbopt.xyz --gfn 2 --chrg 0 --uhf 0 --etemp 0
          coordinate file            : D:\PhD_Thesis\LmrR_EVB\charges\fast_lmrr_5QM\xtb_preparation\stage2_five_xtb_protocols\GFN2_normal\TS1_2_to_PS1_2b\TS1_2_to_PS1_2b_TS_xtbopt.xyz
          omp threads                :                     1


molecular fragmentation (1/2 indicates fragments):
111111111222222221111111111122222222222222211111111111111
# atoms in fragment 1/2:    34    23
 fragment masses (1/2) :      235.28      134.17
CMA distance (Bohr)    :   9.612
constraining FC (au)   :  0.0500

           -------------------------------------------------
          |                 G F N 2 - x T B                 |
           -------------------------------------------------

        Reference                      10.1021/acs.jctc.8b01176
      * Hamiltonian:
        H0-scaling (s, p, d)           1.850000    2.230000    2.230000
        zeta-weighting                 0.500000
      * Dispersion:
        s8                             2.700000
        a1                             0.520000
        a2                             5.000000
        s9                             5.000000
      * Repulsion:
        kExp                           1.500000    1.000000
        rExp                           1.000000
      * Coulomb:
        alpha                          2.000000
        third order                    shell-resolved
        anisotropic                    true
        a3                             3.000000
        a5                             4.000000
        cn-shift                       1.200000
        cn-exp                         4.000000
        max-rad                        5.000000

q/qsh data taken from xtbrestart
CAMM data taken from xtbrestart

          ...................................................
          :                      SETUP                      :
          :.................................................:
          :  # basis functions                 135          :
          :  # atomic orbitals                 135          :
          :  # shells                           83          :
          :  # electrons                       148          :
          :  max. iterations                   250          :
          :  Hamiltonian                  GFN2-xTB          :
          :  restarted?                       true          :
          :  GBSA solvation                  false          :
          :  PC potential                    false          :
          :  electronic temp.            0.0000000     K    :
          :  accuracy                    1.0000000          :
          :  -> integral cutoff          0.2500000E+02      :
          :  -> integral neglect         0.1000000E-07      :
          :  -> SCF convergence          0.1000000E-05 Eh   :
          :  -> wf. convergence          0.1000000E-03 e    :
          :  Broyden damping             0.4000000          :
          :  net charge                          0          :
          :  unpaired electrons                  0          :
          ...................................................

 iter      E             dE          RMSdq      gap      omega  full diag
   1    -84.5396075 -0.845396E+02  0.102E+00    2.21       0.0  T
   2    -84.5397857 -0.178132E-03  0.602E-01    2.23       1.0  T
   3    -84.5397875 -0.185215E-05  0.393E-02    2.23       1.0  T
   4    -84.5398489 -0.614109E-04  0.178E-02    2.23       1.0  T
   5    -84.5398517 -0.278837E-05  0.108E-02    2.23       1.2  T
   6    -84.5398543 -0.260242E-05  0.410E-03    2.23       3.2  T
   7    -84.5398549 -0.536145E-06  0.144E-03    2.23       9.2  T
   8    -84.5398549 -0.266552E-07  0.724E-04    2.23      18.3  T
   9    -84.5398549 -0.985020E-08  0.191E-04    2.23      69.3  T

   *** convergence criteria satisfied after 9 iterations ***

         #    Occupation            Energy/Eh            Energy/eV
      -------------------------------------------------------------
         1        2.0000           -0.7119778             -19.3739
       ...           ...                  ...                  ...
        68        2.0000           -0.4168553             -11.3432
        69        2.0000           -0.4107878             -11.1781
        70        2.0000           -0.4065726             -11.0634
        71        2.0000           -0.4005935             -10.9007
        72        2.0000           -0.3998428             -10.8803
        73        2.0000           -0.3873459             -10.5402
        74        2.0000           -0.3669046              -9.9840 (HOMO)
        75                         -0.2849886              -7.7549 (LUMO)
        76                         -0.2248622              -6.1188
        77                         -0.2224417              -6.0529
        78                         -0.2157571              -5.8711
        79                         -0.2080410              -5.6611
       ...                                ...                  ...
       135                          0.6575977              17.8941
      -------------------------------------------------------------
                  HL-Gap            0.0819160 Eh            2.2290 eV
             Fermi-level            0.0000000 Eh            0.0000 eV

 SCC (total)                   0 d,  0 h,  0 min,  0.220 sec
 SCC setup                      ...        0 min,  0.001 sec (  0.455%)
 Dispersion                     ...        0 min,  0.001 sec (  0.455%)
 classical contributions        ...        0 min,  0.000 sec (  0.000%)
 integral evaluation            ...        0 min,  0.021 sec (  9.546%)
 iterations                     ...        0 min,  0.140 sec ( 63.636%)
 molecular gradient             ...        0 min,  0.056 sec ( 25.455%)
 printout                       ...        0 min,  0.000 sec (  0.000%)

         :::::::::::::::::::::::::::::::::::::::::::::::::::::
         ::                     SUMMARY                     ::
         :::::::::::::::::::::::::::::::::::::::::::::::::::::
         :: total energy             -83.439041253617 Eh    ::
         :: gradient norm              0.000294920252 Eh/a0 ::
         :: HOMO-LUMO gap              2.229047961652 eV    ::
         ::.................................................::
         :: SCC energy               -84.537932030345 Eh    ::
         :: -> isotropic ES            0.176290751370 Eh    ::
         :: -> anisotropic ES         -0.001758523902 Eh    ::
         :: -> anisotropic XC          0.029472844723 Eh    ::
         :: -> dispersion             -0.058183284684 Eh    ::
         :: repulsion energy           1.098890776728 Eh    ::
         :: add. restraining           0.000000000000 Eh    ::
         :: total charge               0.000000000000 e     ::
         :::::::::::::::::::::::::::::::::::::::::::::::::::::

           -------------------------------------------------
          |                Property Printout                |
           -------------------------------------------------

    * Orbital Energies and Occupations

         #    Occupation            Energy/Eh            Energy/eV
      -------------------------------------------------------------
         1        2.0000           -0.7119778             -19.3739
       ...           ...                  ...                  ...
        62        2.0000           -0.4365603             -11.8794
        63        2.0000           -0.4364718             -11.8770
        64        2.0000           -0.4337443             -11.8028
        65        2.0000           -0.4305901             -11.7170
        66        2.0000           -0.4270911             -11.6217
        67        2.0000           -0.4210499             -11.4574
        68        2.0000           -0.4168553             -11.3432
        69        2.0000           -0.4107878             -11.1781
        70        2.0000           -0.4065726             -11.0634
        71        2.0000           -0.4005935             -10.9007
        72        2.0000           -0.3998428             -10.8803
        73        2.0000           -0.3873459             -10.5402
        74        2.0000           -0.3669046              -9.9840 (HOMO)
        75                         -0.2849886              -7.7549 (LUMO)
        76                         -0.2248622              -6.1188
        77                         -0.2224417              -6.0529
        78                         -0.2157571              -5.8711
        79                         -0.2080410              -5.6611
        80                         -0.1699183              -4.6237
        81                         -0.0929078              -2.5282
        82                         -0.0015024              -0.0409
        83                          0.0074834               0.2036
        84                          0.0268208               0.7298
        85                          0.0732219               1.9925
       ...                                ...                  ...
       135                          0.6575977              17.8941
      -------------------------------------------------------------
                  HL-Gap            0.0819160 Eh            2.2290 eV
             Fermi-level            0.0000000 Eh            0.0000 eV

     #   Z          covCN         q      C6AA      α(0)
     1   7 N        2.651    -0.276    27.133     7.736
     2   6 C        2.900     0.076    26.297     8.408
     3   6 C        2.923    -0.059    29.455     8.900
     4   6 C        2.924    -0.038    28.944     8.823
     5   6 C        2.970    -0.004    28.128     8.699
     6   6 C        2.924    -0.044    29.099     8.846
     7   6 C        2.922    -0.063    29.567     8.917
     8   6 C        3.811    -0.070    21.835     6.651
     9   6 C        3.797     0.020    20.240     6.406
    10   6 C        2.777     0.209    23.579     7.953
    11   6 C        2.890    -0.065    29.604     8.920
    12   6 C        2.896    -0.001    28.053     8.684
    13   6 C        3.808    -0.061    21.669     6.627
    14   6 C        3.802    -0.046    21.392     6.585
    15   6 C        3.753    -0.110    22.669     6.790
    16   8 O        0.856    -0.428    22.255     6.325
    17   8 O        1.609    -0.608    25.375     6.799
    18   1 H        0.860     0.217     1.025     1.586
    19   1 H        0.860     0.172     1.262     1.760
    20   1 H        0.926     0.039     2.455     2.450
    21   1 H        0.926     0.032     2.557     2.500
    22   1 H        0.925     0.024     2.672     2.556
    23   1 H        0.926     0.025     2.660     2.550
    24   1 H        0.924     0.063     2.165     2.301
    25   1 H        0.924     0.057     2.229     2.335
    26   1 H        0.924     0.061     2.190     2.314
    27   1 H        0.860     0.183     1.199     1.715
    28   1 H        0.860     0.205     1.081     1.629
    29   1 H        0.923     0.011     2.880     2.654
    30   1 H        0.926     0.037     2.485     2.465
    31   1 H        0.925     0.064     2.154     2.295
    32   1 H        0.924     0.055     2.255     2.348
    33   1 H        0.924     0.046     2.365     2.405
    34   1 H        0.924     0.031     2.572     2.508
    35   1 H        0.924     0.033     2.544     2.494
    36   1 H        0.925     0.036     2.507     2.476
    37   1 H        0.925     0.034     2.534     2.489
    38   1 H        0.925     0.062     2.179     2.308
    39   1 H        0.804     0.318     0.669     1.285
    40   1 H        0.806     0.275     0.803     1.407
    41   8 O        1.609    -0.596    25.080     6.759
    42   1 H        0.805     0.300     0.722     1.335
    43   1 H        0.804     0.309     0.694     1.308
    44   7 N        2.692    -0.181    24.924     7.415
    45   6 C        2.753     0.264    22.551     7.776
    46   8 O        0.858    -0.434    22.374     6.342
    47   6 C        3.757    -0.141    23.262     6.877
    48   6 C        2.749     0.277    22.317     7.735
    49   8 O        0.859    -0.463    22.983     6.428
    50   1 H        0.925     0.047     2.353     2.399
    51   1 H        0.925     0.067     2.122     2.278
    52   1 H        0.925     0.075     2.033     2.230
    53   7 N        2.686    -0.177    24.828     7.400
    54   6 C        3.690    -0.043    21.527     6.640
    55   1 H        0.924     0.053     2.285     2.364
    56   1 H        0.924     0.049     2.330     2.387
    57   1 H        0.925     0.083     1.952     2.185

 Mol. C6AA /au·bohr⁶  :      29541.593128
 Mol. C8AA /au·bohr⁸  :     657839.007591
 Mol. α(0) /au        :        262.760031


Wiberg/Mayer (AO) data.
largest (>0.10) Wiberg bond orders for each atom

 ---------------------------------------------------------------------------
     #   Z sym  total        # sym  WBO       # sym  WBO       # sym  WBO
 ---------------------------------------------------------------------------
     1   7 N    3.361 --     2 C    1.154    19 H    0.950    18 H    0.890
                            10 C    0.114
     2   6 C    3.972 --     7 C    1.351     3 C    1.339     1 N    1.154
     3   6 C    3.989 --     4 C    1.472     2 C    1.339    20 H    0.967
                             6 C    0.101
     4   6 C    3.992 --     3 C    1.472     5 C    1.395    21 H    0.969
                             7 C    0.102
     5   6 C    3.982 --     6 C    1.403     4 C    1.395     8 C    1.010
     6   6 C    3.991 --     7 C    1.458     5 C    1.403    22 H    0.968
                             3 C    0.101
     7   6 C    3.988 --     6 C    1.458     2 C    1.351    23 H    0.969
                             4 C    0.102
     8   6 C    3.990 --     5 C    1.010     9 C    0.980    24 H    0.969
                            25 H    0.966
     9   6 C    3.961 --     8 C    0.980    44 N    0.973    26 H    0.953
                            45 C    0.914
    10   6 C    3.932 --    16 O    1.698    11 C    1.097    29 H    0.940
                             1 N    0.114
    11   6 C    3.989 --    12 C    1.806    10 C    1.097    30 H    0.965
    12   6 C    3.978 --    11 C    1.806    13 C    1.046    31 H    0.961
    13   6 C    3.996 --    12 C    1.046    14 C    0.976    33 H    0.972
                            32 H    0.954
    14   6 C    3.994 --    15 C    1.018    34 H    0.980    35 H    0.979
                            13 C    0.976
    15   6 C    3.993 --    14 C    1.018    37 H    0.988    36 H    0.986
                            38 H    0.981
    16   8 O    2.020 --    10 C    1.698
    17   8 O    1.833 --    40 H    0.922    39 H    0.852
    18   1 H    0.953 --     1 N    0.890
    19   1 H    0.970 --     1 N    0.950
    20   1 H    0.998 --     3 C    0.967
    21   1 H    0.999 --     4 C    0.969
    22   1 H    0.999 --     6 C    0.968
    23   1 H    0.999 --     7 C    0.969
    24   1 H    0.996 --     8 C    0.969
    25   1 H    0.995 --     8 C    0.966
    26   1 H    0.996 --     9 C    0.953
    27   1 H    0.967 --    44 N    0.931
    28   1 H    0.958 --    53 N    0.907
    29   1 H    0.999 --    10 C    0.940
    30   1 H    0.998 --    11 C    0.965
    31   1 H    0.996 --    12 C    0.961
    32   1 H    0.997 --    13 C    0.954
    33   1 H    0.998 --    13 C    0.972
    34   1 H    0.999 --    14 C    0.980
    35   1 H    0.999 --    14 C    0.979
    36   1 H    0.997 --    15 C    0.986
    37   1 H    0.999 --    15 C    0.988
    38   1 H    0.996 --    15 C    0.981
    39   1 H    0.899 --    17 O    0.852
    40   1 H    0.925 --    17 O    0.922
    41   8 O    1.873 --    42 H    0.895    43 H    0.880
    42   1 H    0.910 --    41 O    0.895
    43   1 H    0.904 --    41 O    0.880
    44   7 N    3.459 --    48 C    1.280     9 C    0.973    27 H    0.931
                            49 O    0.192
    45   6 C    3.956 --    46 O    1.680    53 N    1.290     9 C    0.914
    46   8 O    2.013 --    45 C    1.680    53 N    0.212
    47   6 C    3.993 --    48 C    0.985    50 H    0.980    52 H    0.978
                            51 H    0.962
    48   6 C    3.951 --    49 O    1.632    44 N    1.280    47 C    0.985
    49   8 O    1.983 --    48 C    1.632    44 N    0.192
    50   1 H    0.998 --    47 C    0.980
    51   1 H    0.995 --    47 C    0.962
    52   1 H    0.994 --    47 C    0.978
    53   7 N    3.465 --    45 C    1.290    54 C    1.006    28 H    0.907
                            46 O    0.212
    54   6 C    3.965 --    53 N    1.006    55 H    0.977    57 H    0.977
                            56 H    0.976
    55   1 H    0.997 --    54 C    0.977
    56   1 H    0.998 --    54 C    0.976
    57   1 H    0.993 --    54 C    0.977
 ---------------------------------------------------------------------------

Topologies differ in total number of bonds
Writing topology from bond orders to xtbtopo.mol

molecular dipole:
                 x           y           z       tot (Debye)
 q only:       -0.146       0.453      -0.905
   full:       -0.662       0.307      -1.424       4.066
molecular quadrupole (traceless):
                xx          xy          yy          xz          yz          zz
 q only:      -14.117      11.243       6.948      -3.401       0.723       7.170
  q+dip:      -20.430       8.368       7.880      -4.800       6.096      12.551
   full:      -20.972       8.658       7.784      -3.847       2.509      13.187


           -------------------------------------------------
          | TOTAL ENERGY              -83.439041253617 Eh   |
          | GRADIENT NORM               0.000294920252 Eh/α |
          | HOMO-LUMO GAP               2.229047961652 eV   |
           -------------------------------------------------

------------------------------------------------------------------------
 * finished run on 2026/08/31 at 13:17:10.869     
------------------------------------------------------------------------
 total:
 * wall-time:     0 d,  0 h,  0 min,  0.299 sec
 *  cpu-time:     0 d,  0 h,  0 min,  0.188 sec
 * ratio c/w:     0.627 speedup
 SCF:
 * wall-time:     0 d,  0 h,  0 min,  0.222 sec
 *  cpu-time:     0 d,  0 h,  0 min,  0.141 sec
 * ratio c/w:     0.633 speedup



===== STDERR =====

normal termination of xtb
