57
 energy: -83.439115334802 gnorm: 0.000295433780 xtb: 6.7.1pre (5071a88)
N           -0.09723878913905       -0.64296626845693        0.47840786695968
C            1.25501392668896       -0.41975853188348        0.62766781755115
C            1.70778694341683        0.67213153654583        1.37129388508083
C            3.04773141599488        0.99594363258843        1.39215566867972
C            3.98063503872277        0.24136959453367        0.68964361048125
C            3.53337882020061       -0.87309825425292       -0.00970455137570
C            2.19302381509673       -1.20297498682357       -0.04470241606719
C            5.41840168285657        0.66892516364233        0.62425988879189
C            5.59722864684005        1.77492445282302       -0.42113267395399
C           -0.90590689723654        0.70404709031440       -1.30997710593407
C            0.28490062385254        1.53802791648906       -1.30957210350714
C            0.34545598486189        2.71151830479351       -0.67488734196574
C            1.53840560592992        3.59177920078512       -0.63126350629424
C            1.28673614024264        4.92548201595245       -1.34766187269724
C            2.53577652332075        5.79645724698777       -1.32398785326346
O           -1.98902299396928        1.02275298391878       -0.83458418892633
O           -3.61960303927971       -0.97669407427072        0.11840584474078
H           -0.70670968659847       -0.23597355443801        1.19062706341656
H           -0.36796040626642       -1.57497678352262        0.20202903891786
H            0.99059946578814        1.25905031829143        1.92458812427493
H            3.38104994874093        1.85010267537428        1.96385791175291
H            4.24461726902178       -1.50246177616677       -0.52876567259329
H            1.86098111414202       -2.06784562009646       -0.60219284775064
H            6.06697380565137       -0.16692882604488        0.35585820407004
H            5.75565117868604        1.05564380531067        1.58646887099821
H            5.06918931196690        2.68648497194064       -0.11443755713865
H            4.93367125214490        0.35981971534438       -1.83213522218654
H            6.44837018176356        3.72174168878805       -1.68987730067047
H           -0.82517633103431       -0.20911632434812       -1.92321425856048
H            1.14880184597245        1.14655358809110       -1.82638850032194
H           -0.54171532098221        3.07362041247577       -0.17020852272355
H            1.78443331985939        3.80118348075539        0.41316788514497
H            2.39165121880883        3.09241046220121       -1.09143286207707
H            1.00352601576692        4.72324130583180       -2.38254623388610
H            0.45552211868791        5.44722957984950       -0.86810254372852
H            2.36264007602987        6.72524039383365       -1.86211857840360
H            2.81369576272664        6.03895899647363       -0.30030390101086
H            3.36496376730955        5.27279897071881       -1.79339159885503
H           -3.10213494244525       -0.30615100493467       -0.36703024691610
H           -4.52943013977868       -0.86960498409390       -0.16262367581529
O           -2.18556474514583        0.55150823409458        1.98957043183660
H           -2.24736160895173        1.23571962567872        1.31344439357039
H           -2.80598587602581       -0.13481405282449        1.70008112010707
N            5.02365371905265        1.35324981306734       -1.68820627871209
C            7.09133180779282        2.11774459910920       -0.61812709701674
O            7.98883080779270        1.41956793686469       -0.19500548964695
C            3.89167860463417        1.55286799642923       -3.79641639899584
C            4.55794120339178        2.21114509591097       -2.61106151015321
O            4.67641840291535        3.42139123337884       -2.49614830231258
H            3.18926439111116        0.79007669981400       -3.46873989198160
H            4.64821803504297        1.08471695686239       -4.42346920607332
H            3.36988211535999        2.30588007373002       -4.37991972345142
N            7.26527316753053        3.25595664458949       -1.30727355833686
C            8.56907406964866        3.74903641226433       -1.67719329040212
H            8.70398614976993        4.76925921680022       -1.31506386981302
H            8.69470383724171        3.73744250906026       -2.76179591080964
H            9.31374164459524        3.09936248984514       -1.21986396208201
