      -----------------------------------------------------------      
     |                   =====================                   |     
     |                           x T B                           |     
     |                   =====================                   |     
     |                         S. Grimme                         |     
     |          Mulliken Center for Theoretical Chemistry        |     
     |                    University of Bonn                     |     
      -----------------------------------------------------------      

   * xtb version 6.7.1pre (5071a88) compiled by 'Marcel@Raven' on 2024-07-23

   xtb is free software: you can redistribute it and/or modify it under
   the terms of the GNU Lesser General Public License as published by
   the Free Software Foundation, either version 3 of the License, or
   (at your option) any later version.
   
   xtb is distributed in the hope that it will be useful,
   but WITHOUT ANY WARRANTY; without even the implied warranty of
   MERCHANTABILITY or FITNESS FOR A PARTICULAR PURPOSE.  See the
   GNU Lesser General Public License for more details.
   
   Cite this work as:
   * C. Bannwarth, E. Caldeweyher, S. Ehlert, A. Hansen, P. Pracht,
     J. Seibert, S. Spicher, S. Grimme, WIREs Comput. Mol. Sci., 2020, 11,
     e01493. DOI: 10.1002/wcms.1493
   
   for GFN2-xTB:
   * C. Bannwarth, S. Ehlert and S. Grimme., J. Chem. Theory Comput., 2019,
     15, 1652-1671. DOI: 10.1021/acs.jctc.8b01176
   for GFN1-xTB:
   * S. Grimme, C. Bannwarth, P. Shushkov, J. Chem. Theory Comput., 2017,
     13, 1989-2009. DOI: 10.1021/acs.jctc.7b00118
   for GFN0-xTB:
   * P. Pracht, E. Caldeweyher, S. Ehlert, S. Grimme, ChemRxiv, 2019, preprint.
     DOI: 10.26434/chemrxiv.8326202.v1
   for GFN-FF:
   * S. Spicher and S. Grimme, Angew. Chem. Int. Ed., 2020, 59, 15665-15673.
     DOI: 10.1002/anie.202004239
   
   for ALPB and GBSA implicit solvation:
   * S. Ehlert, M. Stahn, S. Spicher, S. Grimme, J. Chem. Theory Comput.,
     2021, 17, 4250-4261. DOI: 10.1021/acs.jctc.1c00471
   
   for ddCOSMO and CPCM-X implicit solvation:
   * M. Stahn, S. Ehlert, S. Grimme, J. Phys. Chem. A,
     2023, XX, XXXX-XXXX. DOI: 10.1021/acs.jpca.3c04382
   
   for DFT-D4:
   * E. Caldeweyher, C. Bannwarth and S. Grimme, J. Chem. Phys., 2017,
     147, 034112. DOI: 10.1063/1.4993215
   * E. Caldeweyher, S. Ehlert, A. Hansen, H. Neugebauer, S. Spicher,
     C. Bannwarth and S. Grimme, J. Chem. Phys., 2019, 150, 154122.
     DOI: 10.1063/1.5090222
   * E. Caldeweyher, J.-M. Mewes, S. Ehlert and S. Grimme, Phys. Chem. Chem. Phys.
     2020, 22, 8499-8512. DOI: 10.1039/D0CP00502A
   
   for sTDA-xTB:
   * S. Grimme and C. Bannwarth, J. Chem. Phys., 2016, 145, 054103.
     DOI: 10.1063/1.4959605
   
   in the mass-spec context:
   * V. Asgeirsson, C. Bauer and S. Grimme, Chem. Sci., 2017, 8, 4879.
     DOI: 10.1039/c7sc00601b
   * J. Koopman and S. Grimme, ACS Omega 2019, 4, 12, 15120-15133.
     DOI: 10.1021/acsomega.9b02011
   
   for metadynamics refer to:
   * S. Grimme, J. Chem. Theory Comput., 2019, 155, 2847-2862
     DOI: 10.1021/acs.jctc.9b00143
   
   for SPH calculations refer to:
   * S. Spicher and S. Grimme, J. Chem. Theory Comput., 2021, 17, 1701-1714
     DOI: 10.1021/acs.jctc.0c01306
   
   for ONIOM refer to:
   * C. Plett, A. Katbashev, S. Ehlert, S. Grimme, M. Bursch,
     Phys. Chem. Chem. Phys., 2023, 25, 17860-17868. DOI: 10.1039/D3CP02178E
   
   for DIPRO refer to:
   * J. Kohn, N. Gildemeister, S. Grimme, D. Fazzi, A. Hansen,
     J. Chem. Phys., 2023, just accepted.
   
   for PTB refer to:
   * S. Grimme, M. Mueller, A. Hansen, J. Chem. Phys., 2023, 158, 124111.
     DOI: 10.1063/5.0137838
   
   with help from (in alphabetical order)
   P. Atkinson, C. Bannwarth, F. Bohle, G. Brandenburg, E. Caldeweyher
   M. Checinski, S. Dohm, S. Ehlert, S. Ehrlich, I. Gerasimov, C. Hölzer
   A. Katbashev, J. Kohn, J. Koopman, C. Lavigne, S. Lehtola, F. März, M. Müller,
   F. Musil, H. Neugebauer, J. Pisarek, C. Plett, P. Pracht, F. Pultar,
   J. Seibert, P. Shushkov, S. Spicher, M. Stahn, M. Steiner, T. Strunk,
   J. Stückrath, T. Rose, and J. Unsleber
   
 * started run on 2026/08/31 at 13:17:10.166     
   ID    Z sym.   atoms
    1    7 N      1, 44, 53
    2    6 C      2-15, 45, 47, 48, 54
    3    8 O      16, 17, 41, 46, 49
    4    1 H      18-40, 42, 43, 50-52, 55-57

           -------------------------------------------------
          |                Calculation Setup                |
           -------------------------------------------------

          program call               : C:\Users\Nayanika\Downloads\xtb-6.7.1pre-windows-x86_64\xtb-6.7.1\bin\xtb.exe D:\PhD_Thesis\LmrR_EVB\charges\fast_lmrr_5QM\xtb_preparation\stage2_five_xtb_protocols\GFN2_normal\TS1_2_to_PS1_2b\TS1_2_to_PS1_2b_RS_xtbopt.xyz --gfn 2 --chrg 0 --uhf 0 --etemp 0
          coordinate file            : D:\PhD_Thesis\LmrR_EVB\charges\fast_lmrr_5QM\xtb_preparation\stage2_five_xtb_protocols\GFN2_normal\TS1_2_to_PS1_2b\TS1_2_to_PS1_2b_RS_xtbopt.xyz
          omp threads                :                     1


molecular fragmentation (1/2 indicates fragments):
111111111222222221111111111122222222222222211111111111111
# atoms in fragment 1/2:    34    23
 fragment masses (1/2) :      235.28      134.17
CMA distance (Bohr)    :   9.532
constraining FC (au)   :  0.0500

           -------------------------------------------------
          |                 G F N 2 - x T B                 |
           -------------------------------------------------

        Reference                      10.1021/acs.jctc.8b01176
      * Hamiltonian:
        H0-scaling (s, p, d)           1.850000    2.230000    2.230000
        zeta-weighting                 0.500000
      * Dispersion:
        s8                             2.700000
        a1                             0.520000
        a2                             5.000000
        s9                             5.000000
      * Repulsion:
        kExp                           1.500000    1.000000
        rExp                           1.000000
      * Coulomb:
        alpha                          2.000000
        third order                    shell-resolved
        anisotropic                    true
        a3                             3.000000
        a5                             4.000000
        cn-shift                       1.200000
        cn-exp                         4.000000
        max-rad                        5.000000

q/qsh data taken from xtbrestart
CAMM data taken from xtbrestart

          ...................................................
          :                      SETUP                      :
          :.................................................:
          :  # basis functions                 135          :
          :  # atomic orbitals                 135          :
          :  # shells                           83          :
          :  # electrons                       148          :
          :  max. iterations                   250          :
          :  Hamiltonian                  GFN2-xTB          :
          :  restarted?                       true          :
          :  GBSA solvation                  false          :
          :  PC potential                    false          :
          :  electronic temp.            0.0000000     K    :
          :  accuracy                    1.0000000          :
          :  -> integral cutoff          0.2500000E+02      :
          :  -> integral neglect         0.1000000E-07      :
          :  -> SCF convergence          0.1000000E-05 Eh   :
          :  -> wf. convergence          0.1000000E-03 e    :
          :  Broyden damping             0.4000000          :
          :  net charge                          0          :
          :  unpaired electrons                  0          :
          ...................................................

 iter      E             dE          RMSdq      gap      omega  full diag
   1    -84.5399550 -0.845400E+02  0.102E+00    2.22       0.0  T
   2    -84.5401166 -0.161616E-03  0.601E-01    2.20       1.0  T
   3    -84.5401265 -0.983333E-05  0.377E-02    2.19       1.0  T
   4    -84.5401777 -0.512212E-04  0.164E-02    2.19       1.0  T
   5    -84.5401793 -0.161307E-05  0.877E-03    2.19       1.5  T
   6    -84.5401804 -0.109881E-05  0.312E-03    2.20       4.2  T
   7    -84.5401807 -0.302482E-06  0.136E-03    2.20       9.7  T
   8    -84.5401807 -0.334994E-07  0.624E-04    2.20      21.2  T
   9    -84.5401808 -0.100626E-07  0.208E-04    2.20      63.6  T

   *** convergence criteria satisfied after 9 iterations ***

         #    Occupation            Energy/Eh            Energy/eV
      -------------------------------------------------------------
         1        2.0000           -0.7123251             -19.3834
       ...           ...                  ...                  ...
        68        2.0000           -0.4166795             -11.3384
        69        2.0000           -0.4112015             -11.1894
        70        2.0000           -0.4061832             -11.0528
        71        2.0000           -0.4007273             -10.9043
        72        2.0000           -0.3995585             -10.8725
        73        2.0000           -0.3870357             -10.5318
        74        2.0000           -0.3660954              -9.9620 (HOMO)
        75                         -0.2854243              -7.7668 (LUMO)
        76                         -0.2247295              -6.1152
        77                         -0.2224746              -6.0538
        78                         -0.2153541              -5.8601
        79                         -0.2079135              -5.6576
       ...                                ...                  ...
       135                          0.6581613              17.9095
      -------------------------------------------------------------
                  HL-Gap            0.0806711 Eh            2.1952 eV
             Fermi-level            0.0000000 Eh            0.0000 eV

 SCC (total)                   0 d,  0 h,  0 min,  0.168 sec
 SCC setup                      ...        0 min,  0.001 sec (  0.595%)
 Dispersion                     ...        0 min,  0.001 sec (  0.595%)
 classical contributions        ...        0 min,  0.001 sec (  0.595%)
 integral evaluation            ...        0 min,  0.037 sec ( 22.024%)
 iterations                     ...        0 min,  0.072 sec ( 42.857%)
 molecular gradient             ...        0 min,  0.055 sec ( 32.738%)
 printout                       ...        0 min,  0.000 sec (  0.000%)

         :::::::::::::::::::::::::::::::::::::::::::::::::::::
         ::                     SUMMARY                     ::
         :::::::::::::::::::::::::::::::::::::::::::::::::::::
         :: total energy             -83.439115334204 Eh    ::
         :: gradient norm              0.000294994386 Eh/a0 ::
         :: HOMO-LUMO gap              2.195172389145 eV    ::
         ::.................................................::
         :: SCC energy               -84.538207113394 Eh    ::
         :: -> isotropic ES            0.175830269616 Eh    ::
         :: -> anisotropic ES         -0.001644272877 Eh    ::
         :: -> anisotropic XC          0.029478194233 Eh    ::
         :: -> dispersion             -0.058105672993 Eh    ::
         :: repulsion energy           1.099091779189 Eh    ::
         :: add. restraining           0.000000000000 Eh    ::
         :: total charge               0.000000000000 e     ::
         :::::::::::::::::::::::::::::::::::::::::::::::::::::

           -------------------------------------------------
          |                Property Printout                |
           -------------------------------------------------

    * Orbital Energies and Occupations

         #    Occupation            Energy/Eh            Energy/eV
      -------------------------------------------------------------
         1        2.0000           -0.7123251             -19.3834
       ...           ...                  ...                  ...
        62        2.0000           -0.4363601             -11.8740
        63        2.0000           -0.4360993             -11.8669
        64        2.0000           -0.4338391             -11.8054
        65        2.0000           -0.4309152             -11.7258
        66        2.0000           -0.4266669             -11.6102
        67        2.0000           -0.4209159             -11.4537
        68        2.0000           -0.4166795             -11.3384
        69        2.0000           -0.4112015             -11.1894
        70        2.0000           -0.4061832             -11.0528
        71        2.0000           -0.4007273             -10.9043
        72        2.0000           -0.3995585             -10.8725
        73        2.0000           -0.3870357             -10.5318
        74        2.0000           -0.3660954              -9.9620 (HOMO)
        75                         -0.2854243              -7.7668 (LUMO)
        76                         -0.2247295              -6.1152
        77                         -0.2224746              -6.0538
        78                         -0.2153541              -5.8601
        79                         -0.2079135              -5.6576
        80                         -0.1700343              -4.6269
        81                         -0.0924694              -2.5162
        82                         -0.0016406              -0.0446
        83                          0.0080422               0.2188
        84                          0.0279484               0.7605
        85                          0.0733877               1.9970
       ...                                ...                  ...
       135                          0.6581613              17.9095
      -------------------------------------------------------------
                  HL-Gap            0.0806711 Eh            2.1952 eV
             Fermi-level            0.0000000 Eh            0.0000 eV

     #   Z          covCN         q      C6AA      α(0)
     1   7 N        2.648    -0.278    27.186     7.744
     2   6 C        2.900     0.077    26.288     8.407
     3   6 C        2.923    -0.059    29.462     8.901
     4   6 C        2.924    -0.038    28.948     8.823
     5   6 C        2.970    -0.005    28.138     8.701
     6   6 C        2.924    -0.044    29.089     8.845
     7   6 C        2.922    -0.063    29.574     8.918
     8   6 C        3.811    -0.070    21.827     6.650
     9   6 C        3.796     0.020    20.238     6.406
    10   6 C        2.774     0.209    23.578     7.953
    11   6 C        2.890    -0.064    29.585     8.918
    12   6 C        2.896    -0.000    28.036     8.681
    13   6 C        3.808    -0.061    21.665     6.626
    14   6 C        3.802    -0.046    21.403     6.587
    15   6 C        3.753    -0.110    22.670     6.790
    16   8 O        0.856    -0.425    22.187     6.315
    17   8 O        1.609    -0.608    25.379     6.799
    18   1 H        0.859     0.217     1.022     1.584
    19   1 H        0.860     0.169     1.277     1.770
    20   1 H        0.926     0.040     2.453     2.449
    21   1 H        0.926     0.031     2.567     2.506
    22   1 H        0.925     0.023     2.693     2.566
    23   1 H        0.925     0.024     2.671     2.556
    24   1 H        0.924     0.062     2.180     2.309
    25   1 H        0.924     0.058     2.220     2.330
    26   1 H        0.924     0.060     2.200     2.319
    27   1 H        0.860     0.183     1.194     1.712
    28   1 H        0.860     0.206     1.078     1.627
    29   1 H        0.923     0.011     2.872     2.650
    30   1 H        0.926     0.036     2.496     2.471
    31   1 H        0.925     0.064     2.151     2.293
    32   1 H        0.924     0.056     2.249     2.345
    33   1 H        0.924     0.046     2.366     2.406
    34   1 H        0.924     0.033     2.546     2.495
    35   1 H        0.924     0.033     2.545     2.495
    36   1 H        0.925     0.036     2.507     2.476
    37   1 H        0.925     0.033     2.546     2.495
    38   1 H        0.925     0.062     2.177     2.308
    39   1 H        0.803     0.319     0.668     1.284
    40   1 H        0.806     0.275     0.803     1.407
    41   8 O        1.609    -0.594    25.052     6.755
    42   1 H        0.805     0.298     0.728     1.340
    43   1 H        0.804     0.311     0.688     1.303
    44   7 N        2.692    -0.182    24.942     7.417
    45   6 C        2.753     0.264    22.552     7.776
    46   8 O        0.858    -0.434    22.375     6.342
    47   6 C        3.757    -0.141    23.275     6.878
    48   6 C        2.749     0.277    22.317     7.735
    49   8 O        0.859    -0.462    22.953     6.423
    50   1 H        0.925     0.052     2.296     2.369
    51   1 H        0.925     0.063     2.168     2.303
    52   1 H        0.925     0.074     2.043     2.235
    53   7 N        2.686    -0.177    24.839     7.402
    54   6 C        3.690    -0.043    21.526     6.640
    55   1 H        0.924     0.053     2.286     2.364
    56   1 H        0.924     0.049     2.329     2.387
    57   1 H        0.925     0.082     1.954     2.186

 Mol. C6AA /au·bohr⁶  :      29543.950482
 Mol. C8AA /au·bohr⁸  :     657867.943968
 Mol. α(0) /au        :        262.772222


Wiberg/Mayer (AO) data.
largest (>0.10) Wiberg bond orders for each atom

 ---------------------------------------------------------------------------
     #   Z sym  total        # sym  WBO       # sym  WBO       # sym  WBO
 ---------------------------------------------------------------------------
     1   7 N    3.355 --     2 C    1.157    19 H    0.951    18 H    0.887
                            10 C    0.106
     2   6 C    3.972 --     7 C    1.350     3 C    1.338     1 N    1.157
     3   6 C    3.989 --     4 C    1.471     2 C    1.338    20 H    0.967
                             6 C    0.101
     4   6 C    3.992 --     3 C    1.471     5 C    1.396    21 H    0.969
                             7 C    0.101
     5   6 C    3.976 --     6 C    1.402     4 C    1.396     8 C    1.010
     6   6 C    3.991 --     7 C    1.459     5 C    1.402    22 H    0.967
                             3 C    0.101
     7   6 C    3.987 --     6 C    1.459     2 C    1.350    23 H    0.969
                             4 C    0.101
     8   6 C    3.990 --     5 C    1.010     9 C    0.980    24 H    0.969
                            25 H    0.967
     9   6 C    3.961 --     8 C    0.980    44 N    0.973    26 H    0.953
                            45 C    0.913
    10   6 C    3.927 --    16 O    1.704    11 C    1.099    29 H    0.940
                             1 N    0.106
    11   6 C    3.989 --    12 C    1.803    10 C    1.099    30 H    0.965
    12   6 C    3.978 --    11 C    1.803    13 C    1.047    31 H    0.961
    13   6 C    3.996 --    12 C    1.047    14 C    0.977    33 H    0.972
                            32 H    0.952
    14   6 C    3.994 --    15 C    1.018    34 H    0.980    35 H    0.979
                            13 C    0.977
    15   6 C    3.993 --    14 C    1.018    37 H    0.988    36 H    0.986
                            38 H    0.981
    16   8 O    2.024 --    10 C    1.704
    17   8 O    1.834 --    40 H    0.922    39 H    0.851
    18   1 H    0.952 --     1 N    0.887
    19   1 H    0.971 --     1 N    0.951
    20   1 H    0.998 --     3 C    0.967
    21   1 H    0.999 --     4 C    0.969
    22   1 H    0.999 --     6 C    0.967
    23   1 H    0.999 --     7 C    0.969
    24   1 H    0.996 --     8 C    0.969
    25   1 H    0.995 --     8 C    0.967
    26   1 H    0.996 --     9 C    0.953
    27   1 H    0.966 --    44 N    0.930
    28   1 H    0.958 --    53 N    0.906
    29   1 H    0.999 --    10 C    0.940
    30   1 H    0.999 --    11 C    0.965
    31   1 H    0.996 --    12 C    0.961
    32   1 H    0.997 --    13 C    0.952
    33   1 H    0.998 --    13 C    0.972
    34   1 H    0.999 --    14 C    0.980
    35   1 H    0.999 --    14 C    0.979
    36   1 H    0.997 --    15 C    0.986
    37   1 H    0.999 --    15 C    0.988
    38   1 H    0.996 --    15 C    0.981
    39   1 H    0.898 --    17 O    0.851
    40   1 H    0.925 --    17 O    0.922
    41   8 O    1.875 --    42 H    0.899    43 H    0.877
    42   1 H    0.911 --    41 O    0.899
    43   1 H    0.903 --    41 O    0.877
    44   7 N    3.458 --    48 C    1.280     9 C    0.973    27 H    0.930
                            49 O    0.192
    45   6 C    3.956 --    46 O    1.680    53 N    1.291     9 C    0.913
    46   8 O    2.012 --    45 C    1.680    53 N    0.212
    47   6 C    3.993 --    48 C    0.984    52 H    0.982    50 H    0.975
                            51 H    0.965
    48   6 C    3.951 --    49 O    1.634    44 N    1.280    47 C    0.984
    49   8 O    1.985 --    48 C    1.634    44 N    0.192
    50   1 H    0.997 --    47 C    0.975
    51   1 H    0.996 --    47 C    0.965
    52   1 H    0.994 --    47 C    0.982
    53   7 N    3.465 --    45 C    1.291    54 C    1.006    28 H    0.906
                            46 O    0.212
    54   6 C    3.965 --    53 N    1.006    55 H    0.977    57 H    0.977
                            56 H    0.976
    55   1 H    0.997 --    54 C    0.977
    56   1 H    0.998 --    54 C    0.976
    57   1 H    0.993 --    54 C    0.977
 ---------------------------------------------------------------------------

Topologies differ in total number of bonds
Writing topology from bond orders to xtbtopo.mol

molecular dipole:
                 x           y           z       tot (Debye)
 q only:       -0.069       0.260      -1.013
   full:       -0.506      -0.007      -1.548       4.139
molecular quadrupole (traceless):
                xx          xy          yy          xz          yz          zz
 q only:      -14.059       7.028       9.492      -8.415       2.515       4.567
  q+dip:      -19.183       1.830      11.824     -10.986       8.227       7.359
   full:      -19.866       2.485      10.785     -10.160       5.130       9.082


           -------------------------------------------------
          | TOTAL ENERGY              -83.439115334204 Eh   |
          | GRADIENT NORM               0.000294994386 Eh/α |
          | HOMO-LUMO GAP               2.195172389145 eV   |
           -------------------------------------------------

------------------------------------------------------------------------
 * finished run on 2026/08/31 at 13:17:10.466     
------------------------------------------------------------------------
 total:
 * wall-time:     0 d,  0 h,  0 min,  0.297 sec
 *  cpu-time:     0 d,  0 h,  0 min,  0.172 sec
 * ratio c/w:     0.579 speedup
 SCF:
 * wall-time:     0 d,  0 h,  0 min,  0.169 sec
 *  cpu-time:     0 d,  0 h,  0 min,  0.109 sec
 * ratio c/w:     0.647 speedup



===== STDERR =====

normal termination of xtb
