      -----------------------------------------------------------      
     |                   =====================                   |     
     |                           x T B                           |     
     |                   =====================                   |     
     |                         S. Grimme                         |     
     |          Mulliken Center for Theoretical Chemistry        |     
     |                    University of Bonn                     |     
      -----------------------------------------------------------      

   * xtb version 6.7.1pre (5071a88) compiled by 'Marcel@Raven' on 2024-07-23

   xtb is free software: you can redistribute it and/or modify it under
   the terms of the GNU Lesser General Public License as published by
   the Free Software Foundation, either version 3 of the License, or
   (at your option) any later version.
   
   xtb is distributed in the hope that it will be useful,
   but WITHOUT ANY WARRANTY; without even the implied warranty of
   MERCHANTABILITY or FITNESS FOR A PARTICULAR PURPOSE.  See the
   GNU Lesser General Public License for more details.
   
   Cite this work as:
   * C. Bannwarth, E. Caldeweyher, S. Ehlert, A. Hansen, P. Pracht,
     J. Seibert, S. Spicher, S. Grimme, WIREs Comput. Mol. Sci., 2020, 11,
     e01493. DOI: 10.1002/wcms.1493
   
   for GFN2-xTB:
   * C. Bannwarth, S. Ehlert and S. Grimme., J. Chem. Theory Comput., 2019,
     15, 1652-1671. DOI: 10.1021/acs.jctc.8b01176
   for GFN1-xTB:
   * S. Grimme, C. Bannwarth, P. Shushkov, J. Chem. Theory Comput., 2017,
     13, 1989-2009. DOI: 10.1021/acs.jctc.7b00118
   for GFN0-xTB:
   * P. Pracht, E. Caldeweyher, S. Ehlert, S. Grimme, ChemRxiv, 2019, preprint.
     DOI: 10.26434/chemrxiv.8326202.v1
   for GFN-FF:
   * S. Spicher and S. Grimme, Angew. Chem. Int. Ed., 2020, 59, 15665-15673.
     DOI: 10.1002/anie.202004239
   
   for ALPB and GBSA implicit solvation:
   * S. Ehlert, M. Stahn, S. Spicher, S. Grimme, J. Chem. Theory Comput.,
     2021, 17, 4250-4261. DOI: 10.1021/acs.jctc.1c00471
   
   for ddCOSMO and CPCM-X implicit solvation:
   * M. Stahn, S. Ehlert, S. Grimme, J. Phys. Chem. A,
     2023, XX, XXXX-XXXX. DOI: 10.1021/acs.jpca.3c04382
   
   for DFT-D4:
   * E. Caldeweyher, C. Bannwarth and S. Grimme, J. Chem. Phys., 2017,
     147, 034112. DOI: 10.1063/1.4993215
   * E. Caldeweyher, S. Ehlert, A. Hansen, H. Neugebauer, S. Spicher,
     C. Bannwarth and S. Grimme, J. Chem. Phys., 2019, 150, 154122.
     DOI: 10.1063/1.5090222
   * E. Caldeweyher, J.-M. Mewes, S. Ehlert and S. Grimme, Phys. Chem. Chem. Phys.
     2020, 22, 8499-8512. DOI: 10.1039/D0CP00502A
   
   for sTDA-xTB:
   * S. Grimme and C. Bannwarth, J. Chem. Phys., 2016, 145, 054103.
     DOI: 10.1063/1.4959605
   
   in the mass-spec context:
   * V. Asgeirsson, C. Bauer and S. Grimme, Chem. Sci., 2017, 8, 4879.
     DOI: 10.1039/c7sc00601b
   * J. Koopman and S. Grimme, ACS Omega 2019, 4, 12, 15120-15133.
     DOI: 10.1021/acsomega.9b02011
   
   for metadynamics refer to:
   * S. Grimme, J. Chem. Theory Comput., 2019, 155, 2847-2862
     DOI: 10.1021/acs.jctc.9b00143
   
   for SPH calculations refer to:
   * S. Spicher and S. Grimme, J. Chem. Theory Comput., 2021, 17, 1701-1714
     DOI: 10.1021/acs.jctc.0c01306
   
   for ONIOM refer to:
   * C. Plett, A. Katbashev, S. Ehlert, S. Grimme, M. Bursch,
     Phys. Chem. Chem. Phys., 2023, 25, 17860-17868. DOI: 10.1039/D3CP02178E
   
   for DIPRO refer to:
   * J. Kohn, N. Gildemeister, S. Grimme, D. Fazzi, A. Hansen,
     J. Chem. Phys., 2023, just accepted.
   
   for PTB refer to:
   * S. Grimme, M. Mueller, A. Hansen, J. Chem. Phys., 2023, 158, 124111.
     DOI: 10.1063/5.0137838
   
   with help from (in alphabetical order)
   P. Atkinson, C. Bannwarth, F. Bohle, G. Brandenburg, E. Caldeweyher
   M. Checinski, S. Dohm, S. Ehlert, S. Ehrlich, I. Gerasimov, C. Hölzer
   A. Katbashev, J. Kohn, J. Koopman, C. Lavigne, S. Lehtola, F. März, M. Müller,
   F. Musil, H. Neugebauer, J. Pisarek, C. Plett, P. Pracht, F. Pultar,
   J. Seibert, P. Shushkov, S. Spicher, M. Stahn, M. Steiner, T. Strunk,
   J. Stückrath, T. Rose, and J. Unsleber
   
 * started run on 2026/08/20 at 20:41:46.875     
   ID    Z sym.   atoms
    1    7 N      1, 44, 53
    2    6 C      2-15, 45, 47, 48, 54
    3    8 O      16, 17, 41, 46, 49
    4    1 H      18-40, 42, 43, 50-52, 55-57

           -------------------------------------------------
          |                Calculation Setup                |
           -------------------------------------------------

          program call               : C:\Users\Nayanika\Downloads\xtb-6.7.1pre-windows-x86_64\xtb-6.7.1\bin\xtb.exe D:\PhD_Thesis\LmrR_EVB\charges\fast_lmrr_5QM\xtb_preparation\stage2_five_xtb_protocols\GFN2_normal\TS1_2_to_PS1_2b\TS1_2_to_PS1_2b_TS_xtbopt.xyz --gfn 2 --chrg 0 --uhf 0 --hess --etemp 0
          coordinate file            : D:\PhD_Thesis\LmrR_EVB\charges\fast_lmrr_5QM\xtb_preparation\stage2_five_xtb_protocols\GFN2_normal\TS1_2_to_PS1_2b\TS1_2_to_PS1_2b_TS_xtbopt.xyz
          omp threads                :                     8


molecular fragmentation (1/2 indicates fragments):
111111111222222221111111111122222222222222211111111111111
# atoms in fragment 1/2:    34    23
 fragment masses (1/2) :      235.28      134.17
CMA distance (Bohr)    :   9.612
constraining FC (au)   :  0.0500

           -------------------------------------------------
          |                 G F N 2 - x T B                 |
           -------------------------------------------------

        Reference                      10.1021/acs.jctc.8b01176
      * Hamiltonian:
        H0-scaling (s, p, d)           1.850000    2.230000    2.230000
        zeta-weighting                 0.500000
      * Dispersion:
        s8                             2.700000
        a1                             0.520000
        a2                             5.000000
        s9                             5.000000
      * Repulsion:
        kExp                           1.500000    1.000000
        rExp                           1.000000
      * Coulomb:
        alpha                          2.000000
        third order                    shell-resolved
        anisotropic                    true
        a3                             3.000000
        a5                             4.000000
        cn-shift                       1.200000
        cn-exp                         4.000000
        max-rad                        5.000000

q/qsh data taken from xtbrestart
CAMM data taken from xtbrestart

          ...................................................
          :                      SETUP                      :
          :.................................................:
          :  # basis functions                 135          :
          :  # atomic orbitals                 135          :
          :  # shells                           83          :
          :  # electrons                       148          :
          :  max. iterations                   250          :
          :  Hamiltonian                  GFN2-xTB          :
          :  restarted?                       true          :
          :  GBSA solvation                  false          :
          :  PC potential                    false          :
          :  electronic temp.            0.0000000     K    :
          :  accuracy                    1.0000000          :
          :  -> integral cutoff          0.2500000E+02      :
          :  -> integral neglect         0.1000000E-07      :
          :  -> SCF convergence          0.1000000E-05 Eh   :
          :  -> wf. convergence          0.1000000E-03 e    :
          :  Broyden damping             0.4000000          :
          :  net charge                          0          :
          :  unpaired electrons                  0          :
          ...................................................

 iter      E             dE          RMSdq      gap      omega  full diag
   1    -84.5398549 -0.845399E+02  0.171E-06    2.23       0.0  T
   2    -84.5398549  0.198952E-12  0.135E-06    2.23    9838.0  T
   3    -84.5398549 -0.341061E-12  0.590E-07    2.23   22440.3  T

   *** convergence criteria satisfied after 3 iterations ***

         #    Occupation            Energy/Eh            Energy/eV
      -------------------------------------------------------------
         1        2.0000           -0.7119782             -19.3739
       ...           ...                  ...                  ...
        68        2.0000           -0.4168543             -11.3432
        69        2.0000           -0.4107887             -11.1781
        70        2.0000           -0.4065713             -11.0634
        71        2.0000           -0.4005927             -10.9007
        72        2.0000           -0.3998435             -10.8803
        73        2.0000           -0.3873464             -10.5402
        74        2.0000           -0.3669032              -9.9839 (HOMO)
        75                         -0.2849876              -7.7549 (LUMO)
        76                         -0.2248611              -6.1188
        77                         -0.2224426              -6.0530
        78                         -0.2157566              -5.8710
        79                         -0.2080415              -5.6611
       ...                                ...                  ...
       135                          0.6575985              17.8942
      -------------------------------------------------------------
                  HL-Gap            0.0819157 Eh            2.2290 eV
             Fermi-level            0.0000000 Eh            0.0000 eV

 SCC (total)                   0 d,  0 h,  0 min,  0.043 sec
 SCC setup                      ...        0 min,  0.001 sec (  2.325%)
 Dispersion                     ...        0 min,  0.001 sec (  2.325%)
 classical contributions        ...        0 min,  0.000 sec (  0.000%)
 integral evaluation            ...        0 min,  0.003 sec (  6.977%)
 iterations                     ...        0 min,  0.028 sec ( 65.117%)
 molecular gradient             ...        0 min,  0.010 sec ( 23.256%)
 printout                       ...        0 min,  0.000 sec (  0.000%)

         :::::::::::::::::::::::::::::::::::::::::::::::::::::
         ::                     SUMMARY                     ::
         :::::::::::::::::::::::::::::::::::::::::::::::::::::
         :: total energy             -83.439041254289 Eh    ::
         :: gradient norm              0.000294898555 Eh/a0 ::
         :: HOMO-LUMO gap              2.229039117018 eV    ::
         ::.................................................::
         :: SCC energy               -84.537932031017 Eh    ::
         :: -> isotropic ES            0.176290409579 Eh    ::
         :: -> anisotropic ES         -0.001758473030 Eh    ::
         :: -> anisotropic XC          0.029472682496 Eh    ::
         :: -> dispersion             -0.058183316399 Eh    ::
         :: repulsion energy           1.098890776728 Eh    ::
         :: add. restraining           0.000000000000 Eh    ::
         :: total charge              -0.000000000000 e     ::
         :::::::::::::::::::::::::::::::::::::::::::::::::::::

           ------------------------------------------------- 
          |                Numerical Hessian                |
           ------------------------------------------------- 
step length          :   0.00500
SCC accuracy         :   0.30000
Hessian scale factor :   1.00000
frozen atoms in %    :   0.00000    0
RMS gradient         :   0.00029
estimated CPU  time      4.84 min
estimated wall time      0.67 min

writing file <hessian>.

 projected vibrational frequencies (cm⁻¹)
eigval :       -0.00    -0.00     0.00     0.00     0.00     0.00
eigval :       12.58    17.85    26.71    28.44    32.70    39.04
eigval :       46.92    55.40    58.29    62.95    68.08    78.22
eigval :       80.65    83.83    91.60   100.21   108.33   118.15
eigval :      123.98   130.09   137.45   157.48   157.65   170.64
eigval :      182.14   194.01   205.22   212.04   229.02   240.42
eigval :      262.15   290.75   292.65   297.73   303.74   328.42
eigval :      348.50   356.30   381.63   388.46   394.16   408.89
eigval :      419.55   438.66   441.54   451.60   478.58   489.05
eigval :      533.10   569.91   577.16   602.01   613.08   619.99
eigval :      641.07   666.39   673.87   692.29   725.56   727.77
eigval :      759.66   779.38   791.87   809.69   843.14   864.72
eigval :      870.56   883.25   893.61   908.51   922.16   924.63
eigval :      930.79   939.69   976.68   992.71   996.58  1001.88
eigval :     1009.68  1018.89  1033.16  1045.90  1073.76  1077.68
eigval :     1089.71  1104.52  1109.30  1117.68  1130.32  1144.29
eigval :     1159.27  1163.36  1196.19  1208.78  1219.77  1221.25
eigval :     1222.28  1240.27  1253.46  1265.94  1281.98  1285.35
eigval :     1286.14  1295.28  1312.51  1321.91  1342.17  1347.28
eigval :     1375.66  1381.15  1393.06  1419.12  1423.84  1429.69
eigval :     1433.85  1455.93  1462.60  1466.26  1474.69  1478.28
eigval :     1481.09  1484.26  1494.73  1501.07  1504.23  1513.64
eigval :     1548.39  1552.64  1576.92  1614.75  1636.26  1676.98
eigval :     1706.64  1759.05  2803.18  2916.29  2959.16  2970.23
eigval :     2970.76  2984.45  2991.41  2991.62  3001.67  3007.06
eigval :     3019.76  3032.06  3032.49  3037.19  3039.26  3053.63
eigval :     3053.95  3058.78  3059.32  3071.92  3076.75  3085.38
eigval :     3095.14  3228.23  3323.69  3325.96  3452.74  3464.67
eigval :     3475.50  3558.56  3667.30
           -------------------------------------------------
          |                Property Printout                |
           -------------------------------------------------

    * Orbital Energies and Occupations

         #    Occupation            Energy/Eh            Energy/eV
      -------------------------------------------------------------
         1        2.0000           -0.7119783             -19.3739
       ...           ...                  ...                  ...
        62        2.0000           -0.4365595             -11.8794
        63        2.0000           -0.4364710             -11.8770
        64        2.0000           -0.4337450             -11.8028
        65        2.0000           -0.4305905             -11.7170
        66        2.0000           -0.4270915             -11.6218
        67        2.0000           -0.4210494             -11.4573
        68        2.0000           -0.4168544             -11.3432
        69        2.0000           -0.4107887             -11.1781
        70        2.0000           -0.4065713             -11.0634
        71        2.0000           -0.4005927             -10.9007
        72        2.0000           -0.3998435             -10.8803
        73        2.0000           -0.3873464             -10.5402
        74        2.0000           -0.3669032              -9.9839 (HOMO)
        75                         -0.2849876              -7.7549 (LUMO)
        76                         -0.2248611              -6.1188
        77                         -0.2224426              -6.0530
        78                         -0.2157566              -5.8710
        79                         -0.2080415              -5.6611
        80                         -0.1699175              -4.6237
        81                         -0.0929066              -2.5281
        82                         -0.0015026              -0.0409
        83                          0.0074832               0.2036
        84                          0.0268223               0.7299
        85                          0.0732217               1.9925
       ...                                ...                  ...
       135                          0.6575985              17.8942
      -------------------------------------------------------------
                  HL-Gap            0.0819157 Eh            2.2290 eV
             Fermi-level            0.0000000 Eh            0.0000 eV

     #   Z          covCN         q      C6AA      α(0)
     1   7 N        2.651    -0.276    27.133     7.736
     2   6 C        2.900     0.076    26.297     8.408
     3   6 C        2.923    -0.059    29.455     8.900
     4   6 C        2.924    -0.038    28.944     8.823
     5   6 C        2.970    -0.004    28.128     8.700
     6   6 C        2.924    -0.044    29.099     8.846
     7   6 C        2.922    -0.063    29.567     8.917
     8   6 C        3.811    -0.070    21.835     6.651
     9   6 C        3.797     0.020    20.240     6.406
    10   6 C        2.777     0.209    23.579     7.953
    11   6 C        2.890    -0.065    29.604     8.920
    12   6 C        2.896    -0.001    28.053     8.684
    13   6 C        3.808    -0.061    21.669     6.627
    14   6 C        3.802    -0.046    21.392     6.585
    15   6 C        3.753    -0.110    22.670     6.790
    16   8 O        0.856    -0.428    22.255     6.325
    17   8 O        1.609    -0.608    25.375     6.799
    18   1 H        0.860     0.217     1.025     1.586
    19   1 H        0.860     0.172     1.262     1.760
    20   1 H        0.926     0.039     2.455     2.450
    21   1 H        0.926     0.032     2.557     2.500
    22   1 H        0.925     0.024     2.672     2.556
    23   1 H        0.926     0.025     2.660     2.550
    24   1 H        0.924     0.063     2.165     2.301
    25   1 H        0.924     0.057     2.229     2.335
    26   1 H        0.924     0.061     2.190     2.314
    27   1 H        0.860     0.183     1.199     1.715
    28   1 H        0.860     0.205     1.081     1.629
    29   1 H        0.923     0.011     2.880     2.654
    30   1 H        0.926     0.037     2.485     2.465
    31   1 H        0.925     0.064     2.154     2.295
    32   1 H        0.924     0.055     2.255     2.348
    33   1 H        0.924     0.046     2.365     2.405
    34   1 H        0.924     0.031     2.572     2.508
    35   1 H        0.924     0.033     2.544     2.494
    36   1 H        0.925     0.036     2.508     2.476
    37   1 H        0.925     0.034     2.534     2.489
    38   1 H        0.925     0.062     2.179     2.308
    39   1 H        0.804     0.318     0.669     1.285
    40   1 H        0.806     0.275     0.803     1.407
    41   8 O        1.609    -0.596    25.080     6.759
    42   1 H        0.805     0.300     0.722     1.335
    43   1 H        0.804     0.309     0.694     1.308
    44   7 N        2.692    -0.181    24.924     7.415
    45   6 C        2.753     0.264    22.551     7.776
    46   8 O        0.858    -0.434    22.374     6.342
    47   6 C        3.757    -0.141    23.262     6.877
    48   6 C        2.749     0.277    22.317     7.735
    49   8 O        0.859    -0.463    22.983     6.428
    50   1 H        0.925     0.047     2.353     2.399
    51   1 H        0.925     0.067     2.122     2.278
    52   1 H        0.925     0.075     2.033     2.230
    53   7 N        2.686    -0.177    24.828     7.400
    54   6 C        3.690    -0.043    21.527     6.640
    55   1 H        0.924     0.053     2.285     2.364
    56   1 H        0.924     0.049     2.330     2.387
    57   1 H        0.925     0.083     1.952     2.185

 Mol. C6AA /au·bohr⁶  :      29541.592360
 Mol. C8AA /au·bohr⁸  :     657838.986165
 Mol. α(0) /au        :        262.760032


Wiberg/Mayer (AO) data.
largest (>0.10) Wiberg bond orders for each atom

 ---------------------------------------------------------------------------
     #   Z sym  total        # sym  WBO       # sym  WBO       # sym  WBO
 ---------------------------------------------------------------------------
     1   7 N    3.361 --     2 C    1.154    19 H    0.950    18 H    0.890
                            10 C    0.114
     2   6 C    3.972 --     7 C    1.351     3 C    1.339     1 N    1.154
     3   6 C    3.989 --     4 C    1.472     2 C    1.339    20 H    0.967
                             6 C    0.101
     4   6 C    3.992 --     3 C    1.472     5 C    1.395    21 H    0.969
                             7 C    0.102
     5   6 C    3.982 --     6 C    1.403     4 C    1.395     8 C    1.010
     6   6 C    3.991 --     7 C    1.458     5 C    1.403    22 H    0.968
                             3 C    0.101
     7   6 C    3.988 --     6 C    1.458     2 C    1.351    23 H    0.969
                             4 C    0.102
     8   6 C    3.990 --     5 C    1.010     9 C    0.980    24 H    0.969
                            25 H    0.966
     9   6 C    3.961 --     8 C    0.980    44 N    0.973    26 H    0.953
                            45 C    0.914
    10   6 C    3.932 --    16 O    1.698    11 C    1.097    29 H    0.940
                             1 N    0.114
    11   6 C    3.989 --    12 C    1.806    10 C    1.097    30 H    0.965
    12   6 C    3.978 --    11 C    1.806    13 C    1.046    31 H    0.961
    13   6 C    3.996 --    12 C    1.046    14 C    0.976    33 H    0.972
                            32 H    0.954
    14   6 C    3.994 --    15 C    1.018    34 H    0.980    35 H    0.979
                            13 C    0.976
    15   6 C    3.993 --    14 C    1.018    37 H    0.988    36 H    0.986
                            38 H    0.981
    16   8 O    2.020 --    10 C    1.698
    17   8 O    1.833 --    40 H    0.922    39 H    0.852
    18   1 H    0.953 --     1 N    0.890
    19   1 H    0.970 --     1 N    0.950
    20   1 H    0.998 --     3 C    0.967
    21   1 H    0.999 --     4 C    0.969
    22   1 H    0.999 --     6 C    0.968
    23   1 H    0.999 --     7 C    0.969
    24   1 H    0.996 --     8 C    0.969
    25   1 H    0.995 --     8 C    0.966
    26   1 H    0.996 --     9 C    0.953
    27   1 H    0.967 --    44 N    0.931
    28   1 H    0.958 --    53 N    0.907
    29   1 H    0.999 --    10 C    0.940
    30   1 H    0.998 --    11 C    0.965
    31   1 H    0.996 --    12 C    0.961
    32   1 H    0.997 --    13 C    0.954
    33   1 H    0.998 --    13 C    0.972
    34   1 H    0.999 --    14 C    0.980
    35   1 H    0.999 --    14 C    0.979
    36   1 H    0.997 --    15 C    0.986
    37   1 H    0.999 --    15 C    0.988
    38   1 H    0.996 --    15 C    0.981
    39   1 H    0.899 --    17 O    0.852
    40   1 H    0.925 --    17 O    0.922
    41   8 O    1.873 --    42 H    0.895    43 H    0.880
    42   1 H    0.910 --    41 O    0.895
    43   1 H    0.904 --    41 O    0.880
    44   7 N    3.459 --    48 C    1.280     9 C    0.973    27 H    0.931
                            49 O    0.192
    45   6 C    3.956 --    46 O    1.680    53 N    1.290     9 C    0.914
    46   8 O    2.013 --    45 C    1.680    53 N    0.212
    47   6 C    3.993 --    48 C    0.985    50 H    0.980    52 H    0.978
                            51 H    0.962
    48   6 C    3.951 --    49 O    1.632    44 N    1.280    47 C    0.985
    49   8 O    1.983 --    48 C    1.632    44 N    0.192
    50   1 H    0.998 --    47 C    0.980
    51   1 H    0.995 --    47 C    0.962
    52   1 H    0.994 --    47 C    0.978
    53   7 N    3.465 --    45 C    1.290    54 C    1.006    28 H    0.907
                            46 O    0.212
    54   6 C    3.965 --    53 N    1.006    55 H    0.977    57 H    0.977
                            56 H    0.976
    55   1 H    0.997 --    54 C    0.977
    56   1 H    0.998 --    54 C    0.976
    57   1 H    0.993 --    54 C    0.977
 ---------------------------------------------------------------------------

Topologies differ in total number of bonds
Writing topology from bond orders to xtbtopo.mol

molecular dipole:
                 x           y           z       tot (Debye)
 q only:       -0.146       0.454      -0.905
   full:       -0.662       0.307      -1.424       4.066
molecular quadrupole (traceless):
                xx          xy          yy          xz          yz          zz
 q only:      -14.117      11.243       6.948      -3.401       0.724       7.169
  q+dip:      -20.431       8.368       7.880      -4.799       6.097      12.551
   full:      -20.972       8.658       7.784      -3.846       2.510      13.188

           -------------------------------------------------
          |               Frequency Printout                |
           -------------------------------------------------
 projected vibrational frequencies (cm⁻¹)
eigval :       -0.00    -0.00     0.00     0.00     0.00     0.00
eigval :       12.58    17.85    26.71    28.44    32.70    39.04
eigval :       46.92    55.40    58.29    62.95    68.08    78.22
eigval :       80.65    83.83    91.60   100.21   108.33   118.15
eigval :      123.98   130.09   137.45   157.48   157.65   170.64
eigval :      182.14   194.01   205.22   212.04   229.02   240.42
eigval :      262.15   290.75   292.65   297.73   303.74   328.42
eigval :      348.50   356.30   381.63   388.46   394.16   408.89
eigval :      419.55   438.66   441.54   451.60   478.58   489.05
eigval :      533.10   569.91   577.16   602.01   613.08   619.99
eigval :      641.07   666.39   673.87   692.29   725.56   727.77
eigval :      759.66   779.38   791.87   809.69   843.14   864.72
eigval :      870.56   883.25   893.61   908.51   922.16   924.63
eigval :      930.79   939.69   976.68   992.71   996.58  1001.88
eigval :     1009.68  1018.89  1033.16  1045.90  1073.76  1077.68
eigval :     1089.71  1104.52  1109.30  1117.68  1130.32  1144.29
eigval :     1159.27  1163.36  1196.19  1208.78  1219.77  1221.25
eigval :     1222.28  1240.27  1253.46  1265.94  1281.98  1285.35
eigval :     1286.14  1295.28  1312.51  1321.91  1342.17  1347.28
eigval :     1375.66  1381.15  1393.06  1419.12  1423.84  1429.69
eigval :     1433.85  1455.93  1462.60  1466.26  1474.69  1478.28
eigval :     1481.09  1484.26  1494.73  1501.07  1504.23  1513.64
eigval :     1548.39  1552.64  1576.92  1614.75  1636.26  1676.98
eigval :     1706.64  1759.05  2803.18  2916.29  2959.16  2970.23
eigval :     2970.76  2984.45  2991.41  2991.62  3001.67  3007.06
eigval :     3019.76  3032.06  3032.49  3037.19  3039.26  3053.63
eigval :     3053.95  3058.78  3059.32  3071.92  3076.75  3085.38
eigval :     3095.14  3228.23  3323.69  3325.96  3452.74  3464.67
eigval :     3475.50  3558.56  3667.30
 reduced masses (amu)
   1: 11.84   2: 12.38   3: 12.08   4: 12.23   5: 12.01   6: 12.53   7: 11.50   8: 12.06
   9: 11.79  10: 12.88  11: 12.29  12: 11.85  13: 10.51  14: 12.45  15:  8.09  16: 10.70
  17:  7.01  18:  9.73  19:  9.13  20:  9.50  21: 11.11  22:  9.74  23: 11.36  24: 11.83
  25:  2.57  26: 11.60  27: 11.00  28:  8.74  29: 10.05  30: 12.59  31: 11.98  32: 11.10
  33: 10.52  34: 11.89  35: 10.66  36: 12.35  37:  2.02  38: 11.27  39:  4.40  40:  8.47
  41:  9.82  42:  9.99  43:  8.88  44: 10.87  45:  9.03  46:  2.98  47:  8.55  48:  7.45
  49:  9.75  50:  5.13  51:  4.60  52:  9.35  53: 10.48  54: 10.69  55:  9.71  56:  2.94
  57:  8.16  58: 10.07  59:  9.86  60:  3.51  61:  8.12  62:  2.22  63:  9.49  64:  8.07
  65:  9.86  66: 11.41  67:  6.06  68:  9.27  69:  2.44  70:  6.08  71:  3.62  72:  3.38
  73:  8.52  74:  9.98  75:  3.69  76:  2.69  77:  4.08  78:  4.95  79:  8.63  80:  6.08
  81: 11.06  82:  5.53  83:  5.60  84:  5.30  85:  3.23  86:  8.34  87:  7.40  88:  4.54
  89:  5.39  90:  6.83  91:  8.83  92:  3.90  93:  7.23  94:  8.15  95:  7.37  96:  3.39
  97:  8.48  98:  6.00  99:  1.83 100:  5.26 101:  4.92 102:  4.58 103:  5.99 104:  3.40
 105:  4.61 106:  2.44 107:  4.24 108:  3.33 109:  3.82 110:  3.94 111:  5.92 112:  9.57
 113: 11.04 114:  4.92 115:  3.29 116:  3.41 117:  2.62 118:  3.27 119:  9.77 120:  9.71
 121:  8.60 122:  1.67 123:  1.57 124:  1.80 125:  2.13 126:  2.15 127:  3.78 128:  2.48
 129:  1.86 130:  1.52 131:  1.63 132:  9.14 133:  2.38 134:  2.47 135: 11.54 136: 11.54
 137: 12.07 138: 11.97 139: 13.14 140: 13.20 141:  1.70 142:  1.75 143:  1.80 144:  1.90
 145:  1.88 146:  1.53 147:  1.49 148:  1.97 149:  1.51 150:  1.70 151:  1.78 152:  1.83
 153:  1.73 154:  1.62 155:  1.63 156:  1.78 157:  1.70 158:  1.80 159:  1.77 160:  1.86
 161:  1.80 162:  1.83 163:  1.86 164:  1.78 165:  1.87 166:  1.88 167:  1.85 168:  1.87
 169:  1.95 170:  1.75 171:  1.84
 IR intensities (km·mol⁻¹)
   1:  0.16   2:  0.01   3:  0.12   4:  0.07   5:  0.09   6:  0.16   7:  0.11   8:  0.20
   9:  0.53  10:  0.19  11:  2.97  12:  1.16  13:  4.37  14:  4.46  15:  1.91  16:  0.31
  17:  2.59  18:  2.91  19:  1.17  20:  6.15  21:  1.70  22:  8.01  23: 18.24  24: 16.01
  25:  1.19  26:  5.34  27:  8.42  28: 18.86  29: 28.13  30: 16.32  31: 20.94  32: 30.49
  33: 55.96  34: 15.30  35: 21.58  36:  6.98  37:  0.50  38:  4.65  39: 42.99  40:  5.92
  41:  4.18  42: 17.76  43: 24.93  44: 29.55  45:  1.79  46: 61.07  47: 23.35  48: 63.32
  49: 18.48  50:230.25  51: 20.28  52:  7.23  53:  1.70  54:  0.83  55: 11.00  56: 57.61
  57:  6.18  58: 30.25  59: 75.09  60:530.88  61: 57.21  62:140.08  63: 33.21  64: 21.99
  65: 63.68  66: 13.57  67:  4.59  68:  8.06  69: 17.39  70: 19.36  71:149.96  72:  5.74
  73:  2.83  74:  1.21  75:  7.90  76:  0.44  77:  0.17  78: 48.32  79:  2.70  80:  3.84
  81: 21.27  82:  6.93  83: 22.64  84: 19.26  85: 21.54  86:  0.07  87: 17.79  88:  3.32
  89:  8.00  90: 23.96  91:  0.06  92:  0.53  93: 12.70  94: 27.97  95: 23.46  96:  1.52
  97:  0.86  98:  1.76  99:  4.30 100:  3.17 101:  2.01 102:  4.99 103: 10.17 104: 11.71
 105: 34.64 106:  0.78 107: 14.51 108:  2.07 109:  5.15 110:  1.41 111: 18.01 112: 31.06
 113:  7.26 114:  7.95 115: 24.29 116: 24.40 117:  2.91 118:  4.93 119:204.58 120: 16.53
 121:230.48 122:  4.19 123: 10.22 124:  7.47 125:  4.96 126:  1.11 127: 20.21 128: 23.17
 129:  1.46 130:  4.00 131:  4.41 132:187.32 133:195.28 134: 25.85 135:  2.89 136: 12.77
 137:721.63 138:165.83 139:321.08 140:563.42 141: 95.91 142: 14.71 143:  3.40 144: 26.15
 145: 47.38 146: 32.18 147: 41.34 148: 15.23 149: 17.85 150: 22.31 151:  7.99 152: 49.95
 153:  7.06 154: 12.19 155: 47.87 156: 33.96 157:  1.19 158: 14.83 159:  4.94 160: 56.92
 161: 18.57 162: 35.51 163: 23.26 164:475.53 165:710.33 166:100.02 167: 22.08 168: 13.35
 169:205.91 170: 54.84 171:  9.21
 Raman intensities (Ä⁴*amu⁻¹)
   1:  0.00   2:  0.00   3:  0.00   4:  0.00   5:  0.00   6:  0.00   7:  0.00   8:  0.00
   9:  0.00  10:  0.00  11:  0.00  12:  0.00  13:  0.00  14:  0.00  15:  0.00  16:  0.00
  17:  0.00  18:  0.00  19:  0.00  20:  0.00  21:  0.00  22:  0.00  23:  0.00  24:  0.00
  25:  0.00  26:  0.00  27:  0.00  28:  0.00  29:  0.00  30:  0.00  31:  0.00  32:  0.00
  33:  0.00  34:  0.00  35:  0.00  36:  0.00  37:  0.00  38:  0.00  39:  0.00  40:  0.00
  41:  0.00  42:  0.00  43:  0.00  44:  0.00  45:  0.00  46:  0.00  47:  0.00  48:  0.00
  49:  0.00  50:  0.00  51:  0.00  52:  0.00  53:  0.00  54:  0.00  55:  0.00  56:  0.00
  57:  0.00  58:  0.00  59:  0.00  60:  0.00  61:  0.00  62:  0.00  63:  0.00  64:  0.00
  65:  0.00  66:  0.00  67:  0.00  68:  0.00  69:  0.00  70:  0.00  71:  0.00  72:  0.00
  73:  0.00  74:  0.00  75:  0.00  76:  0.00  77:  0.00  78:  0.00  79:  0.00  80:  0.00
  81:  0.00  82:  0.00  83:  0.00  84:  0.00  85:  0.00  86:  0.00  87:  0.00  88:  0.00
  89:  0.00  90:  0.00  91:  0.00  92:  0.00  93:  0.00  94:  0.00  95:  0.00  96:  0.00
  97:  0.00  98:  0.00  99:  0.00 100:  0.00 101:  0.00 102:  0.00 103:  0.00 104:  0.00
 105:  0.00 106:  0.00 107:  0.00 108:  0.00 109:  0.00 110:  0.00 111:  0.00 112:  0.00
 113:  0.00 114:  0.00 115:  0.00 116:  0.00 117:  0.00 118:  0.00 119:  0.00 120:  0.00
 121:  0.00 122:  0.00 123:  0.00 124:  0.00 125:  0.00 126:  0.00 127:  0.00 128:  0.00
 129:  0.00 130:  0.00 131:  0.00 132:  0.00 133:  0.00 134:  0.00 135:  0.00 136:  0.00
 137:  0.00 138:  0.00 139:  0.00 140:  0.00 141:  0.00 142:  0.00 143:  0.00 144:  0.00
 145:  0.00 146:  0.00 147:  0.00 148:  0.00 149:  0.00 150:  0.00 151:  0.00 152:  0.00
 153:  0.00 154:  0.00 155:  0.00 156:  0.00 157:  0.00 158:  0.00 159:  0.00 160:  0.00
 161:  0.00 162:  0.00 163:  0.00 164:  0.00 165:  0.00 166:  0.00 167:  0.00 168:  0.00
 169:  0.00 170:  0.00 171:  0.00
 output can be read by thermo (or use thermo option).
 writing <g98.out> molden fake output.
 recommended (thermochemical) frequency scaling factor: 1.0
           -------------------------------------------------
          |             Thermodynamic Functions             |
           -------------------------------------------------

Refinement of some symmetry elements was terminated before convergence was reached.
Some symmetry elements may remain unidentified.
Molecule has no symmetry elements
It seems to be the C1 point group
c1  symmetry found (for desy threshold:  0.10E+00) used in thermo

          ...................................................
          :                      SETUP                      :
          :.................................................:
          :  # frequencies                         165      :
          :  # imaginary freq.                       0      :
          :  linear?                             false      :
          :  only rotor calc.                    false      :
          :  symmetry                               c1      :
          :  rotational number                       1      :
          :  scaling factor                  1.0000000      :
          :  rotor cutoff                   50.0000000 cm⁻¹ :
          :  imag. cutoff                  -20.0000000 cm⁻¹ :
          :.................................................:

    mode    ω/cm⁻¹     T·S(HO)/kcal·mol⁻¹    T·S(FR)/kcal·mol⁻¹   T·S(vib)
   ------------------------------------------------------------------------
       1     12.58    -2.25264 (  0.40%)    -1.46529 ( 99.60%)    -1.46843
       2     17.85    -2.04548 (  1.60%)    -1.36170 ( 98.40%)    -1.37261
       3     26.71    -1.80673 (  7.53%)    -1.24223 ( 92.47%)    -1.28474
       4     28.44    -1.76966 (  9.47%)    -1.22367 ( 90.53%)    -1.27539
       5     32.70    -1.68714 ( 15.46%)    -1.18234 ( 84.54%)    -1.26038
       6     39.04    -1.58237 ( 27.09%)    -1.12983 ( 72.91%)    -1.25244
       7     46.92    -1.47378 ( 43.68%)    -1.07535 ( 56.32%)    -1.24938
       8     55.40    -1.37582 ( 60.12%)    -1.02612 ( 39.88%)    -1.23637
       9     58.29    -1.34592 ( 64.88%)    -1.01108 ( 35.12%)    -1.22832
      10     62.95    -1.30064 ( 71.54%)    -0.98828 ( 28.46%)    -1.21173
      11     68.08    -1.25468 ( 77.46%)    -0.96511 ( 22.54%)    -1.18941
      12     78.22    -1.17321 ( 85.69%)    -0.92395 ( 14.31%)    -1.13755
      13     80.65    -1.15535 ( 87.13%)    -0.91491 ( 12.87%)    -1.12440
      14     83.83    -1.13271 ( 88.77%)    -0.90344 ( 11.23%)    -1.10695
      15     91.60    -1.08095 ( 91.85%)    -0.87718 (  8.15%)    -1.06433
      16    100.21    -1.02866 ( 94.16%)    -0.85056 (  5.84%)    -1.01827
      17    108.33    -0.98350 ( 95.66%)    -0.82751 (  4.34%)    -0.97673
      18    118.15    -0.93333 ( 96.89%)    -0.80179 (  3.11%)    -0.92925
      19    123.98    -0.90558 ( 97.42%)    -0.78752 (  2.58%)    -0.90254
      20    130.09    -0.87795 ( 97.86%)    -0.77326 (  2.14%)    -0.87571
      21    137.45    -0.84645 ( 98.28%)    -0.75696 (  1.72%)    -0.84491
      22    157.48    -0.76919 ( 98.99%)    -0.71668 (  1.01%)    -0.76867
      23    157.65    -0.76858 ( 99.00%)    -0.71636 (  1.00%)    -0.76806
      24    170.64    -0.72403 ( 99.27%)    -0.69290 (  0.73%)    -0.72381
      25    182.14    -0.68765 ( 99.44%)    -0.67358 (  0.56%)    -0.68757
      26    194.01    -0.65270 ( 99.56%)    -0.65487 (  0.44%)    -0.65271
      27    205.22    -0.62186 ( 99.65%)    -0.63823 (  0.35%)    -0.62192
      28    212.04    -0.60406 ( 99.69%)    -0.62855 (  0.31%)    -0.60413
      29    229.02    -0.56250 ( 99.77%)    -0.60573 (  0.23%)    -0.56259
      30    240.42    -0.53660 ( 99.81%)    -0.59134 (  0.19%)    -0.53670
      31    262.15    -0.49117 ( 99.87%)    -0.56570 (  0.13%)    -0.49127
      32    290.75    -0.43815 ( 99.91%)    -0.53503 (  0.09%)    -0.43824
      33    292.65    -0.43487 ( 99.91%)    -0.53310 (  0.09%)    -0.43495
      34    297.73    -0.42625 ( 99.92%)    -0.52800 (  0.08%)    -0.42633
   ------------------------------------------------------------------------

   temp. (K)  partition function   enthalpy   heat capacity  entropy
                                   cal/mol     cal/K/mol   cal/K/mol   J/K/mol
 298.15  VIB  0.588E+17            19681.588    106.788    129.319
         ROT  0.156E+08              888.752      2.981     35.892
         INT  0.915E+24            20570.341    109.769    165.212
         TR   0.687E+28             1481.254      4.968     43.594
         TOT                       22051.5947   114.7368   208.8053   873.6415

       T/K    H(0)-H(T)+PV         H(T)/Eh          T*S/Eh         G(T)/Eh
   ------------------------------------------------------------------------
    298.15    0.351415E-01    0.503043E+00    0.992101E-01    0.403833E+00
   ------------------------------------------------------------------------

         :::::::::::::::::::::::::::::::::::::::::::::::::::::
         ::                  THERMODYNAMIC                  ::
         :::::::::::::::::::::::::::::::::::::::::::::::::::::
         :: total free energy         -83.035208104506 Eh   ::
         ::.................................................::
         :: total energy              -83.439041254289 Eh   ::
         :: zero point energy           0.467901841310 Eh   ::
         :: G(RRHO) w/o ZPVE           -0.064068691528 Eh   ::
         :: G(RRHO) contrib.            0.403833149782 Eh   ::
         :::::::::::::::::::::::::::::::::::::::::::::::::::::

           -------------------------------------------------
          | TOTAL ENERGY              -83.439041254289 Eh   |
          | TOTAL ENTHALPY            -82.935997959956 Eh   |
          | TOTAL FREE ENERGY         -83.035208104506 Eh   |
          | GRADIENT NORM               0.000294901398 Eh/α |
          | HOMO-LUMO GAP               2.229039195127 eV   |
           -------------------------------------------------

------------------------------------------------------------------------
 * finished run on 2026/08/20 at 20:41:52.048     
------------------------------------------------------------------------
 total:
 * wall-time:     0 d,  0 h,  0 min,  5.168 sec
 *  cpu-time:     0 d,  0 h,  0 min, 35.547 sec
 * ratio c/w:     6.878 speedup
 SCF:
 * wall-time:     0 d,  0 h,  0 min,  0.043 sec
 *  cpu-time:     0 d,  0 h,  0 min,  0.031 sec
 * ratio c/w:     0.727 speedup
 analytical hessian:
 * wall-time:     0 d,  0 h,  0 min,  5.081 sec
 *  cpu-time:     0 d,  0 h,  0 min, 35.484 sec
 * ratio c/w:     6.984 speedup



===== STDERR =====

normal termination of xtb
