57
 energy: -83.439041254256 gnorm: 0.000294687753 xtb: 6.7.1pre (5071a88)
N           -0.09786961359733       -0.65889966404703        0.33191083680831
C            1.27678841946020       -0.55194325354408        0.36899774079308
C            1.88535609845086        0.37488381394034        1.21796653015807
C            3.24328149219164        0.60198510130463        1.14609742944701
C            4.03996896635969       -0.08951575284960        0.24006091069787
C            3.43860252735104       -1.04293461785330       -0.57248783370796
C            2.07874616186444       -1.27613839711527       -0.51264217342551
C            5.49546357054653        0.24685209972245        0.08714471365494
C            5.66065351292124        1.54077912066261       -0.71698278448966
C           -0.95008032773834        0.94786834778435       -1.17030561477998
C            0.25266585601161        1.76199005071435       -1.08902750618958
C            0.35983282159805        2.81718847521741       -0.27799810607796
C            1.56718063474861        3.67058561317174       -0.15496230142385
C            1.31450371482009        5.08203733211587       -0.70334873174701
C            2.57406241275035        5.93311163771778       -0.61346232231490
O           -2.00887030312438        1.19767004480189       -0.60584271110577
O           -3.55556673155645       -0.91900076440771        0.23290733553955
H           -0.60285703032019       -0.31533474630960        1.15082412028842
H           -0.47159887978269       -1.52072308776542       -0.03701409093590
H            1.27383606240855        0.91353449684884        1.92569139962006
H            3.69731997541950        1.32988648107462        1.80281194996476
H            4.04359588211472       -1.61997558023291       -1.25958474357751
H            1.62547163046449       -2.01561327587811       -1.15805125445616
H            6.03071416778869       -0.55104578773980       -0.43078184774068
H            5.96924234662469        0.38860116755637        1.05920130755595
H            5.30127589505230        2.40387422070866       -0.14318920124463
H            4.64066847048741        0.55283094446179       -2.27206561102295
H            6.55858091309715        3.64308528209589       -1.66421174830984
H           -0.91016563607376        0.14818725260907       -1.92889666139455
H            1.08702350901059        1.45200612846945       -1.70062290012883
H           -0.49693082527567        3.10245292529490        0.31956656161030
H            1.83996168283921        3.75270458754913        0.90020036662074
H            2.40307676708809        3.22109445300969       -0.69219353323151
H            0.99973169483900        5.00513527867135       -1.74618461580552
H            0.50289335116610        5.55161847908106       -0.14308504537782
H            2.39730159652232        6.91972402455803       -1.03499147171100
H            2.88141664116252        6.05234201411133        0.42333353510315
H            3.38538048846735        5.46102696208367       -1.16237875517832
H           -3.08343348715117       -0.19025740427880       -0.21209821893276
H           -4.48498406662736       -0.79807976702757        0.03345517568237
O           -1.99018606004772        0.44843686235560        2.14155063487167
H           -2.08555750541531        1.17102200082850        1.50956821266998
H           -2.64147270103867       -0.21008971474486        1.85781298957042
N            4.86175594033877        1.47456156961055       -1.92961104863477
C            7.14105614020124        1.78155587805350       -1.08865921089549
O            7.99445669327247        0.92538487654418       -0.98537709690262
C            3.46805959312193        2.27411202834879       -3.72085173505010
C            4.36865261612175        2.56303847356504       -2.54327384403204
O            4.64541196833157        3.69604361935362       -2.17957421911097
H            2.90611583682681        1.35528970352855       -3.57596397112858
H            4.07849658168440        2.17628632776787       -4.61716814881880
H            2.78590633611248        3.10778561468217       -3.86311584132892
N            7.35547010099194        3.02653190759396       -1.54132505123154
C            8.64328152602745        3.46967360233909       -2.01567782068840
H            8.95799404031137        4.36393935201099       -1.47593953659897
H            8.60739496506300        3.69341777034872       -3.08385336326212
H            9.35792356588955        2.66741589141218       -1.83830107877361
