      -----------------------------------------------------------      
     |                   =====================                   |     
     |                           x T B                           |     
     |                   =====================                   |     
     |                         S. Grimme                         |     
     |          Mulliken Center for Theoretical Chemistry        |     
     |                    University of Bonn                     |     
      -----------------------------------------------------------      

   * xtb version 6.7.1pre (5071a88) compiled by 'Marcel@Raven' on 2024-07-23

   xtb is free software: you can redistribute it and/or modify it under
   the terms of the GNU Lesser General Public License as published by
   the Free Software Foundation, either version 3 of the License, or
   (at your option) any later version.
   
   xtb is distributed in the hope that it will be useful,
   but WITHOUT ANY WARRANTY; without even the implied warranty of
   MERCHANTABILITY or FITNESS FOR A PARTICULAR PURPOSE.  See the
   GNU Lesser General Public License for more details.
   
   Cite this work as:
   * C. Bannwarth, E. Caldeweyher, S. Ehlert, A. Hansen, P. Pracht,
     J. Seibert, S. Spicher, S. Grimme, WIREs Comput. Mol. Sci., 2020, 11,
     e01493. DOI: 10.1002/wcms.1493
   
   for GFN2-xTB:
   * C. Bannwarth, S. Ehlert and S. Grimme., J. Chem. Theory Comput., 2019,
     15, 1652-1671. DOI: 10.1021/acs.jctc.8b01176
   for GFN1-xTB:
   * S. Grimme, C. Bannwarth, P. Shushkov, J. Chem. Theory Comput., 2017,
     13, 1989-2009. DOI: 10.1021/acs.jctc.7b00118
   for GFN0-xTB:
   * P. Pracht, E. Caldeweyher, S. Ehlert, S. Grimme, ChemRxiv, 2019, preprint.
     DOI: 10.26434/chemrxiv.8326202.v1
   for GFN-FF:
   * S. Spicher and S. Grimme, Angew. Chem. Int. Ed., 2020, 59, 15665-15673.
     DOI: 10.1002/anie.202004239
   
   for ALPB and GBSA implicit solvation:
   * S. Ehlert, M. Stahn, S. Spicher, S. Grimme, J. Chem. Theory Comput.,
     2021, 17, 4250-4261. DOI: 10.1021/acs.jctc.1c00471
   
   for ddCOSMO and CPCM-X implicit solvation:
   * M. Stahn, S. Ehlert, S. Grimme, J. Phys. Chem. A,
     2023, XX, XXXX-XXXX. DOI: 10.1021/acs.jpca.3c04382
   
   for DFT-D4:
   * E. Caldeweyher, C. Bannwarth and S. Grimme, J. Chem. Phys., 2017,
     147, 034112. DOI: 10.1063/1.4993215
   * E. Caldeweyher, S. Ehlert, A. Hansen, H. Neugebauer, S. Spicher,
     C. Bannwarth and S. Grimme, J. Chem. Phys., 2019, 150, 154122.
     DOI: 10.1063/1.5090222
   * E. Caldeweyher, J.-M. Mewes, S. Ehlert and S. Grimme, Phys. Chem. Chem. Phys.
     2020, 22, 8499-8512. DOI: 10.1039/D0CP00502A
   
   for sTDA-xTB:
   * S. Grimme and C. Bannwarth, J. Chem. Phys., 2016, 145, 054103.
     DOI: 10.1063/1.4959605
   
   in the mass-spec context:
   * V. Asgeirsson, C. Bauer and S. Grimme, Chem. Sci., 2017, 8, 4879.
     DOI: 10.1039/c7sc00601b
   * J. Koopman and S. Grimme, ACS Omega 2019, 4, 12, 15120-15133.
     DOI: 10.1021/acsomega.9b02011
   
   for metadynamics refer to:
   * S. Grimme, J. Chem. Theory Comput., 2019, 155, 2847-2862
     DOI: 10.1021/acs.jctc.9b00143
   
   for SPH calculations refer to:
   * S. Spicher and S. Grimme, J. Chem. Theory Comput., 2021, 17, 1701-1714
     DOI: 10.1021/acs.jctc.0c01306
   
   for ONIOM refer to:
   * C. Plett, A. Katbashev, S. Ehlert, S. Grimme, M. Bursch,
     Phys. Chem. Chem. Phys., 2023, 25, 17860-17868. DOI: 10.1039/D3CP02178E
   
   for DIPRO refer to:
   * J. Kohn, N. Gildemeister, S. Grimme, D. Fazzi, A. Hansen,
     J. Chem. Phys., 2023, just accepted.
   
   for PTB refer to:
   * S. Grimme, M. Mueller, A. Hansen, J. Chem. Phys., 2023, 158, 124111.
     DOI: 10.1063/5.0137838
   
   with help from (in alphabetical order)
   P. Atkinson, C. Bannwarth, F. Bohle, G. Brandenburg, E. Caldeweyher
   M. Checinski, S. Dohm, S. Ehlert, S. Ehrlich, I. Gerasimov, C. Hölzer
   A. Katbashev, J. Kohn, J. Koopman, C. Lavigne, S. Lehtola, F. März, M. Müller,
   F. Musil, H. Neugebauer, J. Pisarek, C. Plett, P. Pracht, F. Pultar,
   J. Seibert, P. Shushkov, S. Spicher, M. Stahn, M. Steiner, T. Strunk,
   J. Stückrath, T. Rose, and J. Unsleber
   
 * started run on 2026/08/31 at 13:17:10.987     
   ID    Z sym.   atoms
    1    7 N      1, 44, 53
    2    6 C      2-15, 45, 47, 48, 54
    3    8 O      16, 17, 41, 46, 49
    4    1 H      18-40, 42, 43, 50-52, 55-57

           -------------------------------------------------
          |                Calculation Setup                |
           -------------------------------------------------

          program call               : C:\Users\Nayanika\Downloads\xtb-6.7.1pre-windows-x86_64\xtb-6.7.1\bin\xtb.exe D:\PhD_Thesis\LmrR_EVB\charges\fast_lmrr_5QM\xtb_preparation\TS1_2_to_PS1_2b\TS1_2_to_PS1_2b_PS.xyz --gfn 2 --opt normal --chrg 0 --uhf 0 --etemp 0
          coordinate file            : D:\PhD_Thesis\LmrR_EVB\charges\fast_lmrr_5QM\xtb_preparation\TS1_2_to_PS1_2b\TS1_2_to_PS1_2b_PS.xyz
          omp threads                :                     1


molecular fragmentation (1/2 indicates fragments):
111111111111111121211111111111111111112221211111111111111
# atoms in fragment 1/2:    51     6
 fragment masses (1/2) :      333.43       36.03
CMA distance (Bohr)    :  12.395
constraining FC (au)   :  0.0500

           -------------------------------------------------
          |                 G F N 2 - x T B                 |
           -------------------------------------------------

        Reference                      10.1021/acs.jctc.8b01176
      * Hamiltonian:
        H0-scaling (s, p, d)           1.850000    2.230000    2.230000
        zeta-weighting                 0.500000
      * Dispersion:
        s8                             2.700000
        a1                             0.520000
        a2                             5.000000
        s9                             5.000000
      * Repulsion:
        kExp                           1.500000    1.000000
        rExp                           1.000000
      * Coulomb:
        alpha                          2.000000
        third order                    shell-resolved
        anisotropic                    true
        a3                             3.000000
        a5                             4.000000
        cn-shift                       1.200000
        cn-exp                         4.000000
        max-rad                        5.000000

q/qsh data taken from xtbrestart
CAMM data taken from xtbrestart

          ...................................................
          :                      SETUP                      :
          :.................................................:
          :  # basis functions                 135          :
          :  # atomic orbitals                 135          :
          :  # shells                           83          :
          :  # electrons                       148          :
          :  max. iterations                   250          :
          :  Hamiltonian                  GFN2-xTB          :
          :  restarted?                       true          :
          :  GBSA solvation                  false          :
          :  PC potential                    false          :
          :  electronic temp.            0.0000000     K    :
          :  accuracy                    1.0000000          :
          :  -> integral cutoff          0.2500000E+02      :
          :  -> integral neglect         0.1000000E-07      :
          :  -> SCF convergence          0.1000000E-05 Eh   :
          :  -> wf. convergence          0.1000000E-03 e    :
          :  Broyden damping             0.4000000          :
          :  net charge                          0          :
          :  unpaired electrons                  0          :
          ...................................................

 iter      E             dE          RMSdq      gap      omega  full diag
   1    -84.1096465 -0.841096E+02  0.311E+00    3.36       0.0  T
   2    -84.1577684 -0.481219E-01  0.180E+00    0.76       1.0  T
   3    -79.6033331  0.455444E+01  0.640E+00    0.15       1.0  T
   4    -84.1429358 -0.453960E+01  0.953E-01    0.39       1.0  T
   5    -79.6845839  0.445835E+01  0.622E+00    0.16       1.0  T
   6    -84.1676451 -0.448306E+01  0.387E-01    0.67       1.0  T
   7    -84.1687757 -0.113060E-02  0.363E-01    0.86       1.0  T
   8    -84.1692605 -0.484836E-03  0.354E-01    0.86       1.0  T
   9    -84.1694423 -0.181845E-03  0.346E-01    0.83       1.0  T
  10    -84.1697644 -0.322095E-03  0.334E-01    0.72       1.0  T
  11    -84.1700381 -0.273676E-03  0.322E-01    0.62       1.0  T
  12    -84.1702309 -0.192757E-03  0.314E-01    0.54       1.0  T
  13    -84.1704416 -0.210714E-03  0.303E-01    0.45       1.0  T
  14    -84.1709333 -0.491707E-03  0.279E-01    0.23       1.0  T
  15    -79.7527258  0.441821E+01  0.610E+00    0.14       1.0  T
  16    -84.1645997 -0.441187E+01  0.520E-01    2.08       1.0  T
  17    -84.1659817 -0.138197E-02  0.477E-01    1.78       1.0  T
  18    -84.1668095 -0.827754E-03  0.449E-01    1.59       1.0  T
  19    -84.1673791 -0.569617E-03  0.429E-01    1.45       1.0  T
  20    -84.1680862 -0.707137E-03  0.403E-01    1.26       1.0  T
  21    -84.1690610 -0.974789E-03  0.364E-01    0.97       1.0  T
  22    -84.1701425 -0.108152E-02  0.317E-01    0.57       1.0  T
  23    -79.7716986  0.439844E+01  0.606E+00    0.09       1.0  T
  24    -84.0670092 -0.429531E+01  0.196E+00    0.67       1.0  T
  25    -78.3180956  0.574891E+01  0.642E+00    0.20       1.0  T
  26    -82.0927736 -0.377468E+01  0.439E+00    0.20       1.0  T
  27    -82.0986269 -0.585334E-02  0.439E+00    0.22       1.0  T
  28    -82.1118203 -0.131933E-01  0.439E+00    0.31       1.0  T
  29    -82.1524566 -0.406364E-01  0.437E+00    0.72       1.0  T
  30    -82.1678988 -0.154421E-01  0.437E+00    0.72       1.0  T
  31    -82.1511413  0.167575E-01  0.437E+00    0.73       1.0  T
  32    -82.1521285 -0.987193E-03  0.436E+00    0.75       1.0  T
  33    -82.2360459 -0.839175E-01  0.425E+00    0.13       1.0  T
  34    -82.2040587  0.319872E-01  0.426E+00    0.54       1.0  T
  35    -82.2045751 -0.516361E-03  0.421E+00    0.50       1.0  T
  36    -84.0650371 -0.186046E+01  0.202E+00    0.26       1.0  T
  37    -81.6429962  0.242204E+01  0.458E+00    0.43       1.0  T
  38    -81.7083879 -0.653917E-01  0.448E+00    0.47       1.0  T
  39    -78.3748472  0.333354E+01  0.631E+00    0.16       1.0  T
  40    -84.0719920 -0.569714E+01  0.199E+00    0.04       1.0  T
  41    -82.1819723  0.189002E+01  0.390E+00    0.28       1.0  T
  42    -84.1083009 -0.192633E+01  0.173E+00    1.23       1.0  T
  43    -84.1330089 -0.247081E-01  0.147E+00    2.34       1.0  T
  44    -79.3487013  0.478431E+01  0.658E+00    0.30       1.0  T
  45    -84.1479612 -0.479926E+01  0.121E+00    2.83       1.0  T
  46    -84.1547561 -0.679493E-02  0.108E+00    0.45       1.0  T
  47    -79.4022153  0.475254E+01  0.652E+00    0.21       1.0  T
  48    -79.3534715  0.487438E-01  0.653E+00    0.23       1.0  T
  49    -79.3980371 -0.445656E-01  0.649E+00    0.25       1.0  T
  50    -79.4175203 -0.194832E-01  0.649E+00    0.21       1.0  T
  51    -79.4122063  0.531397E-02  0.649E+00    0.22       1.0  T
  52    -84.1534352 -0.474123E+01  0.111E+00    0.17       1.0  T
  53    -79.3972438  0.475619E+01  0.667E+00    0.13       1.0  T
  54    -79.3581595  0.390843E-01  0.661E+00    0.25       1.0  T
  55    -79.3643709 -0.621136E-02  0.670E+00    0.17       1.0  T
  56    -79.3628712  0.149971E-02  0.671E+00    0.17       1.0  T
  57    -79.3931598 -0.302886E-01  0.663E+00    0.17       1.0  T
  58    -79.4471590 -0.539993E-01  0.642E+00    0.05       1.0  T
  59    -84.1587100 -0.471155E+01  0.898E-01    1.84       1.0  T
  60    -84.1674720 -0.876200E-02  0.533E-01    0.71       1.0  T
  61    -84.1689191 -0.144710E-02  0.436E-01    0.47       1.0  T
  62    -83.0971843  0.107173E+01  0.329E+00    0.01       1.0  T
  63    -84.1700877 -0.107290E+01  0.385E-01    0.05       1.0  T
  64    -79.8196522  0.435044E+01  0.592E+00    0.11       1.0  T
  65    -84.1534306 -0.433378E+01  0.846E-01    3.28       1.0  T
  66    -84.1595755 -0.614497E-02  0.706E-01    2.49       1.0  T
  67    -84.1632518 -0.367626E-02  0.609E-01    1.85       1.0  T
  68    -84.1649868 -0.173500E-02  0.560E-01    1.42       1.0  T
  69    -84.1654872 -0.500370E-03  0.547E-01    1.19       1.0  T
  70    -84.1660565 -0.569330E-03  0.524E-01    1.16       1.0  T
  71    -84.1665642 -0.507710E-03  0.502E-01    1.23       1.0  T
  72    -84.1670568 -0.492576E-03  0.483E-01    1.14       1.0  T
  73    -84.1681326 -0.107584E-02  0.439E-01    0.90       1.0  T
  74    -84.1687897 -0.657064E-03  0.410E-01    0.76       1.0  T
  75    -84.1697073 -0.917626E-03  0.364E-01    0.52       1.0  T
  76    -84.1707007 -0.993359E-03  0.312E-01    0.19       1.0  T
  77    -79.6986143  0.447209E+01  0.599E+00    0.06       1.0  T
  78    -84.1557730 -0.445716E+01  0.764E-01    3.46       1.0  T
  79    -84.1707327 -0.149597E-01  0.285E-01    0.39       1.0  T
  80    -79.8512596  0.431947E+01  0.598E+00    0.13       1.0  T
  81    -84.1324691 -0.428121E+01  0.119E+00    2.61       1.0  T
  82    -84.1521140 -0.196449E-01  0.821E-01    3.33       1.0  T
  83    -84.1585710 -0.645705E-02  0.680E-01    3.17       1.0  T
  84    -84.1653833 -0.681227E-02  0.481E-01    2.05       1.0  T
  85    -84.1684241 -0.304077E-02  0.372E-01    1.28       1.0  T
  86    -84.1699232 -0.149912E-02  0.311E-01    0.75       1.0  T
  87    -84.1709890 -0.106580E-02  0.262E-01    0.32       1.0  T
  88    -83.0832270  0.108776E+01  0.326E+00    0.00       1.0  T
  89    -79.8233357  0.325989E+01  0.601E+00    0.15       1.0  T
  90    -78.2727453  0.155059E+01  0.669E+00    0.33       1.0  T
  91    -82.1565668 -0.388382E+01  0.506E+00    0.39       1.0  T
  92    -84.0876403 -0.193107E+01  0.178E+00    1.38       1.0  T
  93    -84.1569893 -0.693490E-01  0.704E-01    2.20       1.0  T
  94    -84.1617628 -0.477344E-02  0.584E-01    1.84       1.0  T
  95    -84.1667491 -0.498632E-02  0.425E-01    1.49       1.0  T
  96    -84.1712982 -0.454911E-02  0.242E-01    0.07       1.0  T
  97    -79.6795813  0.449172E+01  0.622E+00    0.17       1.0  T
  98    -82.2040751 -0.252449E+01  0.493E+00    0.39       1.0  T
  99    -82.1788969  0.251782E-01  0.456E+00    0.35       1.0  T
 100    -84.1455304 -0.196663E+01  0.909E-01    3.14       1.0  T
 101    -84.1652240 -0.196936E-01  0.489E-01    1.90       1.0  T
 102    -84.1705192 -0.529517E-02  0.282E-01    0.38       1.0  T
 103    -79.8532218  0.431730E+01  0.597E+00    0.13       1.0  T
 104    -84.0389617 -0.418574E+01  0.223E+00    0.08       1.0  T
 105    -84.1415348 -0.102573E+00  0.101E+00    3.08       1.0  T
 106    -84.1622136 -0.206788E-01  0.558E-01    2.52       1.0  T
 107    -84.1688204 -0.660681E-02  0.351E-01    1.06       1.0  T
 108    -84.1712113 -0.239090E-02  0.247E-01    0.18       1.0  T
 109    -79.8796597  0.429155E+01  0.590E+00    0.12       1.0  T
 110    -84.0829105 -0.420325E+01  0.177E+00    1.10       1.0  T
 111    -84.1593821 -0.764716E-01  0.638E-01    2.98       1.0  T
 112    -84.1698774 -0.104953E-01  0.317E-01    0.69       1.0  T
 113    -79.9063393  0.426354E+01  0.589E+00    0.12       1.0  T
 114    -84.1006265 -0.419429E+01  0.160E+00    1.64       1.0  T
 115    -84.1537416 -0.531151E-01  0.767E-01    3.31       1.0  T
 116    -84.1660620 -0.123204E-01  0.465E-01    1.71       1.0  T
 117    -84.1700889 -0.402691E-02  0.315E-01    0.59       1.0  T
 118    -84.1715038 -0.141496E-02  0.247E-01    0.07       1.0  T
 119    -84.1712604  0.243491E-03  0.256E-01    0.15       1.0  T
 120    -79.8948080  0.427645E+01  0.592E+00    0.12       1.0  T
 121    -82.2426911 -0.234788E+01  0.449E+00    0.06       1.0  T
 122    -84.1523027 -0.190961E+01  0.822E-01    3.01       1.0  T
 123    -84.1708029 -0.185001E-01  0.276E-01    0.43       1.0  T
 124    -79.8642498  0.430655E+01  0.597E+00    0.13       1.0  T
 125    -84.0679219 -0.420367E+01  0.196E+00    0.65       1.0  T
 126    -84.1492925 -0.813706E-01  0.853E-01    3.13       1.0  T
 127    -84.1650653 -0.157728E-01  0.485E-01    1.97       1.0  T
 128    -84.1690954 -0.403014E-02  0.347E-01    0.97       1.0  T
 129    -84.1702991 -0.120371E-02  0.296E-01    0.58       1.0  T
 130    -84.1709342 -0.635050E-03  0.265E-01    0.32       1.0  T
 131    -84.1715600 -0.625855E-03  0.235E-01    0.07       1.0  T
 132    -79.8803010  0.429126E+01  0.588E+00    0.08       1.0  T
 133    -84.1266961 -0.424640E+01  0.123E+00    2.38       1.0  T
 134    -84.1636897 -0.369936E-01  0.531E-01    2.24       1.0  T
 135    -84.1707906 -0.710098E-02  0.273E-01    0.35       1.0  T
 136    -79.9159054  0.425489E+01  0.589E+00    0.09       1.0  T
 137    -84.0760531 -0.416015E+01  0.187E+00    0.95       1.0  T
 138    -84.1481928 -0.721396E-01  0.872E-01    3.05       1.0  T
 139    -84.1662350 -0.180422E-01  0.444E-01    1.73       1.0  T
 140    -84.1707056 -0.447060E-02  0.269E-01    0.40       1.0  T
 141    -79.9125020  0.425820E+01  0.588E+00    0.04       1.0  T
 142    -84.0602158 -0.414771E+01  0.201E+00    0.46       1.0  T
 143    -84.1562855 -0.960697E-01  0.707E-01    3.36       1.0  T
 144    -84.1693837 -0.130983E-01  0.328E-01    0.89       1.0  T
 145    -79.9344274  0.423496E+01  0.587E+00    0.03       1.0  T
 146    -84.0668207 -0.413239E+01  0.195E+00    0.64       1.0  T
 147    -84.1546802 -0.878595E-01  0.744E-01    3.29       1.0  T
 148    -84.1685793 -0.138991E-01  0.363E-01    1.13       1.0  T
 149    -84.1715596 -0.298035E-02  0.231E-01    0.07       1.0  T
 150    -79.9004477  0.427111E+01  0.592E+00    0.13       1.0  T
 151    -82.1937107 -0.229326E+01  0.457E+00    0.47       1.0  T
 152    -84.1634870 -0.196978E+01  0.580E-01    1.69       1.0  T
 153    -84.1707860 -0.729896E-02  0.289E-01    0.32       1.0  T
 154    -79.9406100  0.423018E+01  0.586E+00    0.05       1.0  T
 155    -84.1685605 -0.422795E+01  0.400E-01    0.72       1.0  T
 156    -84.1695241 -0.963559E-03  0.348E-01    0.73       1.0  T
 157    -84.1697223 -0.198164E-03  0.322E-01    0.77       1.0  T
 158    -84.1711976 -0.147533E-02  0.243E-01    0.18       1.0  T
 159    -79.9107979  0.426040E+01  0.590E+00    0.06       1.0  T
 160    -84.0628099 -0.415201E+01  0.199E+00    0.51       1.0  T
 161    -84.1528793 -0.900694E-01  0.771E-01    3.24       1.0  T
 162    -84.1673498 -0.144705E-01  0.397E-01    1.44       1.0  T
 163    -84.1705754 -0.322558E-02  0.270E-01    0.44       1.0  T
 164    -84.1713549 -0.779508E-03  0.234E-01    0.12       1.0  T
 165    -83.0774309  0.109392E+01  0.332E+00    0.01       1.0  T
 166    -84.1680612 -0.109063E+01  0.403E-01    0.90       1.0  T
 167    -79.6894598  0.447860E+01  0.626E+00    0.17       1.0  T
 168    -82.0487632 -0.235930E+01  0.505E+00    0.35       1.0  T
 169    -84.1400389 -0.209128E+01  0.106E+00    2.33       1.0  T
 170    -84.1493848 -0.934583E-02  0.841E-01    2.85       1.0  T
 171    -84.1640623 -0.146776E-01  0.493E-01    2.16       1.0  T
 172    -84.1688380 -0.477562E-02  0.339E-01    0.99       1.0  T
 173    -84.1702468 -0.140881E-02  0.286E-01    0.53       1.0  T
 174    -84.1711496 -0.902844E-03  0.247E-01    0.17       1.0  T
 175    -83.1343861  0.103676E+01  0.326E+00    0.01       1.0  T
 176    -74.5864099  0.854798E+01  0.844E+00    0.06       1.0  T
 177    -74.6918284 -0.105418E+00  0.834E+00    0.06       1.0  T
 178    -79.1021206 -0.441029E+01  0.684E+00    0.26       1.0  T
 179    -75.1155782  0.398654E+01  0.873E+00    0.34       1.0  T
 180    -79.7366756 -0.462110E+01  0.683E+00    0.57       1.0  T
 181    -84.1279720 -0.439130E+01  0.145E+00    1.78       1.0  T
 182    -84.1395585 -0.115865E-01  0.105E+00    2.48       1.0  T
 183    -84.1328879  0.667059E-02  0.112E+00    2.24       1.0  T
 184    -84.1451174 -0.122295E-01  0.913E-01    2.75       1.0  T
 185    -84.1550946 -0.997718E-02  0.722E-01    3.19       1.0  T
 186    -84.1616686 -0.657401E-02  0.571E-01    2.58       1.0  T
 187    -84.1667532 -0.508463E-02  0.425E-01    1.48       1.0  T
 188    -84.1698607 -0.310750E-02  0.310E-01    0.58       1.0  T
 189    -84.1617906  0.807008E-02  0.488E-01    0.00       1.0  T
 190    -84.1683316 -0.654099E-02  0.376E-01    0.99       1.0  T
 191    -84.1708240 -0.249242E-02  0.268E-01    0.24       1.0  T
 192    -84.1425734  0.282506E-01  0.671E-01    0.00       1.0  T
 193    -84.1695904 -0.270170E-01  0.328E-01    0.61       1.0  T
 194    -84.1708300 -0.123957E-02  0.268E-01    0.23       1.0  T
 195    -84.1719953 -0.116534E-02  0.236E-01    0.03       1.0  T
 196    -84.1719479  0.474641E-04  0.237E-01    0.04       1.0  T
 197    -84.1717509  0.196978E-03  0.240E-01    0.04       1.0  T
 198    -80.1641304  0.400762E+01  0.585E+00    0.04       1.0  T
 199    -84.0991769 -0.393505E+01  0.179E+00    1.55       1.0  T
 200    -84.1481948 -0.490179E-01  0.871E-01    2.92       1.0  T
 201    -84.1676247 -0.194299E-01  0.395E-01    1.17       1.0  T
 202    -84.1723829 -0.475821E-02  0.242E-01    0.02       1.0  T
 203    -84.1771572 -0.477429E-02  0.183E-01    0.01       1.0  T
 204    -84.1707745  0.638271E-02  0.265E-01    0.19       1.0  T
 205    -80.5229576  0.364782E+01  0.558E+00    0.00       1.0  T
 206    -78.9132088  0.160975E+01  0.682E+00    0.17       1.0  T
 207    -82.2206692 -0.330746E+01  0.442E+00    0.06       1.0  T
 208    -84.1367169 -0.191605E+01  0.110E+00    1.65       1.0  T
 209    -79.5636288  0.457309E+01  0.618E+00    0.11       1.0  T
 210    -66.6088764  0.129548E+02  0.104E+01    2.66       1.0  T
 211    -66.6226323 -0.137559E-01  0.103E+01    2.74       1.0  T
 212    -66.6303576 -0.772526E-02  0.103E+01    2.79       1.0  T
 213    -66.6328312 -0.247364E-02  0.103E+01    2.81       1.0  T
 214    -66.7054754 -0.726442E-01  0.102E+01    3.16       1.0  T
 215    -66.7074511 -0.197569E-02  0.102E+01    3.16       1.0  T
 216    -66.7457200 -0.382690E-01  0.101E+01    3.06       1.0  T
 217    -66.8316455 -0.859255E-01  0.995E+00    2.65       1.0  T
 218    -66.9232843 -0.916389E-01  0.971E+00    1.66       1.0  T
 219    -74.2040321 -0.728075E+01  0.872E+00    0.43       1.0  T
 220    -79.4261153 -0.522208E+01  0.661E+00    0.16       1.0  T
 221    -74.2123216  0.521379E+01  0.883E+00    0.48       1.0  T
 222    -74.6101427 -0.397821E+00  0.865E+00    0.10       1.0  T
 223    -84.0709351 -0.946079E+01  0.183E+00    0.01       1.0  T
 224    -79.3039744  0.476696E+01  0.651E+00    0.15       1.0  T
 225    -84.1343952 -0.483042E+01  0.119E+00    2.53       1.0  T
 226    -79.7212794  0.441312E+01  0.632E+00    0.10       1.0  T
 227    -74.8632889  0.485799E+01  0.803E+00    0.22       1.0  T
 228    -77.7325902 -0.286930E+01  0.717E+00    0.10       1.0  T
 229    -75.1662974  0.256629E+01  0.876E+00    0.02       1.0  T
 230    -82.2027490 -0.703645E+01  0.477E+00    0.31       1.0  T
 231    -75.4420110  0.676074E+01  0.848E+00    0.22       1.0  T
 232    -79.2049217 -0.376291E+01  0.678E+00    0.31       1.0  T
 233    -74.7334138  0.447151E+01  0.839E+00    0.05       1.0  T
 234    -84.1489014 -0.941549E+01  0.883E-01    2.13       1.0  T
 235    -84.1683502 -0.194488E-01  0.425E-01    0.42       1.0  T
 236    -78.9997147  0.516864E+01  0.691E+00    0.51       1.0  T
 237    -84.1452094 -0.514549E+01  0.100E+00    2.57       1.0  T
 238    -84.1558610 -0.106516E-01  0.678E-01    2.40       1.0  T
 239    -84.1659775 -0.101164E-01  0.415E-01    0.56       1.0  T
 240    -82.8812675  0.128471E+01  0.418E+00    0.01       1.0  T
 241    -74.4478929  0.843337E+01  0.874E+00    0.06       1.0  T
 242    -84.1513634 -0.970347E+01  0.858E-01    1.60       1.0  T
 243    -84.1695977 -0.182343E-01  0.410E-01    0.10       1.0  T
 244    -79.1947856  0.497481E+01  0.676E+00    0.39       1.0  T
 245    -84.1496622 -0.495488E+01  0.861E-01    2.72       1.0  T
 246    -84.1575454 -0.788323E-02  0.637E-01    2.57       1.0  T
 247    -84.1660109 -0.846552E-02  0.426E-01    0.96       1.0  T
 248    -80.0039506  0.416206E+01  0.649E+00    0.01       1.0  T
 249    -74.5544901  0.544946E+01  0.854E+00    0.03       1.0  T
 250    -79.1045108 -0.455002E+01  0.683E+00    0.59       1.0  T

   *** convergence criteria cannot be satisfied within 250 iterations ***

         #    Occupation            Energy/Eh            Energy/eV
      -------------------------------------------------------------
         1        2.0000           -0.8612446             -23.4357
       ...           ...                  ...                  ...
        68        2.0000           -0.3840872             -10.4515
        69        2.0000           -0.3686739             -10.0321
        70        2.0000           -0.3508092              -9.5460
        71        2.0000           -0.3402084              -9.2575
        72        2.0000           -0.2741232              -7.4593
        73        2.0000           -0.2402228              -6.5368
        74        2.0000           -0.2329950              -6.3401 (HOMO)
        75                         -0.2113472              -5.7511 (LUMO)
        76                         -0.2090665              -5.6890
        77                         -0.2071736              -5.6375
        78                         -0.1306888              -3.5562
        79                         -0.1304094              -3.5486
       ...                                ...                  ...
       135                          0.6582963              17.9132
      -------------------------------------------------------------
                  HL-Gap            0.0216478 Eh            0.5891 eV
             Fermi-level            0.0000000 Eh            0.0000 eV

 SCC (total)                   0 d,  0 h,  0 min,  2.608 sec
 SCC setup                      ...        0 min,  0.001 sec (  0.038%)
 Dispersion                     ...        0 min,  0.002 sec (  0.077%)
 classical contributions        ...        0 min,  0.000 sec (  0.000%)
 integral evaluation            ...        0 min,  0.020 sec (  0.767%)
 iterations                     ...        0 min,  2.530 sec ( 97.009%)
 molecular gradient             ...        0 min,  0.055 sec (  2.109%)
 printout                       ...        0 min,  0.000 sec (  0.000%)

########################################################################
[ERROR] Program stopped due to fatal error
-3- Single point calculation terminated
-2- xtb_calculator_singlepoint: Electronic structure method terminated
-1- scf: Self consistent charge iterator did not converge
########################################################################


===== STDERR =====

abnormal termination of xtb
