57
 energy: -83.439026043361 gnorm: 0.000271668330 xtb: 6.7.1pre (5071a88)
N           -0.46803519459790       -0.63367887069697       -0.21904546437839
C            0.90582140209348       -0.56930956309977       -0.12903283056236
C            1.50688436378413        0.15905895865592        0.89993645171224
C            2.87429830870475        0.32838218293400        0.93044240852339
C            3.68982615756826       -0.22424711903714       -0.05143284763885
C            3.09176327604207       -0.96637518295136       -1.06202844564385
C            1.72229051403853       -1.14050364128975       -1.10505944166025
C            5.17123236613509        0.02166075773643       -0.04387584857865
C            5.49979458755410        1.41463030419130       -0.58846608820041
C           -1.21490389026456        1.30492142553341       -1.54592766964608
C            0.07067227904067        1.96264774173788       -1.37075950965161
C            0.27386266609791        2.87139682374261       -0.41379155722684
C            1.55125725227007        3.58053013499659       -0.15886327494636
C            1.42406964862445        5.08114016258583       -0.45681566171406
C            2.72664807760434        5.81173749020364       -0.15891649903871
O           -2.23568504281891        1.59563860795194       -0.94647468543405
O           -4.12309341095600        0.35951461854579        0.56855563721349
H           -0.97414764714998       -0.47267473311928        0.65085038517608
H           -0.83802742877585       -1.39325911520393       -0.77026493759568
H            0.87959894553061        0.58227340588621        1.66948740413571
H            3.32381968071862        0.89453652762848        1.73370208749054
H            3.70619057621510       -1.43264640376175       -1.82145216227136
H            1.27425490917055       -1.72116836282799       -1.89982318465029
H            5.69380162792527       -0.71704112351153       -0.65453252325656
H            5.56976226605296       -0.04584153478421        0.96923742150226
H            5.10494708230361        2.19468874659228        0.07455361161585
H            4.61369123254416        0.75590457528289       -2.38098921228992
H            6.63098108516520        3.57151867903603       -1.04675439742486
H           -1.24960913332711        0.57282291463359       -2.37204951643822
H            0.87043937244600        1.65490414984584       -2.02824697230044
H           -0.56274661806096        3.13722996009308        0.22029207413026
H            1.81936091047826        3.45818278508432        0.89365734947881
H            2.35061623775461        3.15630158788902       -0.76775330089999
H            1.16325932804170        5.21136960926481       -1.50913270873533
H            0.61408106479944        5.50270422392441        0.14269697073135
H            2.63805179889775        6.86507754583673       -0.41395076458987
H            2.97473856394181        5.73406139223105        0.89756463564156
H            3.54162230731296        5.38273269873151       -0.73662609278318
H           -4.66122498472600        1.08471160461604        0.89146282006855
H           -3.52067180350444        0.75349451221496       -0.08991688103302
O           -2.08188441095399       -0.46145395979391        2.15993269231885
H           -2.33711723728729       -1.27274468317775        2.60130757683247
H           -2.87103827497254       -0.16145696421650        1.66239892229858
N            4.87373854831499        1.59553461208121       -1.88764705948955
C            7.02906836964584        1.60654143373300       -0.71117528063631
O            7.81515267850520        0.68495177287000       -0.63678934238712
C            3.79816284319225        2.74378386695162       -3.70120523452560
C            4.55916607438229        2.79808047494523       -2.39701915114762
O            4.87194259288529        3.84347599128958       -1.84810042895536
H            2.91836664719146        2.11188230023086       -3.60166767649021
H            4.43622237127208        2.33410362678153       -4.48177279623591
H            3.49395207013767        3.74791560423785       -3.98226730536609
N            7.37001679958412        2.88966827554090       -0.90383327349715
C            8.73531914470865        3.30757834961717       -1.10666596992806
H            9.00061884125756        4.08754972164008       -0.39152602876007
H            8.87865794177067        3.69013741463390       -2.11938172492191
H            9.37616226576129        2.44042368495561       -0.95404469804060
